<?xml version="1.0"?>
<VTKFile type="UnstructuredGrid" version="0.1" byte_order="LittleEndian">
<UnstructuredGrid>
<Piece NumberOfPoints="31855" NumberOfCells="11197">
<Points>
<DataArray type="Float64" NumberOfComponents="3" format="ascii">
-0.5 -0.5 0 -0.47544589962004319 -0.46906165701027358 0 -0.5 -0.43825971655384077 0 -0.5 -0.5 0 -0.47544589962004319 -0.46906165701027358 0 -0.45557245099849908 -0.5 0 -0.45557245099849908 -0.5 0 -0.45027845627324509 -0.47425029269528007 0 -0.41173285960140382 -0.4920568552127873 0 -0.47544589962004319 -0.46906165701027358 0 -0.45557245099849908 -0.5 0 -0.45027845627324509 -0.47425029269528007 0 -0.44270073342592381 -0.44907784897443809 0 -0.4473403140130966 -0.43208919884800923 0 -0.42845713400988 -0.44376566272795692 0 -0.44270073342592381 -0.44907784897443809 0 -0.46740701255847411 -0.44403074993066027 0 -0.4473403140130966 -0.43208919884800923 0 -0.45027845627324509 -0.47425029269528007 0 -0.44270073342592381 -0.44907784897443809 0 -0.42465530609303809 -0.46837424119173199 0 -0.47544589962004319 -0.46906165701027358 0 -0.45027845627324509 -0.47425029269528007 0 -0.46740701255847411 -0.44403074993066027 0 -0.45027845627324509 -0.47425029269528007 0 -0.44270073342592381 -0.44907784897443809 0 -0.46740701255847411 -0.44403074993066027 0 -0.47544589962004319 -0.46906165701027358 0 -0.46740701255847411 -0.44403074993066027 0 -0.5 -0.43825971655384077 0 -0.46740701255847411 -0.44403074993066027 0 -0.5 -0.43825971655384077 0 -0.47945668856220608 -0.41862217385024558 0 -0.5 -0.43825971655384077 0 -0.47945668856220608 -0.41862217385024558 0 -0.49999999999999789 -0.38341502480055339 0 -0.47945668856220608 -0.41862217385024558 0 -0.49999999999999789 -0.38341502480055339 0 -0.48238377651037512 -0.39240587809295618 0 -0.49999999999999789 -0.38341502480055339 0 -0.48238377651037512 -0.39240587809295618 0 -0.48599255454601709 -0.37424344971113283 0 -0.49999999999999789 -0.38341502480055339 0 -0.48599255454601709 -0.37424344971113283 0 -0.47945668856220608 -0.41862217385024558 0 -0.48238377651037512 -0.39240587809295618 0 -0.46647141912868378 -0.39334286400989321 0 -0.48238377651037512 -0.39240587809295618 0 -0.46647141912868378 -0.39334286400989321 0 -0.48599255454601709 -0.37424344971113283 0 -0.46647141912868378 -0.39334286400989321 0 -0.48599255454601709 -0.37424344971113283 0 -0.47189087427263132 -0.37663550417099928 0 -0.46647141912868378 -0.39334286400989321 0 -0.48599255454601709 -0.37424344971113283 0 -0.46347773589691338 -0.37605314335579332 0 -0.45197703600827788 -0.38936486827753131 0 -0.44464059646223691 -0.37415060920408721 0 -0.47189087427263132 -0.37663550417099928 0 -0.46347773589691338 -0.37605314335579332 0 -0.46647141912868378 -0.39334286400989321 0 -0.46347773589691338 -0.37605314335579332 0 -0.46647141912868378 -0.39334286400989321 0 -0.45197703600827788 -0.38936486827753131 0 -0.46647141912868378 -0.39334286400989321 0 -0.45197703600827788 -0.38936486827753131 0 -0.44695028371134998 -0.41244227830865299 0 -0.46647141912868378 -0.39334286400989321 0 -0.44695028371134998 -0.41244227830865299 0 -0.43834514484220538 -0.39083544650922919 0 -0.45197703600827788 -0.38936486827753131 0 -0.44695028371134998 -0.41244227830865299 0 -0.43834514484220538 -0.39083544650922919 0 -0.44695028371134998 -0.41244227830865299 0 -0.43025890904714692 -0.40875899809489441 0 -0.43834514484220538 -0.39083544650922919 0 -0.45197703600827788 -0.38936486827753131 0 -0.44464059646223691 -0.37415060920408721 0 -0.47945668856220608 -0.41862217385024558 0 -0.46647141912868378 -0.39334286400989321 0 -0.44695028371134998 -0.41244227830865299 0 -0.46740701255847411 -0.44403074993066027 0 -0.47945668856220608 -0.41862217385024558 0 -0.4473403140130966 -0.43208919884800923 0 -0.47945668856220608 -0.41862217385024558 0 -0.44695028371134998 -0.41244227830865299 0 -0.4473403140130966 -0.43208919884800923 0 -0.44695028371134998 -0.41244227830865299 0 -0.4473403140130966 -0.43208919884800923 0 -0.42742914829401629 -0.43154169260741299 0 -0.44695028371134998 -0.41244227830865299 0 -0.42742914829401629 -0.43154169260741299 0 -0.4473403140130966 -0.43208919884800923 0 -0.42742914829401629 -0.43154169260741299 0 -0.42845713400988 -0.44376566272795692 0 -0.42742914829401629 -0.43154169260741299 0 -0.43025890904714692 -0.40875899809489441 0 -0.41666672290202877 -0.41912340917851831 0 -0.43025890904714692 -0.40875899809489441 0 -0.41666672290202877 -0.41912340917851831 0 -0.42149602710815359 -0.39408315258476662 0 -0.44695028371134998 -0.41244227830865299 0 -0.42742914829401629 -0.43154169260741299 0 -0.43025890904714692 -0.40875899809489441 0 -0.41666672290202877 -0.41912340917851831 0 -0.42149602710815359 -0.39408315258476662 0 -0.41666672290202877 -0.41912340917851831 0 -0.41011272358218998 -0.40594236012380169 0 -0.401768557813307 -0.42281830855747388 0 -0.41666672290202877 -0.41912340917851831 0 -0.41011272358218998 -0.40594236012380169 0 -0.42149602710815359 -0.39408315258476662 0 -0.41666672290202877 -0.41912340917851831 0 -0.41188069054236642 -0.43517571126800708 0 -0.401768557813307 -0.42281830855747388 0 -0.42742914829401629 -0.43154169260741299 0 -0.41666672290202877 -0.41912340917851831 0 -0.41188069054236642 -0.43517571126800708 0 -0.43834514484220538 -0.39083544650922919 0 -0.44464059646223691 -0.37415060920408721 0 -0.42632533131427852 -0.36904289599101497 0 -0.43834514484220538 -0.39083544650922919 0 -0.42149602710815359 -0.39408315258476662 0 -0.42632533131427852 -0.36904289599101497 0 -0.42149602710815359 -0.39408315258476662 0 -0.42632533131427852 -0.36904289599101497 0 -0.43834514484220538 -0.39083544650922919 0 -0.43025890904714692 -0.40875899809489441 0 -0.42149602710815359 -0.39408315258476662 0 -0.41011272358218998 -0.40594236012380169 0 -0.42149602710815359 -0.39408315258476662 0 -0.3985976555374387 -0.39482976714360368 0 -0.42149602710815359 -0.39408315258476662 0 -0.41009533864766162 -0.3788985754615451 0 -0.3985976555374387 -0.39482976714360368 0 -0.42149602710815359 -0.39408315258476662 0 -0.41009533864766162 -0.3788985754615451 0 -0.42632533131427852 -0.36904289599101497 0 -0.3985976555374387 -0.39482976714360368 0 -0.39542675326157051 -0.36684122572973349 0 -0.3985976555374387 -0.39482976714360368 0 -0.37920478159876991 -0.38285295053158652 0 -0.39542675326157051 -0.36684122572973349 0 -0.41009533864766162 -0.3788985754615451 0 -0.3985976555374387 -0.39482976714360368 0 -0.39542675326157051 -0.36684122572973349 0 -0.3985976555374387 -0.39482976714360368 0 -0.37746814703235582 -0.40557984640721639 0 -0.37920478159876991 -0.38285295053158652 0 -0.3985976555374387 -0.39482976714360368 0 -0.37746814703235582 -0.40557984640721639 0 -0.3894517632753518 -0.41249970266339581 0 -0.41188069054236642 -0.43517571126800708 0 -0.401768557813307 -0.42281830855747388 0 -0.40493946008917531 -0.45080684997134429 0 -0.401768557813307 -0.42281830855747388 0 -0.39518337331984388 -0.43773825405166528 0 -0.40493946008917531 -0.45080684997134429 0 -0.401768557813307 -0.42281830855747388 0 -0.3799726927183058 -0.42677088854528877 0 -0.39518337331984388 -0.43773825405166528 0 -0.401768557813307 -0.42281830855747388 0 -0.40493946008917531 -0.45080684997134429 0 -0.41011272358218998 -0.40594236012380169 0 -0.3985976555374387 -0.39482976714360368 0 -0.401768557813307 -0.42281830855747388 0 -0.3985976555374387 -0.39482976714360368 0 -0.401768557813307 -0.42281830855747388 0 -0.3894517632753518 -0.41249970266339581 0 -0.3985976555374387 -0.39482976714360368 0 -0.401768557813307 -0.42281830855747388 0 -0.401768557813307 -0.42281830855747388 0 -0.3894517632753518 -0.41249970266339581 0 -0.3799726927183058 -0.42677088854528877 0 -0.37746814703235582 -0.40557984640721639 0 -0.3799726927183058 -0.42677088854528877 0 -0.37746814703235582 -0.40557984640721639 0 -0.3894517632753518 -0.41249970266339581 0 -0.3799726927183058 -0.42677088854528877 0 -0.3799726927183058 -0.42677088854528877 0 -0.38247723840425579 -0.44796193068336132 0 -0.3799726927183058 -0.42677088854528877 0 -0.38247723840425579 -0.44796193068336132 0 -0.36431448118181409 -0.43507547628127141 0 -0.3799726927183058 -0.42677088854528877 0 -0.38247723840425579 -0.44796193068336132 0 -0.39518337331984388 -0.43773825405166528 0 -0.38247723840425579 -0.44796193068336132 0 -0.39518337331984388 -0.43773825405166528 0 -0.39613610401984001 -0.44742404961220228 0 -0.38247723840425579 -0.44796193068336132 0 -0.39613610401984001 -0.44742404961220228 0 -0.39356687682544539 -0.45404139263999471 0 -0.3981769259451351 -0.4528792749724122 0 -0.39613610401984001 -0.44742404961220228 0 -0.39356687682544539 -0.45404139263999471 0 -0.3981769259451351 -0.4528792749724122 0 -0.39613610401984001 -0.44742404961220228 0 -0.40493946008917531 -0.45080684997134429 0 -0.39518337331984388 -0.43773825405166528 0 -0.39613610401984001 -0.44742404961220228 0 -0.40493946008917531 -0.45080684997134429 0 -0.40493946008917531 -0.45080684997134429 0 -0.40006526346073201 -0.46553295273414891 0 -0.40811036236504361 -0.4787953913852146 0 -0.40493946008917531 -0.45080684997134429 0 -0.40006526346073201 -0.46553295273414891 0 -0.39780101910600901 -0.45758414185046647 0 -0.3981769259451351 -0.4528792749724122 0 -0.40493946008917531 -0.45080684997134429 0 -0.39780101910600901 -0.45758414185046647 0 -0.3981769259451351 -0.4528792749724122 0 -0.39780101910600901 -0.45758414185046647 0 -0.39356687682544539 -0.45404139263999471 0 -0.39780101910600901 -0.45758414185046647 0 -0.39356687682544539 -0.45404139263999471 0 -0.39172808172941531 -0.46133890730315019 0 -0.40006526346073201 -0.46553295273414891 0 -0.39172808172941531 -0.46133890730315019 0 -0.38498178409020672 -0.46915297282143359 0 -0.40006526346073201 -0.46553295273414891 0 -0.39780101910600901 -0.45758414185046647 0 -0.39172808172941531 -0.46133890730315019 0 -0.38498178409020672 -0.46915297282143359 0 -0.36580793536190481 -0.45273660197014259 0 -0.38247723840425579 -0.44796193068336132 0 -0.39172808172941531 -0.46133890730315019 0 -0.38498178409020672 -0.46915297282143359 0 -0.38247723840425579 -0.44796193068336132 0 -0.38498178409020672 -0.46915297282143359 0 -0.38247723840425579 -0.44796193068336132 0 -0.38498178409020672 -0.46915297282143359 0 -0.36580793536190481 -0.45273660197014259 0 -0.38247723840425579 -0.44796193068336132 0 -0.39356687682544539 -0.45404139263999471 0 -0.39172808172941531 -0.46133890730315019 0 -0.38498178409020672 -0.46915297282143359 0 -0.3868046719958852 -0.48457648641071738 0 -0.39618350166341232 -0.48947616297661328 0 -0.37691040182153618 -0.476868541086236 0 -0.38498178409020672 -0.46915297282143359 0 -0.36799842701508162 -0.47103179559871983 0 -0.37691040182153618 -0.476868541086236 0 -0.3868046719958852 -0.48457648641071738 0 -0.36912986280332549 -0.48413049737966518 0 -0.37691040182153618 -0.476868541086236 0 -0.38498178409020672 -0.46915297282143359 0 -0.3868046719958852 -0.48457648641071738 0 -0.38498178409020672 -0.46915297282143359 0 -0.3868046719958852 -0.48457648641071738 0 -0.3868046719958852 -0.48457648641071738 0 -0.37451453420767022 -0.4934463617254079 0 -0.36912986280332549 -0.48413049737966518 0 -0.3868046719958852 -0.48457648641071738 0 -0.38862755990156461 -0.500000000000001 0 -0.39618350166341232 -0.48947616297661328 0 -0.3868046719958852 -0.48457648641071738 0 -0.38862755990156461 -0.500000000000001 0 -0.3868046719958852 -0.48457648641071738 0 -0.38862755990156461 -0.500000000000001 0 -0.37451453420767022 -0.4934463617254079 0 -0.39507981208382731 -0.49999999999999972 0 -0.41173285960140382 -0.4920568552127873 0 -0.40660987876015259 -0.48767063340902578 0 -0.38862755990156461 -0.500000000000001 0 -0.39507981208382731 -0.49999999999999972 0 -0.39618350166341232 -0.48947616297661328 0 -0.39507981208382731 -0.49999999999999972 0 -0.40660987876015259 -0.48767063340902578 0 -0.39507981208382731 -0.49999999999999972 0 -0.39618350166341232 -0.48947616297661328 0 -0.40660987876015259 -0.48767063340902578 0 -0.38498178409020672 -0.46915297282143359 0 -0.40811036236504361 -0.4787953913852146 0 -0.40660987876015259 -0.48767063340902578 0 -0.38498178409020672 -0.46915297282143359 0 -0.39618350166341232 -0.48947616297661328 0 -0.40660987876015259 -0.48767063340902578 0 -0.38498178409020672 -0.46915297282143359 0 -0.40660987876015259 -0.48767063340902578 0 -0.40006526346073201 -0.46553295273414891 0 -0.38498178409020672 -0.46915297282143359 0 -0.40811036236504361 -0.4787953913852146 0 -0.40660987876015259 -0.48767063340902578 0 -0.42465530609303809 -0.46837424119173199 0 -0.45557245099849908 -0.5 0 -0.39507981208382731 -0.49999999999999972 0 -0.41173285960140382 -0.4920568552127873 0 -0.45027845627324509 -0.47425029269528007 0 -0.41173285960140382 -0.4920568552127873 0 -0.42465530609303809 -0.46837424119173199 0 -0.40811036236504361 -0.4787953913852146 0 -0.40660987876015259 -0.48767063340902578 0 -0.42465530609303809 -0.46837424119173199 0 -0.40811036236504361 -0.4787953913852146 0 -0.42465530609303809 -0.46837424119173199 0 -0.41228270276198542 -0.46407810670470012 0 -0.41173285960140382 -0.4920568552127873 0 -0.40660987876015259 -0.48767063340902578 0 -0.42465530609303809 -0.46837424119173199 0 -0.41173285960140382 -0.4920568552127873 0 -0.40660987876015259 -0.48767063340902578 0 -0.44270073342592381 -0.44907784897443809 0 -0.42465530609303809 -0.46837424119173199 0 -0.42068546343971158 -0.45534869149620089 0 -0.44270073342592381 -0.44907784897443809 0 -0.42465530609303809 -0.46837424119173199 0 -0.44270073342592381 -0.44907784897443809 0 -0.42845713400988 -0.44376566272795692 0 -0.42068546343971158 -0.45534869149620089 0 -0.42742914829401629 -0.43154169260741299 0 -0.42845713400988 -0.44376566272795692 0 -0.41915222653979689 -0.44774745376479941 0 -0.42845713400988 -0.44376566272795692 0 -0.41915222653979689 -0.44774745376479941 0 -0.42068546343971158 -0.45534869149620089 0 -0.42742914829401629 -0.43154169260741299 0 -0.40790801287668249 -0.45064110690617287 0 -0.41188069054236642 -0.43517571126800708 0 -0.40493946008917531 -0.45080684997134429 0 -0.40790801287668249 -0.45064110690617287 0 -0.42742914829401629 -0.43154169260741299 0 -0.41188069054236642 -0.43517571126800708 0 -0.40790801287668249 -0.45064110690617287 0 -0.42742914829401629 -0.43154169260741299 0 -0.41915222653979689 -0.44774745376479941 0 -0.40790801287668249 -0.45064110690617287 0 -0.41915222653979689 -0.44774745376479941 0 -0.40790801287668249 -0.45064110690617287 0 -0.41283767914321012 -0.45695511575726189 0 -0.40493946008917531 -0.45080684997134429 0 -0.40790801287668249 -0.45064110690617287 0 -0.41283767914321012 -0.45695511575726189 0 -0.40493946008917531 -0.45080684997134429 0 -0.40811036236504361 -0.4787953913852146 0 -0.41228270276198542 -0.46407810670470012 0 -0.40493946008917531 -0.45080684997134429 0 -0.40811036236504361 -0.4787953913852146 0 -0.40493946008917531 -0.45080684997134429 0 -0.41283767914321012 -0.45695511575726189 0 -0.41228270276198542 -0.46407810670470012 0 -0.42465530609303809 -0.46837424119173199 0 -0.41228270276198542 -0.46407810670470012 0 -0.41761528785948632 -0.46118903878747369 0 -0.42465530609303809 -0.46837424119173199 0 -0.41761528785948632 -0.46118903878747369 0 -0.42068546343971158 -0.45534869149620089 0 -0.41283767914321012 -0.45695511575726189 0 -0.41761528785948632 -0.46118903878747369 0 -0.42068546343971158 -0.45534869149620089 0 -0.41915222653979689 -0.44774745376479941 0 -0.41283767914321012 -0.45695511575726189 0 -0.42068546343971158 -0.45534869149620089 0 -0.41283767914321012 -0.45695511575726189 0 -0.41228270276198542 -0.46407810670470012 0 -0.41761528785948632 -0.46118903878747369 0 -0.43756377598948099 -0.25291960467424568 0 -0.45552337312565178 -0.2709338439706126 0 -0.45557434351230569 -0.25093383716493078 0 -0.45552337312565178 -0.2709338439706126 0 -0.44028828029101619 -0.28277155262679099 0 -0.45230969018113337 -0.28662410714758779 0 -0.43756377598948099 -0.25291960467424568 0 -0.44028828029101619 -0.28277155262679099 0 -0.43756377598948099 -0.25291960467424568 0 -0.45552337312565178 -0.2709338439706126 0 -0.44028828029101619 -0.28277155262679099 0 -0.45552337312565178 -0.2709338439706126 0 -0.46401297578671519 -0.28578777052983778 0 -0.45230969018113337 -0.28662410714758779 0 -0.45552337312565178 -0.2709338439706126 0 -0.47162727054304637 -0.27483314691371269 0 -0.46401297578671519 -0.28578777052983778 0 -0.45552337312565178 -0.2709338439706126 0 -0.46944492644698449 -0.26232671860507928 0 -0.47162727054304637 -0.27483314691371269 0 -0.45552337312565178 -0.2709338439706126 0 -0.45557434351230569 -0.25093383716493078 0 -0.46944492644698449 -0.26232671860507928 0 -0.45557434351230569 -0.25093383716493078 0 -0.46944492644698449 -0.26232671860507928 0 -0.46880928642042569 -0.24775111837086261 0 -0.46944492644698449 -0.26232671860507928 0 -0.48429943064808267 -0.25096834778857868 0 -0.48495496092644441 -0.2742382248587007 0 -0.46944492644698449 -0.26232671860507928 0 -0.48429943064808267 -0.25096834778857868 0 -0.46880928642042569 -0.24775111837086261 0 -0.48429943064808267 -0.25096834778857868 0 -0.5 -0.2707316274203968 0 -0.5 -0.24079596608444509 0 -0.48429943064808267 -0.25096834778857868 0 -0.48495496092644441 -0.2742382248587007 0 -0.48429943064808267 -0.25096834778857868 0 -0.5 -0.2707316274203968 0 -0.48495496092644441 -0.2742382248587007 0 -0.48495496092644441 -0.2742382248587007 0 -0.47162727054304637 -0.27483314691371269 0 -0.48190593290169742 -0.29347072803598129 0 -0.46944492644698449 -0.26232671860507928 0 -0.48495496092644441 -0.2742382248587007 0 -0.47162727054304637 -0.27483314691371269 0 -0.47162727054304637 -0.27483314691371269 0 -0.48190593290169742 -0.29347072803598129 0 -0.46401297578671519 -0.28578777052983778 0 -0.48190593290169742 -0.29347072803598129 0 -0.46880753548345888 -0.29798728376801731 0 -0.46401297578671519 -0.28578777052983778 0 -0.5 -0.2707316274203968 0 -0.48495496092644441 -0.2742382248587007 0 -0.5 -0.30066728875634863 0 -0.48495496092644441 -0.2742382248587007 0 -0.48190593290169742 -0.29347072803598129 0 -0.5 -0.30066728875634863 0 -0.48190593290169742 -0.29347072803598129 0 -0.5 -0.30066728875634863 0 -0.48017314266491667 -0.31248704372629882 0 -0.48190593290169742 -0.29347072803598129 0 -0.48017314266491667 -0.31248704372629882 0 -0.46880753548345888 -0.29798728376801731 0 -0.48017314266491667 -0.31248704372629882 0 -0.46880753548345888 -0.29798728376801731 0 -0.46126176367386812 -0.30886673599625919 0 -0.46126176367386812 -0.30886673599625919 0 -0.45795985091430241 -0.29511416907577043 0 -0.44376397078798158 -0.29851319953492722 0 -0.46880753548345888 -0.29798728376801731 0 -0.46126176367386812 -0.30886673599625919 0 -0.45795985091430241 -0.29511416907577043 0 -0.46880753548345888 -0.29798728376801731 0 -0.46401297578671519 -0.28578777052983778 0 -0.45795985091430241 -0.29511416907577043 0 -0.46401297578671519 -0.28578777052983778 0 -0.45795985091430241 -0.29511416907577043 0 -0.45230969018113337 -0.28662410714758779 0 -0.45795985091430241 -0.29511416907577043 0 -0.45230969018113337 -0.28662410714758779 0 -0.44376397078798158 -0.29851319953492722 0 -0.44028828029101619 -0.28277155262679099 0 -0.45230969018113337 -0.28662410714758779 0 -0.44376397078798158 -0.29851319953492722 0 -0.44028828029101619 -0.28277155262679099 0 -0.44301278459255128 -0.31262350057933608 0 -0.44376397078798158 -0.29851319953492722 0 -0.44301278459255128 -0.31262350057933608 0 -0.45050749563989079 -0.32503743451907791 0 -0.44028828029101619 -0.28277155262679099 0 -0.44376397078798158 -0.29851319953492722 0 -0.44301278459255128 -0.31262350057933608 0 -0.44376397078798158 -0.29851319953492722 0 -0.45050749563989079 -0.32503743451907791 0 -0.46126176367386812 -0.30886673599625919 0 -0.44376397078798158 -0.29851319953492722 0 -0.45050749563989079 -0.32503743451907791 0 -0.44301278459255128 -0.31262350057933608 0 -0.44573728889408731 -0.34247544853188122 0 -0.44301278459255128 -0.31262350057933608 0 -0.45050749563989079 -0.32503743451907791 0 -0.44573728889408731 -0.34247544853188122 0 -0.44301278459255128 -0.31262350057933608 0 -0.44573728889408731 -0.34247544853188122 0 -0.43717924000024633 -0.33572174555790579 0 -0.45050749563989079 -0.32503743451907791 0 -0.44573728889408731 -0.34247544853188122 0 -0.45725102049180122 -0.35156166950322831 0 -0.44573728889408731 -0.34247544853188122 0 -0.43717924000024633 -0.33572174555790579 0 -0.44573728889408731 -0.34247544853188122 0 -0.43115463552040328 -0.34400263939726328 0 -0.43717924000024633 -0.33572174555790579 0 -0.45050749563989079 -0.32503743451907791 0 -0.46527373310130349 -0.33488114902923388 0 -0.45725102049180122 -0.35156166950322831 0 -0.45050749563989079 -0.32503743451907791 0 -0.45725102049180122 -0.35156166950322831 0 -0.46126176367386812 -0.30886673599625919 0 -0.45050749563989079 -0.32503743451907791 0 -0.46505694536722619 -0.32227034662727178 0 -0.45050749563989079 -0.32503743451907791 0 -0.46527373310130349 -0.33488114902923388 0 -0.46505694536722619 -0.32227034662727178 0 -0.48017314266491667 -0.31248704372629882 0 -0.46126176367386812 -0.30886673599625919 0 -0.46505694536722619 -0.32227034662727178 0 -0.48017314266491667 -0.31248704372629882 0 -0.46505694536722619 -0.32227034662727178 0 -0.47603400774572491 -0.33019657799454211 0 -0.48017314266491667 -0.31248704372629882 0 -0.5 -0.33060295009230029 0 -0.47603400774572491 -0.33019657799454211 0 -0.5 -0.30066728875634863 0 -0.48017314266491667 -0.31248704372629882 0 -0.5 -0.33060295009230029 0 -0.5 -0.33060295009230029 0 -0.47603400774572491 -0.33019657799454211 0 -0.47751919626187489 -0.34533971650204942 0 -0.46527373310130349 -0.33488114902923388 0 -0.46505694536722619 -0.32227034662727178 0 -0.47603400774572491 -0.33019657799454211 0 -0.46527373310130349 -0.33488114902923388 0 -0.47603400774572491 -0.33019657799454211 0 -0.47751919626187489 -0.34533971650204942 0 -0.47751919626187489 -0.34533971650204942 0 -0.47162178751891087 -0.36290255960717821 0 -0.45725102049180122 -0.35156166950322831 0 -0.47751919626187489 -0.34533971650204942 0 -0.49999999999999711 -0.36053861142825222 0 -0.47162178751891087 -0.36290255960717821 0 -0.5 -0.33060295009230029 0 -0.47751919626187489 -0.34533971650204942 0 -0.49999999999999711 -0.36053861142825222 0 -0.49999999999999711 -0.36053861142825222 0 -0.48599255454601709 -0.37424344971113283 0 -0.47162178751891087 -0.36290255960717821 0 -0.49999999999999789 -0.38341502480055339 0 -0.49999999999999711 -0.36053861142825222 0 -0.48599255454601709 -0.37424344971113283 0 -0.49999999999999711 -0.36053861142825222 0 -0.48599255454601709 -0.37424344971113283 0 -0.48599255454601709 -0.37424344971113283 0 -0.47162178751891087 -0.36290255960717821 0 -0.47189087427263132 -0.37663550417099928 0 -0.46347773589691338 -0.37605314335579332 0 -0.47162178751891087 -0.36290255960717821 0 -0.47189087427263132 -0.37663550417099928 0 -0.48599255454601709 -0.37424344971113283 0 -0.47162178751891087 -0.36290255960717821 0 -0.46347773589691338 -0.37605314335579332 0 -0.45725102049180122 -0.35156166950322831 0 -0.44731998226459257 -0.35981676089265252 0 -0.46347773589691338 -0.37605314335579332 0 -0.47162178751891087 -0.36290255960717821 0 -0.45725102049180122 -0.35156166950322831 0 -0.46347773589691338 -0.37605314335579332 0 -0.45725102049180122 -0.35156166950322831 0 -0.46527373310130349 -0.33488114902923388 0 -0.47751919626187489 -0.34533971650204942 0 -0.45725102049180122 -0.35156166950322831 0 -0.47162178751891087 -0.36290255960717821 0 -0.45725102049180122 -0.35156166950322831 0 -0.44573728889408731 -0.34247544853188122 0 -0.45725102049180122 -0.35156166950322831 0 -0.44731998226459257 -0.35981676089265252 0 -0.44573728889408731 -0.34247544853188122 0 -0.44009490170848742 -0.35230857055749548 0 -0.44731998226459257 -0.35981676089265252 0 -0.44573728889408731 -0.34247544853188122 0 -0.44731998226459257 -0.35981676089265252 0 -0.44573728889408731 -0.34247544853188122 0 -0.45725102049180122 -0.35156166950322831 0 -0.44573728889408731 -0.34247544853188122 0 -0.44009490170848742 -0.35230857055749548 0 -0.43115463552040328 -0.34400263939726328 0 -0.44009490170848742 -0.35230857055749548 0 -0.44731998226459257 -0.35981676089265252 0 -0.43680158838341371 -0.36181875622171189 0 -0.46347773589691338 -0.37605314335579332 0 -0.44464059646223691 -0.37415060920408721 0 -0.44731998226459257 -0.35981676089265252 0 -0.44464059646223691 -0.37415060920408721 0 -0.44731998226459257 -0.35981676089265252 0 -0.43680158838341371 -0.36181875622171189 0 -0.44464059646223691 -0.37415060920408721 0 -0.42632533131427852 -0.36904289599101497 0 -0.43680158838341371 -0.36181875622171189 0 -0.42632533131427852 -0.36904289599101497 0 -0.43115463552040328 -0.34400263939726328 0 -0.41331040686507758 -0.35486037173189439 0 -0.42632533131427852 -0.36904289599101497 0 -0.43115463552040328 -0.34400263939726328 0 -0.42632533131427852 -0.36904289599101497 0 -0.43680158838341371 -0.36181875622171189 0 -0.43115463552040328 -0.34400263939726328 0 -0.44009490170848742 -0.35230857055749548 0 -0.43680158838341371 -0.36181875622171189 0 -0.43115463552040328 -0.34400263939726328 0 -0.43115463552040328 -0.34400263939726328 0 -0.41331040686507758 -0.35486037173189439 0 -0.41759067761618363 -0.3349184288393961 0 -0.41009533864766162 -0.3788985754615451 0 -0.42632533131427852 -0.36904289599101497 0 -0.41331040686507758 -0.35486037173189439 0 -0.41009533864766162 -0.3788985754615451 0 -0.41331040686507758 -0.35486037173189439 0 -0.39542675326157051 -0.36684122572973349 0 -0.37920478159876991 -0.38285295053158652 0 -0.39542675326157051 -0.36684122572973349 0 -0.36433930190065028 -0.36295133002514612 0 -0.39542675326157051 -0.36684122572973349 0 -0.39981896148168439 -0.33871650033323691 0 -0.37522764656652607 -0.33836376292174641 0 -0.39542675326157051 -0.36684122572973349 0 -0.37522764656652607 -0.33836376292174641 0 -0.36433930190065028 -0.36295133002514612 0 -0.41331040686507758 -0.35486037173189439 0 -0.39542675326157051 -0.36684122572973349 0 -0.39981896148168439 -0.33871650033323691 0 -0.39981896148168439 -0.33871650033323691 0 -0.37522764656652607 -0.33836376292174641 0 -0.38946191505874062 -0.32285573369993709 0 -0.37522764656652607 -0.33836376292174641 0 -0.38946191505874062 -0.32285573369993709 0 -0.36698011928424512 -0.31350385013484411 0 -0.38946191505874062 -0.32285573369993709 0 -0.39620831645944488 -0.30332180916418539 0 -0.36698011928424512 -0.31350385013484411 0 -0.38946191505874062 -0.32285573369993709 0 -0.40907453150180217 -0.32037274594567311 0 -0.39620831645944488 -0.30332180916418539 0 -0.39981896148168439 -0.33871650033323691 0 -0.38946191505874062 -0.32285573369993709 0 -0.40907453150180217 -0.32037274594567311 0 -0.40907453150180217 -0.32037274594567311 0 -0.4287488225000336 -0.32300206873078458 0 -0.42473718019477191 -0.30046179703993209 0 -0.40907453150180217 -0.32037274594567311 0 -0.41759067761618363 -0.3349184288393961 0 -0.4287488225000336 -0.32300206873078458 0 -0.39981896148168439 -0.33871650033323691 0 -0.40907453150180217 -0.32037274594567311 0 -0.41759067761618363 -0.3349184288393961 0 -0.41331040686507758 -0.35486037173189439 0 -0.39981896148168439 -0.33871650033323691 0 -0.41759067761618363 -0.3349184288393961 0 -0.41759067761618363 -0.3349184288393961 0 -0.42830612236233973 -0.33456214362787429 0 -0.4287488225000336 -0.32300206873078458 0 -0.43115463552040328 -0.34400263939726328 0 -0.41759067761618363 -0.3349184288393961 0 -0.42830612236233973 -0.33456214362787429 0 -0.43115463552040328 -0.34400263939726328 0 -0.42830612236233973 -0.33456214362787429 0 -0.43717924000024633 -0.33572174555790579 0 -0.42830612236233973 -0.33456214362787429 0 -0.43717924000024633 -0.33572174555790579 0 -0.4287488225000336 -0.32300206873078458 0 -0.44301278459255128 -0.31262350057933608 0 -0.43717924000024633 -0.33572174555790579 0 -0.4287488225000336 -0.32300206873078458 0 -0.44028828029101619 -0.28277155262679099 0 -0.44301278459255128 -0.31262350057933608 0 -0.42473718019477191 -0.30046179703993209 0 -0.4287488225000336 -0.32300206873078458 0 -0.42473718019477191 -0.30046179703993209 0 -0.44301278459255128 -0.31262350057933608 0 -0.4287488225000336 -0.32300206873078458 0 -0.42473718019477191 -0.30046179703993209 0 -0.44028828029101619 -0.28277155262679099 0 -0.42473718019477191 -0.30046179703993209 0 -0.42072553788951023 -0.27792152534907971 0 -0.42473718019477191 -0.30046179703993209 0 -0.42072553788951023 -0.27792152534907971 0 -0.42473718019477191 -0.30046179703993209 0 -0.40303203531046378 -0.28666328736307778 0 -0.42072553788951023 -0.27792152534907971 0 -0.42473718019477191 -0.30046179703993209 0 -0.39620831645944488 -0.30332180916418539 0 -0.40303203531046378 -0.28666328736307778 0 -0.40907453150180217 -0.32037274594567311 0 -0.42473718019477191 -0.30046179703993209 0 -0.39620831645944488 -0.30332180916418539 0 -0.39620831645944488 -0.30332180916418539 0 -0.37539974915324031 -0.28372010790339097 0 -0.36698011928424512 -0.31350385013484411 0 -0.39620831645944488 -0.30332180916418539 0 -0.37539974915324031 -0.28372010790339097 0 -0.39620831645944488 -0.30332180916418539 0 -0.37539974915324031 -0.28372010790339097 0 -0.40303203531046378 -0.28666328736307778 0 -0.37539974915324031 -0.28372010790339097 0 -0.40303203531046378 -0.28666328736307778 0 -0.3980893928553515 -0.26789119735880063 0 -0.37539974915324031 -0.28372010790339097 0 -0.3980893928553515 -0.26789119735880063 0 -0.3763037954690257 -0.25782291262723228 0 -0.3980893928553515 -0.26789119735880063 0 -0.3763037954690257 -0.25782291262723228 0 -0.39450302437400731 -0.24533194729730429 0 -0.3763037954690257 -0.25782291262723228 0 -0.39450302437400731 -0.24533194729730429 0 -0.3980893928553515 -0.26789119735880063 0 -0.41671389558424848 -0.25538125365822723 0 -0.39450302437400731 -0.24533194729730429 0 -0.3980893928553515 -0.26789119735880063 0 -0.41671389558424848 -0.25538125365822723 0 -0.42072553788951023 -0.27792152534907971 0 -0.40303203531046378 -0.28666328736307778 0 -0.3980893928553515 -0.26789119735880063 0 -0.42072553788951023 -0.27792152534907971 0 -0.41671389558424848 -0.25538125365822723 0 -0.42072553788951023 -0.27792152534907971 0 -0.43756377598948099 -0.25291960467424568 0 -0.44028828029101619 -0.28277155262679099 0 -0.42882287243856398 -0.26724848407708579 0 -0.41671389558424848 -0.25538125365822723 0 -0.42072553788951023 -0.27792152534907971 0 -0.42882287243856398 -0.26724848407708579 0 -0.44028828029101619 -0.28277155262679099 0 -0.42072553788951023 -0.27792152534907971 0 -0.42882287243856398 -0.26724848407708579 0 -0.43756377598948099 -0.25291960467424568 0 -0.41671389558424848 -0.25538125365822723 0 -0.42882287243856398 -0.26724848407708579 0 -0.32112270242682289 -0.26360079730912278 0 -0.33378261454083102 -0.2445167053818022 0 -0.31903478947653158 -0.2490707193413304 0 -0.32112270242682289 -0.26360079730912278 0 -0.30902144292812472 -0.25508140255992368 0 -0.31903478947653158 -0.2490707193413304 0 -0.32112270242682289 -0.26360079730912278 0 -0.33686430652804888 -0.2720371892469175 0 -0.31843482856838029 -0.29026809540561821 0 -0.32112270242682289 -0.26360079730912278 0 -0.31843482856838029 -0.29026809540561821 0 -0.30313333745762372 -0.26604035053244213 0 -0.32112270242682289 -0.26360079730912278 0 -0.33686430652804888 -0.2720371892469175 0 -0.33378261454083102 -0.2445167053818022 0 -0.33686430652804888 -0.2720371892469175 0 -0.35459118184703559 -0.26411840664259661 0 -0.33378261454083102 -0.2445167053818022 0 -0.35459118184703559 -0.26411840664259661 0 -0.33378261454083102 -0.2445167053818022 0 -0.3763037954690257 -0.25782291262723228 0 -0.35459118184703559 -0.26411840664259661 0 -0.35853993563269182 -0.24102559817267619 0 -0.37539974915324031 -0.28372010790339097 0 -0.35459118184703559 -0.26411840664259661 0 -0.34872237868780182 -0.29119426915634999 0 -0.37539974915324031 -0.28372010790339097 0 -0.35459118184703559 -0.26411840664259661 0 -0.37539974915324031 -0.28372010790339097 0 -0.3763037954690257 -0.25782291262723228 0 -0.35459118184703559 -0.26411840664259661 0 -0.33686430652804888 -0.2720371892469175 0 -0.35459118184703559 -0.26411840664259661 0 -0.34872237868780182 -0.29119426915634999 0 -0.34872237868780182 -0.29119426915634999 0 -0.33373631967913692 -0.31449584027879413 0 -0.36698011928424512 -0.31350385013484411 0 -0.37539974915324031 -0.28372010790339097 0 -0.34872237868780182 -0.29119426915634999 0 -0.36698011928424512 -0.31350385013484411 0 -0.34872237868780182 -0.29119426915634999 0 -0.31843482856838029 -0.29026809540561821 0 -0.33373631967913692 -0.31449584027879413 0 -0.33686430652804888 -0.2720371892469175 0 -0.34872237868780182 -0.29119426915634999 0 -0.31843482856838029 -0.29026809540561821 0 -0.31843482856838029 -0.29026809540561821 0 -0.33373631967913692 -0.31449584027879413 0 -0.31843482856838029 -0.29026809540561821 0 -0.31438349364320423 -0.31051182591481091 0 -0.33373631967913692 -0.31449584027879413 0 -0.31438349364320423 -0.31051182591481091 0 -0.32482166159364551 -0.32837847219114569 0 -0.30795102083046311 -0.32827036813374399 0 -0.31438349364320423 -0.31051182591481091 0 -0.32482166159364551 -0.32837847219114569 0 -0.33373631967913692 -0.31449584027879413 0 -0.32482166159364551 -0.32837847219114569 0 -0.31969556950408973 -0.34478203705559862 0 -0.30795102083046311 -0.32827036813374399 0 -0.31969556950408973 -0.34478203705559862 0 -0.30795102083046311 -0.32827036813374399 0 -0.32482166159364551 -0.32837847219114569 0 -0.3490378107898936 -0.33872358515197021 0 -0.31969556950408973 -0.34478203705559862 0 -0.33373631967913692 -0.31449584027879413 0 -0.3490378107898936 -0.33872358515197021 0 -0.32482166159364551 -0.32837847219114569 0 -0.33373631967913692 -0.31449584027879413 0 -0.3490378107898936 -0.33872358515197021 0 -0.33373631967913692 -0.31449584027879413 0 -0.36698011928424512 -0.31350385013484411 0 -0.3490378107898936 -0.33872358515197021 0 -0.37522764656652607 -0.33836376292174641 0 -0.36698011928424512 -0.31350385013484411 0 -0.3490378107898936 -0.33872358515197021 0 -0.3490378107898936 -0.33872358515197021 0 -0.36433930190065028 -0.36295133002514612 0 -0.33496988183306292 -0.36494818436478588 0 -0.3490378107898936 -0.33872358515197021 0 -0.36433930190065028 -0.36295133002514612 0 -0.37522764656652607 -0.33836376292174641 0 -0.3490378107898936 -0.33872358515197021 0 -0.36433930190065028 -0.36295133002514612 0 -0.36433930190065028 -0.36295133002514612 0 -0.33496988183306292 -0.36494818436478588 0 -0.34584435379109613 -0.39066911168081342 0 -0.3490378107898936 -0.33872358515197021 0 -0.33496988183306292 -0.36494818436478588 0 -0.31969556950408973 -0.34478203705559862 0 -0.33496988183306292 -0.36494818436478588 0 -0.31969556950408973 -0.34478203705559862 0 -0.3168831953295827 -0.35890407685569953 0 -0.31969556950408973 -0.34478203705559862 0 -0.3168831953295827 -0.35890407685569953 0 -0.30718891066093118 -0.34631075769278868 0 -0.33496988183306292 -0.36494818436478588 0 -0.3168831953295827 -0.35890407685569953 0 -0.31427519370234591 -0.37306528387082999 0 -0.3041464012357461 -0.36025936827256261 0 -0.29881286033362781 -0.37247178660916058 0 -0.29494705598855359 -0.36065427595032129 0 -0.31427519370234591 -0.37306528387082999 0 -0.3041464012357461 -0.36025936827256261 0 -0.29881286033362781 -0.37247178660916058 0 -0.3168831953295827 -0.35890407685569953 0 -0.31427519370234591 -0.37306528387082999 0 -0.3041464012357461 -0.36025936827256261 0 -0.3168831953295827 -0.35890407685569953 0 -0.3041464012357461 -0.36025936827256261 0 -0.30718891066093118 -0.34631075769278868 0 -0.30718891066093118 -0.34631075769278868 0 -0.29801437492418481 -0.34928587404755213 0 -0.29644290214152141 -0.33636282179157623 0 -0.3041464012357461 -0.36025936827256261 0 -0.30718891066093118 -0.34631075769278868 0 -0.29801437492418481 -0.34928587404755213 0 -0.3041464012357461 -0.36025936827256261 0 -0.29801437492418481 -0.34928587404755213 0 -0.29494705598855359 -0.36065427595032129 0 -0.28529368347139028 -0.34488496413206782 0 -0.28709620269752367 -0.35637588967139261 0 -0.29644290214152141 -0.33636282179157623 0 -0.29801437492418481 -0.34928587404755213 0 -0.28709620269752367 -0.35637588967139261 0 -0.29644290214152141 -0.33636282179157623 0 -0.29801437492418481 -0.34928587404755213 0 -0.28709620269752367 -0.35637588967139261 0 -0.29494705598855359 -0.36065427595032129 0 -0.28709620269752367 -0.35637588967139261 0 -0.29644290214152141 -0.33636282179157623 0 -0.28264502799831248 -0.35028016394625922 0 -0.28529368347139028 -0.34488496413206782 0 -0.28709620269752367 -0.35637588967139261 0 -0.29881286033362781 -0.37247178660916058 0 -0.28666544075168571 -0.36487846115093853 0 -0.28911254044869411 -0.38707111856498178 0 -0.28709620269752367 -0.35637588967139261 0 -0.27774950325352599 -0.37638895755120899 0 -0.28709620269752367 -0.35637588967139261 0 -0.28666544075168571 -0.36487846115093853 0 -0.27774950325352599 -0.37638895755120899 0 -0.29881286033362781 -0.37247178660916058 0 -0.28666544075168571 -0.36487846115093853 0 -0.29494705598855359 -0.36065427595032129 0 -0.28709620269752367 -0.35637588967139261 0 -0.28666544075168571 -0.36487846115093853 0 -0.29494705598855359 -0.36065427595032129 0 -0.28264502799831248 -0.35028016394625922 0 -0.28709620269752367 -0.35637588967139261 0 -0.27194661245265389 -0.37213876066795931 0 -0.27194661245265389 -0.37213876066795931 0 -0.27549042109577843 -0.34787549590489281 0 -0.28709620269752367 -0.35637588967139261 0 -0.27194661245265389 -0.37213876066795931 0 -0.27774950325352599 -0.37638895755120899 0 -0.27194661245265389 -0.37213876066795931 0 -0.2689208492520449 -0.35910531063024709 0 -0.27549042109577843 -0.34787549590489281 0 -0.26663161126499652 -0.36675073525299468 0 -0.27194661245265389 -0.37213876066795931 0 -0.2689208492520449 -0.35910531063024709 0 -0.27194661245265389 -0.37213876066795931 0 -0.2652998383638191 -0.37092048882470219 0 -0.26300822403711621 -0.37968281340100979 0 -0.26663161126499652 -0.36675073525299468 0 -0.27194661245265389 -0.37213876066795931 0 -0.2652998383638191 -0.37092048882470219 0 -0.2652998383638191 -0.37092048882470219 0 -0.25836917354891242 -0.36556175445646932 0 -0.26300822403711621 -0.37968281340100979 0 -0.26663161126499652 -0.36675073525299468 0 -0.2652998383638191 -0.37092048882470219 0 -0.25836917354891242 -0.36556175445646932 0 -0.26663161126499652 -0.36675073525299468 0 -0.25836917354891242 -0.36556175445646932 0 -0.2689208492520449 -0.35910531063024709 0 -0.25836917354891242 -0.36556175445646932 0 -0.25075111015048202 -0.34406894507302932 0 -0.24337074052306221 -0.36576486843745498 0 -0.25836917354891242 -0.36556175445646932 0 -0.26706675686034481 -0.34212351306765781 0 -0.25836917354891242 -0.36556175445646932 0 -0.2689208492520449 -0.35910531063024709 0 -0.26706675686034481 -0.34212351306765781 0 -0.25836917354891242 -0.36556175445646932 0 -0.25075111015048202 -0.34406894507302932 0 -0.26706675686034481 -0.34212351306765781 0 -0.28264502799831248 -0.35028016394625922 0 -0.27194661245265389 -0.37213876066795931 0 -0.27549042109577843 -0.34787549590489281 0 -0.2689208492520449 -0.35910531063024709 0 -0.27549042109577843 -0.34787549590489281 0 -0.26706675686034481 -0.34212351306765781 0 -0.28264502799831248 -0.35028016394625922 0 -0.28529368347139028 -0.34488496413206782 0 -0.27549042109577843 -0.34787549590489281 0 -0.28117123940028033 -0.33491864049888659 0 -0.26706675686034481 -0.34212351306765781 0 -0.27576434017177709 -0.3186852716788463 0 -0.28529368347139028 -0.34488496413206782 0 -0.27549042109577843 -0.34787549590489281 0 -0.28117123940028033 -0.33491864049888659 0 -0.26706675686034481 -0.34212351306765781 0 -0.27576434017177709 -0.3186852716788463 0 -0.27549042109577843 -0.34787549590489281 0 -0.28117123940028033 -0.33491864049888659 0 -0.26706675686034481 -0.34212351306765781 0 -0.25075111015048202 -0.34406894507302932 0 -0.25813147977790268 -0.32237302170860371 0 -0.25075111015048202 -0.34406894507302932 0 -0.26706675686034481 -0.34212351306765781 0 -0.25813147977790268 -0.32237302170860371 0 -0.25075111015048202 -0.34406894507302932 0 -0.25813147977790268 -0.32237302170860371 0 -0.24717078116015961 -0.32624361391631568 0 -0.25813147977790268 -0.32237302170860371 0 -0.25321956381696731 -0.30902317859131018 0 -0.24953735509400329 -0.31687282368963221 0 -0.25813147977790268 -0.32237302170860371 0 -0.24953735509400329 -0.31687282368963221 0 -0.24717078116015961 -0.32624361391631568 0 -0.25813147977790268 -0.32237302170860371 0 -0.27576434017177709 -0.3186852716788463 0 -0.26551184940532352 -0.30067709834417822 0 -0.26706675686034481 -0.34212351306765781 0 -0.25813147977790268 -0.32237302170860371 0 -0.27576434017177709 -0.3186852716788463 0 -0.27576434017177709 -0.3186852716788463 0 -0.29150719494017568 -0.32599916026298847 0 -0.2962064721568366 -0.31175869921188942 0 -0.28117123940028033 -0.33491864049888659 0 -0.27576434017177709 -0.3186852716788463 0 -0.29150719494017568 -0.32599916026298847 0 -0.28529368347139028 -0.34488496413206782 0 -0.28117123940028033 -0.33491864049888659 0 -0.29644290214152141 -0.33636282179157623 0 -0.28117123940028033 -0.33491864049888659 0 -0.29150719494017568 -0.32599916026298847 0 -0.29644290214152141 -0.33636282179157623 0 -0.29150719494017568 -0.32599916026298847 0 -0.29644290214152141 -0.33636282179157623 0 -0.30795102083046311 -0.32827036813374399 0 -0.31969556950408973 -0.34478203705559862 0 -0.30718891066093118 -0.34631075769278868 0 -0.30795102083046311 -0.32827036813374399 0 -0.30718891066093118 -0.34631075769278868 0 -0.29644290214152141 -0.33636282179157623 0 -0.30795102083046311 -0.32827036813374399 0 -0.29150719494017568 -0.32599916026298847 0 -0.30795102083046311 -0.32827036813374399 0 -0.2962064721568366 -0.31175869921188942 0 -0.31438349364320423 -0.31051182591481091 0 -0.30795102083046311 -0.32827036813374399 0 -0.2962064721568366 -0.31175869921188942 0 -0.30795102083046311 -0.32827036813374399 0 -0.2962064721568366 -0.31175869921188942 0 -0.31438349364320423 -0.31051182591481091 0 -0.30080172727448368 -0.28834526641059061 0 -0.2962064721568366 -0.31175869921188942 0 -0.31843482856838029 -0.29026809540561821 0 -0.31438349364320423 -0.31051182591481091 0 -0.30080172727448368 -0.28834526641059061 0 -0.31843482856838029 -0.29026809540561821 0 -0.30080172727448368 -0.28834526641059061 0 -0.30313333745762372 -0.26604035053244213 0 -0.28446192348320992 -0.29524703029003491 0 -0.29291966064935671 -0.27245512612480349 0 -0.30080172727448368 -0.28834526641059061 0 -0.28446192348320992 -0.29524703029003491 0 -0.29291966064935671 -0.27245512612480349 0 -0.28446192348320992 -0.29524703029003491 0 -0.27289221903274469 -0.27898117497975289 0 -0.29291966064935671 -0.27245512612480349 0 -0.27576434017177709 -0.3186852716788463 0 -0.28446192348320992 -0.29524703029003491 0 -0.2962064721568366 -0.31175869921188942 0 -0.30080172727448368 -0.28834526641059061 0 -0.28446192348320992 -0.29524703029003491 0 -0.2962064721568366 -0.31175869921188942 0 -0.28446192348320992 -0.29524703029003491 0 -0.2962064721568366 -0.31175869921188942 0 -0.27576434017177709 -0.3186852716788463 0 -0.28446192348320992 -0.29524703029003491 0 -0.27576434017177709 -0.3186852716788463 0 -0.28446192348320992 -0.29524703029003491 0 -0.26551184940532352 -0.30067709834417822 0 -0.25813147977790268 -0.32237302170860371 0 -0.26551184940532352 -0.30067709834417822 0 -0.26551184940532352 -0.30067709834417822 0 -0.25321956381696731 -0.30902317859131018 0 -0.24401331241401991 -0.29790165599306478 0 -0.25813147977790268 -0.32237302170860371 0 -0.26551184940532352 -0.30067709834417822 0 -0.25321956381696731 -0.30902317859131018 0 -0.26551184940532352 -0.30067709834417822 0 -0.25075332113986021 -0.28741165931110929 0 -0.25978072697544252 -0.27987627563289058 0 -0.26551184940532352 -0.30067709834417822 0 -0.25075332113986021 -0.28741165931110929 0 -0.24401331241401991 -0.29790165599306478 0 -0.26551184940532352 -0.30067709834417822 0 -0.27289221903274469 -0.27898117497975289 0 -0.26551184940532352 -0.30067709834417822 0 -0.27289221903274469 -0.27898117497975289 0 -0.25978072697544252 -0.27987627563289058 0 -0.28446192348320992 -0.29524703029003491 0 -0.26551184940532352 -0.30067709834417822 0 -0.27289221903274469 -0.27898117497975289 0 -0.28446192348320992 -0.29524703029003491 0 -0.27289221903274469 -0.27898117497975289 0 -0.27289221903274469 -0.27898117497975289 0 -0.27935343097645138 -0.25998728087299189 0 -0.27289221903274469 -0.27898117497975289 0 -0.25978072697544252 -0.27987627563289058 0 -0.25513436231350728 -0.26781419397919048 0 -0.27289221903274469 -0.27898117497975289 0 -0.25659284559555973 -0.25606587484286092 0 -0.27289221903274469 -0.27898117497975289 0 -0.25513436231350728 -0.26781419397919048 0 -0.25659284559555973 -0.25606587484286092 0 -0.25978072697544252 -0.27987627563289058 0 -0.25513436231350728 -0.26781419397919048 0 -0.2455679334524983 -0.27529750937936193 0 -0.25075332113986021 -0.28741165931110929 0 -0.25978072697544252 -0.27987627563289058 0 -0.2455679334524983 -0.27529750937936193 0 -0.25513436231350728 -0.26781419397919048 0 -0.25659284559555973 -0.25606587484286092 0 -0.23929417894220159 -0.25935318406671243 0 -0.25659284559555973 -0.25606587484286092 0 -0.26905367875955788 -0.25763776002904898 0 -0.26334720402422163 -0.24640170976257569 0 -0.27289221903274469 -0.27898117497975289 0 -0.25659284559555973 -0.25606587484286092 0 -0.26905367875955788 -0.25763776002904898 0 -0.27289221903274469 -0.27898117497975289 0 -0.26905367875955788 -0.25763776002904898 0 -0.27935343097645138 -0.25998728087299189 0 -0.26905367875955788 -0.25763776002904898 0 -0.27308269416881231 -0.24675275968706359 0 -0.26334720402422163 -0.24640170976257569 0 -0.26905367875955788 -0.25763776002904898 0 -0.27935343097645138 -0.25998728087299189 0 -0.27308269416881231 -0.24675275968706359 0 -0.2908095688575747 -0.26007384079737589 0 -0.30313333745762372 -0.26604035053244213 0 -0.28783184634686698 -0.24181260565926621 0 -0.27935343097645138 -0.25998728087299189 0 -0.28581464292015868 -0.240993386766231 0 -0.27935343097645138 -0.25998728087299189 0 -0.2908095688575747 -0.26007384079737589 0 -0.28783184634686698 -0.24181260565926621 0 -0.30313333745762372 -0.26604035053244213 0 -0.28783184634686698 -0.24181260565926621 0 -0.27935343097645138 -0.25998728087299189 0 -0.2908095688575747 -0.26007384079737589 0 -0.29291966064935671 -0.27245512612480349 0 -0.27289221903274469 -0.27898117497975289 0 -0.27935343097645138 -0.25998728087299189 0 -0.29291966064935671 -0.27245512612480349 0 -0.2908095688575747 -0.26007384079737589 0 -0.29291966064935671 -0.27245512612480349 0 -0.30313333745762372 -0.26604035053244213 0 -0.31843482856838029 -0.29026809540561821 0 -0.30313333745762372 -0.26604035053244213 0 -0.30080172727448368 -0.28834526641059061 0 -0.29291966064935671 -0.27245512612480349 0 -0.30313333745762372 -0.26604035053244213 0 -0.30313333745762372 -0.26604035053244213 0 -0.30902144292812472 -0.25508140255992368 0 -0.28783184634686698 -0.24181260565926621 0 -0.32112270242682289 -0.26360079730912278 0 -0.30313333745762372 -0.26604035053244213 0 -0.30902144292812472 -0.25508140255992368 0 -0.333883915055457 -0.45566159851113602 0 -0.32803088808829561 -0.47251594523441409 0 -0.34366776618734629 -0.4707940994251596 0 -0.333883915055457 -0.45566159851113602 0 -0.34366776618734629 -0.4707940994251596 0 -0.34937313144389098 -0.45523438861293902 0 -0.333883915055457 -0.45566159851113602 0 -0.34937313144389098 -0.45523438861293902 0 -0.34663408663360212 -0.43632023111885232 0 -0.333883915055457 -0.45566159851113602 0 -0.32684936856835389 -0.44051177531859093 0 -0.34663408663360212 -0.43632023111885232 0 -0.32684936856835389 -0.44051177531859093 0 -0.31599948551435819 -0.46334718112597112 0 -0.30881161865072171 -0.43821756794129108 0 -0.333883915055457 -0.45566159851113602 0 -0.32684936856835389 -0.44051177531859093 0 -0.31599948551435819 -0.46334718112597112 0 -0.333883915055457 -0.45566159851113602 0 -0.31599948551435819 -0.46334718112597112 0 -0.32803088808829561 -0.47251594523441409 0 -0.31599948551435819 -0.46334718112597112 0 -0.31514967016672513 -0.4807775119637035 0 -0.32803088808829561 -0.47251594523441409 0 -0.31514967016672513 -0.4807775119637035 0 -0.32669290950388158 -0.4808485784301938 0 -0.32967973304371162 -0.49044270166844689 0 -0.31514967016672513 -0.4807775119637035 0 -0.32669290950388158 -0.4808485784301938 0 -0.32803088808829561 -0.47251594523441409 0 -0.31514967016672513 -0.4807775119637035 0 -0.32967973304371162 -0.49044270166844689 0 -0.29974830355394078 -0.48898339556612441 0 -0.32967973304371162 -0.49044270166844689 0 -0.29974830355394078 -0.48898339556612441 0 -0.33253100343194542 -0.5 0 -0.32967973304371162 -0.49044270166844689 0 -0.30448272519713571 -0.5 0 -0.33253100343194542 -0.5 0 -0.32967973304371162 -0.49044270166844689 0 -0.35961116253348252 -0.49190200777076959 0 -0.32967973304371162 -0.49044270166844689 0 -0.34348352329046061 -0.48235571798039989 0 -0.34717506129290471 -0.48616455239824702 0 -0.32803088808829561 -0.47251594523441409 0 -0.33391134671679429 -0.47965815485421082 0 -0.34366776618734629 -0.4707940994251596 0 -0.32669290950388158 -0.4808485784301938 0 -0.32967973304371162 -0.49044270166844689 0 -0.33391134671679429 -0.47965815485421082 0 -0.32669290950388158 -0.4808485784301938 0 -0.32803088808829561 -0.47251594523441409 0 -0.33391134671679429 -0.47965815485421082 0 -0.32967973304371162 -0.49044270166844689 0 -0.33391134671679429 -0.47965815485421082 0 -0.34348352329046061 -0.48235571798039989 0 -0.33391134671679429 -0.47965815485421082 0 -0.34348352329046061 -0.48235571798039989 0 -0.34366776618734629 -0.4707940994251596 0 -0.34348352329046061 -0.48235571798039989 0 -0.35592582630396408 -0.47995778217337137 0 -0.34717506129290471 -0.48616455239824702 0 -0.34348352329046061 -0.48235571798039989 0 -0.34366776618734629 -0.4707940994251596 0 -0.35592582630396408 -0.47995778217337137 0 -0.34366776618734629 -0.4707940994251596 0 -0.35592582630396408 -0.47995778217337137 0 -0.35664532919557701 -0.46489615300071718 0 -0.32967973304371162 -0.49044270166844689 0 -0.35961116253348252 -0.49190200777076959 0 -0.33253100343194542 -0.5 0 -0.36057928166675501 -0.5 0 -0.35961116253348252 -0.49190200777076959 0 -0.32967973304371162 -0.49044270166844689 0 -0.34717506129290471 -0.48616455239824702 0 -0.35961116253348252 -0.49190200777076959 0 -0.35592582630396408 -0.47995778217337137 0 -0.34717506129290471 -0.48616455239824702 0 -0.35961116253348252 -0.49190200777076959 0 -0.38862755990156461 -0.500000000000001 0 -0.36057928166675501 -0.5 0 -0.37451453420767022 -0.4934463617254079 0 -0.36057928166675501 -0.5 0 -0.3659587103028083 -0.49236971671896063 0 -0.37451453420767022 -0.4934463617254079 0 -0.36057928166675501 -0.5 0 -0.3659587103028083 -0.49236971671896063 0 -0.35961116253348252 -0.49190200777076959 0 -0.3659587103028083 -0.49236971671896063 0 -0.35961116253348252 -0.49190200777076959 0 -0.36912986280332549 -0.48413049737966518 0 -0.35592582630396408 -0.47995778217337137 0 -0.35961116253348252 -0.49190200777076959 0 -0.36912986280332549 -0.48413049737966518 0 -0.3659587103028083 -0.49236971671896063 0 -0.37451453420767022 -0.4934463617254079 0 -0.36912986280332549 -0.48413049737966518 0 -0.35592582630396408 -0.47995778217337137 0 -0.36799842701508162 -0.47103179559871983 0 -0.35664532919557701 -0.46489615300071718 0 -0.35592582630396408 -0.47995778217337137 0 -0.36912986280332549 -0.48413049737966518 0 -0.36799842701508162 -0.47103179559871983 0 -0.37691040182153618 -0.476868541086236 0 -0.36912986280332549 -0.48413049737966518 0 -0.36799842701508162 -0.47103179559871983 0 -0.36799842701508162 -0.47103179559871983 0 -0.35664532919557701 -0.46489615300071718 0 -0.36580793536190481 -0.45273660197014259 0 -0.38498178409020672 -0.46915297282143359 0 -0.36799842701508162 -0.47103179559871983 0 -0.36580793536190481 -0.45273660197014259 0 -0.35664532919557701 -0.46489615300071718 0 -0.34937313144389098 -0.45523438861293902 0 -0.36580793536190481 -0.45273660197014259 0 -0.34366776618734629 -0.4707940994251596 0 -0.35664532919557701 -0.46489615300071718 0 -0.34937313144389098 -0.45523438861293902 0 -0.36580793536190481 -0.45273660197014259 0 -0.34663408663360212 -0.43632023111885232 0 -0.36580793536190481 -0.45273660197014259 0 -0.36431448118181409 -0.43507547628127141 0 -0.34663408663360212 -0.43632023111885232 0 -0.34937313144389098 -0.45523438861293902 0 -0.36580793536190481 -0.45273660197014259 0 -0.34663408663360212 -0.43632023111885232 0 -0.38247723840425579 -0.44796193068336132 0 -0.36580793536190481 -0.45273660197014259 0 -0.36431448118181409 -0.43507547628127141 0 -0.3799726927183058 -0.42677088854528877 0 -0.36431448118181409 -0.43507547628127141 0 -0.35719674875659913 -0.41497335336445201 0 -0.37746814703235582 -0.40557984640721639 0 -0.3799726927183058 -0.42677088854528877 0 -0.35719674875659913 -0.41497335336445201 0 -0.35719674875659913 -0.41497335336445201 0 -0.34663408663360212 -0.43632023111885232 0 -0.32746023790529938 -0.41990386026756221 0 -0.36431448118181409 -0.43507547628127141 0 -0.35719674875659913 -0.41497335336445201 0 -0.34663408663360212 -0.43632023111885232 0 -0.37920478159876991 -0.38285295053158652 0 -0.36433930190065028 -0.36295133002514612 0 -0.36481066661589417 -0.39140531840184289 0 -0.37746814703235582 -0.40557984640721639 0 -0.37920478159876991 -0.38285295053158652 0 -0.36481066661589417 -0.39140531840184289 0 -0.37746814703235582 -0.40557984640721639 0 -0.35719674875659913 -0.41497335336445201 0 -0.36481066661589417 -0.39140531840184289 0 -0.35719674875659913 -0.41497335336445201 0 -0.36481066661589417 -0.39140531840184289 0 -0.34584435379109613 -0.39066911168081342 0 -0.36433930190065028 -0.36295133002514612 0 -0.36481066661589417 -0.39140531840184289 0 -0.34584435379109613 -0.39066911168081342 0 -0.33496988183306292 -0.36494818436478588 0 -0.34584435379109613 -0.39066911168081342 0 -0.32287253315026831 -0.38973100844635927 0 -0.34584435379109613 -0.39066911168081342 0 -0.32287253315026831 -0.38973100844635927 0 -0.32746023790529938 -0.41990386026756221 0 -0.32287253315026831 -0.38973100844635927 0 -0.32746023790529938 -0.41990386026756221 0 -0.30828638917699669 -0.40348748941627199 0 -0.32287253315026831 -0.38973100844635927 0 -0.30639914249280908 -0.38631212107789259 0 -0.30828638917699669 -0.40348748941627199 0 -0.33496988183306292 -0.36494818436478588 0 -0.31427519370234591 -0.37306528387082999 0 -0.32287253315026831 -0.38973100844635927 0 -0.31427519370234591 -0.37306528387082999 0 -0.32287253315026831 -0.38973100844635927 0 -0.30639914249280908 -0.38631212107789259 0 -0.34663408663360212 -0.43632023111885232 0 -0.32746023790529938 -0.41990386026756221 0 -0.32684936856835389 -0.44051177531859093 0 -0.34663408663360212 -0.43632023111885232 0 -0.32746023790529938 -0.41990386026756221 0 -0.35719674875659913 -0.41497335336445201 0 -0.34584435379109613 -0.39066911168081342 0 -0.32746023790529938 -0.41990386026756221 0 -0.32746023790529938 -0.41990386026756221 0 -0.30828638917699669 -0.40348748941627199 0 -0.32746023790529938 -0.41990386026756221 0 -0.30550204726672259 -0.42038437889179098 0 -0.30828638917699669 -0.40348748941627199 0 -0.32746023790529938 -0.41990386026756221 0 -0.30550204726672259 -0.42038437889179098 0 -0.30881161865072171 -0.43821756794129108 0 -0.32684936856835389 -0.44051177531859093 0 -0.32746023790529938 -0.41990386026756221 0 -0.30881161865072171 -0.43821756794129108 0 -0.30550204726672259 -0.42038437889179098 0 -0.28650269936969891 -0.42276101556671219 0 -0.30881161865072171 -0.43821756794129108 0 -0.30550204726672259 -0.42038437889179098 0 -0.29671414124170448 -0.41024178340645512 0 -0.30828638917699669 -0.40348748941627199 0 -0.28650269936969891 -0.42276101556671219 0 -0.28658407006069231 -0.39381973835882528 0 -0.27930780045705139 -0.40788538192008811 0 -0.28650269936969891 -0.42276101556671219 0 -0.28658407006069231 -0.39381973835882528 0 -0.29671414124170448 -0.41024178340645512 0 -0.28650269936969891 -0.42276101556671219 0 -0.28658407006069231 -0.39381973835882528 0 -0.30550204726672259 -0.42038437889179098 0 -0.29671414124170448 -0.41024178340645512 0 -0.28650269936969891 -0.42276101556671219 0 -0.28650269936969891 -0.42276101556671219 0 -0.28642132867870551 -0.45170229277459922 0 -0.28650269936969891 -0.42276101556671219 0 -0.2747251690806301 -0.43137431614302513 0 -0.28642132867870551 -0.45170229277459922 0 -0.29881286033362781 -0.37247178660916058 0 -0.30639914249280908 -0.38631212107789259 0 -0.28911254044869411 -0.38707111856498178 0 -0.31427519370234591 -0.37306528387082999 0 -0.29881286033362781 -0.37247178660916058 0 -0.30639914249280908 -0.38631212107789259 0 -0.29671414124170448 -0.41024178340645512 0 -0.30828638917699669 -0.40348748941627199 0 -0.28658407006069231 -0.39381973835882528 0 -0.30828638917699669 -0.40348748941627199 0 -0.28911254044869411 -0.38707111856498178 0 -0.30639914249280908 -0.38631212107789259 0 -0.30828638917699669 -0.40348748941627199 0 -0.28911254044869411 -0.38707111856498178 0 -0.30828638917699669 -0.40348748941627199 0 -0.28658407006069231 -0.39381973835882528 0 -0.28911254044869411 -0.38707111856498178 0 -0.28666544075168571 -0.36487846115093853 0 -0.28658407006069231 -0.39381973835882528 0 -0.27774950325352599 -0.37638895755120899 0 -0.28666544075168571 -0.36487846115093853 0 -0.28658407006069231 -0.39381973835882528 0 -0.28666544075168571 -0.36487846115093853 0 -0.28658407006069231 -0.39381973835882528 0 -0.28911254044869411 -0.38707111856498178 0 -0.27774950325352599 -0.37638895755120899 0 -0.2684028038095288 -0.39640202543102571 0 -0.28658407006069231 -0.39381973835882528 0 -0.27774950325352599 -0.37638895755120899 0 -0.27766273692099841 -0.38876859339220582 0 -0.27194661245265389 -0.37213876066795931 0 -0.2684028038095288 -0.39640202543102571 0 -0.27194661245265389 -0.37213876066795931 0 -0.27774950325352599 -0.37638895755120899 0 -0.2684028038095288 -0.39640202543102571 0 -0.27194661245265389 -0.37213876066795931 0 -0.2684028038095288 -0.39640202543102571 0 -0.26300822403711621 -0.37968281340100979 0 -0.27774950325352599 -0.37638895755120899 0 -0.27766273692099841 -0.38876859339220582 0 -0.2684028038095288 -0.39640202543102571 0 -0.2684028038095288 -0.39640202543102571 0 -0.26557397311405517 -0.41577007688249018 0 -0.28658407006069231 -0.39381973835882528 0 -0.27766273692099841 -0.38876859339220582 0 -0.27708402821756711 -0.39852142846974309 0 -0.27766273692099841 -0.38876859339220582 0 -0.2684028038095288 -0.39640202543102571 0 -0.27708402821756711 -0.39852142846974309 0 -0.28658407006069231 -0.39381973835882528 0 -0.27708402821756711 -0.39852142846974309 0 -0.27930780045705139 -0.40788538192008811 0 -0.27708402821756711 -0.39852142846974309 0 -0.27930780045705139 -0.40788538192008811 0 -0.27334367273768961 -0.40717317162988209 0 -0.2684028038095288 -0.39640202543102571 0 -0.27708402821756711 -0.39852142846974309 0 -0.27334367273768961 -0.40717317162988209 0 -0.25437684264692118 -0.39771491903429751 0 -0.25065274786962882 -0.40632975606627558 0 -0.24967159023748001 -0.38899999584528078 0 -0.2684028038095288 -0.39640202543102571 0 -0.25796523792122078 -0.40376730067023342 0 -0.26134827767621899 -0.41150711265585571 0 -0.2684028038095288 -0.39640202543102571 0 -0.25796523792122078 -0.40376730067023342 0 -0.25858350498584431 -0.39665028588880602 0 -0.2684028038095288 -0.39640202543102571 0 -0.26134827767621899 -0.41150711265585571 0 -0.25796523792122078 -0.40376730067023342 0 -0.25437684264692118 -0.39771491903429751 0 -0.25065274786962882 -0.40632975606627558 0 -0.25796523792122078 -0.40376730067023342 0 -0.25437684264692118 -0.39771491903429751 0 -0.25858350498584431 -0.39665028588880602 0 -0.25437684264692118 -0.39771491903429751 0 -0.25501113222043181 -0.39282725670089153 0 -0.25858350498584431 -0.39665028588880602 0 -0.25437684264692118 -0.39771491903429751 0 -0.25501113222043181 -0.39282725670089153 0 -0.24967159023748001 -0.38899999584528078 0 -0.25501113222043181 -0.39282725670089153 0 -0.25858350498584431 -0.39665028588880602 0 -0.25925738922998481 -0.38937700346875681 0 -0.2684028038095288 -0.39640202543102571 0 -0.25858350498584431 -0.39665028588880602 0 -0.25925738922998481 -0.38937700346875681 0 -0.25836917354891242 -0.36556175445646932 0 -0.25706392579459042 -0.38359758016324019 0 -0.26300822403711621 -0.37968281340100979 0 -0.25836917354891242 -0.36556175445646932 0 -0.247011744196346 -0.38604731225186528 0 -0.24967159023748001 -0.38899999584528078 0 -0.25836917354891242 -0.36556175445646932 0 -0.25706392579459042 -0.38359758016324019 0 -0.24967159023748001 -0.38899999584528078 0 -0.2684028038095288 -0.39640202543102571 0 -0.25925738922998481 -0.38937700346875681 0 -0.26300822403711621 -0.37968281340100979 0 -0.25836917354891242 -0.36556175445646932 0 -0.24967159023748001 -0.38899999584528078 0 -0.25925738922998481 -0.38937700346875681 0 -0.25706392579459042 -0.38359758016324019 0 -0.26300822403711621 -0.37968281340100979 0 -0.25925738922998481 -0.38937700346875681 0 -0.25525100937062167 -0.38870045904454231 0 -0.25706392579459042 -0.38359758016324019 0 -0.25501113222043181 -0.39282725670089153 0 -0.25925738922998481 -0.38937700346875681 0 -0.25525100937062167 -0.38870045904454231 0 -0.25525100937062167 -0.38870045904454231 0 -0.25706392579459042 -0.38359758016324019 0 -0.24967159023748001 -0.38899999584528078 0 -0.25501113222043181 -0.39282725670089153 0 -0.25525100937062167 -0.38870045904454231 0 -0.24967159023748001 -0.38899999584528078 0 -0.2747251690806301 -0.43137431614302513 0 -0.26557397311405517 -0.41577007688249018 0 -0.26274514241858099 -0.43513812833395471 0 -0.28650269936969891 -0.42276101556671219 0 -0.2747251690806301 -0.43137431614302513 0 -0.27549257158746571 -0.41754479562922969 0 -0.2684028038095288 -0.39640202543102571 0 -0.27334367273768961 -0.40717317162988209 0 -0.26557397311405517 -0.41577007688249018 0 -0.28650269936969891 -0.42276101556671219 0 -0.27549257158746571 -0.41754479562922969 0 -0.27930780045705139 -0.40788538192008811 0 -0.27549257158746571 -0.41754479562922969 0 -0.27930780045705139 -0.40788538192008811 0 -0.27334367273768961 -0.40717317162988209 0 -0.27549257158746571 -0.41754479562922969 0 -0.27334367273768961 -0.40717317162988209 0 -0.26557397311405517 -0.41577007688249018 0 -0.2747251690806301 -0.43137431614302513 0 -0.27549257158746571 -0.41754479562922969 0 -0.26557397311405517 -0.41577007688249018 0 -0.25429375154291051 -0.42661219988068633 0 -0.25277839676432828 -0.42985686375668242 0 -0.24631039254109749 -0.40680601497229629 0 -0.26134827767621899 -0.41150711265585571 0 -0.25429375154291051 -0.42661219988068633 0 -0.25065274786962882 -0.40632975606627558 0 -0.25429375154291051 -0.42661219988068633 0 -0.25606500375249452 -0.41205409231826262 0 -0.25065274786962882 -0.40632975606627558 0 -0.25429375154291051 -0.42661219988068633 0 -0.26557397311405517 -0.41577007688249018 0 -0.26134827767621899 -0.41150711265585571 0 -0.25429375154291051 -0.42661219988068633 0 -0.25065274786962882 -0.40632975606627558 0 -0.25429375154291051 -0.42661219988068633 0 -0.24631039254109749 -0.40680601497229629 0 -0.2684028038095288 -0.39640202543102571 0 -0.26557397311405517 -0.41577007688249018 0 -0.26134827767621899 -0.41150711265585571 0 -0.25796523792122078 -0.40376730067023342 0 -0.26134827767621899 -0.41150711265585571 0 -0.25606500375249452 -0.41205409231826262 0 -0.25796523792122078 -0.40376730067023342 0 -0.25606500375249452 -0.41205409231826262 0 -0.25065274786962882 -0.40632975606627558 0 -0.26134827767621899 -0.41150711265585571 0 -0.25606500375249452 -0.41205409231826262 0 -0.25429375154291051 -0.42661219988068633 0 -0.25429375154291051 -0.42661219988068633 0 -0.25277839676432828 -0.42985686375668242 0 -0.25860180336127769 -0.45061047804688131 0 -0.26557397311405517 -0.41577007688249018 0 -0.25429375154291051 -0.42661219988068633 0 -0.26274514241858099 -0.43513812833395471 0 -0.25429375154291051 -0.42661219988068633 0 -0.26274514241858099 -0.43513812833395471 0 -0.25860180336127769 -0.45061047804688131 0 -0.26557397311405517 -0.41577007688249018 0 -0.26274514241858099 -0.43513812833395471 0 -0.25429375154291051 -0.42661219988068633 0 -0.25277839676432828 -0.42985686375668242 0 -0.25277839676432828 -0.42985686375668242 0 -0.25860180336127769 -0.45061047804688131 0 -0.2438929202173932 -0.44888236536222981 0 -0.25277839676432828 -0.42985686375668242 0 -0.25860180336127769 -0.45061047804688131 0 -0.25429375154291051 -0.42661219988068633 0 -0.25860180336127769 -0.45061047804688131 0 -0.25860180336127769 -0.45061047804688131 0 -0.2526759555266353 -0.45794040823481069 0 -0.2438929202173932 -0.44888236536222981 0 -0.26274514241858099 -0.43513812833395471 0 -0.25860180336127769 -0.45061047804688131 0 -0.27096528920294471 -0.44792928502429069 0 -0.25860180336127769 -0.45061047804688131 0 -0.26745783596272288 -0.45680880810322588 0 -0.26372406688378142 -0.46886533964189148 0 -0.25860180336127769 -0.45061047804688131 0 -0.26055337389134792 -0.46148182649304242 0 -0.26372406688378142 -0.46886533964189148 0 -0.25860180336127769 -0.45061047804688131 0 -0.26372406688378142 -0.46886533964189148 0 -0.25448868938989239 -0.46551658331972168 0 -0.2526759555266353 -0.45794040823481069 0 -0.24587586382851731 -0.46298196558418458 0 -0.25448868938989239 -0.46551658331972168 0 -0.2526759555266353 -0.45794040823481069 0 -0.26055337389134792 -0.46148182649304242 0 -0.25860180336127769 -0.45061047804688131 0 -0.2526759555266353 -0.45794040823481069 0 -0.26055337389134792 -0.46148182649304242 0 -0.25860180336127769 -0.45061047804688131 0 -0.26055337389134792 -0.46148182649304242 0 -0.25448868938989239 -0.46551658331972168 0 -0.26055337389134792 -0.46148182649304242 0 -0.26372406688378142 -0.46886533964189148 0 -0.26745783596272288 -0.45680880810322588 0 -0.27584045571575122 -0.46194168674405861 0 -0.26372406688378142 -0.46886533964189148 0 -0.27584045571575122 -0.46194168674405861 0 -0.2752977883595823 -0.4730246893395772 0 -0.26372406688378142 -0.46886533964189148 0 -0.26745783596272288 -0.45680880810322588 0 -0.27584045571575122 -0.46194168674405861 0 -0.27096528920294471 -0.44792928502429069 0 -0.27584045571575122 -0.46194168674405861 0 -0.27096528920294471 -0.44792928502429069 0 -0.28642132867870551 -0.45170229277459922 0 -0.2747251690806301 -0.43137431614302513 0 -0.27096528920294471 -0.44792928502429069 0 -0.28642132867870551 -0.45170229277459922 0 -0.2747251690806301 -0.43137431614302513 0 -0.26274514241858099 -0.43513812833395471 0 -0.27096528920294471 -0.44792928502429069 0 -0.25860180336127769 -0.45061047804688131 0 -0.26745783596272288 -0.45680880810322588 0 -0.27096528920294471 -0.44792928502429069 0 -0.28650269936969891 -0.42276101556671219 0 -0.28642132867870551 -0.45170229277459922 0 -0.30881161865072171 -0.43821756794129108 0 -0.28642132867870551 -0.45170229277459922 0 -0.29854738507203382 -0.4669297194900347 0 -0.28603217072138981 -0.47147440896916221 0 -0.27584045571575122 -0.46194168674405861 0 -0.28642132867870551 -0.45170229277459922 0 -0.28603217072138981 -0.47147440896916221 0 -0.28642132867870551 -0.45170229277459922 0 -0.30238741733005298 -0.45453511676383168 0 -0.29854738507203382 -0.4669297194900347 0 -0.31599948551435819 -0.46334718112597112 0 -0.29854738507203382 -0.4669297194900347 0 -0.30491119196482053 -0.47569399491461228 0 -0.31599948551435819 -0.46334718112597112 0 -0.30238741733005298 -0.45453511676383168 0 -0.29854738507203382 -0.4669297194900347 0 -0.28642132867870551 -0.45170229277459922 0 -0.30238741733005298 -0.45453511676383168 0 -0.30881161865072171 -0.43821756794129108 0 -0.31599948551435819 -0.46334718112597112 0 -0.30238741733005298 -0.45453511676383168 0 -0.30881161865072171 -0.43821756794129108 0 -0.32967973304371162 -0.49044270166844689 0 -0.30448272519713571 -0.5 0 -0.29974830355394078 -0.48898339556612441 0 -0.31514967016672513 -0.4807775119637035 0 -0.29974830355394078 -0.48898339556612441 0 -0.30491119196482053 -0.47569399491461228 0 -0.31599948551435819 -0.46334718112597112 0 -0.31514967016672513 -0.4807775119637035 0 -0.30491119196482053 -0.47569399491461228 0 -0.29854738507203382 -0.4669297194900347 0 -0.30491119196482053 -0.47569399491461228 0 -0.2951111155170445 -0.47843216642722791 0 -0.29974830355394078 -0.48898339556612441 0 -0.30491119196482053 -0.47569399491461228 0 -0.2951111155170445 -0.47843216642722791 0 -0.29974830355394078 -0.48898339556612441 0 -0.2951111155170445 -0.47843216642722791 0 -0.28603912562623901 -0.48413531770519452 0 -0.29854738507203382 -0.4669297194900347 0 -0.2951111155170445 -0.47843216642722791 0 -0.28603217072138981 -0.47147440896916221 0 -0.28603217072138981 -0.47147440896916221 0 -0.28603912562623901 -0.48413531770519452 0 -0.27916285571425142 -0.47922226311528993 0 -0.2951111155170445 -0.47843216642722791 0 -0.28603217072138981 -0.47147440896916221 0 -0.28603912562623901 -0.48413531770519452 0 -0.29974830355394078 -0.48898339556612441 0 -0.27643444696232611 -0.5 0 -0.26884633040628497 -0.48712020123690181 0 -0.29974830355394078 -0.48898339556612441 0 -0.28603912562623901 -0.48413531770519452 0 -0.26884633040628497 -0.48712020123690181 0 -0.29974830355394078 -0.48898339556612441 0 -0.26884633040628497 -0.48712020123690181 0 -0.30448272519713571 -0.5 0 -0.29974830355394078 -0.48898339556612441 0 -0.27643444696232611 -0.5 0 -0.28603912562623901 -0.48413531770519452 0 -0.26884633040628497 -0.48712020123690181 0 -0.27562872911204389 -0.48232813581179468 0 -0.26884633040628497 -0.48712020123690181 0 -0.2702668493390355 -0.48225875009909519 0 -0.26372406688378142 -0.46886533964189148 0 -0.26884633040628497 -0.48712020123690181 0 -0.26372406688378142 -0.46886533964189148 0 -0.28603217072138981 -0.47147440896916221 0 -0.2752977883595823 -0.4730246893395772 0 -0.27916285571425142 -0.47922226311528993 0 -0.27584045571575122 -0.46194168674405861 0 -0.28603217072138981 -0.47147440896916221 0 -0.2752977883595823 -0.4730246893395772 0 -0.28603912562623901 -0.48413531770519452 0 -0.27916285571425142 -0.47922226311528993 0 -0.27562872911204389 -0.48232813581179468 0 -0.2752977883595823 -0.4730246893395772 0 -0.27916285571425142 -0.47922226311528993 0 -0.27285794081652398 -0.47850025867559209 0 -0.27916285571425142 -0.47922226311528993 0 -0.27562872911204389 -0.48232813581179468 0 -0.27285794081652398 -0.47850025867559209 0 -0.27562872911204389 -0.48232813581179468 0 -0.2702668493390355 -0.48225875009909519 0 -0.27285794081652398 -0.47850025867559209 0 -0.26884633040628497 -0.48712020123690181 0 -0.27562872911204389 -0.48232813581179468 0 -0.2702668493390355 -0.48225875009909519 0 -0.2702668493390355 -0.48225875009909519 0 -0.27285794081652398 -0.47850025867559209 0 -0.26372406688378142 -0.46886533964189148 0 -0.2752977883595823 -0.4730246893395772 0 -0.27285794081652398 -0.47850025867559209 0 -0.26372406688378142 -0.46886533964189148 0 -0.26884633040628497 -0.48712020123690181 0 -0.26372406688378142 -0.46886533964189148 0 -0.26359809029588138 -0.47865363970898012 0 -0.26372406688378142 -0.46886533964189148 0 -0.26071179930068389 -0.4744995441031159 0 -0.26359809029588138 -0.47865363970898012 0 -0.25448868938989239 -0.46551658331972168 0 -0.26372406688378142 -0.46886533964189148 0 -0.25622256312129388 -0.47291972447351949 0 -0.26372406688378142 -0.46886533964189148 0 -0.26071179930068389 -0.4744995441031159 0 -0.25622256312129388 -0.47291972447351949 0 -0.26071179930068389 -0.4744995441031159 0 -0.2593024769017791 -0.47755947258807252 0 -0.25622256312129388 -0.47291972447351949 0 -0.26884633040628497 -0.48712020123690181 0 -0.26359809029588138 -0.47865363970898012 0 -0.25585356266039799 -0.48138887617308618 0 -0.26071179930068389 -0.4744995441031159 0 -0.2593024769017791 -0.47755947258807252 0 -0.26359809029588138 -0.47865363970898012 0 -0.2593024769017791 -0.47755947258807252 0 -0.26359809029588138 -0.47865363970898012 0 -0.25585356266039799 -0.48138887617308618 0 -0.25585356266039799 -0.48138887617308618 0 -0.25434956959295307 -0.47870590914081501 0 -0.24913946419109059 -0.48022925100226899 0 -0.25434956959295307 -0.47870590914081501 0 -0.24913946419109059 -0.48022925100226899 0 -0.24961658195873521 -0.47595302610820811 0 -0.2593024769017791 -0.47755947258807252 0 -0.25585356266039799 -0.48138887617308618 0 -0.25434956959295307 -0.47870590914081501 0 -0.2593024769017791 -0.47755947258807252 0 -0.25434956959295307 -0.47870590914081501 0 -0.25622256312129388 -0.47291972447351949 0 -0.25434956959295307 -0.47870590914081501 0 -0.25622256312129388 -0.47291972447351949 0 -0.24961658195873521 -0.47595302610820811 0 -0.25622256312129388 -0.47291972447351949 0 -0.24865272612678421 -0.46916921130831418 0 -0.24961658195873521 -0.47595302610820811 0 -0.25448868938989239 -0.46551658331972168 0 -0.25622256312129388 -0.47291972447351949 0 -0.24865272612678421 -0.46916921130831418 0 -0.26884633040628497 -0.48712020123690181 0 -0.23988544457439889 -0.48606478336147912 0 -0.26884633040628497 -0.48712020123690181 0 -0.24838616872751629 -0.5 0 -0.23988544457439889 -0.48606478336147912 0 -0.26884633040628497 -0.48712020123690181 0 -0.25585356266039799 -0.48138887617308618 0 -0.23988544457439889 -0.48606478336147912 0 -0.27643444696232611 -0.5 0 -0.26884633040628497 -0.48712020123690181 0 -0.24838616872751629 -0.5 0 -0.24838616872751629 -0.5 0 -0.23988544457439889 -0.48606478336147912 0 -0.22942901921837711 -0.48602998129573621 0 -0.24164847624031879 -0.47676659739179028 0 -0.22942901921837711 -0.48602998129573621 0 -0.23500744367045739 -0.46790786696777681 0 -0.25585356266039799 -0.48138887617308618 0 -0.23988544457439889 -0.48606478336147912 0 -0.24913946419109059 -0.48022925100226899 0 -0.24913946419109059 -0.48022925100226899 0 -0.24961658195873521 -0.47595302610820811 0 -0.24164847624031879 -0.47676659739179028 0 -0.23988544457439889 -0.48606478336147912 0 -0.24913946419109059 -0.48022925100226899 0 -0.24164847624031879 -0.47676659739179028 0 -0.24865272612678421 -0.46916921130831418 0 -0.24961658195873521 -0.47595302610820811 0 -0.24164847624031879 -0.47676659739179028 0 -0.24865272612678421 -0.46916921130831418 0 -0.24239123933355469 -0.46909690027409068 0 -0.24164847624031879 -0.47676659739179028 0 -0.24239123933355469 -0.46909690027409068 0 -0.24164847624031879 -0.47676659739179028 0 -0.23500744367045739 -0.46790786696777681 0 -0.23988544457439889 -0.48606478336147912 0 -0.24164847624031879 -0.47676659739179028 0 -0.22942901921837711 -0.48602998129573621 0 -0.22328670236251599 -0.46970404062467802 0 -0.21993207861940359 -0.47840753175635109 0 -0.22942901921837711 -0.48602998129573621 0 -0.22942901921837711 -0.48602998129573621 0 -0.23500744367045739 -0.46790786696777681 0 -0.2306419758940528 -0.46090809291992868 0 -0.22328670236251599 -0.46970404062467802 0 -0.22942901921837711 -0.48602998129573621 0 -0.2306419758940528 -0.46090809291992868 0 -0.21993207861940359 -0.47840753175635109 0 -0.22942901921837711 -0.48602998129573621 0 -0.21226722074282131 -0.48480594231499202 0 -0.22942901921837711 -0.48602998129573621 0 -0.2306419758940528 -0.46090809291992868 0 -0.22328670236251599 -0.46970404062467802 0 -0.21993207861940359 -0.47840753175635109 0 -0.21474537215390019 -0.47309016278999849 0 -0.22033789049270669 -0.5 0 -0.22942901921837711 -0.48602998129573621 0 -0.21226722074282131 -0.48480594231499202 0 -0.24838616872751629 -0.5 0 -0.22033789049270669 -0.5 0 -0.22942901921837711 -0.48602998129573621 0 -0.2438929202173932 -0.44888236536222981 0 -0.23185493256972861 -0.4357862045441212 0 -0.24207067545836131 -0.43176672764086388 0 -0.2438929202173932 -0.44888236536222981 0 -0.2306419758940528 -0.46090809291992868 0 -0.23185493256972861 -0.4357862045441212 0 -0.25277839676432828 -0.42985686375668242 0 -0.2438929202173932 -0.44888236536222981 0 -0.2438929202173932 -0.44888236536222981 0 -0.24587586382851731 -0.46298196558418458 0 -0.23500744367045739 -0.46790786696777681 0 -0.2438929202173932 -0.44888236536222981 0 -0.23500744367045739 -0.46790786696777681 0 -0.2438929202173932 -0.44888236536222981 0 -0.23500744367045739 -0.46790786696777681 0 -0.2306419758940528 -0.46090809291992868 0 -0.2526759555266353 -0.45794040823481069 0 -0.2438929202173932 -0.44888236536222981 0 -0.24587586382851731 -0.46298196558418458 0 -0.25448868938989239 -0.46551658331972168 0 -0.24865272612678421 -0.46916921130831418 0 -0.24587586382851731 -0.46298196558418458 0 -0.24865272612678421 -0.46916921130831418 0 -0.24239123933355469 -0.46909690027409068 0 -0.24587586382851731 -0.46298196558418458 0 -0.24239123933355469 -0.46909690027409068 0 -0.24587586382851731 -0.46298196558418458 0 -0.23500744367045739 -0.46790786696777681 0 -0.22328670236251599 -0.46970404062467802 0 -0.2306419758940528 -0.46090809291992868 0 -0.2144322137249238 -0.45906035296830361 0 -0.2306419758940528 -0.46090809291992868 0 -0.2233925464143697 -0.45019622694505879 0 -0.2144322137249238 -0.45906035296830361 0 -0.21664106346877329 -0.44503025734788138 0 -0.21269398839781389 -0.43437451641441771 0 -0.23185493256972861 -0.4357862045441212 0 -0.2306419758940528 -0.46090809291992868 0 -0.23185493256972861 -0.4357862045441212 0 -0.2306419758940528 -0.46090809291992868 0 -0.2233925464143697 -0.45019622694505879 0 -0.23185493256972861 -0.4357862045441212 0 -0.2233925464143697 -0.45019622694505879 0 -0.21664106346877329 -0.44503025734788138 0 -0.23185493256972861 -0.4357862045441212 0 -0.21664106346877329 -0.44503025734788138 0 -0.2144322137249238 -0.45906035296830361 0 -0.19629268420352169 -0.44210144408657559 0 -0.21664106346877329 -0.44503025734788138 0 -0.19629268420352169 -0.44210144408657559 0 -0.21269398839781389 -0.43437451641441771 0 -0.2233925464143697 -0.45019622694505879 0 -0.21664106346877329 -0.44503025734788138 0 -0.2144322137249238 -0.45906035296830361 0 -0.2144322137249238 -0.45906035296830361 0 -0.21474537215390019 -0.47309016278999849 0 -0.1942911482307092 -0.47105072204328569 0 -0.22328670236251599 -0.46970404062467802 0 -0.2144322137249238 -0.45906035296830361 0 -0.21474537215390019 -0.47309016278999849 0 -0.2144322137249238 -0.45906035296830361 0 -0.19629268420352169 -0.44210144408657559 0 -0.1942911482307092 -0.47105072204328569 0 -0.19629268420352169 -0.44210144408657559 0 -0.1942911482307092 -0.47105072204328569 0 -0.18509208794833709 -0.45650429218744948 0 -0.19629268420352169 -0.44210144408657559 0 -0.1942911482307092 -0.47105072204328569 0 -0.22033789049270669 -0.5 0 -0.21226722074282131 -0.48480594231499202 0 -0.19228961225789701 -0.49999999999999561 0 -0.21993207861940359 -0.47840753175635109 0 -0.21226722074282131 -0.48480594231499202 0 -0.21474537215390019 -0.47309016278999849 0 -0.21226722074282131 -0.48480594231499202 0 -0.21474537215390019 -0.47309016278999849 0 -0.1942911482307092 -0.47105072204328569 0 -0.1942911482307092 -0.47105072204328569 0 -0.19228961225789701 -0.49999999999999561 0 -0.21226722074282131 -0.48480594231499202 0 -0.1942911482307092 -0.47105072204328569 0 -0.19228961225789701 -0.49999999999999561 0 -0.1942911482307092 -0.47105072204328569 0 -0.19228961225789701 -0.49999999999999561 0 -0.17951563741407739 -0.48524901844156509 0 -0.19228961225789701 -0.49999999999999561 0 -0.17951563741407739 -0.48524901844156509 0 -0.1670779648661872 -0.49999999999999972 0 -0.1670779648661872 -0.49999999999999972 0 -0.1658186220536271 -0.47531765172962281 0 -0.1670779648661872 -0.49999999999999972 0 -0.15668817000873 -0.4892576873259894 0 -0.1658186220536271 -0.47531765172962281 0 -0.17951563741407739 -0.48524901844156509 0 -0.1670779648661872 -0.49999999999999972 0 -0.1658186220536271 -0.47531765172962281 0 -0.1670779648661872 -0.49999999999999972 0 -0.15668817000873 -0.4892576873259894 0 -0.145429691767365 -0.50000000000000078 0 -0.15668817000873 -0.4892576873259894 0 -0.1658186220536271 -0.47531765172962281 0 -0.14842640134774071 -0.48171309757433511 0 -0.1942911482307092 -0.47105072204328569 0 -0.17951563741407739 -0.48524901844156509 0 -0.17663456165171351 -0.46475182636628459 0 -0.17951563741407739 -0.48524901844156509 0 -0.1658186220536271 -0.47531765172962281 0 -0.17663456165171351 -0.46475182636628459 0 -0.1942911482307092 -0.47105072204328569 0 -0.17663456165171351 -0.46475182636628459 0 -0.18509208794833709 -0.45650429218744948 0 -0.17663456165171351 -0.46475182636628459 0 -0.17670728585162029 -0.44902635716934419 0 -0.1667520248100636 -0.45182004485292843 0 -0.17663456165171351 -0.46475182636628459 0 -0.18509208794833709 -0.45650429218744948 0 -0.17670728585162029 -0.44902635716934419 0 -0.19629268420352169 -0.44210144408657559 0 -0.17670728585162029 -0.44902635716934419 0 -0.17909469981473711 -0.43703389091764772 0 -0.19629268420352169 -0.44210144408657559 0 -0.18509208794833709 -0.45650429218744948 0 -0.17670728585162029 -0.44902635716934419 0 -0.17670728585162029 -0.44902635716934419 0 -0.16455927924106939 -0.45063530345924557 0 -0.17909469981473711 -0.43703389091764772 0 -0.16455927924106939 -0.45063530345924557 0 -0.1635123375900111 -0.43011588794156752 0 -0.16455927924106939 -0.45063530345924557 0 -0.1635123375900111 -0.43011588794156752 0 -0.17909469981473711 -0.43703389091764772 0 -0.16455927924106939 -0.45063530345924557 0 -0.14338909304186029 -0.43919704256073488 0 -0.1635123375900111 -0.43011588794156752 0 -0.17670728585162029 -0.44902635716934419 0 -0.1667520248100636 -0.45182004485292843 0 -0.16455927924106939 -0.45063530345924557 0 -0.1667520248100636 -0.45182004485292843 0 -0.16455927924106939 -0.45063530345924557 0 -0.1658186220536271 -0.47531765172962281 0 -0.16455927924106939 -0.45063530345924557 0 -0.1658186220536271 -0.47531765172962281 0 -0.17663456165171351 -0.46475182636628459 0 -0.1667520248100636 -0.45182004485292843 0 -0.1658186220536271 -0.47531765172962281 0 -0.1667520248100636 -0.45182004485292843 0 -0.16455927924106939 -0.45063530345924557 0 -0.1658186220536271 -0.47531765172962281 0 -0.16455927924106939 -0.45063530345924557 0 -0.15044828628629761 -0.46107627229244219 0 -0.15044828628629761 -0.46107627229244219 0 -0.13429839294665791 -0.45693130464154469 0 -0.1393461844610927 -0.46974479320575219 0 -0.16455927924106939 -0.45063530345924557 0 -0.14338909304186029 -0.43919704256073488 0 -0.16455927924106939 -0.45063530345924557 0 -0.15044828628629761 -0.46107627229244219 0 -0.14338909304186029 -0.43919704256073488 0 -0.15044828628629761 -0.46107627229244219 0 -0.14338909304186029 -0.43919704256073488 0 -0.13429839294665791 -0.45693130464154469 0 -0.14338909304186029 -0.43919704256073488 0 -0.13429839294665791 -0.45693130464154469 0 -0.1243723122818832 -0.44516332003850689 0 -0.13429839294665791 -0.45693130464154469 0 -0.12960541785790911 -0.46605733166593988 0 -0.1147081654268024 -0.45836881921097489 0 -0.13429839294665791 -0.45693130464154469 0 -0.12960541785790911 -0.46605733166593988 0 -0.1393461844610927 -0.46974479320575219 0 -0.1393461844610927 -0.46974479320575219 0 -0.13006892859708349 -0.47918440960548792 0 -0.14842640134774071 -0.48171309757433511 0 -0.12960541785790911 -0.46605733166593988 0 -0.1393461844610927 -0.46974479320575219 0 -0.13006892859708349 -0.47918440960548792 0 -0.13006892859708349 -0.47918440960548792 0 -0.145429691767365 -0.50000000000000078 0 -0.13006892859708349 -0.47918440960548792 0 -0.13798538055466689 -0.49999999999999872 0 -0.145429691767365 -0.50000000000000078 0 -0.13006892859708349 -0.47918440960548792 0 -0.13798538055466689 -0.49999999999999872 0 -0.12274862018985699 -0.4864541741906252 0 -0.13798538055466689 -0.49999999999999872 0 -0.12274862018985699 -0.4864541741906252 0 -0.15668817000873 -0.4892576873259894 0 -0.145429691767365 -0.50000000000000078 0 -0.14842640134774071 -0.48171309757433511 0 -0.13006892859708349 -0.47918440960548792 0 -0.145429691767365 -0.50000000000000078 0 -0.14842640134774071 -0.48171309757433511 0 -0.15044828628629761 -0.46107627229244219 0 -0.1393461844610927 -0.46974479320575219 0 -0.14842640134774071 -0.48171309757433511 0 -0.1658186220536271 -0.47531765172962281 0 -0.15044828628629761 -0.46107627229244219 0 -0.14842640134774071 -0.48171309757433511 0 -0.15239772417536721 -0.39875702914712979 0 -0.15030384913011779 -0.38816964820474059 0 -0.13953326207256669 -0.39710755967220779 0 -0.14325431999686339 -0.40404593993742832 0 -0.15239772417536721 -0.39875702914712979 0 -0.13953326207256669 -0.39710755967220779 0 -0.15239772417536721 -0.39875702914712979 0 -0.1513463045305784 -0.40746559988099063 0 -0.16246539593895529 -0.4095964724238893 0 -0.14325431999686339 -0.40404593993742832 0 -0.15239772417536721 -0.39875702914712979 0 -0.1513463045305784 -0.40746559988099063 0 -0.15239772417536721 -0.39875702914712979 0 -0.15030384913011779 -0.38816964820474059 0 -0.1614184542878995 -0.38907705690621103 0 -0.15030384913011779 -0.38816964820474059 0 -0.1528922967424951 -0.37931336463516679 0 -0.1614184542878995 -0.38907705690621103 0 -0.1427505254159169 -0.37780993988910733 0 -0.14000000249945591 -0.3820372010282615 0 -0.13953326207256669 -0.39710755967220779 0 -0.15030384913011779 -0.38816964820474059 0 -0.1427505254159169 -0.37780993988910733 0 -0.13953326207256669 -0.39710755967220779 0 -0.1427505254159169 -0.37780993988910733 0 -0.13953326207256669 -0.39710755967220779 0 -0.15030384913011779 -0.38816964820474059 0 -0.1528922967424951 -0.37931336463516679 0 -0.1427505254159169 -0.37780993988910733 0 -0.1427505254159169 -0.37780993988910733 0 -0.14000000249945591 -0.3820372010282615 0 -0.13134551275170761 -0.39533823115998468 0 -0.1236406835766711 -0.36992909220609288 0 -0.1229577637543615 -0.39776634538166078 0 -0.14000000249945591 -0.3820372010282615 0 -0.13134551275170761 -0.39533823115998468 0 -0.14000000249945591 -0.3820372010282615 0 -0.13134551275170761 -0.39533823115998468 0 -0.1236406835766711 -0.36992909220609288 0 -0.14000000249945591 -0.3820372010282615 0 -0.13134551275170761 -0.39533823115998468 0 -0.1320157066361308 -0.40241209024262231 0 -0.14000000249945591 -0.3820372010282615 0 -0.1320157066361308 -0.40241209024262231 0 -0.13501490204207689 -0.41092362410803052 0 -0.14000000249945591 -0.3820372010282615 0 -0.13501490204207689 -0.41092362410803052 0 -0.14000000249945591 -0.3820372010282615 0 -0.13953326207256669 -0.39710755967220779 0 -0.13501490204207689 -0.41092362410803052 0 -0.14325431999686339 -0.40404593993742832 0 -0.13953326207256669 -0.39710755967220779 0 -0.13501490204207689 -0.41092362410803052 0 -0.13134551275170761 -0.39533823115998468 0 -0.12269102300395961 -0.40863926129170808 0 -0.13134551275170761 -0.39533823115998468 0 -0.1320157066361308 -0.40241209024262231 0 -0.12269102300395961 -0.40863926129170808 0 -0.13134551275170761 -0.39533823115998468 0 -0.12269102300395961 -0.40863926129170808 0 -0.1229577637543615 -0.39776634538166078 0 -0.138641207676126 -0.41042611136906149 0 -0.1217143975191624 -0.42748619505323182 0 -0.1320157066361308 -0.40241209024262231 0 -0.12952420381814089 -0.41070954740573751 0 -0.12269102300395961 -0.40863926129170808 0 -0.138641207676126 -0.41042611136906149 0 -0.14495925633763879 -0.41816371403648422 0 -0.1217143975191624 -0.42748619505323182 0 -0.1311804794918931 -0.41472813301569073 0 -0.138641207676126 -0.41042611136906149 0 -0.1217143975191624 -0.42748619505323182 0 -0.1320157066361308 -0.40241209024262231 0 -0.12952420381814089 -0.41070954740573751 0 -0.13501490204207689 -0.41092362410803052 0 -0.12952420381814089 -0.41070954740573751 0 -0.1275640029911447 -0.41673523359610642 0 -0.12269102300395961 -0.40863926129170808 0 -0.12952420381814089 -0.41070954740573751 0 -0.1275640029911447 -0.41673523359610642 0 -0.1311804794918931 -0.41472813301569073 0 -0.12952420381814089 -0.41070954740573751 0 -0.1311804794918931 -0.41472813301569073 0 -0.13501490204207689 -0.41092362410803052 0 -0.1275640029911447 -0.41673523359610642 0 -0.1311804794918931 -0.41472813301569073 0 -0.1217143975191624 -0.42748619505323182 0 -0.14325431999686339 -0.40404593993742832 0 -0.138641207676126 -0.41042611136906149 0 -0.13501490204207689 -0.41092362410803052 0 -0.1311804794918931 -0.41472813301569073 0 -0.138641207676126 -0.41042611136906149 0 -0.13501490204207689 -0.41092362410803052 0 -0.14495925633763879 -0.41816371403648422 0 -0.1217143975191624 -0.42748619505323182 0 -0.14338909304186029 -0.43919704256073488 0 -0.1217143975191624 -0.42748619505323182 0 -0.14338909304186029 -0.43919704256073488 0 -0.1361156678407516 -0.42820172282068458 0 -0.1217143975191624 -0.42748619505323182 0 -0.14338909304186029 -0.43919704256073488 0 -0.1243723122818832 -0.44516332003850689 0 -0.1217143975191624 -0.42748619505323182 0 -0.1361156678407516 -0.42820172282068458 0 -0.14495925633763879 -0.41816371403648422 0 -0.1217143975191624 -0.42748619505323182 0 -0.14338909304186029 -0.43919704256073488 0 -0.14811593412132679 -0.42616684951807049 0 -0.1635123375900111 -0.43011588794156752 0 -0.14338909304186029 -0.43919704256073488 0 -0.1361156678407516 -0.42820172282068458 0 -0.14811593412132679 -0.42616684951807049 0 -0.1361156678407516 -0.42820172282068458 0 -0.14811593412132679 -0.42616684951807049 0 -0.14495925633763879 -0.41816371403648422 0 -0.14811593412132679 -0.42616684951807049 0 -0.1527172960574672 -0.41711310962645171 0 -0.1635123375900111 -0.43011588794156752 0 -0.14325431999686339 -0.40404593993742832 0 -0.14590454782629311 -0.41117013395770841 0 -0.1513463045305784 -0.40746559988099063 0 -0.14325431999686339 -0.40404593993742832 0 -0.138641207676126 -0.41042611136906149 0 -0.14590454782629311 -0.41117013395770841 0 -0.138641207676126 -0.41042611136906149 0 -0.14590454782629311 -0.41117013395770841 0 -0.14495925633763879 -0.41816371403648422 0 -0.14590454782629311 -0.41117013395770841 0 -0.14495925633763879 -0.41816371403648422 0 -0.1527172960574672 -0.41711310962645171 0 -0.14811593412132679 -0.42616684951807049 0 -0.14495925633763879 -0.41816371403648422 0 -0.1527172960574672 -0.41711310962645171 0 -0.14590454782629311 -0.41117013395770841 0 -0.1527172960574672 -0.41711310962645171 0 -0.1513463045305784 -0.40746559988099063 0 -0.1527172960574672 -0.41711310962645171 0 -0.1513463045305784 -0.40746559988099063 0 -0.16246539593895529 -0.4095964724238893 0 -0.16246539593895529 -0.4095964724238893 0 -0.1635123375900111 -0.43011588794156752 0 -0.1842131385575603 -0.41910740226732263 0 -0.16246539593895529 -0.4095964724238893 0 -0.1635123375900111 -0.43011588794156752 0 -0.1527172960574672 -0.41711310962645171 0 -0.16246539593895529 -0.4095964724238893 0 -0.1635123375900111 -0.43011588794156752 0 -0.1635123375900111 -0.43011588794156752 0 -0.17909469981473711 -0.43703389091764772 0 -0.1842131385575603 -0.41910740226732263 0 -0.17909469981473711 -0.43703389091764772 0 -0.1842131385575603 -0.41910740226732263 0 -0.1897844568165358 -0.43124219287539661 0 -0.1842131385575603 -0.41910740226732263 0 -0.17254065409991759 -0.39598930975237462 0 -0.19248749332056531 -0.40813018992856559 0 -0.16246539593895529 -0.4095964724238893 0 -0.1842131385575603 -0.41910740226732263 0 -0.17254065409991759 -0.39598930975237462 0 -0.1842131385575603 -0.41910740226732263 0 -0.17254065409991759 -0.39598930975237462 0 -0.17254065409991759 -0.39598930975237462 0 -0.1922412644940612 -0.39356727608419689 0 -0.19248749332056531 -0.40813018992856559 0 -0.17254065409991759 -0.39598930975237462 0 -0.18204446772020469 -0.38723509400886891 0 -0.1922412644940612 -0.39356727608419689 0 -0.16246539593895529 -0.4095964724238893 0 -0.17254065409991759 -0.39598930975237462 0 -0.1614184542878995 -0.38907705690621103 0 -0.16246539593895529 -0.4095964724238893 0 -0.1614184542878995 -0.38907705690621103 0 -0.15239772417536721 -0.39875702914712979 0 -0.16246539593895529 -0.4095964724238893 0 -0.1614184542878995 -0.38907705690621103 0 -0.17254065409991759 -0.39598930975237462 0 -0.1614184542878995 -0.38907705690621103 0 -0.16086816964227479 -0.37287121723742661 0 -0.17254065409991759 -0.39598930975237462 0 -0.16086816964227479 -0.37287121723742661 0 -0.1528922967424951 -0.37931336463516679 0 -0.1614184542878995 -0.38907705690621103 0 -0.16086816964227479 -0.37287121723742661 0 -0.17254065409991759 -0.39598930975237462 0 -0.1756166407229362 -0.38086853002806809 0 -0.16086816964227479 -0.37287121723742661 0 -0.1756166407229362 -0.38086853002806809 0 -0.18585596307356969 -0.37789972306682379 0 -0.17677394907871399 -0.37034730607484689 0 -0.17254065409991759 -0.39598930975237462 0 -0.1756166407229362 -0.38086853002806809 0 -0.18204446772020469 -0.38723509400886891 0 -0.18204446772020469 -0.38723509400886891 0 -0.18585596307356969 -0.37789972306682379 0 -0.19332790371640271 -0.38311554865196168 0 -0.1756166407229362 -0.38086853002806809 0 -0.18204446772020469 -0.38723509400886891 0 -0.18585596307356969 -0.37789972306682379 0 -0.18585596307356969 -0.37789972306682379 0 -0.19683097005610031 -0.37591643577066142 0 -0.19332790371640271 -0.38311554865196168 0 -0.19683097005610031 -0.37591643577066142 0 -0.19332790371640271 -0.38311554865196168 0 -0.2096668532380776 -0.38095921432925778 0 -0.19332790371640271 -0.38311554865196168 0 -0.1922412644940612 -0.39356727608419689 0 -0.2096668532380776 -0.38095921432925778 0 -0.18204446772020469 -0.38723509400886891 0 -0.19332790371640271 -0.38311554865196168 0 -0.1922412644940612 -0.39356727608419689 0 -0.1922412644940612 -0.39356727608419689 0 -0.2055639670382424 -0.40389108948329339 0 -0.2096668532380776 -0.38095921432925778 0 -0.1922412644940612 -0.39356727608419689 0 -0.2055639670382424 -0.40389108948329339 0 -0.19248749332056531 -0.40813018992856559 0 -0.2055639670382424 -0.40389108948329339 0 -0.22035794559784441 -0.40769801924320331 0 -0.22394567627217141 -0.39438770011327812 0 -0.2055639670382424 -0.40389108948329339 0 -0.2096668532380776 -0.38095921432925778 0 -0.2055639670382424 -0.40389108948329339 0 -0.21723702678409851 -0.38688865585329552 0 -0.22394567627217141 -0.39438770011327812 0 -0.2055639670382424 -0.40389108948329339 0 -0.21723702678409851 -0.38688865585329552 0 -0.2096668532380776 -0.38095921432925778 0 -0.21723702678409851 -0.38688865585329552 0 -0.2096668532380776 -0.38095921432925778 0 -0.21885770785504291 -0.37620751964425009 0 -0.19683097005610031 -0.37591643577066142 0 -0.2096668532380776 -0.38095921432925778 0 -0.20489681975196239 -0.3688247569803349 0 -0.19629268420352169 -0.44210144408657559 0 -0.17909469981473711 -0.43703389091764772 0 -0.1897844568165358 -0.43124219287539661 0 -0.1842131385575603 -0.41910740226732263 0 -0.1897844568165358 -0.43124219287539661 0 -0.20146108083840711 -0.42682296463732899 0 -0.19629268420352169 -0.44210144408657559 0 -0.1897844568165358 -0.43124219287539661 0 -0.20146108083840711 -0.42682296463732899 0 -0.2055639670382424 -0.40389108948329339 0 -0.20146108083840711 -0.42682296463732899 0 -0.19248749332056531 -0.40813018992856559 0 -0.1842131385575603 -0.41910740226732263 0 -0.20146108083840711 -0.42682296463732899 0 -0.19248749332056531 -0.40813018992856559 0 -0.2055639670382424 -0.40389108948329339 0 -0.20146108083840711 -0.42682296463732899 0 -0.2187472285777963 -0.42184385159542642 0 -0.2055639670382424 -0.40389108948329339 0 -0.20146108083840711 -0.42682296463732899 0 -0.2055639670382424 -0.40389108948329339 0 -0.2187472285777963 -0.42184385159542642 0 -0.22035794559784441 -0.40769801924320331 0 -0.19629268420352169 -0.44210144408657559 0 -0.20146108083840711 -0.42682296463732899 0 -0.21269398839781389 -0.43437451641441771 0 -0.20146108083840711 -0.42682296463732899 0 -0.2187472285777963 -0.42184385159542642 0 -0.21269398839781389 -0.43437451641441771 0 -0.2187472285777963 -0.42184385159542642 0 -0.23185493256972861 -0.4357862045441212 0 -0.23317491050316769 -0.41066943578081561 0 -0.23185493256972861 -0.4357862045441212 0 -0.23317491050316769 -0.41066943578081561 0 -0.2187472285777963 -0.42184385159542642 0 -0.21269398839781389 -0.43437451641441771 0 -0.23185493256972861 -0.4357862045441212 0 -0.2187472285777963 -0.42184385159542642 0 -0.22035794559784441 -0.40769801924320331 0 -0.23317491050316769 -0.41066943578081561 0 -0.25277839676432828 -0.42985686375668242 0 -0.24631039254109749 -0.40680601497229629 0 -0.25277839676432828 -0.42985686375668242 0 -0.24631039254109749 -0.40680601497229629 0 -0.24254105121010719 -0.42024498916700181 0 -0.23317491050316769 -0.41066943578081561 0 -0.23983171401121481 -0.40904053441123461 0 -0.24170809553930661 -0.40219551594340391 0 -0.23317491050316769 -0.41066943578081561 0 -0.23983171401121481 -0.40904053441123461 0 -0.24254105121010719 -0.42024498916700181 0 -0.23983171401121481 -0.40904053441123461 0 -0.24631039254109749 -0.40680601497229629 0 -0.24254105121010719 -0.42024498916700181 0 -0.23185493256972861 -0.4357862045441212 0 -0.23317491050316769 -0.41066943578081561 0 -0.24254105121010719 -0.42024498916700181 0 -0.25277839676432828 -0.42985686375668242 0 -0.2438929202173932 -0.44888236536222981 0 -0.24207067545836131 -0.43176672764086388 0 -0.23185493256972861 -0.4357862045441212 0 -0.24254105121010719 -0.42024498916700181 0 -0.24207067545836131 -0.43176672764086388 0 -0.25277839676432828 -0.42985686375668242 0 -0.24254105121010719 -0.42024498916700181 0 -0.24207067545836131 -0.43176672764086388 0 -0.2285966196477775 -0.37571390119351561 0 -0.2343757768849892 -0.38357628578054981 0 -0.22978917494361209 -0.36632972176904088 0 -0.2273585087998278 -0.38891284350081301 0 -0.2285966196477775 -0.37571390119351561 0 -0.2216329659849034 -0.36749611423081091 0 -0.2273585087998278 -0.38891284350081301 0 -0.21885770785504291 -0.37620751964425009 0 -0.2216329659849034 -0.36749611423081091 0 -0.2273585087998278 -0.38891284350081301 0 -0.21885770785504291 -0.37620751964425009 0 -0.22394567627217141 -0.39438770011327812 0 -0.21885770785504291 -0.37620751964425009 0 -0.22394567627217141 -0.39438770011327812 0 -0.21723702678409851 -0.38688865585329552 0 -0.21885770785504291 -0.37620751964425009 0 -0.22394567627217141 -0.39438770011327812 0 -0.2273585087998278 -0.38891284350081301 0 -0.2216329659849034 -0.36749611423081091 0 -0.2273585087998278 -0.38891284350081301 0 -0.2285966196477775 -0.37571390119351561 0 -0.2343757768849892 -0.38357628578054981 0 -0.22035794559784441 -0.40769801924320331 0 -0.23317491050316769 -0.41066943578081561 0 -0.22394567627217141 -0.39438770011327812 0 -0.23317491050316769 -0.41066943578081561 0 -0.2273585087998278 -0.38891284350081301 0 -0.23317491050316769 -0.41066943578081561 0 -0.2350081118992797 -0.39034831871244091 0 -0.2343757768849892 -0.38357628578054981 0 -0.23317491050316769 -0.41066943578081561 0 -0.2343757768849892 -0.38357628578054981 0 -0.23317491050316769 -0.41066943578081561 0 -0.2273585087998278 -0.38891284350081301 0 -0.2343757768849892 -0.38357628578054981 0 -0.23317491050316769 -0.41066943578081561 0 -0.2273585087998278 -0.38891284350081301 0 -0.22394567627217141 -0.39438770011327812 0 -0.25065274786962882 -0.40632975606627558 0 -0.24656587559282919 -0.39939551549321789 0 -0.247011744196346 -0.38604731225186528 0 -0.25065274786962882 -0.40632975606627558 0 -0.247011744196346 -0.38604731225186528 0 -0.24967159023748001 -0.38899999584528078 0 -0.25065274786962882 -0.40632975606627558 0 -0.247011744196346 -0.38604731225186528 0 -0.24170809553930661 -0.40219551594340391 0 -0.24284650564935559 -0.3949334804030451 0 -0.2350081118992797 -0.39034831871244091 0 -0.23317491050316769 -0.41066943578081561 0 -0.24170809553930661 -0.40219551594340391 0 -0.2350081118992797 -0.39034831871244091 0 -0.24631039254109749 -0.40680601497229629 0 -0.24170809553930661 -0.40219551594340391 0 -0.24630927788571549 -0.40368170061879838 0 -0.23983171401121481 -0.40904053441123461 0 -0.24631039254109749 -0.40680601497229629 0 -0.24170809553930661 -0.40219551594340391 0 -0.24170809553930661 -0.40219551594340391 0 -0.24656587559282919 -0.39939551549321789 0 -0.24630927788571549 -0.40368170061879838 0 -0.24170809553930661 -0.40219551594340391 0 -0.24656587559282919 -0.39939551549321789 0 -0.24284650564935559 -0.3949334804030451 0 -0.25065274786962882 -0.40632975606627558 0 -0.24631039254109749 -0.40680601497229629 0 -0.24630927788571549 -0.40368170061879838 0 -0.25065274786962882 -0.40632975606627558 0 -0.24656587559282919 -0.39939551549321789 0 -0.24630927788571549 -0.40368170061879838 0 -0.24656587559282919 -0.39939551549321789 0 -0.24284650564935559 -0.3949334804030451 0 -0.247011744196346 -0.38604731225186528 0 -0.2350081118992797 -0.39034831871244091 0 -0.2343757768849892 -0.38357628578054981 0 -0.24337074052306221 -0.36576486843745498 0 -0.247011744196346 -0.38604731225186528 0 -0.2350081118992797 -0.39034831871244091 0 -0.24337074052306221 -0.36576486843745498 0 -0.247011744196346 -0.38604731225186528 0 -0.24337074052306221 -0.36576486843745498 0 -0.2350081118992797 -0.39034831871244091 0 -0.24337074052306221 -0.36576486843745498 0 -0.24284650564935559 -0.3949334804030451 0 -0.247011744196346 -0.38604731225186528 0 -0.2350081118992797 -0.39034831871244091 0 -0.25836917354891242 -0.36556175445646932 0 -0.247011744196346 -0.38604731225186528 0 -0.24337074052306221 -0.36576486843745498 0 -0.2343757768849892 -0.38357628578054981 0 -0.24337074052306221 -0.36576486843745498 0 -0.2356675021552265 -0.35682299879028428 0 -0.2343757768849892 -0.38357628578054981 0 -0.2356675021552265 -0.35682299879028428 0 -0.2343757768849892 -0.38357628578054981 0 -0.22978917494361209 -0.36632972176904088 0 -0.2356675021552265 -0.35682299879028428 0 -0.2285966196477775 -0.37571390119351561 0 -0.22978917494361209 -0.36632972176904088 0 -0.2216329659849034 -0.36749611423081091 0 -0.22978917494361209 -0.36632972176904088 0 -0.2248628397986607 -0.35717934972935989 0 -0.2356675021552265 -0.35682299879028428 0 -0.22978917494361209 -0.36632972176904088 0 -0.2216329659849034 -0.36749611423081091 0 -0.2248628397986607 -0.35717934972935989 0 -0.2216329659849034 -0.36749611423081091 0 -0.2248628397986607 -0.35717934972935989 0 -0.2159074231699796 -0.34607938496080848 0 -0.2216329659849034 -0.36749611423081091 0 -0.2159074231699796 -0.34607938496080848 0 -0.22461434918032891 -0.34958648487106991 0 -0.2248628397986607 -0.35717934972935989 0 -0.2159074231699796 -0.34607938496080848 0 -0.22461434918032891 -0.34958648487106991 0 -0.2229792716942065 -0.34542617912174411 0 -0.2159074231699796 -0.34607938496080848 0 -0.22461434918032891 -0.34958648487106991 0 -0.2229792716942065 -0.34542617912174411 0 -0.2287465082736411 -0.34696145208067808 0 -0.2229792716942065 -0.34542617912174411 0 -0.2287465082736411 -0.34696145208067808 0 -0.22517936322626969 -0.34113934362197518 0 -0.2229792716942065 -0.34542617912174411 0 -0.22067860017023219 -0.34121740983008603 0 -0.2159074231699796 -0.34607938496080848 0 -0.22461434918032891 -0.34958648487106991 0 -0.2248628397986607 -0.35717934972935989 0 -0.2305757029651567 -0.3522860584627584 0 -0.2248628397986607 -0.35717934972935989 0 -0.2305757029651567 -0.3522860584627584 0 -0.2356675021552265 -0.35682299879028428 0 -0.2305757029651567 -0.3522860584627584 0 -0.23513054974363981 -0.34817052459519449 0 -0.2356675021552265 -0.35682299879028428 0 -0.2305757029651567 -0.3522860584627584 0 -0.2287465082736411 -0.34696145208067808 0 -0.23513054974363981 -0.34817052459519449 0 -0.22461434918032891 -0.34958648487106991 0 -0.2305757029651567 -0.3522860584627584 0 -0.2287465082736411 -0.34696145208067808 0 -0.2287465082736411 -0.34696145208067808 0 -0.23513054974363981 -0.34817052459519449 0 -0.23111073530209111 -0.34201875697829959 0 -0.24337074052306221 -0.36576486843745498 0 -0.2405086611804477 -0.34982147242142048 0 -0.24311585548620729 -0.3478689522377027 0 -0.25075111015048202 -0.34406894507302932 0 -0.24337074052306221 -0.36576486843745498 0 -0.24311585548620729 -0.3478689522377027 0 -0.23513054974363981 -0.34817052459519449 0 -0.23736687332884751 -0.34290930315574381 0 -0.23111073530209111 -0.34201875697829959 0 -0.24337074052306221 -0.36576486843745498 0 -0.2405086611804477 -0.34982147242142048 0 -0.24337074052306221 -0.36576486843745498 0 -0.2405086611804477 -0.34982147242142048 0 -0.2356675021552265 -0.35682299879028428 0 -0.23513054974363981 -0.34817052459519449 0 -0.2390304849347856 -0.34719256310251528 0 -0.23736687332884751 -0.34290930315574381 0 -0.25075111015048202 -0.34406894507302932 0 -0.24337074052306221 -0.36576486843745498 0 -0.23513054974363981 -0.34817052459519449 0 -0.2405086611804477 -0.34982147242142048 0 -0.2390304849347856 -0.34719256310251528 0 -0.2405086611804477 -0.34982147242142048 0 -0.2390304849347856 -0.34719256310251528 0 -0.24311585548620729 -0.3478689522377027 0 -0.2390304849347856 -0.34719256310251528 0 -0.24311585548620729 -0.3478689522377027 0 -0.23736687332884751 -0.34290930315574381 0 -0.23513054974363981 -0.34817052459519449 0 -0.2405086611804477 -0.34982147242142048 0 -0.2356675021552265 -0.35682299879028428 0 -0.24311585548620729 -0.3478689522377027 0 -0.23760013278400741 -0.32066414970299267 0 -0.23433074632279319 -0.33264893788878158 0 -0.25075111015048202 -0.34406894507302932 0 -0.24311585548620729 -0.3478689522377027 0 -0.24717078116015961 -0.32624361391631568 0 -0.24311585548620729 -0.3478689522377027 0 -0.24717078116015961 -0.32624361391631568 0 -0.23760013278400741 -0.32066414970299267 0 -0.24311585548620729 -0.3478689522377027 0 -0.23760013278400741 -0.32066414970299267 0 -0.23736687332884751 -0.34290930315574381 0 -0.23225919564400191 -0.33644598825613792 0 -0.23433074632279319 -0.33264893788878158 0 -0.24311585548620729 -0.3478689522377027 0 -0.23736687332884751 -0.34290930315574381 0 -0.23433074632279319 -0.33264893788878158 0 -0.24717078116015961 -0.32624361391631568 0 -0.23962759562098371 -0.30985148054229922 0 -0.24717078116015961 -0.32624361391631568 0 -0.23760013278400741 -0.32066414970299267 0 -0.23962759562098371 -0.30985148054229922 0 -0.24953735509400329 -0.31687282368963221 0 -0.24717078116015961 -0.32624361391631568 0 -0.23962759562098371 -0.30985148054229922 0 -0.23760013278400741 -0.32066414970299267 0 -0.22789654749923369 -0.31671976346926722 0 -0.2302167798079697 -0.30426169364717542 0 -0.23760013278400741 -0.32066414970299267 0 -0.22603705399311469 -0.32603410452548642 0 -0.23433074632279319 -0.33264893788878158 0 -0.23760013278400741 -0.32066414970299267 0 -0.22789654749923369 -0.31671976346926722 0 -0.22603705399311469 -0.32603410452548642 0 -0.22603705399311469 -0.32603410452548642 0 -0.2177322234118432 -0.31591910600141448 0 -0.21604047685529851 -0.32588135006170232 0 -0.22603705399311469 -0.32603410452548642 0 -0.2205885128782811 -0.33140975354572522 0 -0.21604047685529851 -0.32588135006170232 0 -0.22789654749923369 -0.31671976346926722 0 -0.22603705399311469 -0.32603410452548642 0 -0.2177322234118432 -0.31591910600141448 0 -0.22760811933904521 -0.33698187916829542 0 -0.23111073530209111 -0.34201875697829959 0 -0.23225919564400191 -0.33644598825613792 0 -0.22760811933904521 -0.33698187916829542 0 -0.23111073530209111 -0.34201875697829959 0 -0.22517936322626969 -0.34113934362197518 0 -0.2287465082736411 -0.34696145208067808 0 -0.23111073530209111 -0.34201875697829959 0 -0.22517936322626969 -0.34113934362197518 0 -0.23736687332884751 -0.34290930315574381 0 -0.23111073530209111 -0.34201875697829959 0 -0.23225919564400191 -0.33644598825613792 0 -0.23225919564400191 -0.33644598825613792 0 -0.23433074632279319 -0.33264893788878158 0 -0.22914917858767311 -0.33289122830116691 0 -0.22603705399311469 -0.32603410452548642 0 -0.23433074632279319 -0.33264893788878158 0 -0.22914917858767311 -0.33289122830116691 0 -0.22603705399311469 -0.32603410452548642 0 -0.22914917858767311 -0.33289122830116691 0 -0.22513697538230931 -0.33284118067535928 0 -0.22760811933904521 -0.33698187916829542 0 -0.23225919564400191 -0.33644598825613792 0 -0.22914917858767311 -0.33289122830116691 0 -0.22760811933904521 -0.33698187916829542 0 -0.22914917858767311 -0.33289122830116691 0 -0.22513697538230931 -0.33284118067535928 0 -0.22760811933904521 -0.33698187916829542 0 -0.22513697538230931 -0.33284118067535928 0 -0.22281326789192571 -0.33655477717683357 0 -0.22513697538230931 -0.33284118067535928 0 -0.2205885128782811 -0.33140975354572522 0 -0.22281326789192571 -0.33655477717683357 0 -0.22603705399311469 -0.32603410452548642 0 -0.22513697538230931 -0.33284118067535928 0 -0.2205885128782811 -0.33140975354572522 0 -0.2205885128782811 -0.33140975354572522 0 -0.22281326789192571 -0.33655477717683357 0 -0.21775904685273431 -0.33573027921986032 0 -0.22281326789192571 -0.33655477717683357 0 -0.22067860017023219 -0.34121740983008603 0 -0.21775904685273431 -0.33573027921986032 0 -0.22281326789192571 -0.33655477717683357 0 -0.22517936322626969 -0.34113934362197518 0 -0.22067860017023219 -0.34121740983008603 0 -0.22760811933904521 -0.33698187916829542 0 -0.22281326789192571 -0.33655477717683357 0 -0.22517936322626969 -0.34113934362197518 0 -0.2229792716942065 -0.34542617912174411 0 -0.22517936322626969 -0.34113934362197518 0 -0.22067860017023219 -0.34121740983008603 0 -0.21775904685273431 -0.33573027921986032 0 -0.2159074231699796 -0.34607938496080848 0 -0.21305885224820451 -0.335424138076789 0 -0.2095087032268175 -0.34280192876543802 0 -0.2159074231699796 -0.34607938496080848 0 -0.22067860017023219 -0.34121740983008603 0 -0.21775904685273431 -0.33573027921986032 0 -0.2159074231699796 -0.34607938496080848 0 -0.21305885224820451 -0.335424138076789 0 -0.2159074231699796 -0.34607938496080848 0 -0.21775904685273431 -0.33573027921986032 0 -0.21305885224820451 -0.335424138076789 0 -0.2159074231699796 -0.34607938496080848 0 -0.2205885128782811 -0.33140975354572522 0 -0.21775904685273431 -0.33573027921986032 0 -0.21574425629430419 -0.33141682961510932 0 -0.21775904685273431 -0.33573027921986032 0 -0.21574425629430419 -0.33141682961510932 0 -0.21305885224820451 -0.335424138076789 0 -0.2205885128782811 -0.33140975354572522 0 -0.21574425629430419 -0.33141682961510932 0 -0.21604047685529851 -0.32588135006170232 0 -0.21574425629430419 -0.33141682961510932 0 -0.21250891754880999 -0.33004114892453729 0 -0.21604047685529851 -0.32588135006170232 0 -0.21574425629430419 -0.33141682961510932 0 -0.21250891754880999 -0.33004114892453729 0 -0.21305885224820451 -0.335424138076789 0 -0.21250891754880999 -0.33004114892453729 0 -0.21305885224820451 -0.335424138076789 0 -0.20524766701571759 -0.32757651835565471 0 -0.2095087032268175 -0.34280192876543802 0 -0.20524766701571759 -0.32757651835565471 0 -0.21305885224820451 -0.335424138076789 0 -0.2095087032268175 -0.34280192876543802 0 -0.20524766701571759 -0.32757651835565471 0 -0.2095087032268175 -0.34280192876543802 0 -0.20524766701571759 -0.32757651835565471 0 -0.20079868353507449 -0.34170113897714799 0 -0.2177322234118432 -0.31591910600141448 0 -0.20524766701571759 -0.32757651835565471 0 -0.19884200265906071 -0.30468798515720641 0 -0.2177322234118432 -0.31591910600141448 0 -0.20524766701571759 -0.32757651835565471 0 -0.2177322234118432 -0.31591910600141448 0 -0.21604047685529851 -0.32588135006170232 0 -0.20524766701571759 -0.32757651835565471 0 -0.21250891754880999 -0.33004114892453729 0 -0.21604047685529851 -0.32588135006170232 0 -0.20524766701571759 -0.32757651835565471 0 -0.18994019788656849 -0.31871864603123712 0 -0.2025295166184885 -0.3284206329464287 0 -0.1763956143054225 -0.33058868427132709 0 -0.20524766701571759 -0.32757651835565471 0 -0.19884200265906071 -0.30468798515720641 0 -0.20524766701571759 -0.32757651835565471 0 -0.18994019788656849 -0.31871864603123712 0 -0.19884200265906071 -0.30468798515720641 0 -0.20524766701571759 -0.32757651835565471 0 -0.18994019788656849 -0.31871864603123712 0 -0.2025295166184885 -0.3284206329464287 0 -0.2025295166184885 -0.3284206329464287 0 -0.18723056388584311 -0.34439992753012388 0 -0.1763956143054225 -0.33058868427132709 0 -0.20524766701571759 -0.32757651835565471 0 -0.2025295166184885 -0.3284206329464287 0 -0.18723056388584311 -0.34439992753012388 0 -0.20524766701571759 -0.32757651835565471 0 -0.20079868353507449 -0.34170113897714799 0 -0.18723056388584311 -0.34439992753012388 0 -0.2025295166184885 -0.3284206329464287 0 -0.1763956143054225 -0.33058868427132709 0 -0.20524766701571759 -0.32757651835565471 0 -0.18723056388584311 -0.34439992753012388 0 -0.19436877309936129 -0.35953822456341011 0 -0.18411851625330081 -0.36101890622152788 0 -0.18723056388584311 -0.34439992753012388 0 -0.20079868353507449 -0.34170113897714799 0 -0.20120780001191951 -0.35202618125737528 0 -0.18723056388584311 -0.34439992753012388 0 -0.20120780001191951 -0.35202618125737528 0 -0.19436877309936129 -0.35953822456341011 0 -0.20259138107212959 -0.36139296785085889 0 -0.20120780001191951 -0.35202618125737528 0 -0.19436877309936129 -0.35953822456341011 0 -0.18723056388584311 -0.34439992753012388 0 -0.19436877309936129 -0.35953822456341011 0 -0.1894433694484853 -0.36898759583671648 0 -0.18411851625330081 -0.36101890622152788 0 -0.19436877309936129 -0.35953822456341011 0 -0.1894433694484853 -0.36898759583671648 0 -0.19871377305949109 -0.36854833727795178 0 -0.18585596307356969 -0.37789972306682379 0 -0.19683097005610031 -0.37591643577066142 0 -0.1894433694484853 -0.36898759583671648 0 -0.19683097005610031 -0.37591643577066142 0 -0.1894433694484853 -0.36898759583671648 0 -0.19871377305949109 -0.36854833727795178 0 -0.19683097005610031 -0.37591643577066142 0 -0.19871377305949109 -0.36854833727795178 0 -0.20489681975196239 -0.3688247569803349 0 -0.19436877309936129 -0.35953822456341011 0 -0.19871377305949109 -0.36854833727795178 0 -0.20259138107212959 -0.36139296785085889 0 -0.19871377305949109 -0.36854833727795178 0 -0.20259138107212959 -0.36139296785085889 0 -0.20489681975196239 -0.3688247569803349 0 -0.2096668532380776 -0.38095921432925778 0 -0.21885770785504291 -0.37620751964425009 0 -0.2137697394379135 -0.35802733917522228 0 -0.2096668532380776 -0.38095921432925778 0 -0.20489681975196239 -0.3688247569803349 0 -0.2137697394379135 -0.35802733917522228 0 -0.21885770785504291 -0.37620751964425009 0 -0.2216329659849034 -0.36749611423081091 0 -0.2137697394379135 -0.35802733917522228 0 -0.20259138107212959 -0.36139296785085889 0 -0.20489681975196239 -0.3688247569803349 0 -0.2137697394379135 -0.35802733917522228 0 -0.21885770785504291 -0.37620751964425009 0 -0.2137697394379135 -0.35802733917522228 0 -0.2096668532380776 -0.38095921432925778 0 -0.2137697394379135 -0.35802733917522228 0 -0.2137697394379135 -0.35802733917522228 0 -0.2159074231699796 -0.34607938496080848 0 -0.2216329659849034 -0.36749611423081091 0 -0.2137697394379135 -0.35802733917522228 0 -0.2159074231699796 -0.34607938496080848 0 -0.2095087032268175 -0.34280192876543802 0 -0.2137697394379135 -0.35802733917522228 0 -0.2095087032268175 -0.34280192876543802 0 -0.2137697394379135 -0.35802733917522228 0 -0.2159074231699796 -0.34607938496080848 0 -0.2095087032268175 -0.34280192876543802 0 -0.20120780001191951 -0.35202618125737528 0 -0.2137697394379135 -0.35802733917522228 0 -0.2095087032268175 -0.34280192876543802 0 -0.20079868353507449 -0.34170113897714799 0 -0.20120780001191951 -0.35202618125737528 0 -0.20120780001191951 -0.35202618125737528 0 -0.20259138107212959 -0.36139296785085889 0 -0.2137697394379135 -0.35802733917522228 0 -0.22345399557089571 -0.25089217415423459 0 -0.23929417894220159 -0.25935318406671243 0 -0.22776920282635141 -0.27217576066125881 0 -0.22345399557089571 -0.25089217415423459 0 -0.22776920282635141 -0.27217576066125881 0 -0.2205047091054603 -0.26829544236311742 0 -0.22345399557089571 -0.25089217415423459 0 -0.23929417894220159 -0.25935318406671243 0 -0.22345399557089571 -0.25089217415423459 0 -0.23929417894220159 -0.25935318406671243 0 -0.23501637759635341 -0.24636648197866201 0 -0.22345399557089571 -0.25089217415423459 0 -0.22776920282635141 -0.27217576066125881 0 -0.25659284559555973 -0.25606587484286092 0 -0.23929417894220159 -0.25935318406671243 0 -0.23501637759635341 -0.24636648197866201 0 -0.25513436231350728 -0.26781419397919048 0 -0.23929417894220159 -0.25935318406671243 0 -0.25513436231350728 -0.26781419397919048 0 -0.23929417894220159 -0.25935318406671243 0 -0.2455679334524983 -0.27529750937936193 0 -0.23929417894220159 -0.25935318406671243 0 -0.2455679334524983 -0.27529750937936193 0 -0.22776920282635141 -0.27217576066125881 0 -0.2455679334524983 -0.27529750937936193 0 -0.22776920282635141 -0.27217576066125881 0 -0.24003763598290739 -0.28524918650261549 0 -0.22776920282635141 -0.27217576066125881 0 -0.2205047091054603 -0.26829544236311742 0 -0.23208441008180769 -0.2934593471682827 0 -0.2205047091054603 -0.26829544236311742 0 -0.23208441008180769 -0.2934593471682827 0 -0.2205047091054603 -0.26829544236311742 0 -0.23208441008180769 -0.2934593471682827 0 -0.21504868982247369 -0.29541669570077123 0 -0.22776920282635141 -0.27217576066125881 0 -0.23208441008180769 -0.2934593471682827 0 -0.24003763598290739 -0.28524918650261549 0 -0.22776920282635141 -0.27217576066125881 0 -0.23208441008180769 -0.2934593471682827 0 -0.25075332113986021 -0.28741165931110929 0 -0.2455679334524983 -0.27529750937936193 0 -0.24003763598290739 -0.28524918650261549 0 -0.25075332113986021 -0.28741165931110929 0 -0.24003763598290739 -0.28524918650261549 0 -0.24401331241401991 -0.29790165599306478 0 -0.23208441008180769 -0.2934593471682827 0 -0.24003763598290739 -0.28524918650261549 0 -0.24401331241401991 -0.29790165599306478 0 -0.23208441008180769 -0.2934593471682827 0 -0.24401331241401991 -0.29790165599306478 0 -0.23962759562098371 -0.30985148054229922 0 -0.23760013278400741 -0.32066414970299267 0 -0.23208441008180769 -0.2934593471682827 0 -0.23208441008180769 -0.2934593471682827 0 -0.23962759562098371 -0.30985148054229922 0 -0.23760013278400741 -0.32066414970299267 0 -0.23208441008180769 -0.2934593471682827 0 -0.23962759562098371 -0.30985148054229922 0 -0.25321956381696731 -0.30902317859131018 0 -0.24401331241401991 -0.29790165599306478 0 -0.23962759562098371 -0.30985148054229922 0 -0.25321956381696731 -0.30902317859131018 0 -0.24953735509400329 -0.31687282368963221 0 -0.23962759562098371 -0.30985148054229922 0 -0.23760013278400741 -0.32066414970299267 0 -0.23208441008180769 -0.2934593471682827 0 -0.2302167798079697 -0.30426169364717542 0 -0.23208441008180769 -0.2934593471682827 0 -0.2302167798079697 -0.30426169364717542 0 -0.21504868982247369 -0.29541669570077123 0 -0.2177322234118432 -0.31591910600141448 0 -0.2302167798079697 -0.30426169364717542 0 -0.21504868982247369 -0.29541669570077123 0 -0.22789654749923369 -0.31671976346926722 0 -0.2177322234118432 -0.31591910600141448 0 -0.2302167798079697 -0.30426169364717542 0 -0.2177322234118432 -0.31591910600141448 0 -0.2302167798079697 -0.30426169364717542 0 -0.2177322234118432 -0.31591910600141448 0 -0.19884200265906071 -0.30468798515720641 0 -0.21504868982247369 -0.29541669570077123 0 -0.18994019788656849 -0.31871864603123712 0 -0.19884200265906071 -0.30468798515720641 0 -0.18025600743384099 -0.30262370542966871 0 -0.19884200265906071 -0.30468798515720641 0 -0.20184264228283191 -0.27838028750136101 0 -0.18310164932778031 -0.28499464157907151 0 -0.19884200265906071 -0.30468798515720641 0 -0.21504868982247369 -0.29541669570077123 0 -0.20184264228283191 -0.27838028750136101 0 -0.2205047091054603 -0.26829544236311742 0 -0.21504868982247369 -0.29541669570077123 0 -0.20184264228283191 -0.27838028750136101 0 -0.2205047091054603 -0.26829544236311742 0 -0.20184264228283191 -0.27838028750136101 0 -0.2042979046606882 -0.26048821264900163 0 -0.20184264228283191 -0.27838028750136101 0 -0.1889741997848777 -0.26047730780459938 0 -0.18310164932778031 -0.28499464157907151 0 -0.20184264228283191 -0.27838028750136101 0 -0.1889741997848777 -0.26047730780459938 0 -0.2042979046606882 -0.26048821264900163 0 -0.1889741997848777 -0.26047730780459938 0 -0.18729332869726981 -0.24592945471423619 0 -0.19652690274214701 -0.2482925989192617 0 -0.1889741997848777 -0.26047730780459938 0 -0.2042979046606882 -0.26048821264900163 0 -0.19652690274214701 -0.2482925989192617 0 -0.2205047091054603 -0.26829544236311742 0 -0.2089250081291136 -0.2431315375579518 0 -0.22345399557089571 -0.25089217415423459 0 -0.2205047091054603 -0.26829544236311742 0 -0.2089250081291136 -0.2431315375579518 0 -0.2042979046606882 -0.26048821264900163 0 -0.2089250081291136 -0.2431315375579518 0 -0.19652690274214701 -0.2482925989192617 0 -0.2205047091054603 -0.26829544236311742 0 -0.2042979046606882 -0.26048821264900163 0 -0.2089250081291136 -0.2431315375579518 0 -0.16258987565677999 -0.25881059266954137 0 -0.17609763826073629 -0.25964751339096748 0 -0.17512020245648491 -0.27012089123709809 0 -0.16258987565677999 -0.25881059266954137 0 -0.17609763826073629 -0.25964751339096748 0 -0.17770627514480281 -0.24918126185263109 0 -0.1889741997848777 -0.26047730780459938 0 -0.18729332869726981 -0.24592945471423619 0 -0.17770627514480281 -0.24918126185263109 0 -0.1889741997848777 -0.26047730780459938 0 -0.17609763826073629 -0.25964751339096748 0 -0.17770627514480281 -0.24918126185263109 0 -0.1889741997848777 -0.26047730780459938 0 -0.17609763826073629 -0.25964751339096748 0 -0.17512020245648491 -0.27012089123709809 0 -0.17512020245648491 -0.27012089123709809 0 -0.1579461577800583 -0.2866642970143235 0 -0.18310164932778031 -0.28499464157907151 0 -0.1889741997848777 -0.26047730780459938 0 -0.17512020245648491 -0.27012089123709809 0 -0.18310164932778031 -0.28499464157907151 0 -0.16258987565677999 -0.25881059266954137 0 -0.1579461577800583 -0.2866642970143235 0 -0.15121352502453611 -0.26360610410109531 0 -0.16258987565677999 -0.25881059266954137 0 -0.1579461577800583 -0.2866642970143235 0 -0.16258987565677999 -0.25881059266954137 0 -0.17512020245648491 -0.27012089123709809 0 -0.1579461577800583 -0.2866642970143235 0 -0.1579461577800583 -0.2866642970143235 0 -0.18310164932778031 -0.28499464157907151 0 -0.18025600743384099 -0.30262370542966871 0 -0.18025600743384099 -0.30262370542966871 0 -0.1763703792868804 -0.31841435002713658 0 -0.16557396048248499 -0.31278830416031977 0 -0.19884200265906071 -0.30468798515720641 0 -0.18310164932778031 -0.28499464157907151 0 -0.18025600743384099 -0.30262370542966871 0 -0.1579461577800583 -0.2866642970143235 0 -0.16557396048248499 -0.31278830416031977 0 -0.1579461577800583 -0.2866642970143235 0 -0.18025600743384099 -0.30262370542966871 0 -0.16557396048248499 -0.31278830416031977 0 -0.1579461577800583 -0.2866642970143235 0 -0.15410393488620339 -0.30971051630527269 0 -0.16557396048248499 -0.31278830416031977 0 -0.14190499787607291 -0.30106621480019757 0 -0.15410393488620339 -0.30971051630527269 0 -0.13955761895197161 -0.31883017832544258 0 -0.1579461577800583 -0.2866642970143235 0 -0.14190499787607291 -0.30106621480019757 0 -0.15410393488620339 -0.30971051630527269 0 -0.1579461577800583 -0.2866642970143235 0 -0.15410393488620339 -0.30971051630527269 0 -0.14190499787607291 -0.30106621480019757 0 -0.13292431344498801 -0.28789016410371332 0 -0.12417857376611501 -0.3072452235696238 0 -0.14190499787607291 -0.30106621480019757 0 -0.13955761895197161 -0.31883017832544258 0 -0.12417857376611501 -0.3072452235696238 0 -0.1579461577800583 -0.2866642970143235 0 -0.13292431344498801 -0.28789016410371332 0 -0.1373922497425005 -0.27191849433157939 0 -0.1579461577800583 -0.2866642970143235 0 -0.14190499787607291 -0.30106621480019757 0 -0.13292431344498801 -0.28789016410371332 0 -0.1579461577800583 -0.2866642970143235 0 -0.1373922497425005 -0.27191849433157939 0 -0.15121352502453611 -0.26360610410109531 0 -0.1579461577800583 -0.2866642970143235 0 -0.15121352502453611 -0.26360610410109531 0 -0.13292431344498801 -0.28789016410371332 0 -0.1373922497425005 -0.27191849433157939 0 -0.1185656701730162 -0.26560314329256007 0 -0.1373922497425005 -0.27191849433157939 0 -0.13582790319057869 -0.25663309450734217 0 -0.1185656701730162 -0.26560314329256007 0 -0.13582790319057869 -0.25663309450734217 0 -0.1185656701730162 -0.26560314329256007 0 -0.1281569648432547 -0.24154643078359939 0 -0.15121352502453611 -0.26360610410109531 0 -0.14448089226901439 -0.24054791118786689 0 -0.15121352502453611 -0.26360610410109531 0 -0.15247611476513431 -0.25520653902186019 0 -0.14448089226901439 -0.24054791118786689 0 -0.13582790319057869 -0.25663309450734217 0 -0.15121352502453611 -0.26360610410109531 0 -0.14448089226901439 -0.24054791118786689 0 -0.1373922497425005 -0.27191849433157939 0 -0.13582790319057869 -0.25663309450734217 0 -0.15121352502453611 -0.26360610410109531 0 -0.16258987565677999 -0.25881059266954137 0 -0.15121352502453611 -0.26360610410109531 0 -0.15247611476513431 -0.25520653902186019 0 -0.16668035538601461 -0.34488301640564062 0 -0.16061154177787171 -0.35495038583147809 0 -0.16921346075596971 -0.36122333670459428 0 -0.16061154177787171 -0.35495038583147809 0 -0.16086816964227479 -0.37287121723742661 0 -0.14919568518463211 -0.34975312472247871 0 -0.16668035538601461 -0.34488301640564062 0 -0.1566873235852165 -0.3455858156389548 0 -0.16061154177787171 -0.35495038583147809 0 -0.16086816964227479 -0.37287121723742661 0 -0.16921346075596971 -0.36122333670459428 0 -0.17677394907871399 -0.37034730607484689 0 -0.16061154177787171 -0.35495038583147809 0 -0.16086816964227479 -0.37287121723742661 0 -0.16921346075596971 -0.36122333670459428 0 -0.1756166407229362 -0.38086853002806809 0 -0.16086816964227479 -0.37287121723742661 0 -0.17677394907871399 -0.37034730607484689 0 -0.16921346075596971 -0.36122333670459428 0 -0.17677394907871399 -0.37034730607484689 0 -0.18411851625330081 -0.36101890622152788 0 -0.18585596307356969 -0.37789972306682379 0 -0.1894433694484853 -0.36898759583671648 0 -0.17677394907871399 -0.37034730607484689 0 -0.1894433694484853 -0.36898759583671648 0 -0.17677394907871399 -0.37034730607484689 0 -0.18411851625330081 -0.36101890622152788 0 -0.16921346075596971 -0.36122333670459428 0 -0.18411851625330081 -0.36101890622152788 0 -0.18723056388584311 -0.34439992753012388 0 -0.16668035538601461 -0.34488301640564062 0 -0.16921346075596971 -0.36122333670459428 0 -0.18723056388584311 -0.34439992753012388 0 -0.16921346075596971 -0.36122333670459428 0 -0.18723056388584311 -0.34439992753012388 0 -0.16668035538601461 -0.34488301640564062 0 -0.18723056388584311 -0.34439992753012388 0 -0.1763956143054225 -0.33058868427132709 0 -0.18994019788656849 -0.31871864603123712 0 -0.18025600743384099 -0.30262370542966871 0 -0.1763703792868804 -0.31841435002713658 0 -0.18994019788656849 -0.31871864603123712 0 -0.1763956143054225 -0.33058868427132709 0 -0.1763703792868804 -0.31841435002713658 0 -0.1763956143054225 -0.33058868427132709 0 -0.1763703792868804 -0.31841435002713658 0 -0.1645411201906678 -0.32085171807205559 0 -0.1763956143054225 -0.33058868427132709 0 -0.1645411201906678 -0.32085171807205559 0 -0.15026171199235641 -0.33275673559622332 0 -0.15410393488620339 -0.30971051630527269 0 -0.1645411201906678 -0.32085171807205559 0 -0.15026171199235641 -0.33275673559622332 0 -0.1763703792868804 -0.31841435002713658 0 -0.16557396048248499 -0.31278830416031977 0 -0.1645411201906678 -0.32085171807205559 0 -0.15410393488620339 -0.30971051630527269 0 -0.16557396048248499 -0.31278830416031977 0 -0.1645411201906678 -0.32085171807205559 0 -0.1763956143054225 -0.33058868427132709 0 -0.15026171199235641 -0.33275673559622332 0 -0.16668035538601461 -0.34488301640564062 0 -0.1763956143054225 -0.33058868427132709 0 -0.15026171199235641 -0.33275673559622332 0 -0.16668035538601461 -0.34488301640564062 0 -0.1566873235852165 -0.3455858156389548 0 -0.15026171199235641 -0.33275673559622332 0 -0.1566873235852165 -0.3455858156389548 0 -0.15026171199235641 -0.33275673559622332 0 -0.14919568518463211 -0.34975312472247871 0 -0.15026171199235641 -0.33275673559622332 0 -0.14847910192653441 -0.33290461975331043 0 -0.14650611870413169 -0.35528333774266452 0 -0.15026171199235641 -0.33275673559622332 0 -0.14847910192653441 -0.33290461975331043 0 -0.1494863420577178 -0.32706811458735341 0 -0.14847910192653441 -0.33290461975331043 0 -0.1494863420577178 -0.32706811458735341 0 -0.15026171199235641 -0.33275673559622332 0 -0.14847910192653441 -0.33290461975331043 0 -0.15410393488620339 -0.30971051630527269 0 -0.15026171199235641 -0.33275673559622332 0 -0.1494863420577178 -0.32706811458735341 0 -0.15410393488620339 -0.30971051630527269 0 -0.1494863420577178 -0.32706811458735341 0 -0.13955761895197161 -0.31883017832544258 0 -0.15410393488620339 -0.30971051630527269 0 -0.15026171199235641 -0.33275673559622332 0 -0.14847910192653441 -0.33290461975331043 0 -0.1494863420577178 -0.32706811458735341 0 -0.13955761895197161 -0.31883017832544258 0 -0.13955761895197161 -0.31883017832544258 0 -0.1191354440444118 -0.33533895028637328 0 -0.12417857376611501 -0.3072452235696238 0 -0.14847910192653441 -0.33290461975331043 0 -0.13955761895197161 -0.31883017832544258 0 -0.1191354440444118 -0.33533895028637328 0 -0.14847910192653441 -0.33290461975331043 0 -0.1191354440444118 -0.33533895028637328 0 -0.14847910192653441 -0.33290461975331043 0 -0.12432360339897799 -0.34209183903052498 0 -0.1191354440444118 -0.33533895028637328 0 -0.14847910192653441 -0.33290461975331043 0 -0.14423955221299489 -0.35747091039078588 0 -0.12432360339897799 -0.34209183903052498 0 -0.14423955221299489 -0.35747091039078588 0 -0.1236406835766711 -0.36992909220609288 0 -0.12432360339897799 -0.34209183903052498 0 -0.14650611870413169 -0.35528333774266452 0 -0.14919568518463211 -0.34975312472247871 0 -0.15021319363771871 -0.3663406126642354 0 -0.14847910192653441 -0.33290461975331043 0 -0.14423955221299489 -0.35747091039078588 0 -0.14650611870413169 -0.35528333774266452 0 -0.14847910192653441 -0.33290461975331043 0 -0.14423955221299489 -0.35747091039078588 0 -0.15026171199235641 -0.33275673559622332 0 -0.14650611870413169 -0.35528333774266452 0 -0.15026171199235641 -0.33275673559622332 0 -0.14650611870413169 -0.35528333774266452 0 -0.14919568518463211 -0.34975312472247871 0 -0.1566873235852165 -0.3455858156389548 0 -0.16061154177787171 -0.35495038583147809 0 -0.14919568518463211 -0.34975312472247871 0 -0.16086816964227479 -0.37287121723742661 0 -0.14919568518463211 -0.34975312472247871 0 -0.15021319363771871 -0.3663406126642354 0 -0.16086816964227479 -0.37287121723742661 0 -0.14919568518463211 -0.34975312472247871 0 -0.1427505254159169 -0.37780993988910733 0 -0.14650611870413169 -0.35528333774266452 0 -0.14000000249945591 -0.3820372010282615 0 -0.14423955221299489 -0.35747091039078588 0 -0.1427505254159169 -0.37780993988910733 0 -0.14650611870413169 -0.35528333774266452 0 -0.15021319363771871 -0.3663406126642354 0 -0.1427505254159169 -0.37780993988910733 0 -0.14000000249945591 -0.3820372010282615 0 -0.14423955221299489 -0.35747091039078588 0 -0.1427505254159169 -0.37780993988910733 0 -0.14423955221299489 -0.35747091039078588 0 -0.14650611870413169 -0.35528333774266452 0 -0.1528922967424951 -0.37931336463516679 0 -0.1427505254159169 -0.37780993988910733 0 -0.15021319363771871 -0.3663406126642354 0 -0.1528922967424951 -0.37931336463516679 0 -0.16086816964227479 -0.37287121723742661 0 -0.15021319363771871 -0.3663406126642354 0 -0.1427505254159169 -0.37780993988910733 0 -0.15021319363771871 -0.3663406126642354 0 -0.14000000249945591 -0.3820372010282615 0 -0.14423955221299489 -0.35747091039078588 0 -0.1236406835766711 -0.36992909220609288 0 -0.1223659495247367 -0.35207492977801957 0 -0.11182538200993369 -0.37579862717884249 0 -0.1236406835766711 -0.36992909220609288 0 -0.1223659495247367 -0.35207492977801957 0 -0.11182538200993369 -0.37579862717884249 0 -0.10900137123728899 -0.3634199373116751 0 -0.1223659495247367 -0.35207492977801957 0 -0.11182538200993369 -0.37579862717884249 0 -0.10900137123728899 -0.3634199373116751 0 -0.099213088675365546 -0.36809119793054701 0 -0.11182538200993369 -0.37579862717884249 0 -0.099213088675365546 -0.36809119793054701 0 -0.10051365570110921 -0.35551023264064202 0 -0.081868159123149542 -0.35764717941840363 0 -0.10900137123728899 -0.3634199373116751 0 -0.099213088675365546 -0.36809119793054701 0 -0.10051365570110921 -0.35551023264064202 0 -0.10051365570110921 -0.35551023264064202 0 -0.11147094884377499 -0.34642855189562649 0 -0.08979178616228975 -0.33777328081943819 0 -0.10051365570110921 -0.35551023264064202 0 -0.11147094884377499 -0.34642855189562649 0 -0.1108503971162607 -0.35491614984331421 0 -0.10900137123728899 -0.3634199373116751 0 -0.10051365570110921 -0.35551023264064202 0 -0.1108503971162607 -0.35491614984331421 0 -0.11147094884377499 -0.34642855189562649 0 -0.1108503971162607 -0.35491614984331421 0 -0.1223659495247367 -0.35207492977801957 0 -0.1236406835766711 -0.36992909220609288 0 -0.1223659495247367 -0.35207492977801957 0 -0.12432360339897799 -0.34209183903052498 0 -0.1236406835766711 -0.36992909220609288 0 -0.12432360339897799 -0.34209183903052498 0 -0.10900137123728899 -0.3634199373116751 0 -0.1108503971162607 -0.35491614984331421 0 -0.1223659495247367 -0.35207492977801957 0 -0.11147094884377499 -0.34642855189562649 0 -0.1223659495247367 -0.35207492977801957 0 -0.12432360339897799 -0.34209183903052498 0 -0.11147094884377499 -0.34642855189562649 0 -0.12432360339897799 -0.34209183903052498 0 -0.1191354440444118 -0.33533895028637328 0 -0.1191354440444118 -0.33533895028637328 0 -0.099383080832538939 -0.31371656831048172 0 -0.12417857376611501 -0.3072452235696238 0 -0.099383080832538939 -0.31371656831048172 0 -0.08979178616228975 -0.33777328081943819 0 -0.11147094884377499 -0.34642855189562649 0 -0.1191354440444118 -0.33533895028637328 0 -0.08979178616228975 -0.33777328081943819 0 -0.1191354440444118 -0.33533895028637328 0 -0.08979178616228975 -0.33777328081943819 0 -0.1191354440444118 -0.33533895028637328 0 -0.099383080832538939 -0.31371656831048172 0 -0.08979178616228975 -0.33777328081943819 0 -0.079885314667864846 -0.32276737334277489 0 -0.085611275855535879 -0.30712419969607568 0 -0.072403097626363863 -0.30860126998137838 0 -0.099383080832538939 -0.31371656831048172 0 -0.079885314667864846 -0.32276737334277489 0 -0.085611275855535879 -0.30712419969607568 0 -0.099383080832538939 -0.31371656831048172 0 -0.08979178616228975 -0.33777328081943819 0 -0.079885314667864846 -0.32276737334277489 0 -0.079885314667864846 -0.32276737334277489 0 -0.072403097626363863 -0.30860126998137838 0 -0.055730321776263532 -0.32189691439061668 0 -0.08979178616228975 -0.33777328081943819 0 -0.06324604372855043 -0.33997549812951727 0 -0.071760850602874224 -0.35103554558405969 0 -0.08979178616228975 -0.33777328081943819 0 -0.06324604372855043 -0.33997549812951727 0 -0.079885314667864846 -0.32276737334277489 0 -0.06324604372855043 -0.33997549812951727 0 -0.055730321776263532 -0.32189691439061668 0 -0.08979178616228975 -0.33777328081943819 0 -0.079885314667864846 -0.32276737334277489 0 -0.06324604372855043 -0.33997549812951727 0 -0.06324604372855043 -0.33997549812951727 0 -0.071760850602874224 -0.35103554558405969 0 -0.057851608936252991 -0.35553896369228338 0 -0.071760850602874224 -0.35103554558405969 0 -0.06890123745475793 -0.36391986436835499 0 -0.081868159123149542 -0.35764717941840363 0 -0.071760850602874224 -0.35103554558405969 0 -0.06890123745475793 -0.36391986436835499 0 -0.057851608936252991 -0.35553896369228338 0 -0.081868159123149542 -0.35764717941840363 0 -0.073944532083998787 -0.37752107801736468 0 -0.06890123745475793 -0.36391986436835499 0 -0.081868159123149542 -0.35764717941840363 0 -0.073944532083998787 -0.37752107801736468 0 -0.06890123745475793 -0.36391986436835499 0 -0.060527286469202718 -0.3757057027629937 0 -0.073944532083998787 -0.37752107801736468 0 -0.099213088675365546 -0.36809119793054701 0 -0.081868159123149542 -0.35764717941840363 0 -0.091879705349572682 -0.38118020040223222 0 -0.081868159123149542 -0.35764717941840363 0 -0.091879705349572682 -0.38118020040223222 0 -0.073944532083998787 -0.37752107801736468 0 -0.10051365570110921 -0.35551023264064202 0 -0.08979178616228975 -0.33777328081943819 0 -0.081868159123149542 -0.35764717941840363 0 -0.08979178616228975 -0.33777328081943819 0 -0.081868159123149542 -0.35764717941840363 0 -0.08979178616228975 -0.33777328081943819 0 -0.071760850602874224 -0.35103554558405969 0 -0.081868159123149542 -0.35764717941840363 0 -0.1101822113994692 -0.25401267821474888 0 -0.099681979134397622 -0.26773457651640609 0 -0.1033879665926753 -0.2380445316912011 0 -0.099681979134397622 -0.26773457651640609 0 -0.1033879665926753 -0.2380445316912011 0 -0.1101822113994692 -0.25401267821474888 0 -0.1102321186969949 -0.2622922131603877 0 -0.1032509427171748 -0.26668080906063579 0 -0.1101822113994692 -0.25401267821474888 0 -0.1032509427171748 -0.26668080906063579 0 -0.099681979134397622 -0.26773457651640609 0 -0.1101822113994692 -0.25401267821474888 0 -0.1185656701730162 -0.26560314329256007 0 -0.1281569648432547 -0.24154643078359939 0 -0.1185656701730162 -0.26560314329256007 0 -0.1281569648432547 -0.24154643078359939 0 -0.1101822113994692 -0.25401267821474888 0 -0.1185656701730162 -0.26560314329256007 0 -0.1102321186969949 -0.2622922131603877 0 -0.13292431344498801 -0.28789016410371332 0 -0.1185656701730162 -0.26560314329256007 0 -0.1089743755027776 -0.28965985580152082 0 -0.1185656701730162 -0.26560314329256007 0 -0.1089743755027776 -0.28965985580152082 0 -0.1185656701730162 -0.26560314329256007 0 -0.10668826039717071 -0.28105835409167418 0 -0.1050360266597184 -0.27300524899789819 0 -0.1185656701730162 -0.26560314329256007 0 -0.1102321186969949 -0.2622922131603877 0 -0.1050360266597184 -0.27300524899789819 0 -0.1185656701730162 -0.26560314329256007 0 -0.10668826039717071 -0.28105835409167418 0 -0.1089743755027776 -0.28965985580152082 0 -0.1050360266597184 -0.27300524899789819 0 -0.099681979134397622 -0.26773457651640609 0 -0.096121494968807564 -0.29625894031037192 0 -0.1102321186969949 -0.2622922131603877 0 -0.1032509427171748 -0.26668080906063579 0 -0.1050360266597184 -0.27300524899789819 0 -0.1032509427171748 -0.26668080906063579 0 -0.1050360266597184 -0.27300524899789819 0 -0.099681979134397622 -0.26773457651640609 0 -0.1032509427171748 -0.26668080906063579 0 -0.099681979134397622 -0.26773457651640609 0 -0.10668826039717071 -0.28105835409167418 0 -0.1050360266597184 -0.27300524899789819 0 -0.096121494968807564 -0.29625894031037192 0 -0.099681979134397622 -0.26773457651640609 0 -0.096121494968807564 -0.29625894031037192 0 -0.099681979134397622 -0.26773457651640609 0 -0.096121494968807564 -0.29625894031037192 0 -0.088878603127315908 -0.28087046772051072 0 -0.10668826039717071 -0.28105835409167418 0 -0.096121494968807564 -0.29625894031037192 0 -0.1089743755027776 -0.28965985580152082 0 -0.13292431344498801 -0.28789016410371332 0 -0.1089743755027776 -0.28965985580152082 0 -0.12417857376611501 -0.3072452235696238 0 -0.099383080832538939 -0.31371656831048172 0 -0.1089743755027776 -0.28965985580152082 0 -0.12417857376611501 -0.3072452235696238 0 -0.099383080832538939 -0.31371656831048172 0 -0.096121494968807564 -0.29625894031037192 0 -0.1089743755027776 -0.28965985580152082 0 -0.099383080832538939 -0.31371656831048172 0 -0.1089743755027776 -0.28965985580152082 0 -0.099383080832538939 -0.31371656831048172 0 -0.096121494968807564 -0.29625894031037192 0 -0.085611275855535879 -0.30712419969607568 0 -0.096121494968807564 -0.29625894031037192 0 -0.085611275855535879 -0.30712419969607568 0 -0.079492330158640462 -0.29383598524072829 0 -0.085611275855535879 -0.30712419969607568 0 -0.072403097626363863 -0.30860126998137838 0 -0.079492330158640462 -0.29383598524072829 0 -0.072403097626363863 -0.30860126998137838 0 -0.079492330158640462 -0.29383598524072829 0 -0.060285213724436043 -0.29450329559700372 0 -0.072403097626363863 -0.30860126998137838 0 -0.060285213724436043 -0.29450329559700372 0 -0.055730321776263532 -0.32189691439061668 0 -0.079492330158640462 -0.29383598524072829 0 -0.072672848915360175 -0.27570925649656908 0 -0.060285213724436043 -0.29450329559700372 0 -0.096121494968807564 -0.29625894031037192 0 -0.079492330158640462 -0.29383598524072829 0 -0.088878603127315908 -0.28087046772051072 0 -0.079492330158640462 -0.29383598524072829 0 -0.088878603127315908 -0.28087046772051072 0 -0.072672848915360175 -0.27570925649656908 0 -0.099681979134397622 -0.26773457651640609 0 -0.088878603127315908 -0.28087046772051072 0 -0.072672848915360175 -0.27570925649656908 0 -0.099681979134397622 -0.26773457651640609 0 -0.072672848915360175 -0.27570925649656908 0 -0.072672848915360175 -0.27570925649656908 0 -0.04830779952694067 -0.25660762513385549 0 -0.077243146103807225 -0.24957180213960961 0 -0.099681979134397622 -0.26773457651640609 0 -0.077243146103807225 -0.24957180213960961 0 -0.1033879665926753 -0.2380445316912011 0 -0.099681979134397622 -0.26773457651640609 0 -0.072672848915360175 -0.27570925649656908 0 -0.077243146103807225 -0.24957180213960961 0 -0.04830779952694067 -0.25660762513385549 0 -0.034023010939827451 -0.27134606588177329 0 -0.027228895249923661 -0.2574670216618572 0 -0.04830779952694067 -0.25660762513385549 0 -0.027228895249923661 -0.2574670216618572 0 -0.036296927760846032 -0.2421840690179633 0 -0.072672848915360175 -0.27570925649656908 0 -0.04830779952694067 -0.25660762513385549 0 -0.045663718696322547 -0.28368393647673151 0 -0.072672848915360175 -0.27570925649656908 0 -0.045663718696322547 -0.28368393647673151 0 -0.04830779952694067 -0.25660762513385549 0 -0.034023010939827451 -0.27134606588177329 0 -0.045663718696322547 -0.28368393647673151 0 -0.034023010939827451 -0.27134606588177329 0 -0.045663718696322547 -0.28368393647673151 0 -0.01865458847728493 -0.29165861645689389 0 -0.045663718696322547 -0.28368393647673151 0 -0.01865458847728493 -0.29165861645689389 0 -0.072672848915360175 -0.27570925649656908 0 -0.045663718696322547 -0.28368393647673151 0 -0.060285213724436043 -0.29450329559700372 0 -0.045663718696322547 -0.28368393647673151 0 -0.060285213724436043 -0.29450329559700372 0 -0.042874070765163273 -0.30696706054615119 0 -0.060285213724436043 -0.29450329559700372 0 -0.042874070765163273 -0.30696706054615119 0 -0.055730321776263532 -0.32189691439061668 0 -0.045663718696322547 -0.28368393647673151 0 -0.042874070765163273 -0.30696706054615119 0 -0.024794995121757979 -0.30723479606925819 0 -0.024794995121757979 -0.30723479606925819 0 -0.0076279330807100428 -0.30593606881339941 0 -0.01865458847728493 -0.29165861645689389 0 -0.024794995121757979 -0.30723479606925819 0 -0.0076279330807100428 -0.30593606881339941 0 -0.011989969055366111 -0.31878652943562152 0 -0.0076279330807100428 -0.30593606881339941 0 -0.01865458847728493 -0.29165861645689389 0 0.0083545417417527149 -0.29963329643705627 0 -0.01865458847728493 -0.29165861645689389 0 0.0083545417417527149 -0.29963329643705627 0 -0.00076605396032216472 -0.28198048718404672 0 -0.01865458847728493 -0.29165861645689389 0 0.0083545417417527149 -0.29963329643705627 0 -0.00076605396032216472 -0.28198048718404672 0 -0.01865458847728493 -0.29165861645689389 0 -0.012091163634042 -0.2805298332763867 0 -0.045663718696322547 -0.28368393647673151 0 -0.024794995121757979 -0.30723479606925819 0 -0.01865458847728493 -0.29165861645689389 0 -0.01865458847728493 -0.29165861645689389 0 -0.018751530812196729 -0.27213201032987611 0 -0.012091163634042 -0.2805298332763867 0 -0.034023010939827451 -0.27134606588177329 0 -0.01865458847728493 -0.29165861645689389 0 -0.018751530812196729 -0.27213201032987611 0 -0.034023010939827451 -0.27134606588177329 0 -0.018751530812196729 -0.27213201032987611 0 -0.027228895249923661 -0.2574670216618572 0 -0.018751530812196729 -0.27213201032987611 0 -0.012091163634042 -0.2805298332763867 0 -0.0087508467233700926 -0.27175872560170389 0 -0.00076605396032216472 -0.28198048718404672 0 -0.00050171560382180334 -0.27574476939202991 0 -0.0087508467233700926 -0.27175872560170389 0 -0.00076605396032216472 -0.28198048718404672 0 -0.012091163634042 -0.2805298332763867 0 -0.0087508467233700926 -0.27175872560170389 0 -0.00076605396032216472 -0.28198048718404672 0 -0.00050171560382180334 -0.27574476939202991 0 -0.00050171560382180334 -0.27574476939202991 0 -0.0087508467233700926 -0.27175872560170389 0 8.3830497070164071e-05 -0.26193179011910639 0 -0.00050171560382180334 -0.27574476939202991 0 8.3830497070164071e-05 -0.26193179011910639 0 -0.018751530812196729 -0.27213201032987611 0 -0.0087508467233700926 -0.27175872560170389 0 -0.014338849488094069 -0.26100599800799318 0 -0.01600576742353358 -0.24352823295287471 0 8.3830497070164071e-05 -0.26193179011910639 0 -0.014338849488094069 -0.26100599800799318 0 -0.01600576742353358 -0.24352823295287471 0 8.3830497070164071e-05 -0.26193179011910639 0 -0.0087508467233700926 -0.27175872560170389 0 -0.014338849488094069 -0.26100599800799318 0 8.3830497070164071e-05 -0.26193179011910639 0 -0.014338849488094069 -0.26100599800799318 0 -0.027228895249923661 -0.2574670216618572 0 -0.01600576742353358 -0.24352823295287471 0 -0.018751530812196729 -0.27213201032987611 0 -0.014338849488094069 -0.26100599800799318 0 -0.027228895249923661 -0.2574670216618572 0 -0.043109764689784752 -0.35850505279342582 0 -0.036700301294811541 -0.34217771543960129 0 -0.028795662995045119 -0.35759390593619811 0 -0.043109764689784752 -0.35850505279342582 0 -0.057851608936252991 -0.35553896369228338 0 -0.036700301294811541 -0.34217771543960129 0 -0.043109764689784752 -0.35850505279342582 0 -0.040195784514775998 -0.37063919111563609 0 -0.028795662995045119 -0.35759390593619811 0 -0.043109764689784752 -0.35850505279342582 0 -0.040195784514775998 -0.37063919111563609 0 -0.050294503645490068 -0.36751522495218292 0 -0.050294503645490068 -0.36751522495218292 0 -0.057851608936252991 -0.35553896369228338 0 -0.060527286469202718 -0.3757057027629937 0 -0.06890123745475793 -0.36391986436835499 0 -0.057851608936252991 -0.35553896369228338 0 -0.060527286469202718 -0.3757057027629937 0 -0.043109764689784752 -0.35850505279342582 0 -0.050294503645490068 -0.36751522495218292 0 -0.057851608936252991 -0.35553896369228338 0 -0.057851608936252991 -0.35553896369228338 0 -0.060527286469202718 -0.3757057027629937 0 -0.050294503645490068 -0.36751522495218292 0 -0.060527286469202718 -0.3757057027629937 0 -0.051135236376242697 -0.37877098310942547 0 -0.040195784514775998 -0.37063919111563609 0 -0.050294503645490068 -0.36751522495218292 0 -0.051135236376242697 -0.37877098310942547 0 -0.06324604372855043 -0.33997549812951727 0 -0.057851608936252991 -0.35553896369228338 0 -0.036700301294811541 -0.34217771543960129 0 -0.06324604372855043 -0.33997549812951727 0 -0.055730321776263532 -0.32189691439061668 0 -0.036700301294811541 -0.34217771543960129 0 -0.06324604372855043 -0.33997549812951727 0 -0.036700301294811541 -0.34217771543960129 0 -0.042874070765163273 -0.30696706054615119 0 -0.055730321776263532 -0.32189691439061668 0 -0.030422160182177221 -0.32376603872548337 0 -0.042874070765163273 -0.30696706054615119 0 -0.024794995121757979 -0.30723479606925819 0 -0.030422160182177221 -0.32376603872548337 0 -0.055730321776263532 -0.32189691439061668 0 -0.036700301294811541 -0.34217771543960129 0 -0.030422160182177221 -0.32376603872548337 0 -0.036700301294811541 -0.34217771543960129 0 -0.030422160182177221 -0.32376603872548337 0 -0.010154558861072671 -0.34437993274968542 0 -0.036700301294811541 -0.34217771543960129 0 -0.010154558861072671 -0.34437993274968542 0 -0.030422160182177221 -0.32376603872548337 0 -0.011989969055366111 -0.31878652943562152 0 -0.010154558861072671 -0.34437993274968542 0 -0.024794995121757979 -0.30723479606925819 0 -0.030422160182177221 -0.32376603872548337 0 -0.011989969055366111 -0.31878652943562152 0 -0.0076279330807100428 -0.30593606881339941 0 -0.011989969055366111 -0.31878652943562152 0 0.0080070738272272155 -0.31934045583688658 0 -0.011989969055366111 -0.31878652943562152 0 -0.010154558861072671 -0.34437993274968542 0 0.0080070738272272155 -0.31934045583688658 0 -0.010154558861072671 -0.34437993274968542 0 -0.00087171803812412241 -0.36099859624565339 0 -0.014124056746735071 -0.3612891114518908 0 -0.036700301294811541 -0.34217771543960129 0 -0.010154558861072671 -0.34437993274968542 0 -0.028795662995045119 -0.35759390593619811 0 -0.010154558861072671 -0.34437993274968542 0 -0.028795662995045119 -0.35759390593619811 0 -0.014124056746735071 -0.3612891114518908 0 -0.040195784514775998 -0.37063919111563609 0 -0.028795662995045119 -0.35759390593619811 0 -0.02027873772314881 -0.37268046352865197 0 -0.028795662995045119 -0.35759390593619811 0 -0.02027873772314881 -0.37268046352865197 0 -0.014124056746735071 -0.3612891114518908 0 -0.02027873772314881 -0.37268046352865197 0 -0.014124056746735071 -0.3612891114518908 0 -0.006885251579728505 -0.37848749906022888 0 -0.00087171803812412241 -0.36099859624565339 0 -0.006885251579728505 -0.37848749906022888 0 -0.00087171803812412241 -0.36099859624565339 0 -0.014124056746735071 -0.3612891114518908 0 -0.006885251579728505 -0.37848749906022888 0 -0.006885251579728505 -0.37848749906022888 0 -0.012898785121336581 -0.3959764018748031 0 -0.006885251579728505 -0.37848749906022888 0 -0.012898785121336581 -0.3959764018748031 0 -0.01681149340906584 -0.38648486993813869 0 -0.006885251579728505 -0.37848749906022888 0 -0.0002309574959115171 -0.38989703637146378 0 -0.012898785121336581 -0.3959764018748031 0 -0.02027873772314881 -0.37268046352865197 0 -0.006885251579728505 -0.37848749906022888 0 -0.01681149340906584 -0.38648486993813869 0 -0.012898785121336581 -0.3959764018748031 0 -0.0038172843126471848 -0.41800650190269101 0 0.001153593978423865 -0.40303237548600529 0 -0.0002309574959115171 -0.38989703637146378 0 -0.012898785121336581 -0.3959764018748031 0 0.001153593978423865 -0.40303237548600529 0 -0.012898785121336581 -0.3959764018748031 0 -0.01681149340906584 -0.38648486993813869 0 -0.012898785121336581 -0.3959764018748031 0 -0.02298370202150592 -0.40367245326328532 0 -0.022540403082160019 -0.39208943682127068 0 -0.012898785121336581 -0.3959764018748031 0 -0.022540403082160019 -0.39208943682127068 0 -0.01681149340906584 -0.38648486993813869 0 -0.022540403082160019 -0.39208943682127068 0 -0.02825165796744852 -0.39797120061351399 0 -0.032557432272560909 -0.38771658053272728 0 -0.02298370202150592 -0.40367245326328532 0 -0.022540403082160019 -0.39208943682127068 0 -0.02825165796744852 -0.39797120061351399 0 -0.02298370202150592 -0.40367245326328532 0 -0.02825165796744852 -0.39797120061351399 0 -0.026325656113856889 -0.40353999504515659 0 -0.02825165796744852 -0.39797120061351399 0 -0.026325656113856889 -0.40353999504515659 0 -0.031373981147338893 -0.40296840508423981 0 -0.026325656113856889 -0.40353999504515659 0 -0.031373981147338893 -0.40296840508423981 0 -0.03000018532030925 -0.40743732129478949 0 -0.02298370202150592 -0.40367245326328532 0 -0.026325656113856889 -0.40353999504515659 0 -0.02629289886296406 -0.4111968191861487 0 -0.02027873772314881 -0.37268046352865197 0 -0.041455643249589058 -0.38412235488261309 0 -0.02027873772314881 -0.37268046352865197 0 -0.01681149340906584 -0.38648486993813869 0 -0.023047016621733901 -0.38474283770519718 0 -0.022540403082160019 -0.39208943682127068 0 -0.01681149340906584 -0.38648486993813869 0 -0.023047016621733901 -0.38474283770519718 0 -0.022540403082160019 -0.39208943682127068 0 -0.023047016621733901 -0.38474283770519718 0 -0.032557432272560909 -0.38771658053272728 0 -0.02027873772314881 -0.37268046352865197 0 -0.023047016621733901 -0.38474283770519718 0 -0.032557432272560909 -0.38771658053272728 0 -0.040195784514775998 -0.37063919111563609 0 -0.02027873772314881 -0.37268046352865197 0 -0.041455643249589058 -0.38412235488261309 0 -0.02027873772314881 -0.37268046352865197 0 -0.041455643249589058 -0.38412235488261309 0 -0.032557432272560909 -0.38771658053272728 0 -0.040195784514775998 -0.37063919111563609 0 -0.041455643249589058 -0.38412235488261309 0 -0.051135236376242697 -0.37877098310942547 0 -0.040195784514775998 -0.37063919111563609 0 -0.041455643249589058 -0.38412235488261309 0 -0.041455643249589058 -0.38412235488261309 0 -0.032557432272560909 -0.38771658053272728 0 -0.036444206756223528 -0.39767739614809727 0 -0.041455643249589058 -0.38412235488261309 0 -0.043333335750904672 -0.40421765191843329 0 -0.041455643249589058 -0.38412235488261309 0 -0.036444206756223528 -0.39767739614809727 0 -0.043333335750904672 -0.40421765191843329 0 -0.02825165796744852 -0.39797120061351399 0 -0.032557432272560909 -0.38771658053272728 0 -0.036444206756223528 -0.39767739614809727 0 -0.02825165796744852 -0.39797120061351399 0 -0.036444206756223528 -0.39767739614809727 0 -0.031373981147338893 -0.40296840508423981 0 -0.031373981147338893 -0.40296840508423981 0 -0.036311605973921773 -0.40336637152562871 0 -0.033838169879079248 -0.40741138546023359 0 -0.031373981147338893 -0.40296840508423981 0 -0.033838169879079248 -0.40741138546023359 0 -0.03000018532030925 -0.40743732129478949 0 -0.036444206756223528 -0.39767739614809727 0 -0.031373981147338893 -0.40296840508423981 0 -0.036311605973921773 -0.40336637152562871 0 -0.036444206756223528 -0.39767739614809727 0 -0.036311605973921773 -0.40336637152562871 0 -0.041715090724901378 -0.40434876488183091 0 -0.036311605973921773 -0.40336637152562871 0 -0.037965180948268 -0.4063650188583533 0 -0.033838169879079248 -0.40741138546023359 0 -0.036311605973921773 -0.40336637152562871 0 -0.041715090724901378 -0.40434876488183091 0 -0.037965180948268 -0.4063650188583533 0 -0.041715090724901378 -0.40434876488183091 0 -0.043333335750904672 -0.40421765191843329 0 -0.036444206756223528 -0.39767739614809727 0 -0.041715090724901378 -0.40434876488183091 0 -0.043333335750904672 -0.40421765191843329 0 -0.043333335750904672 -0.40421765191843329 0 -0.063202964002153847 -0.39587244183370379 0 -0.064087089466935476 -0.40253614750618488 0 -0.043333335750904672 -0.40421765191843329 0 -0.064087089466935476 -0.40253614750618488 0 -0.043333335750904672 -0.40421765191843329 0 -0.061550463978604593 -0.40860765636565888 0 -0.064087089466935476 -0.40253614750618488 0 -0.041455643249589058 -0.38412235488261309 0 -0.043333335750904672 -0.40421765191843329 0 -0.063202964002153847 -0.39587244183370379 0 -0.041455643249589058 -0.38412235488261309 0 -0.063202964002153847 -0.39587244183370379 0 -0.060527286469202718 -0.3757057027629937 0 -0.051135236376242697 -0.37877098310942547 0 -0.063202964002153847 -0.39587244183370379 0 -0.060527286469202718 -0.3757057027629937 0 -0.063202964002153847 -0.39587244183370379 0 -0.041455643249589058 -0.38412235488261309 0 -0.051135236376242697 -0.37877098310942547 0 -0.063202964002153847 -0.39587244183370379 0 -0.057829464941921323 -0.42854533004401157 0 -0.045489742746062579 -0.42729578588736999 0 -0.050604329071137648 -0.43955398637854259 0 -0.057829464941921323 -0.42854533004401157 0 -0.060748959799374468 -0.43967566940329528 0 -0.067481981370518501 -0.42812364762521182 0 -0.057829464941921323 -0.42854533004401157 0 -0.050604329071137648 -0.43955398637854259 0 -0.060748959799374468 -0.43967566940329528 0 -0.057829464941921323 -0.42854533004401157 0 -0.045489742746062579 -0.42729578588736999 0 -0.064822311722511683 -0.40807756092563813 0 -0.061550463978604593 -0.40860765636565888 0 -0.045489742746062579 -0.42729578588736999 0 -0.064822311722511683 -0.40807756092563813 0 -0.043333335750904672 -0.40421765191843329 0 -0.061550463978604593 -0.40860765636565888 0 -0.045489742746062579 -0.42729578588736999 0 -0.045489742746062579 -0.42729578588736999 0 -0.064822311722511683 -0.40807756092563813 0 -0.039508055715715647 -0.41033322259338473 0 -0.038248687823384378 -0.41933985422808351 0 -0.045489742746062579 -0.42729578588736999 0 -0.043333335750904672 -0.40421765191843329 0 -0.045489742746062579 -0.42729578588736999 0 -0.043333335750904672 -0.40421765191843329 0 -0.039508055715715647 -0.41033322259338473 0 -0.045489742746062579 -0.42729578588736999 0 -0.041715090724901378 -0.40434876488183091 0 -0.043333335750904672 -0.40421765191843329 0 -0.039508055715715647 -0.41033322259338473 0 -0.041715090724901378 -0.40434876488183091 0 -0.039508055715715647 -0.41033322259338473 0 -0.037965180948268 -0.4063650188583533 0 -0.039508055715715647 -0.41033322259338473 0 -0.037965180948268 -0.4063650188583533 0 -0.033838169879079248 -0.40741138546023359 0 -0.039508055715715647 -0.41033322259338473 0 -0.032170220598307167 -0.41207000169816888 0 -0.033838169879079248 -0.40741138546023359 0 -0.039508055715715647 -0.41033322259338473 0 -0.032170220598307167 -0.41207000169816888 0 -0.035521878217749471 -0.41531912133883819 0 -0.032170220598307167 -0.41207000169816888 0 -0.033838169879079248 -0.40741138546023359 0 -0.03000018532030925 -0.40743732129478949 0 -0.039508055715715647 -0.41033322259338473 0 -0.038248687823384378 -0.41933985422808351 0 -0.035521878217749471 -0.41531912133883819 0 -0.038248687823384378 -0.41933985422808351 0 -0.034276671345257172 -0.41899135462233023 0 -0.03644709109213725 -0.42475978669849418 0 -0.038248687823384378 -0.41933985422808351 0 -0.035521878217749471 -0.41531912133883819 0 -0.034276671345257172 -0.41899135462233023 0 -0.035521878217749471 -0.41531912133883819 0 -0.032310801180353947 -0.41578238707612919 0 -0.034276671345257172 -0.41899135462233023 0 -0.032170220598307167 -0.41207000169816888 0 -0.035521878217749471 -0.41531912133883819 0 -0.032310801180353947 -0.41578238707612919 0 -0.032170220598307167 -0.41207000169816888 0 -0.032310801180353947 -0.41578238707612919 0 -0.029572818626564641 -0.41522539111596618 0 -0.032310801180353947 -0.41578238707612919 0 -0.034276671345257172 -0.41899135462233023 0 -0.0305142433803305 -0.41891227221877692 0 -0.034276671345257172 -0.41899135462233023 0 -0.031979166953360103 -0.42206180514857911 0 -0.0305142433803305 -0.41891227221877692 0 -0.03644709109213725 -0.42475978669849418 0 -0.036062026762247602 -0.43666774089619592 0 -0.02923785853198475 -0.42636092776444312 0 -0.045489742746062579 -0.42729578588736999 0 -0.036062026762247602 -0.43666774089619592 0 -0.04731546181258995 -0.44683485680560581 0 -0.036062026762247602 -0.43666774089619592 0 -0.02923785853198475 -0.42636092776444312 0 -0.029226817898107091 -0.44346252237462341 0 -0.031979166953360103 -0.42206180514857911 0 -0.03644709109213725 -0.42475978669849418 0 -0.02923785853198475 -0.42636092776444312 0 -0.045489742746062579 -0.42729578588736999 0 -0.04731546181258995 -0.44683485680560581 0 -0.034276671345257172 -0.41899135462233023 0 -0.031979166953360103 -0.42206180514857911 0 -0.03644709109213725 -0.42475978669849418 0 -0.03644709109213725 -0.42475978669849418 0 -0.045489742746062579 -0.42729578588736999 0 -0.036062026762247602 -0.43666774089619592 0 -0.038248687823384378 -0.41933985422808351 0 -0.03644709109213725 -0.42475978669849418 0 -0.045489742746062579 -0.42729578588736999 0 -0.045489742746062579 -0.42729578588736999 0 -0.036062026762247602 -0.43666774089619592 0 -0.036062026762247602 -0.43666774089619592 0 -0.02923785853198475 -0.42636092776444312 0 -0.021592810981265351 -0.4212608660388184 0 -0.029226817898107091 -0.44346252237462341 0 -0.02923785853198475 -0.42636092776444312 0 -0.021592810981265351 -0.4212608660388184 0 -0.029226817898107091 -0.44346252237462341 0 -0.021592810981265351 -0.4212608660388184 0 -0.0118725339307869 -0.43715027593022482 0 -0.029226817898107091 -0.44346252237462341 0 -0.02923785853198475 -0.42636092776444312 0 -0.02871451311131341 -0.42145663395628041 0 -0.02491263892713546 -0.42186866400771 0 -0.031979166953360103 -0.42206180514857911 0 -0.02923785853198475 -0.42636092776444312 0 -0.02871451311131341 -0.42145663395628041 0 -0.02923785853198475 -0.42636092776444312 0 -0.02491263892713546 -0.42186866400771 0 -0.021592810981265351 -0.4212608660388184 0 -0.012898785121336581 -0.3959764018748031 0 -0.021592810981265351 -0.4212608660388184 0 -0.012898785121336581 -0.3959764018748031 0 -0.02298370202150592 -0.40367245326328532 0 -0.021592810981265351 -0.4212608660388184 0 -0.02298370202150592 -0.40367245326328532 0 -0.02629289886296406 -0.4111968191861487 0 -0.021592810981265351 -0.4212608660388184 0 -0.026325656113856889 -0.40353999504515659 0 -0.03000018532030925 -0.40743732129478949 0 -0.02629289886296406 -0.4111968191861487 0 -0.032170220598307167 -0.41207000169816888 0 -0.02629289886296406 -0.4111968191861487 0 -0.029572818626564641 -0.41522539111596618 0 -0.032170220598307167 -0.41207000169816888 0 -0.03000018532030925 -0.40743732129478949 0 -0.02629289886296406 -0.4111968191861487 0 -0.02629289886296406 -0.4111968191861487 0 -0.026575929110867522 -0.41816547540060722 0 -0.021592810981265351 -0.4212608660388184 0 -0.029572818626564641 -0.41522539111596618 0 -0.0305142433803305 -0.41891227221877692 0 -0.026575929110867522 -0.41816547540060722 0 -0.02629289886296406 -0.4111968191861487 0 -0.029572818626564641 -0.41522539111596618 0 -0.026575929110867522 -0.41816547540060722 0 -0.032310801180353947 -0.41578238707612919 0 -0.029572818626564641 -0.41522539111596618 0 -0.0305142433803305 -0.41891227221877692 0 -0.0305142433803305 -0.41891227221877692 0 -0.02871451311131341 -0.42145663395628041 0 -0.026575929110867522 -0.41816547540060722 0 -0.031979166953360103 -0.42206180514857911 0 -0.0305142433803305 -0.41891227221877692 0 -0.02871451311131341 -0.42145663395628041 0 -0.026575929110867522 -0.41816547540060722 0 -0.02491263892713546 -0.42186866400771 0 -0.021592810981265351 -0.4212608660388184 0 -0.02871451311131341 -0.42145663395628041 0 -0.026575929110867522 -0.41816547540060722 0 -0.02491263892713546 -0.42186866400771 0 -0.02491263892713546 -0.42186866400771 0 -0.021592810981265351 -0.4212608660388184 0 -0.012898785121336581 -0.3959764018748031 0 -0.021592810981265351 -0.4212608660388184 0 -0.0038172843126471848 -0.41800650190269101 0 -0.021592810981265351 -0.4212608660388184 0 -0.0038172843126471848 -0.41800650190269101 0 -0.012898785121336581 -0.3959764018748031 0 -0.0038172843126471848 -0.41800650190269101 0 -0.0038172843126471848 -0.41800650190269101 0 -0.0118725339307869 -0.43715027593022482 0 0.0055431072351901436 -0.4407131410852434 0 -0.021592810981265351 -0.4212608660388184 0 -0.0038172843126471848 -0.41800650190269101 0 -0.0118725339307869 -0.43715027593022482 0 -0.0118725339307869 -0.43715027593022482 0 -0.01026886369710741 -0.4623083482497492 0 0.0055431072351901436 -0.4407131410852434 0 -0.01026886369710741 -0.4623083482497492 0 -0.024412977798275389 -0.47879912751373599 0 -0.034661755213445077 -0.46239914555511469 0 -0.01026886369710741 -0.4623083482497492 0 -0.032304849188737009 -0.45241422934183279 0 -0.034661755213445077 -0.46239914555511469 0 -0.0118725339307869 -0.43715027593022482 0 -0.01026886369710741 -0.4623083482497492 0 -0.029226817898107091 -0.44346252237462341 0 -0.01026886369710741 -0.4623083482497492 0 -0.029226817898107091 -0.44346252237462341 0 -0.01026886369710741 -0.4623083482497492 0 -0.029226817898107091 -0.44346252237462341 0 -0.032304849188737009 -0.45241422934183279 0 -0.029226817898107091 -0.44346252237462341 0 -0.032304849188737009 -0.45241422934183279 0 -0.0098803627846876883 -0.48464956015233579 0 -0.00044931618556415248 -0.5 0 0.0086890905038902247 -0.48115417412487699 0 -0.0098803627846876883 -0.48464956015233579 0 -0.00044931618556415248 -0.5 0 -0.028545677076017961 -0.5 0 -0.01026886369710741 -0.4623083482497492 0 -0.0098803627846876883 -0.48464956015233579 0 0.0086890905038902247 -0.48115417412487699 0 -0.01026886369710741 -0.4623083482497492 0 -0.0098803627846876883 -0.48464956015233579 0 -0.024412977798275389 -0.47879912751373599 0 -0.01026886369710741 -0.4623083482497492 0 0.0086890905038902247 -0.48115417412487699 0 -0.0098803627846876883 -0.48464956015233579 0 -0.024412977798275389 -0.47879912751373599 0 -0.028545677076017961 -0.5 0 -0.028545677076017961 -0.5 0 -0.042323325831404322 -0.4839891683148958 0 -0.056642037966471728 -0.49999999999999839 0 -0.024412977798275389 -0.47879912751373599 0 -0.028545677076017961 -0.5 0 -0.042323325831404322 -0.4839891683148958 0 -0.024412977798275389 -0.47879912751373599 0 -0.036680116742408432 -0.47418529603737047 0 -0.034661755213445077 -0.46239914555511469 0 -0.024412977798275389 -0.47879912751373599 0 -0.042323325831404322 -0.4839891683148958 0 -0.036680116742408432 -0.47418529603737047 0 -0.042323325831404322 -0.4839891683148958 0 -0.036680116742408432 -0.47418529603737047 0 -0.045322408126508923 -0.47155374276573547 0 -0.036680116742408432 -0.47418529603737047 0 -0.045322408126508923 -0.47155374276573547 0 -0.034661755213445077 -0.46239914555511469 0 -0.045322408126508923 -0.47155374276573547 0 -0.049230321135792218 -0.4565563404723687 0 -0.065216638474131727 -0.48070111239352142 0 -0.042323325831404322 -0.4839891683148958 0 -0.045322408126508923 -0.47155374276573547 0 -0.065216638474131727 -0.48070111239352142 0 -0.049230321135792218 -0.4565563404723687 0 -0.065216638474131727 -0.48070111239352142 0 -0.070176388326557759 -0.46953818359320432 0 -0.042323325831404322 -0.4839891683148958 0 -0.056642037966471728 -0.49999999999999839 0 -0.065216638474131727 -0.48070111239352142 0 -0.056642037966471728 -0.49999999999999839 0 -0.065216638474131727 -0.48070111239352142 0 -0.036062026762247602 -0.43666774089619592 0 -0.032304849188737009 -0.45241422934183279 0 -0.049230321135792218 -0.4565563404723687 0 -0.036062026762247602 -0.43666774089619592 0 -0.049230321135792218 -0.4565563404723687 0 -0.04731546181258995 -0.44683485680560581 0 -0.036062026762247602 -0.43666774089619592 0 -0.029226817898107091 -0.44346252237462341 0 -0.032304849188737009 -0.45241422934183279 0 -0.036062026762247602 -0.43666774089619592 0 -0.049230321135792218 -0.4565563404723687 0 -0.036062026762247602 -0.43666774089619592 0 -0.029226817898107091 -0.44346252237462341 0 -0.032304849188737009 -0.45241422934183279 0 -0.034661755213445077 -0.46239914555511469 0 -0.049230321135792218 -0.4565563404723687 0 -0.045322408126508923 -0.47155374276573547 0 -0.034661755213445077 -0.46239914555511469 0 -0.049230321135792218 -0.4565563404723687 0 -0.034661755213445077 -0.46239914555511469 0 -0.049230321135792218 -0.4565563404723687 0 -0.049230321135792218 -0.4565563404723687 0 -0.059114889415262377 -0.45259207891828818 0 -0.049230321135792218 -0.4565563404723687 0 -0.065216638474131727 -0.48070111239352142 0 -0.049230321135792218 -0.4565563404723687 0 -0.059114889415262377 -0.45259207891828818 0 -0.070176388326557759 -0.46953818359320432 0 -0.059114889415262377 -0.45259207891828818 0 -0.050604329071137648 -0.43955398637854259 0 -0.045489742746062579 -0.42729578588736999 0 -0.04731546181258995 -0.44683485680560581 0 -0.050604329071137648 -0.43955398637854259 0 -0.059114889415262377 -0.45259207891828818 0 -0.04731546181258995 -0.44683485680560581 0 -0.050604329071137648 -0.43955398637854259 0 -0.049230321135792218 -0.4565563404723687 0 -0.059114889415262377 -0.45259207891828818 0 -0.04731546181258995 -0.44683485680560581 0 -0.059114889415262377 -0.45259207891828818 0 -0.050604329071137648 -0.43955398637854259 0 -0.060748959799374468 -0.43967566940329528 0 -0.070141651018525958 -0.44816973432478541 0 -0.067481981370518501 -0.42812364762521182 0 -0.075256768157986931 -0.44423283976090189 0 -0.070141651018525958 -0.44816973432478541 0 -0.067481981370518501 -0.42812364762521182 0 -0.060748959799374468 -0.43967566940329528 0 -0.070141651018525958 -0.44816973432478541 0 -0.067481981370518501 -0.42812364762521182 0 -0.075256768157986931 -0.44423283976090189 0 -0.07671826714766003 -0.44553214553592518 0 -0.081736629203559105 -0.44351950328386269 0 -0.075256768157986931 -0.44423283976090189 0 -0.07671826714766003 -0.44553214553592518 0 -0.07671826714766003 -0.44553214553592518 0 -0.070141651018525958 -0.44816973432478541 0 -0.079674640800562191 -0.44816042881733492 0 -0.07671826714766003 -0.44553214553592518 0 -0.070141651018525958 -0.44816973432478541 0 -0.075256768157986931 -0.44423283976090189 0 -0.07671826714766003 -0.44553214553592518 0 -0.070141651018525958 -0.44816973432478541 0 -0.059114889415262377 -0.45259207891828818 0 -0.070141651018525958 -0.44816973432478541 0 -0.059114889415262377 -0.45259207891828818 0 -0.060748959799374468 -0.43967566940329528 0 -0.070141651018525958 -0.44816973432478541 0 -0.072332819008100999 -0.46468469644623239 0 -0.079674640800562191 -0.44816042881733492 0 -0.070141651018525958 -0.44816973432478541 0 -0.072332819008100999 -0.46468469644623239 0 -0.059114889415262377 -0.45259207891828818 0 -0.072332819008100999 -0.46468469644623239 0 -0.070176388326557759 -0.46953818359320432 0 -0.059114889415262377 -0.45259207891828818 0 -0.070141651018525958 -0.44816973432478541 0 -0.072332819008100999 -0.46468469644623239 0 -0.059114889415262377 -0.45259207891828818 0 -0.070176388326557759 -0.46953818359320432 0 -0.070141651018525958 -0.44816973432478541 0 -0.072332819008100999 -0.46468469644623239 0 -0.079674640800562191 -0.44816042881733492 0 -0.072332819008100999 -0.46468469644623239 0 -0.070176388326557759 -0.46953818359320432 0 -0.072332819008100999 -0.46468469644623239 0 -0.09063562731126748 -0.45790499461859291 0 -0.079674640800562191 -0.44816042881733492 0 -0.072332819008100999 -0.46468469644623239 0 -0.08401432348333468 -0.46808123426917891 0 -0.09063562731126748 -0.45790499461859291 0 -0.08401432348333468 -0.46808123426917891 0 -0.092275099460235946 -0.45936252257187982 0 -0.087737535830756164 -0.47269311495143052 0 -0.08401432348333468 -0.46808123426917891 0 -0.092275099460235946 -0.45936252257187982 0 -0.08401432348333468 -0.46808123426917891 0 -0.09063562731126748 -0.45790499461859291 0 -0.092275099460235946 -0.45936252257187982 0 -0.08401432348333468 -0.46808123426917891 0 -0.09063562731126748 -0.45790499461859291 0 -0.09063562731126748 -0.45790499461859291 0 -0.092275099460235946 -0.45936252257187982 0 -0.09063562731126748 -0.45790499461859291 0 -0.081736629203559105 -0.44351950328386269 0 -0.1064428851907689 -0.43361092073516522 0 -0.075256768157986931 -0.44423283976090189 0 -0.081736629203559105 -0.44351950328386269 0 -0.077932599806364869 -0.43274461798826958 0 -0.07671826714766003 -0.44553214553592518 0 -0.081736629203559105 -0.44351950328386269 0 -0.07671826714766003 -0.44553214553592518 0 -0.081736629203559105 -0.44351950328386269 0 -0.079674640800562191 -0.44816042881733492 0 -0.09063562731126748 -0.45790499461859291 0 -0.081736629203559105 -0.44351950328386269 0 -0.079674640800562191 -0.44816042881733492 0 -0.081736629203559105 -0.44351950328386269 0 -0.079674640800562191 -0.44816042881733492 0 -0.07671826714766003 -0.44553214553592518 0 -0.079674640800562191 -0.44816042881733492 0 -0.09063562731126748 -0.45790499461859291 0 -0.079674640800562191 -0.44816042881733492 0 -0.056642037966471728 -0.49999999999999839 0 -0.07381098802421443 -0.49368150089110951 0 -0.065216638474131727 -0.48070111239352142 0 -0.056642037966471728 -0.49999999999999839 0 -0.077018373968513021 -0.50000000000000178 0 -0.07381098802421443 -0.49368150089110951 0 -0.077018373968513021 -0.50000000000000178 0 -0.07416297522036544 -0.47847869155100298 0 -0.077018373968513021 -0.50000000000000178 0 -0.07381098802421443 -0.49368150089110951 0 -0.07416297522036544 -0.47847869155100298 0 -0.07381098802421443 -0.49368150089110951 0 -0.07176154213316932 -0.48101324796629719 0 -0.065216638474131727 -0.48070111239352142 0 -0.07381098802421443 -0.49368150089110951 0 -0.065216638474131727 -0.48070111239352142 0 -0.07381098802421443 -0.49368150089110951 0 -0.07416297522036544 -0.47847869155100298 0 -0.07176154213316932 -0.48101324796629719 0 -0.07416297522036544 -0.47847869155100298 0 -0.07176154213316932 -0.48101324796629719 0 -0.073691190949941532 -0.47492282573303579 0 -0.07416297522036544 -0.47847869155100298 0 -0.07176154213316932 -0.48101324796629719 0 -0.07416297522036544 -0.47847869155100298 0 -0.073691190949941532 -0.47492282573303579 0 -0.07176154213316932 -0.48101324796629719 0 -0.065216638474131727 -0.48070111239352142 0 -0.073691190949941532 -0.47492282573303579 0 -0.065216638474131727 -0.48070111239352142 0 -0.070176388326557759 -0.46953818359320432 0 -0.065216638474131727 -0.48070111239352142 0 -0.070176388326557759 -0.46953818359320432 0 -0.073691190949941532 -0.47492282573303579 0 -0.08401432348333468 -0.46808123426917891 0 -0.07416297522036544 -0.47847869155100298 0 -0.073691190949941532 -0.47492282573303579 0 -0.072332819008100999 -0.46468469644623239 0 -0.073691190949941532 -0.47492282573303579 0 -0.070176388326557759 -0.46953818359320432 0 -0.073691190949941532 -0.47492282573303579 0 -0.072332819008100999 -0.46468469644623239 0 -0.08401432348333468 -0.46808123426917891 0 -0.073691190949941532 -0.47492282573303579 0 -0.072332819008100999 -0.46468469644623239 0 -0.070176388326557759 -0.46953818359320432 0 -0.073691190949941532 -0.47492282573303579 0 -0.092275099460235946 -0.45936252257187982 0 -0.087737535830756164 -0.47269311495143052 0 -0.093489120516215857 -0.47808373811772942 0 -0.07416297522036544 -0.47847869155100298 0 -0.087737535830756164 -0.47269311495143052 0 -0.093489120516215857 -0.47808373811772942 0 -0.08401432348333468 -0.46808123426917891 0 -0.07416297522036544 -0.47847869155100298 0 -0.081906390883035279 -0.47132090244713409 0 -0.07416297522036544 -0.47847869155100298 0 -0.081906390883035279 -0.47132090244713409 0 -0.087737535830756164 -0.47269311495143052 0 -0.08401432348333468 -0.46808123426917891 0 -0.07416297522036544 -0.47847869155100298 0 -0.08401432348333468 -0.46808123426917891 0 -0.081906390883035279 -0.47132090244713409 0 -0.087737535830756164 -0.47269311495143052 0 -0.08401432348333468 -0.46808123426917891 0 -0.081906390883035279 -0.47132090244713409 0 -0.07416297522036544 -0.47847869155100298 0 -0.093489120516215857 -0.47808373811772942 0 -0.090060211510928148 -0.49999999999999972 0 -0.07416297522036544 -0.47847869155100298 0 -0.090060211510928148 -0.49999999999999972 0 -0.077018373968513021 -0.50000000000000178 0 -0.07416297522036544 -0.47847869155100298 0 -0.090060211510928148 -0.49999999999999972 0 -0.093489120516215857 -0.47808373811772942 0 -0.090060211510928148 -0.49999999999999972 0 -0.1050855849505546 -0.48781966739132099 0 -0.090060211510928148 -0.49999999999999972 0 -0.1050855849505546 -0.48781966739132099 0 -0.1140227960327975 -0.5 0 -0.092275099460235946 -0.45936252257187982 0 -0.093489120516215857 -0.47808373811772942 0 -0.10751185982504639 -0.4729083483812524 0 -0.093489120516215857 -0.47808373811772942 0 -0.1050855849505546 -0.48781966739132099 0 -0.10751185982504639 -0.4729083483812524 0 -0.13006892859708349 -0.47918440960548792 0 -0.1147081654268024 -0.45836881921097489 0 -0.1050855849505546 -0.48781966739132099 0 -0.10751185982504639 -0.4729083483812524 0 -0.12274862018985699 -0.4864541741906252 0 -0.13006892859708349 -0.47918440960548792 0 -0.1189856595865712 -0.47534456708511758 0 -0.1147081654268024 -0.45836881921097489 0 -0.10751185982504639 -0.4729083483812524 0 -0.1189856595865712 -0.47534456708511758 0 -0.1147081654268024 -0.45836881921097489 0 -0.13006892859708349 -0.47918440960548792 0 -0.1189856595865712 -0.47534456708511758 0 -0.12274862018985699 -0.4864541741906252 0 -0.10751185982504639 -0.4729083483812524 0 -0.1189856595865712 -0.47534456708511758 0 -0.12274862018985699 -0.4864541741906252 0 -0.10751185982504639 -0.4729083483812524 0 -0.12274862018985699 -0.4864541741906252 0 -0.1050855849505546 -0.48781966739132099 0 -0.1140227960327975 -0.5 0 -0.12274862018985699 -0.4864541741906252 0 -0.13798538055466689 -0.49999999999999872 0 -0.1140227960327975 -0.5 0 -0.12274862018985699 -0.4864541741906252 0 -0.081736629203559105 -0.44351950328386269 0 -0.1064428851907689 -0.43361092073516522 0 -0.092275099460235946 -0.45936252257187982 0 -0.1072470031514447 -0.44356065211705442 0 -0.09063562731126748 -0.45790499461859291 0 -0.1072470031514447 -0.44356065211705442 0 -0.1064428851907689 -0.43361092073516522 0 -0.09063562731126748 -0.45790499461859291 0 -0.1064428851907689 -0.43361092073516522 0 -0.09063562731126748 -0.45790499461859291 0 -0.092275099460235946 -0.45936252257187982 0 -0.1072470031514447 -0.44356065211705442 0 -0.092275099460235946 -0.45936252257187982 0 -0.10751185982504639 -0.4729083483812524 0 -0.1147081654268024 -0.45836881921097489 0 -0.092275099460235946 -0.45936252257187982 0 -0.1072470031514447 -0.44356065211705442 0 -0.1147081654268024 -0.45836881921097489 0 -0.092275099460235946 -0.45936252257187982 0 -0.10751185982504639 -0.4729083483812524 0 -0.12960541785790911 -0.46605733166593988 0 -0.13006892859708349 -0.47918440960548792 0 -0.1147081654268024 -0.45836881921097489 0 -0.13429839294665791 -0.45693130464154469 0 -0.1147081654268024 -0.45836881921097489 0 -0.1243723122818832 -0.44516332003850689 0 -0.1072470031514447 -0.44356065211705442 0 -0.1147081654268024 -0.45836881921097489 0 -0.1243723122818832 -0.44516332003850689 0 -0.1072470031514447 -0.44356065211705442 0 -0.1243723122818832 -0.44516332003850689 0 -0.1217143975191624 -0.42748619505323182 0 -0.1072470031514447 -0.44356065211705442 0 -0.1217143975191624 -0.42748619505323182 0 -0.1064428851907689 -0.43361092073516522 0 -0.1072470031514447 -0.44356065211705442 0 -0.1217143975191624 -0.42748619505323182 0 -0.1217143975191624 -0.42748619505323182 0 -0.1222998937066398 -0.42458251688077658 0 -0.1133637265017606 -0.42297432383604711 0 -0.1275640029911447 -0.41673523359610642 0 -0.1217143975191624 -0.42748619505323182 0 -0.1222998937066398 -0.42458251688077658 0 -0.1217143975191624 -0.42748619505323182 0 -0.1133637265017606 -0.42297432383604711 0 -0.1133637265017606 -0.42297432383604711 0 -0.1064428851907689 -0.43361092073516522 0 -0.1217143975191624 -0.42748619505323182 0 -0.1133637265017606 -0.42297432383604711 0 -0.1064428851907689 -0.43361092073516522 0 -0.1217143975191624 -0.42748619505323182 0 -0.1064428851907689 -0.43361092073516522 0 -0.1064428851907689 -0.43361092073516522 0 -0.10047298064414641 -0.42441593234827207 0 -0.088478523548720461 -0.42834549475649569 0 -0.1133637265017606 -0.42297432383604711 0 -0.1064428851907689 -0.43361092073516522 0 -0.10047298064414641 -0.42441593234827207 0 -0.10047298064414641 -0.42441593234827207 0 -0.095220417893883386 -0.4131714862291293 0 -0.088478523548720461 -0.42834549475649569 0 -0.1133637265017606 -0.42297432383604711 0 -0.095220417893883386 -0.4131714862291293 0 -0.1133637265017606 -0.42297432383604711 0 -0.095220417893883386 -0.4131714862291293 0 -0.11001316403929499 -0.40954013979581311 0 -0.1133637265017606 -0.42297432383604711 0 -0.10047298064414641 -0.42441593234827207 0 -0.095220417893883386 -0.4131714862291293 0 -0.095220417893883386 -0.4131714862291293 0 -0.1012848144951321 -0.39952232457966602 0 -0.095220417893883386 -0.4131714862291293 0 -0.11001316403929499 -0.40954013979581311 0 -0.1012848144951321 -0.39952232457966602 0 -0.1275640029911447 -0.41673523359610642 0 -0.1222998937066398 -0.42458251688077658 0 -0.12269102300395961 -0.40863926129170808 0 -0.1222998937066398 -0.42458251688077658 0 -0.1133637265017606 -0.42297432383604711 0 -0.12269102300395961 -0.40863926129170808 0 -0.1222998937066398 -0.42458251688077658 0 -0.12269102300395961 -0.40863926129170808 0 -0.1133637265017606 -0.42297432383604711 0 -0.11001316403929499 -0.40954013979581311 0 -0.12269102300395961 -0.40863926129170808 0 -0.1133637265017606 -0.42297432383604711 0 -0.12269102300395961 -0.40863926129170808 0 -0.12269102300395961 -0.40863926129170808 0 -0.1229577637543615 -0.39776634538166078 0 -0.1229577637543615 -0.39776634538166078 0 -0.1012848144951321 -0.39952232457966602 0 -0.11001316403929499 -0.40954013979581311 0 -0.1229577637543615 -0.39776634538166078 0 -0.1012848144951321 -0.39952232457966602 0 -0.11001316403929499 -0.40954013979581311 0 -0.12269102300395961 -0.40863926129170808 0 -0.1229577637543615 -0.39776634538166078 0 -0.1229577637543615 -0.39776634538166078 0 -0.11182538200993369 -0.37579862717884249 0 -0.1012848144951321 -0.39952232457966602 0 -0.1236406835766711 -0.36992909220609288 0 -0.1229577637543615 -0.39776634538166078 0 -0.1236406835766711 -0.36992909220609288 0 -0.1229577637543615 -0.39776634538166078 0 -0.11182538200993369 -0.37579862717884249 0 -0.099213088675365546 -0.36809119793054701 0 -0.11182538200993369 -0.37579862717884249 0 -0.091879705349572682 -0.38118020040223222 0 -0.11182538200993369 -0.37579862717884249 0 -0.1012848144951321 -0.39952232457966602 0 -0.11182538200993369 -0.37579862717884249 0 -0.1012848144951321 -0.39952232457966602 0 -0.091879705349572682 -0.38118020040223222 0 -0.1012848144951321 -0.39952232457966602 0 -0.091879705349572682 -0.38118020040223222 0 -0.074043297212377401 -0.40172947862679109 0 -0.095220417893883386 -0.4131714862291293 0 -0.1012848144951321 -0.39952232457966602 0 -0.074043297212377401 -0.40172947862679109 0 -0.1012848144951321 -0.39952232457966602 0 -0.074043297212377401 -0.40172947862679109 0 -0.091879705349572682 -0.38118020040223222 0 -0.07095658499595095 -0.40197956929869061 0 -0.091879705349572682 -0.38118020040223222 0 -0.074043297212377401 -0.40172947862679109 0 -0.07095658499595095 -0.40197956929869061 0 -0.091879705349572682 -0.38118020040223222 0 -0.073944532083998787 -0.37752107801736468 0 -0.07095658499595095 -0.40197956929869061 0 -0.073944532083998787 -0.37752107801736468 0 -0.066020905044845618 -0.39739497661632489 0 -0.063202964002153847 -0.39587244183370379 0 -0.073944532083998787 -0.37752107801736468 0 -0.066020905044845618 -0.39739497661632489 0 -0.060527286469202718 -0.3757057027629937 0 -0.073944532083998787 -0.37752107801736468 0 -0.063202964002153847 -0.39587244183370379 0 -0.073944532083998787 -0.37752107801736468 0 -0.07095658499595095 -0.40197956929869061 0 -0.066020905044845618 -0.39739497661632489 0 -0.074043297212377401 -0.40172947862679109 0 -0.07095658499595095 -0.40197956929869061 0 -0.072768350031656007 -0.40993649512647112 0 -0.074043297212377401 -0.40172947862679109 0 -0.07095658499595095 -0.40197956929869061 0 -0.066020905044845618 -0.39739497661632489 0 -0.063202964002153847 -0.39587244183370379 0 -0.066020905044845618 -0.39739497661632489 0 -0.067465842591148212 -0.40099313925336177 0 -0.064087089466935476 -0.40253614750618488 0 -0.063202964002153847 -0.39587244183370379 0 -0.064087089466935476 -0.40253614750618488 0 -0.066020905044845618 -0.39739497661632489 0 -0.063202964002153847 -0.39587244183370379 0 -0.064087089466935476 -0.40253614750618488 0 -0.066020905044845618 -0.39739497661632489 0 -0.064087089466935476 -0.40253614750618488 0 -0.07095658499595095 -0.40197956929869061 0 -0.066020905044845618 -0.39739497661632489 0 -0.07095658499595095 -0.40197956929869061 0 -0.066020905044845618 -0.39739497661632489 0 -0.067465842591148212 -0.40099313925336177 0 -0.07095658499595095 -0.40197956929869061 0 -0.064087089466935476 -0.40253614750618488 0 -0.07095658499595095 -0.40197956929869061 0 -0.067465842591148212 -0.40099313925336177 0 -0.064087089466935476 -0.40253614750618488 0 -0.07095658499595095 -0.40197956929869061 0 -0.064087089466935476 -0.40253614750618488 0 -0.064822311722511683 -0.40807756092563813 0 -0.07095658499595095 -0.40197956929869061 0 -0.064822311722511683 -0.40807756092563813 0 -0.064087089466935476 -0.40253614750618488 0 -0.064822311722511683 -0.40807756092563813 0 -0.061550463978604593 -0.40860765636565888 0 -0.064087089466935476 -0.40253614750618488 0 -0.057829464941921323 -0.42854533004401157 0 -0.064822311722511683 -0.40807756092563813 0 -0.067481981370518501 -0.42812364762521182 0 -0.072768350031656007 -0.40993649512647112 0 -0.077483202648826743 -0.41659722526450788 0 -0.067481981370518501 -0.42812364762521182 0 -0.064822311722511683 -0.40807756092563813 0 -0.072768350031656007 -0.40993649512647112 0 -0.067481981370518501 -0.42812364762521182 0 -0.064822311722511683 -0.40807756092563813 0 -0.067481981370518501 -0.42812364762521182 0 -0.061550463978604593 -0.40860765636565888 0 -0.064087089466935476 -0.40253614750618488 0 -0.064822311722511683 -0.40807756092563813 0 -0.07095658499595095 -0.40197956929869061 0 -0.064822311722511683 -0.40807756092563813 0 -0.072768350031656007 -0.40993649512647112 0 -0.074043297212377401 -0.40172947862679109 0 -0.072768350031656007 -0.40993649512647112 0 -0.077483202648826743 -0.41659722526450788 0 -0.077483202648826743 -0.41659722526450788 0 -0.067481981370518501 -0.42812364762521182 0 -0.077932599806364869 -0.43274461798826958 0 -0.075256768157986931 -0.44423283976090189 0 -0.067481981370518501 -0.42812364762521182 0 -0.077932599806364869 -0.43274461798826958 0 -0.077483202648826743 -0.41659722526450788 0 -0.077932599806364869 -0.43274461798826958 0 -0.088478523548720461 -0.42834549475649569 0 -0.081736629203559105 -0.44351950328386269 0 -0.1064428851907689 -0.43361092073516522 0 -0.088478523548720461 -0.42834549475649569 0 -0.081736629203559105 -0.44351950328386269 0 -0.077932599806364869 -0.43274461798826958 0 -0.088478523548720461 -0.42834549475649569 0 -0.081736629203559105 -0.44351950328386269 0 -0.088478523548720461 -0.42834549475649569 0 -0.095220417893883386 -0.4131714862291293 0 -0.074043297212377401 -0.40172947862679109 0 -0.077483202648826743 -0.41659722526450788 0 -0.095220417893883386 -0.4131714862291293 0 -0.077483202648826743 -0.41659722526450788 0 -0.088478523548720461 -0.42834549475649569 0 -0.095220417893883386 -0.4131714862291293 0 -0.088478523548720461 -0.42834549475649569 0 -0.095220417893883386 -0.4131714862291293 0 -0.074043297212377401 -0.40172947862679109 0 -0.081540228031789966 -0.077525548649780243 0 -0.095570620700794917 -0.088137619977155565 0 -0.097499241293358463 -0.073919456386696406 0 -0.0827791886417482 -0.090282026642794028 0 -0.081540228031789966 -0.077525548649780243 0 -0.095570620700794917 -0.088137619977155565 0 -0.081540228031789966 -0.077525548649780243 0 -0.097499241293358463 -0.073919456386696406 0 -0.087594471948310187 -0.061320910383861282 0 -0.081540228031789966 -0.077525548649780243 0 -0.067610890894165165 -0.065627537268864208 0 -0.087594471948310187 -0.061320910383861282 0 -0.081540228031789966 -0.077525548649780243 0 -0.067610890894165165 -0.065627537268864208 0 -0.067258750436846579 -0.086733103374783904 0 -0.0827791886417482 -0.090282026642794028 0 -0.081540228031789966 -0.077525548649780243 0 -0.067258750436846579 -0.086733103374783904 0 -0.0827791886417482 -0.090282026642794028 0 -0.067258750436846579 -0.086733103374783904 0 -0.07519142141857181 -0.099779845072102816 0 -0.067258750436846579 -0.086733103374783904 0 -0.07519142141857181 -0.099779845072102816 0 -0.060197263750284731 -0.1052164696259309 0 -0.07519142141857181 -0.099779845072102816 0 -0.074888955906443261 -0.11424270199518879 0 -0.060197263750284731 -0.1052164696259309 0 -0.074888955906443261 -0.11424270199518879 0 -0.085188028795831927 -0.1175388874617285 0 -0.06483412888304893 -0.127208335331051 0 -0.074888955906443261 -0.11424270199518879 0 -0.062425167552116703 -0.1164017037348065 0 -0.06483412888304893 -0.127208335331051 0 -0.074888955906443261 -0.11424270199518879 0 -0.062425167552116703 -0.1164017037348065 0 -0.060197263750284731 -0.1052164696259309 0 -0.085188028795831927 -0.1175388874617285 0 -0.090379324748313256 -0.102838253719442 0 -0.100986052140455 -0.1100097881515901 0 -0.074888955906443261 -0.11424270199518879 0 -0.085188028795831927 -0.1175388874617285 0 -0.090379324748313256 -0.102838253719442 0 -0.074888955906443261 -0.11424270199518879 0 -0.085188028795831927 -0.1175388874617285 0 -0.085188028795831927 -0.1175388874617285 0 -0.090379324748313256 -0.102838253719442 0 -0.0827791886417482 -0.090282026642794028 0 -0.07519142141857181 -0.099779845072102816 0 -0.090379324748313256 -0.102838253719442 0 -0.07519142141857181 -0.099779845072102816 0 -0.074888955906443261 -0.11424270199518879 0 -0.090379324748313256 -0.102838253719442 0 -0.090379324748313256 -0.102838253719442 0 -0.095570620700794917 -0.088137619977155565 0 -0.0827791886417482 -0.090282026642794028 0 -0.090379324748313256 -0.102838253719442 0 -0.095570620700794917 -0.088137619977155565 0 -0.090379324748313256 -0.102838253719442 0 -0.10214109818368169 -0.098430067532505675 0 -0.095570620700794917 -0.088137619977155565 0 -0.10214109818368169 -0.098430067532505675 0 -0.1145051005884575 -0.10462938318120731 0 -0.1111833215656169 -0.086623449286469173 0 -0.090379324748313256 -0.102838253719442 0 -0.10214109818368169 -0.098430067532505675 0 -0.100986052140455 -0.1100097881515901 0 -0.10214109818368169 -0.098430067532505675 0 -0.100986052140455 -0.1100097881515901 0 -0.1145051005884575 -0.10462938318120731 0 -0.085188028795831927 -0.1175388874617285 0 -0.100986052140455 -0.1100097881515901 0 -0.11367617279860549 -0.12665642718973519 0 -0.085188028795831927 -0.1175388874617285 0 -0.11367617279860549 -0.12665642718973519 0 -0.11367617279860549 -0.12665642718973519 0 -0.13160637301854569 -0.1122637712045312 0 -0.1145051005884575 -0.10462938318120731 0 -0.11367617279860549 -0.12665642718973519 0 -0.13160637301854569 -0.1122637712045312 0 -0.100986052140455 -0.1100097881515901 0 -0.1145051005884575 -0.10462938318120731 0 -0.11367617279860549 -0.12665642718973519 0 -0.1145051005884575 -0.10462938318120731 0 -0.1111833215656169 -0.086623449286469173 0 -0.133307176752236 -0.094422029774925906 0 -0.1111833215656169 -0.086623449286469173 0 -0.12906645921732871 -0.07580305906623587 0 -0.133307176752236 -0.094422029774925906 0 -0.10214109818368169 -0.098430067532505675 0 -0.1111833215656169 -0.086623449286469173 0 -0.095570620700794917 -0.088137619977155565 0 -0.1111833215656169 -0.086623449286469173 0 -0.095570620700794917 -0.088137619977155565 0 -0.097499241293358463 -0.073919456386696406 0 -0.1111833215656169 -0.086623449286469173 0 -0.097499241293358463 -0.073919456386696406 0 -0.1120431286000996 -0.070965798813613382 0 -0.097499241293358463 -0.073919456386696406 0 -0.1035521667132553 -0.058294794717368988 0 -0.087594471948310187 -0.061320910383861282 0 -0.097499241293358463 -0.073919456386696406 0 -0.1120431286000996 -0.070965798813613382 0 -0.1035521667132553 -0.058294794717368988 0 -0.1120431286000996 -0.070965798813613382 0 -0.12184901788244509 -0.060160628118238559 0 -0.1035521667132553 -0.058294794717368988 0 -0.1120431286000996 -0.070965798813613382 0 -0.12184901788244509 -0.060160628118238559 0 -0.12906645921732871 -0.07580305906623587 0 -0.1111833215656169 -0.086623449286469173 0 -0.1120431286000996 -0.070965798813613382 0 -0.12906645921732871 -0.07580305906623587 0 -0.12184901788244509 -0.060160628118238559 0 -0.11589472230902841 -0.046303252306023099 0 -0.13709359078461281 -0.052088298419020303 0 -0.12184901788244509 -0.060160628118238559 0 -0.11589472230902841 -0.046303252306023099 0 -0.1035521667132553 -0.058294794717368988 0 -0.11589472230902841 -0.046303252306023099 0 -0.1058433854809008 -0.030207509744013102 0 -0.13353221057960871 -0.032914864881728997 0 -0.11589472230902841 -0.046303252306023099 0 -0.1058433854809008 -0.030207509744013102 0 -0.093184827223209171 -0.044190879829431443 0 -0.1058433854809008 -0.030207509744013102 0 -0.088294295145962209 -0.02745985033979895 0 -0.093184827223209171 -0.044190879829431443 0 -0.1035521667132553 -0.058294794717368988 0 -0.087594471948310187 -0.061320910383861282 0 -0.093184827223209171 -0.044190879829431443 0 -0.11589472230902841 -0.046303252306023099 0 -0.1035521667132553 -0.058294794717368988 0 -0.093184827223209171 -0.044190879829431443 0 -0.116021031496858 -0.0030501413286038019 0 -0.1215205382654178 -0.018105944207045511 0 -0.13389714270702699 -0.0020157165474106232 0 -0.116021031496858 -0.0030501413286038019 0 -0.1215205382654178 -0.018105944207045511 0 -0.099528594570079593 -0.015789206777148939 0 -0.1215205382654178 -0.018105944207045511 0 -0.1058433854809008 -0.030207509744013102 0 -0.13353221057960871 -0.032914864881728997 0 -0.1058433854809008 -0.030207509744013102 0 -0.099528594570079593 -0.015789206777148939 0 -0.088294295145962209 -0.02745985033979895 0 -0.1215205382654178 -0.018105944207045511 0 -0.1058433854809008 -0.030207509744013102 0 -0.099528594570079593 -0.015789206777148939 0 -0.116021031496858 -0.0030501413286038019 0 -0.099528594570079593 -0.015789206777148939 0 -0.099612891804326184 -4.8910125942748517e-05 0 -0.099528594570079593 -0.015789206777148939 0 -0.099612891804326184 -4.8910125942748517e-05 0 -0.077598870756995314 0.0021811196580569939 0 -0.099528594570079593 -0.015789206777148939 0 -0.074452809039710618 -0.016040483622284041 0 -0.077598870756995314 0.0021811196580569939 0 -0.099528594570079593 -0.015789206777148939 0 -0.088294295145962209 -0.02745985033979895 0 -0.074452809039710618 -0.016040483622284041 0 -0.067752679217272307 -0.030692661522215101 0 -0.074452809039710618 -0.016040483622284041 0 -0.056047572545505367 -0.018805696987040509 0 -0.088294295145962209 -0.02745985033979895 0 -0.067752679217272307 -0.030692661522215101 0 -0.074452809039710618 -0.016040483622284041 0 -0.074452809039710618 -0.016040483622284041 0 -0.077598870756995314 0.0021811196580569939 0 -0.055584849709664472 0.0044111494420567337 0 -0.087594471948310187 -0.061320910383861282 0 -0.093184827223209171 -0.044190879829431443 0 -0.069651669589075593 -0.047944129702445992 0 -0.088294295145962209 -0.02745985033979895 0 -0.067752679217272307 -0.030692661522215101 0 -0.093184827223209171 -0.044190879829431443 0 -0.067752679217272307 -0.030692661522215101 0 -0.093184827223209171 -0.044190879829431443 0 -0.069651669589075593 -0.047944129702445992 0 -0.067752679217272307 -0.030692661522215101 0 -0.069651669589075593 -0.047944129702445992 0 -0.052637921148973983 -0.050222112232924318 0 -0.067610890894165165 -0.065627537268864208 0 -0.087594471948310187 -0.061320910383861282 0 -0.069651669589075593 -0.047944129702445992 0 -0.067610890894165165 -0.065627537268864208 0 -0.069651669589075593 -0.047944129702445992 0 -0.052637921148973983 -0.050222112232924318 0 -0.067610890894165165 -0.065627537268864208 0 -0.052637921148973983 -0.050222112232924318 0 -0.049594791482939653 -0.07043816974925779 0 -0.067752679217272307 -0.030692661522215101 0 -0.052637921148973983 -0.050222112232924318 0 -0.042994305513767213 -0.03400961876602588 0 -0.042994305513767213 -0.03400961876602588 0 -0.033271116888786888 -0.05503255915277816 0 -0.020598030685220151 -0.040927570822014488 0 -0.052637921148973983 -0.050222112232924318 0 -0.042994305513767213 -0.03400961876602588 0 -0.033271116888786888 -0.05503255915277816 0 -0.052637921148973983 -0.050222112232924318 0 -0.033271116888786888 -0.05503255915277816 0 -0.049594791482939653 -0.07043816974925779 0 -0.074452809039710618 -0.016040483622284041 0 -0.056047572545505367 -0.018805696987040509 0 -0.055584849709664472 0.0044111494420567337 0 -0.056047572545505367 -0.018805696987040509 0 -0.04684685896733061 -0.0071051417149440967 0 -0.055584849709664472 0.0044111494420567337 0 -0.056047572545505367 -0.018805696987040509 0 -0.042660641588035182 -0.019144881626166659 0 -0.04684685896733061 -0.0071051417149440967 0 -0.067752679217272307 -0.030692661522215101 0 -0.042994305513767213 -0.03400961876602588 0 -0.056047572545505367 -0.018805696987040509 0 -0.042994305513767213 -0.03400961876602588 0 -0.056047572545505367 -0.018805696987040509 0 -0.042660641588035182 -0.019144881626166659 0 -0.042994305513767213 -0.03400961876602588 0 -0.042660641588035182 -0.019144881626166659 0 -0.029532912242982511 -0.0218574272580262 0 -0.042660641588035182 -0.019144881626166659 0 -0.035647182059841263 -0.0074814815470068824 0 -0.029532912242982511 -0.0218574272580262 0 -0.042660641588035182 -0.019144881626166659 0 -0.035647182059841263 -0.0074814815470068824 0 -0.04684685896733061 -0.0071051417149440967 0 -0.035647182059841263 -0.0074814815470068824 0 -0.04684685896733061 -0.0071051417149440967 0 -0.033570828662333463 0.0066411792260549652 0 -0.035647182059841263 -0.0074814815470068824 0 -0.033570828662333463 0.0066411792260549652 0 -0.017329178786375941 -0.0021803977902141499 0 -0.0218466850946358 -0.0088376069999594707 0 -0.012272533275660301 -0.0058504328788583264 0 -0.017329178786375941 -0.0021803977902141499 0 -0.0218466850946358 -0.0088376069999594707 0 -0.023192640083551239 0.002120344953082073 0 -0.035647182059841263 -0.0074814815470068824 0 -0.0218466850946358 -0.0088376069999594707 0 -0.023192640083551239 0.002120344953082073 0 -0.035647182059841263 -0.0074814815470068824 0 -0.0218466850946358 -0.0088376069999594707 0 -0.029532912242982511 -0.0218574272580262 0 -0.0218466850946358 -0.0088376069999594707 0 -0.0134506285163955 -0.020743403786983791 0 -0.012272533275660301 -0.0058504328788583264 0 -0.0218466850946358 -0.0088376069999594707 0 -0.029532912242982511 -0.0218574272580262 0 -0.0134506285163955 -0.020743403786983791 0 -0.029532912242982511 -0.0218574272580262 0 -0.0134506285163955 -0.020743403786983791 0 -0.020598030685220151 -0.040927570822014488 0 -0.00068626669319661398 -0.022988926579625781 0 -0.0134506285163955 -0.020743403786983791 0 -0.0071939510845541758 -0.035470850984737123 0 -0.00068626669319661398 -0.022988926579625781 0 -0.0134506285163955 -0.020743403786983791 0 -0.0030996309439716872 -0.010090613405617991 0 -0.0134506285163955 -0.020743403786983791 0 -0.0030996309439716872 -0.010090613405617991 0 -0.012272533275660301 -0.0058504328788583264 0 -0.0030996309439716872 -0.010090613405617991 0 -0.0076001321427136091 -0.00024994043009163151 0 -0.012272533275660301 -0.0058504328788583264 0 -0.0030996309439716872 -0.010090613405617991 0 -0.0076001321427136091 -0.00024994043009163151 0 0.001543159741337678 0.0020358238033578099 0 -0.017329178786375941 -0.0021803977902141499 0 -0.012272533275660301 -0.0058504328788583264 0 -0.01200485669165644 0.0038461037648791219 0 -0.0076001321427136091 -0.00024994043009163151 0 -0.012272533275660301 -0.0058504328788583264 0 -0.01200485669165644 0.0038461037648791219 0 -0.033271116888786888 -0.05503255915277816 0 -0.008024144218591928 -0.055839324175433983 0 -0.025702488450749159 -0.075511004835938908 0 -0.033271116888786888 -0.05503255915277816 0 -0.020598030685220151 -0.040927570822014488 0 -0.008024144218591928 -0.055839324175433983 0 -0.042994305513767213 -0.03400961876602588 0 -0.029532912242982511 -0.0218574272580262 0 -0.020598030685220151 -0.040927570822014488 0 -0.0134506285163955 -0.020743403786983791 0 -0.020598030685220151 -0.040927570822014488 0 -0.0071939510845541758 -0.035470850984737123 0 -0.020598030685220151 -0.040927570822014488 0 -0.0071939510845541758 -0.035470850984737123 0 -0.008024144218591928 -0.055839324175433983 0 -0.0071939510845541758 -0.035470850984737123 0 -0.008024144218591928 -0.055839324175433983 0 0.0096542000135663025 -0.036167643514929952 0 -0.008024144218591928 -0.055839324175433983 0 -0.007088811202105999 -0.074459216535332842 0 0.0084666081465137599 -0.064182827664015507 0 -0.008024144218591928 -0.055839324175433983 0 -0.007088811202105999 -0.074459216535332842 0 -0.025702488450749159 -0.075511004835938908 0 -0.007088811202105999 -0.074459216535332842 0 -0.0078810064653335819 -0.092271495155271041 0 0.0072790162794601852 -0.092198011813101055 0 -0.007088811202105999 -0.074459216535332842 0 -0.0078810064653335819 -0.092271495155271041 0 -0.025702488450749159 -0.075511004835938908 0 -0.025702488450749159 -0.075511004835938908 0 -0.043380832682906378 -0.09518268549644382 0 -0.024170840293148709 -0.096994535971229964 0 -0.0078810064653335819 -0.092271495155271041 0 -0.025702488450749159 -0.075511004835938908 0 -0.024170840293148709 -0.096994535971229964 0 -0.008024144218591928 -0.055839324175433983 0 -0.025702488450749159 -0.075511004835938908 0 -0.033271116888786888 -0.05503255915277816 0 -0.025702488450749159 -0.075511004835938908 0 -0.049594791482939653 -0.07043816974925779 0 -0.025702488450749159 -0.075511004835938908 0 -0.043380832682906378 -0.09518268549644382 0 -0.025702488450749159 -0.075511004835938908 0 -0.049594791482939653 -0.07043816974925779 0 -0.043380832682906378 -0.09518268549644382 0 -0.067258750436846579 -0.086733103374783904 0 -0.049594791482939653 -0.07043816974925779 0 -0.043380832682906378 -0.09518268549644382 0 -0.067610890894165165 -0.065627537268864208 0 -0.067258750436846579 -0.086733103374783904 0 -0.049594791482939653 -0.07043816974925779 0 -0.049780321668689932 -0.11893930798705531 0 -0.062425167552116703 -0.1164017037348065 0 -0.06483412888304893 -0.127208335331051 0 -0.049780321668689932 -0.11893930798705531 0 -0.062425167552116703 -0.1164017037348065 0 -0.060197263750284731 -0.1052164696259309 0 -0.067258750436846579 -0.086733103374783904 0 -0.060197263750284731 -0.1052164696259309 0 -0.043380832682906378 -0.09518268549644382 0 -0.049780321668689932 -0.11893930798705531 0 -0.060197263750284731 -0.1052164696259309 0 -0.043380832682906378 -0.09518268549644382 0 -0.043380832682906378 -0.09518268549644382 0 -0.030178970446860388 -0.1148006532101168 0 -0.024170840293148709 -0.096994535971229964 0 -0.049780321668689932 -0.11893930798705531 0 -0.043380832682906378 -0.09518268549644382 0 -0.030178970446860388 -0.1148006532101168 0 -0.049780321668689932 -0.11893930798705531 0 -0.030178970446860388 -0.1148006532101168 0 -0.042543317819635267 -0.1333425350155811 0 -0.030178970446860388 -0.1148006532101168 0 -0.015828336151067612 -0.1193355933926484 0 -0.025413558980551181 -0.1319236415468566 0 -0.030178970446860388 -0.1148006532101168 0 -0.015828336151067612 -0.1193355933926484 0 -0.01405145377162937 -0.1073955190772416 0 -0.030178970446860388 -0.1148006532101168 0 -0.024170840293148709 -0.096994535971229964 0 -0.01405145377162937 -0.1073955190772416 0 -0.0078810064653335819 -0.092271495155271041 0 -0.024170840293148709 -0.096994535971229964 0 -0.01405145377162937 -0.1073955190772416 0 -0.0078810064653335819 -0.092271495155271041 0 -0.01405145377162937 -0.1073955190772416 0 -0.00213609781972147 -0.1055666400830108 0 -0.0078810064653335819 -0.092271495155271041 0 -0.00213609781972147 -0.1055666400830108 0 0.0072790162794601852 -0.092198011813101055 0 -0.015828336151067612 -0.1193355933926484 0 -0.004113471453644461 -0.1154041966511728 0 -0.0075997891537400598 -0.1263237093774541 0 -0.015828336151067612 -0.1193355933926484 0 -0.01405145377162937 -0.1073955190772416 0 -0.004113471453644461 -0.1154041966511728 0 -0.00213609781972147 -0.1055666400830108 0 -0.004113471453644461 -0.1154041966511728 0 0.0060914244124049312 -0.1202131959621866 0 -0.01405145377162937 -0.1073955190772416 0 -0.00213609781972147 -0.1055666400830108 0 -0.004113471453644461 -0.1154041966511728 0 -0.004113471453644461 -0.1154041966511728 0 -0.0075997891537400598 -0.1263237093774541 0 0.0040996962806560469 -0.1210602278589137 0 -0.0075997891537400598 -0.1263237093774541 0 -0.0057433364209832811 -0.13900404734521879 0 0.0040996962806560469 -0.1210602278589137 0 -0.0057433364209832811 -0.13900404734521879 0 -0.025413558980551181 -0.1319236415468566 0 -0.010712771077360361 -0.15067847215815869 0 -0.0075997891537400598 -0.1263237093774541 0 -0.0057433364209832811 -0.13900404734521879 0 -0.025413558980551181 -0.1319236415468566 0 -0.015828336151067612 -0.1193355933926484 0 -0.0075997891537400598 -0.1263237093774541 0 -0.025413558980551181 -0.1319236415468566 0 -0.025413558980551181 -0.1319236415468566 0 -0.021552147884146399 -0.1572735753383597 0 -0.035245493321757568 -0.1467462993368023 0 -0.025413558980551181 -0.1319236415468566 0 -0.021552147884146399 -0.1572735753383597 0 -0.025413558980551181 -0.1319236415468566 0 -0.010712771077360361 -0.15067847215815869 0 -0.021552147884146399 -0.1572735753383597 0 -0.0057433364209832811 -0.13900404734521879 0 -0.001068637237327709 -0.15892335893679441 0 0.0048487431793671938 -0.1495279332452783 0 -0.010712771077360361 -0.15067847215815869 0 -0.01051577201614271 -0.15952620668931139 0 -0.021552147884146399 -0.1572735753383597 0 -0.0057433364209832811 -0.13900404734521879 0 -0.001068637237327709 -0.15892335893679441 0 -0.0057433364209832811 -0.13900404734521879 0 -0.010712771077360361 -0.15067847215815869 0 -0.001068637237327709 -0.15892335893679441 0 -0.001068637237327709 -0.15892335893679441 0 -0.0087295318657363632 -0.17122942032393271 0 0.0036060619463278189 -0.17884267052837 0 -0.010712771077360361 -0.15067847215815869 0 -0.001068637237327709 -0.15892335893679441 0 -0.01051577201614271 -0.15952620668931139 0 -0.001068637237327709 -0.15892335893679441 0 -0.0087295318657363632 -0.17122942032393271 0 -0.01051577201614271 -0.15952620668931139 0 -0.0087295318657363632 -0.17122942032393271 0 -0.01051577201614271 -0.15952620668931139 0 -0.021552147884146399 -0.1572735753383597 0 -0.017690736787741589 -0.18262350912986289 0 -0.0068728686949633836 -0.19394474515012469 0 0.0036060619463278189 -0.17884267052837 0 -0.0087295318657363632 -0.17122942032393271 0 -0.017690736787741589 -0.18262350912986289 0 0.0036060619463278189 -0.17884267052837 0 -0.017690736787741589 -0.18262350912986289 0 -0.036912482676829429 -0.18478051019251679 0 -0.031913828000385412 -0.17224285810571319 0 -0.0087295318657363632 -0.17122942032393271 0 -0.017690736787741589 -0.18262350912986289 0 -0.021552147884146399 -0.1572735753383597 0 -0.017690736787741589 -0.18262350912986289 0 -0.021552147884146399 -0.1572735753383597 0 -0.017690736787741589 -0.18262350912986289 0 -0.021552147884146399 -0.1572735753383597 0 -0.031913828000385412 -0.17224285810571319 0 -0.040669719708341288 -0.16180044548298861 0 -0.042744052944868362 -0.17473625038483781 0 -0.057081546088265211 -0.1720852000345125 0 -0.021552147884146399 -0.1572735753383597 0 -0.040669719708341288 -0.16180044548298861 0 -0.031913828000385412 -0.17224285810571319 0 -0.040669719708341288 -0.16180044548298861 0 -0.031913828000385412 -0.17224285810571319 0 -0.042744052944868362 -0.17473625038483781 0 -0.036912482676829429 -0.18478051019251679 0 -0.031913828000385412 -0.17224285810571319 0 -0.042744052944868362 -0.17473625038483781 0 -0.036912482676829429 -0.18478051019251679 0 -0.050441394012372333 -0.18151861455606191 0 -0.05064419834881876 -0.19423903545305399 0 -0.036912482676829429 -0.18478051019251679 0 -0.042744052944868362 -0.17473625038483781 0 -0.050441394012372333 -0.18151861455606191 0 -0.050441394012372333 -0.18151861455606191 0 -0.060805710440340777 -0.1865843695942874 0 -0.05064419834881876 -0.19423903545305399 0 -0.042744052944868362 -0.17473625038483781 0 -0.050441394012372333 -0.18151861455606191 0 -0.057081546088265211 -0.1720852000345125 0 -0.050441394012372333 -0.18151861455606191 0 -0.058627682575564839 -0.17757086285286569 0 -0.057081546088265211 -0.1720852000345125 0 -0.050441394012372333 -0.18151861455606191 0 -0.058627682575564839 -0.17757086285286569 0 -0.060805710440340777 -0.1865843695942874 0 -0.040669719708341288 -0.16180044548298861 0 -0.057081546088265211 -0.1720852000345125 0 -0.055707453713946947 -0.15805587991518039 0 -0.040669719708341288 -0.16180044548298861 0 -0.055707453713946947 -0.15805587991518039 0 -0.046048722216113731 -0.14939129930022549 0 -0.057081546088265211 -0.1720852000345125 0 -0.055707453713946947 -0.15805587991518039 0 -0.069424676495541987 -0.16217731124613891 0 -0.058627682575564839 -0.17757086285286569 0 -0.057081546088265211 -0.1720852000345125 0 -0.069424676495541987 -0.16217731124613891 0 -0.060834513836941842 -0.14454096786821041 0 -0.042543317819635267 -0.1333425350155811 0 -0.046048722216113731 -0.14939129930022549 0 -0.055707453713946947 -0.15805587991518039 0 -0.060834513836941842 -0.14454096786821041 0 -0.069424676495541987 -0.16217731124613891 0 -0.055707453713946947 -0.15805587991518039 0 -0.060834513836941842 -0.14454096786821041 0 -0.046048722216113731 -0.14939129930022549 0 -0.060834513836941842 -0.14454096786821041 0 -0.042543317819635267 -0.1333425350155811 0 -0.06483412888304893 -0.127208335331051 0 -0.049780321668689932 -0.11893930798705531 0 -0.042543317819635267 -0.1333425350155811 0 -0.06483412888304893 -0.127208335331051 0 -0.025413558980551181 -0.1319236415468566 0 -0.042543317819635267 -0.1333425350155811 0 -0.035245493321757568 -0.1467462993368023 0 -0.030178970446860388 -0.1148006532101168 0 -0.025413558980551181 -0.1319236415468566 0 -0.042543317819635267 -0.1333425350155811 0 -0.021552147884146399 -0.1572735753383597 0 -0.040669719708341288 -0.16180044548298861 0 -0.035245493321757568 -0.1467462993368023 0 -0.042543317819635267 -0.1333425350155811 0 -0.035245493321757568 -0.1467462993368023 0 -0.046048722216113731 -0.14939129930022549 0 -0.040669719708341288 -0.16180044548298861 0 -0.035245493321757568 -0.1467462993368023 0 -0.046048722216113731 -0.14939129930022549 0 -0.027228895249923661 -0.2574670216618572 0 -0.01600576742353358 -0.24352823295287471 0 -0.036296927760846032 -0.2421840690179633 0 -0.01600576742353358 -0.24352823295287471 0 -0.032095365344135429 -0.22512467578664119 0 -0.036296927760846032 -0.2421840690179633 0 -0.01600576742353358 -0.24352823295287471 0 8.3830497070164071e-05 -0.26193179011910639 0 0.0012579076468239409 -0.23423541692219441 0 -0.01600576742353358 -0.24352823295287471 0 -0.016295468765971929 -0.22778666660512101 0 0.0012579076468239409 -0.23423541692219441 0 -0.0068541963070842364 -0.2192881923065812 0 0.0012579076468239409 -0.23423541692219441 0 0.002431984796575862 -0.2065390437252822 0 -0.0068541963070842364 -0.2192881923065812 0 -0.016295468765971929 -0.22778666660512101 0 0.0012579076468239409 -0.23423541692219441 0 -0.01600576742353358 -0.24352823295287471 0 -0.016295468765971929 -0.22778666660512101 0 -0.032095365344135429 -0.22512467578664119 0 -0.01600576742353358 -0.24352823295287471 0 -0.032095365344135429 -0.22512467578664119 0 -0.016295468765971929 -0.22778666660512101 0 -0.01382932569133679 -0.2079734429213661 0 -0.032095365344135429 -0.22512467578664119 0 -0.01382932569133679 -0.2079734429213661 0 -0.032523248390633273 -0.20038257441007989 0 -0.032095365344135429 -0.22512467578664119 0 -0.0068541963070842364 -0.2192881923065812 0 -0.01382932569133679 -0.2079734429213661 0 0.002431984796575862 -0.2065390437252822 0 -0.0068541963070842364 -0.2192881923065812 0 -0.016295468765971929 -0.22778666660512101 0 -0.01382932569133679 -0.2079734429213661 0 -0.01382932569133679 -0.2079734429213661 0 -0.0068728686949633836 -0.19394474515012469 0 0.002431984796575862 -0.2065390437252822 0 -0.0068728686949633836 -0.19394474515012469 0 0.002431984796575862 -0.2065390437252822 0 0.0036060619463278189 -0.17884267052837 0 -0.017690736787741589 -0.18262350912986289 0 -0.01382932569133679 -0.2079734429213661 0 -0.0068728686949633836 -0.19394474515012469 0 -0.017690736787741589 -0.18262350912986289 0 -0.01382932569133679 -0.2079734429213661 0 -0.017690736787741589 -0.18262350912986289 0 -0.01382932569133679 -0.2079734429213661 0 -0.032523248390633273 -0.20038257441007989 0 -0.017690736787741589 -0.18262350912986289 0 -0.036912482676829429 -0.18478051019251679 0 -0.032523248390633273 -0.20038257441007989 0 -0.032523248390633273 -0.20038257441007989 0 -0.05064419834881876 -0.19423903545305399 0 -0.048184963264737271 -0.20672111862040779 0 -0.036912482676829429 -0.18478051019251679 0 -0.032523248390633273 -0.20038257441007989 0 -0.05064419834881876 -0.19423903545305399 0 -0.048184963264737271 -0.20672111862040779 0 -0.064274561185339127 -0.1883175614541743 0 -0.05064419834881876 -0.19423903545305399 0 -0.048184963264737271 -0.20672111862040779 0 -0.064274561185339127 -0.1883175614541743 0 -0.048184963264737271 -0.20672111862040779 0 -0.063788470691676244 -0.20520915707467771 0 -0.064274561185339127 -0.1883175614541743 0 -0.060805710440340777 -0.1865843695942874 0 -0.05064419834881876 -0.19423903545305399 0 -0.064274561185339127 -0.1883175614541743 0 -0.048184963264737271 -0.20672111862040779 0 -0.057846811259696838 -0.22819278955458799 0 -0.063788470691676244 -0.20520915707467771 0 -0.048184963264737271 -0.20672111862040779 0 -0.032095365344135429 -0.22512467578664119 0 -0.032523248390633273 -0.20038257441007989 0 -0.048184963264737271 -0.20672111862040779 0 -0.032095365344135429 -0.22512467578664119 0 -0.048184963264737271 -0.20672111862040779 0 -0.032095365344135429 -0.22512467578664119 0 -0.057846811259696838 -0.22819278955458799 0 -0.032095365344135429 -0.22512467578664119 0 -0.057846811259696838 -0.22819278955458799 0 -0.036296927760846032 -0.2421840690179633 0 -0.04830779952694067 -0.25660762513385549 0 -0.057846811259696838 -0.22819278955458799 0 -0.036296927760846032 -0.2421840690179633 0 -0.04830779952694067 -0.25660762513385549 0 -0.057846811259696838 -0.22819278955458799 0 -0.077243146103807225 -0.24957180213960961 0 -0.077243146103807225 -0.24957180213960961 0 -0.085368481239572302 -0.23066244491073659 0 -0.1033879665926753 -0.2380445316912011 0 -0.057846811259696838 -0.22819278955458799 0 -0.077243146103807225 -0.24957180213960961 0 -0.085368481239572302 -0.23066244491073659 0 -0.057846811259696838 -0.22819278955458799 0 -0.085368481239572302 -0.23066244491073659 0 -0.078561375652291404 -0.21220539361550059 0 -0.078561375652291404 -0.21220539361550059 0 -0.088585668625445452 -0.19469214239315469 0 -0.1070939540509533 -0.20835448686599589 0 -0.085368481239572302 -0.23066244491073659 0 -0.078561375652291404 -0.21220539361550059 0 -0.1070939540509533 -0.20835448686599589 0 -0.057846811259696838 -0.22819278955458799 0 -0.078561375652291404 -0.21220539361550059 0 -0.063788470691676244 -0.20520915707467771 0 -0.078561375652291404 -0.21220539361550059 0 -0.063788470691676244 -0.20520915707467771 0 -0.074519051563277552 -0.19665751236313689 0 -0.063788470691676244 -0.20520915707467771 0 -0.074519051563277552 -0.19665751236313689 0 -0.064274561185339127 -0.1883175614541743 0 -0.074519051563277552 -0.19665751236313689 0 -0.064274561185339127 -0.1883175614541743 0 -0.079607386395116053 -0.18588760239538679 0 -0.074519051563277552 -0.19665751236313689 0 -0.088585668625445452 -0.19469214239315469 0 -0.079607386395116053 -0.18588760239538679 0 -0.078561375652291404 -0.21220539361550059 0 -0.074519051563277552 -0.19665751236313689 0 -0.088585668625445452 -0.19469214239315469 0 -0.088585668625445452 -0.19469214239315469 0 -0.10574092411397761 -0.18760701262706561 0 -0.1070939540509533 -0.20835448686599589 0 -0.10574092411397761 -0.18760701262706561 0 -0.11910425372574419 -0.1970697472547758 0 -0.1070939540509533 -0.20835448686599589 0 -0.10574092411397761 -0.18760701262706561 0 -0.11910425372574419 -0.1970697472547758 0 -0.1193670728178718 -0.1849388160497098 0 -0.11910425372574419 -0.1970697472547758 0 -0.1193670728178718 -0.1849388160497098 0 -0.12731415509750141 -0.1908163057721351 0 -0.11910425372574419 -0.1970697472547758 0 -0.12267984620676679 -0.21142780662962371 0 -0.13242957006739459 -0.19927405558412489 0 -0.12267984620676679 -0.21142780662962371 0 -0.1070939540509533 -0.20835448686599589 0 -0.11912497002641149 -0.2247679447327961 0 -0.11910425372574419 -0.1970697472547758 0 -0.12267984620676679 -0.21142780662962371 0 -0.1070939540509533 -0.20835448686599589 0 -0.1070939540509533 -0.20835448686599589 0 -0.1033879665926753 -0.2380445316912011 0 -0.085368481239572302 -0.23066244491073659 0 -0.1070939540509533 -0.20835448686599589 0 -0.1033879665926753 -0.2380445316912011 0 -0.1070939540509533 -0.20835448686599589 0 -0.11912497002641149 -0.2247679447327961 0 -0.1033879665926753 -0.2380445316912011 0 -0.1101822113994692 -0.25401267821474888 0 -0.1033879665926753 -0.2380445316912011 0 -0.1281569648432547 -0.24154643078359939 0 -0.11912497002641149 -0.2247679447327961 0 -0.1033879665926753 -0.2380445316912011 0 -0.1281569648432547 -0.24154643078359939 0 -0.091550424647073719 -0.14441686921793709 0 -0.069424676495541987 -0.16217731124613891 0 -0.091550424647073719 -0.14441686921793709 0 -0.077306352645687249 -0.13985809935393381 0 -0.069424676495541987 -0.16217731124613891 0 -0.085188028795831927 -0.1175388874617285 0 -0.091550424647073719 -0.14441686921793709 0 -0.077306352645687249 -0.13985809935393381 0 -0.085188028795831927 -0.1175388874617285 0 -0.077306352645687249 -0.13985809935393381 0 -0.060834513836941842 -0.14454096786821041 0 -0.077306352645687249 -0.13985809935393381 0 -0.06483412888304893 -0.127208335331051 0 -0.085188028795831927 -0.1175388874617285 0 -0.077306352645687249 -0.13985809935393381 0 -0.06483412888304893 -0.127208335331051 0 -0.060834513836941842 -0.14454096786821041 0 -0.077306352645687249 -0.13985809935393381 0 -0.069424676495541987 -0.16217731124613891 0 -0.077306352645687249 -0.13985809935393381 0 -0.069424676495541987 -0.16217731124613891 0 -0.057081546088265211 -0.1720852000345125 0 -0.069424676495541987 -0.16217731124613891 0 -0.058627682575564839 -0.17757086285286569 0 -0.060805710440340777 -0.1865843695942874 0 -0.069424676495541987 -0.16217731124613891 0 -0.060805710440340777 -0.1865843695942874 0 -0.069424676495541987 -0.16217731124613891 0 -0.080364159105940955 -0.16991400428794079 0 -0.060805710440340777 -0.1865843695942874 0 -0.069424676495541987 -0.16217731124613891 0 -0.064274561185339127 -0.1883175614541743 0 -0.079607386395116053 -0.18588760239538679 0 -0.080364159105940955 -0.16991400428794079 0 -0.060805710440340777 -0.1865843695942874 0 -0.064274561185339127 -0.1883175614541743 0 -0.080364159105940955 -0.16991400428794079 0 -0.064274561185339127 -0.1883175614541743 0 -0.080364159105940955 -0.16991400428794079 0 -0.088585668625445452 -0.19469214239315469 0 -0.079607386395116053 -0.18588760239538679 0 -0.089918202826048926 -0.1790197854128194 0 -0.079607386395116053 -0.18588760239538679 0 -0.089918202826048926 -0.1790197854128194 0 -0.080364159105940955 -0.16991400428794079 0 -0.069424676495541987 -0.16217731124613891 0 -0.080364159105940955 -0.16991400428794079 0 -0.092434300069735534 -0.16385951953691921 0 -0.091550424647073719 -0.14441686921793709 0 -0.069424676495541987 -0.16217731124613891 0 -0.092434300069735534 -0.16385951953691921 0 -0.089918202826048926 -0.1790197854128194 0 -0.080364159105940955 -0.16991400428794079 0 -0.092434300069735534 -0.16385951953691921 0 -0.092434300069735534 -0.16385951953691921 0 -0.10794921403131751 -0.1602090756009219 0 -0.10214175682393201 -0.17349658886345001 0 -0.10794921403131751 -0.1602090756009219 0 -0.10214175682393201 -0.17349658886345001 0 -0.11314272991894379 -0.17435017881913101 0 -0.10574092411397761 -0.18760701262706561 0 -0.089918202826048926 -0.1790197854128194 0 -0.10214175682393201 -0.17349658886345001 0 -0.088585668625445452 -0.19469214239315469 0 -0.10574092411397761 -0.18760701262706561 0 -0.089918202826048926 -0.1790197854128194 0 -0.089918202826048926 -0.1790197854128194 0 -0.092434300069735534 -0.16385951953691921 0 -0.10214175682393201 -0.17349658886345001 0 -0.10574092411397761 -0.18760701262706561 0 -0.10214175682393201 -0.17349658886345001 0 -0.11314272991894379 -0.17435017881913101 0 -0.11314272991894379 -0.17435017881913101 0 -0.1193670728178718 -0.1849388160497098 0 -0.1240239272122091 -0.16729221542339309 0 -0.10574092411397761 -0.18760701262706561 0 -0.11314272991894379 -0.17435017881913101 0 -0.1193670728178718 -0.1849388160497098 0 -0.10794921403131751 -0.1602090756009219 0 -0.1240239272122091 -0.16729221542339309 0 -0.11792014924650331 -0.14647360096248641 0 -0.10794921403131751 -0.1602090756009219 0 -0.11314272991894379 -0.17435017881913101 0 -0.1240239272122091 -0.16729221542339309 0 -0.091550424647073719 -0.14441686921793709 0 -0.092434300069735534 -0.16385951953691921 0 -0.10794921403131751 -0.1602090756009219 0 -0.091550424647073719 -0.14441686921793709 0 -0.10794921403131751 -0.1602090756009219 0 -0.11792014924650331 -0.14647360096248641 0 -0.091550424647073719 -0.14441686921793709 0 -0.11367617279860549 -0.12665642718973519 0 -0.091550424647073719 -0.14441686921793709 0 -0.11792014924650331 -0.14647360096248641 0 -0.11367617279860549 -0.12665642718973519 0 -0.085188028795831927 -0.1175388874617285 0 -0.091550424647073719 -0.14441686921793709 0 -0.11367617279860549 -0.12665642718973519 0 -0.11367617279860549 -0.12665642718973519 0 -0.1328817461805134 -0.1328031097637781 0 -0.11792014924650331 -0.14647360096248641 0 -0.11367617279860549 -0.12665642718973519 0 -0.1328817461805134 -0.1328031097637781 0 -0.15208731956242119 -0.13894979233782129 0 -0.16224778818487001 -0.12683595852352469 0 -0.1499981068493583 -0.11453917037313199 0 -0.1328817461805134 -0.1328031097637781 0 -0.15208731956242119 -0.13894979233782129 0 -0.1328817461805134 -0.1328031097637781 0 -0.15208731956242119 -0.13894979233782129 0 -0.1499981068493583 -0.11453917037313199 0 -0.15208731956242119 -0.13894979233782129 0 -0.1507532641037278 -0.16399325964255079 0 -0.1626011643033245 -0.15206712658216459 0 -0.15208731956242119 -0.13894979233782129 0 -0.13585255407702801 -0.1532329369627054 0 -0.1507532641037278 -0.16399325964255079 0 -0.11792014924650331 -0.14647360096248641 0 -0.1328817461805134 -0.1328031097637781 0 -0.13585255407702801 -0.1532329369627054 0 -0.1240239272122091 -0.16729221542339309 0 -0.11792014924650331 -0.14647360096248641 0 -0.13585255407702801 -0.1532329369627054 0 -0.1328817461805134 -0.1328031097637781 0 -0.15208731956242119 -0.13894979233782129 0 -0.13585255407702801 -0.1532329369627054 0 -0.1240239272122091 -0.16729221542339309 0 -0.13585255407702801 -0.1532329369627054 0 -0.13813703405292799 -0.16958347241455179 0 -0.1240239272122091 -0.16729221542339309 0 -0.13813703405292799 -0.16958347241455179 0 -0.13462027294937889 -0.18415885549962829 0 -0.1193670728178718 -0.1849388160497098 0 -0.1240239272122091 -0.16729221542339309 0 -0.13462027294937889 -0.18415885549962829 0 -0.1193670728178718 -0.1849388160497098 0 -0.13462027294937889 -0.18415885549962829 0 -0.12731415509750141 -0.1908163057721351 0 -0.13462027294937889 -0.18415885549962829 0 -0.15143552253658829 -0.17660516140448551 0 -0.14909992465394051 -0.18901767626459631 0 -0.13813703405292799 -0.16958347241455179 0 -0.13462027294937889 -0.18415885549962829 0 -0.15143552253658829 -0.17660516140448551 0 -0.15143552253658829 -0.17660516140448551 0 -0.1507532641037278 -0.16399325964255079 0 -0.1639847309272332 -0.17517585689177159 0 -0.15143552253658829 -0.17660516140448551 0 -0.14909992465394051 -0.18901767626459631 0 -0.16299011644119149 -0.1894868869346705 0 -0.13585255407702801 -0.1532329369627054 0 -0.13813703405292799 -0.16958347241455179 0 -0.1507532641037278 -0.16399325964255079 0 -0.13813703405292799 -0.16958347241455179 0 -0.15143552253658829 -0.17660516140448551 0 -0.1507532641037278 -0.16399325964255079 0 -0.1507532641037278 -0.16399325964255079 0 -0.1632816421396425 -0.16343266440983589 0 -0.1626011643033245 -0.15206712658216459 0 -0.1507532641037278 -0.16399325964255079 0 -0.1632816421396425 -0.16343266440983589 0 -0.1639847309272332 -0.17517585689177159 0 -0.1632816421396425 -0.16343266440983589 0 -0.1639847309272332 -0.17517585689177159 0 -0.17578740922428451 -0.1624944145228564 0 -0.1632816421396425 -0.16343266440983589 0 -0.17578740922428451 -0.1624944145228564 0 -0.1626011643033245 -0.15206712658216459 0 -0.15143552253658829 -0.17660516140448551 0 -0.1639847309272332 -0.17517585689177159 0 -0.16299011644119149 -0.1894868869346705 0 -0.1639847309272332 -0.17517585689177159 0 -0.17734377326457251 -0.18620573374371241 0 -0.16299011644119149 -0.1894868869346705 0 -0.1639847309272332 -0.17517585689177159 0 -0.17734377326457251 -0.18620573374371241 0 -0.17578740922428451 -0.1624944145228564 0 -0.17734377326457251 -0.18620573374371241 0 -0.17578740922428451 -0.1624944145228564 0 -0.17734377326457251 -0.18620573374371241 0 -0.1886706457740778 -0.16436178292693679 0 -0.17734377326457251 -0.18620573374371241 0 -0.17578740922428451 -0.1624944145228564 0 -0.1886706457740778 -0.16436178292693679 0 -0.17578740922428451 -0.1624944145228564 0 -0.18475216274978321 -0.14883130870713779 0 -0.1886706457740778 -0.16436178292693679 0 -0.17578740922428451 -0.1624944145228564 0 -0.17423104518399499 -0.1387830953020007 0 -0.17578740922428451 -0.1624944145228564 0 -0.18475216274978321 -0.14883130870713779 0 -0.17423104518399499 -0.1387830953020007 0 -0.18475216274978321 -0.14883130870713779 0 -0.17423104518399499 -0.1387830953020007 0 -0.19015116838246979 -0.1254817463093949 0 -0.17423104518399499 -0.1387830953020007 0 -0.19015116838246979 -0.1254817463093949 0 -0.17267468114370541 -0.1150717760811448 0 -0.17423104518399499 -0.1387830953020007 0 -0.17267468114370541 -0.1150717760811448 0 -0.17423104518399499 -0.1387830953020007 0 -0.16224778818487001 -0.12683595852352469 0 -0.17267468114370541 -0.1150717760811448 0 -0.15208731956242119 -0.13894979233782129 0 -0.17423104518399499 -0.1387830953020007 0 -0.16224778818487001 -0.12683595852352469 0 -0.17578740922428451 -0.1624944145228564 0 -0.17423104518399499 -0.1387830953020007 0 -0.1626011643033245 -0.15206712658216459 0 -0.15208731956242119 -0.13894979233782129 0 -0.17423104518399499 -0.1387830953020007 0 -0.1626011643033245 -0.15206712658216459 0 -0.15247611476513431 -0.25520653902186019 0 -0.14448089226901439 -0.24054791118786689 0 -0.1530764326056237 -0.23134874832525351 0 -0.13582790319057869 -0.25663309450734217 0 -0.14448089226901439 -0.24054791118786689 0 -0.1281569648432547 -0.24154643078359939 0 -0.1281569648432547 -0.24154643078359939 0 -0.13774825951349309 -0.2174897182746385 0 -0.14448089226901439 -0.24054791118786689 0 -0.1281569648432547 -0.24154643078359939 0 -0.13774825951349309 -0.2174897182746385 0 -0.11912497002641149 -0.2247679447327961 0 -0.1281569648432547 -0.24154643078359939 0 -0.13774825951349309 -0.2174897182746385 0 -0.14448089226901439 -0.24054791118786689 0 -0.1530764326056237 -0.23134874832525351 0 -0.13774825951349309 -0.2174897182746385 0 -0.14448089226901439 -0.24054791118786689 0 -0.13774825951349309 -0.2174897182746385 0 -0.1530764326056237 -0.23134874832525351 0 -0.14992362160079839 -0.21612080310000151 0 -0.13774825951349309 -0.2174897182746385 0 -0.1530764326056237 -0.23134874832525351 0 -0.14992362160079839 -0.21612080310000151 0 -0.15948237821523761 -0.22065155580528631 0 -0.14992362160079839 -0.21612080310000151 0 -0.1558869455859212 -0.20786029582521179 0 -0.15948237821523761 -0.22065155580528631 0 -0.14992362160079839 -0.21612080310000151 0 -0.1558869455859212 -0.20786029582521179 0 -0.1434240920837169 -0.20325369726961739 0 -0.1558869455859212 -0.20786029582521179 0 -0.1434240920837169 -0.20325369726961739 0 -0.1516257711472063 -0.2004041182923926 0 -0.14992362160079839 -0.21612080310000151 0 -0.1434240920837169 -0.20325369726961739 0 -0.13774825951349309 -0.2174897182746385 0 -0.12267984620676679 -0.21142780662962371 0 -0.13774825951349309 -0.2174897182746385 0 -0.13242957006739459 -0.19927405558412489 0 -0.1434240920837169 -0.20325369726961739 0 -0.13774825951349309 -0.2174897182746385 0 -0.13242957006739459 -0.19927405558412489 0 -0.12267984620676679 -0.21142780662962371 0 -0.11912497002641149 -0.2247679447327961 0 -0.13774825951349309 -0.2174897182746385 0 -0.13774825951349309 -0.2174897182746385 0 -0.13242957006739459 -0.19927405558412489 0 -0.1434240920837169 -0.20325369726961739 0 -0.13774825951349309 -0.2174897182746385 0 -0.1434240920837169 -0.20325369726961739 0 -0.13242957006739459 -0.19927405558412489 0 -0.1389559917781571 -0.19358536473278501 0 -0.11910425372574419 -0.1970697472547758 0 -0.13242957006739459 -0.19927405558412489 0 -0.12731415509750141 -0.1908163057721351 0 -0.13462027294937889 -0.18415885549962829 0 -0.12731415509750141 -0.1908163057721351 0 -0.1389559917781571 -0.19358536473278501 0 -0.13242957006739459 -0.19927405558412489 0 -0.12731415509750141 -0.1908163057721351 0 -0.1389559917781571 -0.19358536473278501 0 -0.13462027294937889 -0.18415885549962829 0 -0.1389559917781571 -0.19358536473278501 0 -0.14909992465394051 -0.18901767626459631 0 -0.1434240920837169 -0.20325369726961739 0 -0.1389559917781571 -0.19358536473278501 0 -0.14909992465394051 -0.18901767626459631 0 -0.1434240920837169 -0.20325369726961739 0 -0.14909992465394051 -0.18901767626459631 0 -0.1434240920837169 -0.20325369726961739 0 -0.1516257711472063 -0.2004041182923926 0 -0.14909992465394051 -0.18901767626459631 0 -0.1558869455859212 -0.20786029582521179 0 -0.1516257711472063 -0.2004041182923926 0 -0.15977826982089449 -0.19894070817177481 0 -0.1516257711472063 -0.2004041182923926 0 -0.14909992465394051 -0.18901767626459631 0 -0.15977826982089449 -0.19894070817177481 0 -0.17734377326457251 -0.18620573374371241 0 -0.16299011644119149 -0.1894868869346705 0 -0.1684130757399043 -0.2034286447744989 0 -0.14909992465394051 -0.18901767626459631 0 -0.16299011644119149 -0.1894868869346705 0 -0.15977826982089449 -0.19894070817177481 0 -0.16299011644119149 -0.1894868869346705 0 -0.15977826982089449 -0.19894070817177481 0 -0.1684130757399043 -0.2034286447744989 0 -0.17734377326457251 -0.18620573374371241 0 -0.17807804661236329 -0.19739244154091851 0 -0.1684130757399043 -0.2034286447744989 0 -0.17807804661236329 -0.19739244154091851 0 -0.17994311528247389 -0.21007246302574459 0 -0.19265263703144589 -0.18918803772672951 0 -0.17734377326457251 -0.18620573374371241 0 -0.1684130757399043 -0.2034286447744989 0 -0.17734377326457251 -0.18620573374371241 0 -0.17807804661236329 -0.19739244154091851 0 -0.17994311528247389 -0.21007246302574459 0 -0.19265263703144589 -0.18918803772672951 0 -0.17734377326457251 -0.18620573374371241 0 -0.17807804661236329 -0.19739244154091851 0 -0.19265263703144589 -0.18918803772672951 0 -0.17994311528247389 -0.21007246302574459 0 -0.17028994968100861 -0.21262441362128959 0 -0.1684130757399043 -0.2034286447744989 0 -0.17994311528247389 -0.21007246302574459 0 -0.17028994968100861 -0.21262441362128959 0 -0.16723359353350151 -0.23095688832475919 0 -0.17807804661236329 -0.19739244154091851 0 -0.17994311528247389 -0.21007246302574459 0 -0.1684130757399043 -0.2034286447744989 0 -0.17028994968100861 -0.21262441362128959 0 -0.1684130757399043 -0.2034286447744989 0 -0.15948237821523761 -0.22065155580528631 0 -0.1684130757399043 -0.2034286447744989 0 -0.15948237821523761 -0.22065155580528631 0 -0.1558869455859212 -0.20786029582521179 0 -0.1684130757399043 -0.2034286447744989 0 -0.15948237821523761 -0.22065155580528631 0 -0.1558869455859212 -0.20786029582521179 0 -0.15977826982089449 -0.19894070817177481 0 -0.1684130757399043 -0.2034286447744989 0 -0.17028994968100861 -0.21262441362128959 0 -0.15948237821523761 -0.22065155580528631 0 -0.16723359353350151 -0.23095688832475919 0 -0.17028994968100861 -0.21262441362128959 0 -0.16723359353350151 -0.23095688832475919 0 -0.1530764326056237 -0.23134874832525351 0 -0.15948237821523761 -0.22065155580528631 0 -0.16723359353350151 -0.23095688832475919 0 -0.17567060808008461 -0.22536875023075131 0 -0.18096145770992181 -0.2374459611003375 0 -0.19229780810459929 -0.23425014389435131 0 -0.17567060808008461 -0.22536875023075131 0 -0.19229780810459929 -0.23425014389435131 0 -0.17567060808008461 -0.22536875023075131 0 -0.19229780810459929 -0.23425014389435131 0 -0.1885592387594299 -0.22197575537902009 0 -0.17994311528247389 -0.21007246302574459 0 -0.16723359353350151 -0.23095688832475919 0 -0.17567060808008461 -0.22536875023075131 0 -0.17994311528247389 -0.21007246302574459 0 -0.16723359353350151 -0.23095688832475919 0 -0.17994311528247389 -0.21007246302574459 0 -0.17567060808008461 -0.22536875023075131 0 -0.1885592387594299 -0.22197575537902009 0 -0.16723359353350151 -0.23095688832475919 0 -0.17567060808008461 -0.22536875023075131 0 -0.17283236202501809 -0.24035269083560409 0 -0.17567060808008461 -0.22536875023075131 0 -0.17283236202501809 -0.24035269083560409 0 -0.18096145770992181 -0.2374459611003375 0 -0.18096145770992181 -0.2374459611003375 0 -0.18729332869726981 -0.24592945471423619 0 -0.19229780810459929 -0.23425014389435131 0 -0.18096145770992181 -0.2374459611003375 0 -0.18729332869726981 -0.24592945471423619 0 -0.17770627514480281 -0.24918126185263109 0 -0.17283236202501809 -0.24035269083560409 0 -0.18096145770992181 -0.2374459611003375 0 -0.17770627514480281 -0.24918126185263109 0 -0.16258987565677999 -0.25881059266954137 0 -0.15247611476513431 -0.25520653902186019 0 -0.16723359353350151 -0.23095688832475919 0 -0.16258987565677999 -0.25881059266954137 0 -0.17283236202501809 -0.24035269083560409 0 -0.17770627514480281 -0.24918126185263109 0 -0.15247611476513431 -0.25520653902186019 0 -0.1530764326056237 -0.23134874832525351 0 -0.16723359353350151 -0.23095688832475919 0 -0.16258987565677999 -0.25881059266954137 0 -0.16723359353350151 -0.23095688832475919 0 -0.17283236202501809 -0.24035269083560409 0 -0.15247611476513431 -0.25520653902186019 0 -0.16723359353350151 -0.23095688832475919 0 -0.16258987565677999 -0.25881059266954137 0 -0.16723359353350151 -0.23095688832475919 0 -0.21485834255099689 -0.23460273084348621 0 -0.2089250081291136 -0.2431315375579518 0 -0.20170606227319191 -0.2274440110248333 0 -0.2089250081291136 -0.2431315375579518 0 -0.20170606227319191 -0.2274440110248333 0 -0.22345399557089571 -0.25089217415423459 0 -0.2089250081291136 -0.2431315375579518 0 -0.2221686483799197 -0.2445525486133989 0 -0.22345399557089571 -0.25089217415423459 0 -0.2089250081291136 -0.2431315375579518 0 -0.21485834255099689 -0.23460273084348621 0 -0.2089250081291136 -0.2431315375579518 0 -0.2221686483799197 -0.2445525486133989 0 -0.2089250081291136 -0.2431315375579518 0 -0.20170606227319191 -0.2274440110248333 0 -0.19229780810459929 -0.23425014389435131 0 -0.2089250081291136 -0.2431315375579518 0 -0.19652690274214701 -0.2482925989192617 0 -0.19229780810459929 -0.23425014389435131 0 -0.2089250081291136 -0.2431315375579518 0 -0.19229780810459929 -0.23425014389435131 0 -0.18729332869726981 -0.24592945471423619 0 -0.19652690274214701 -0.2482925989192617 0 -0.19229780810459929 -0.23425014389435131 0 -0.20170606227319191 -0.2274440110248333 0 -0.1885592387594299 -0.22197575537902009 0 -0.19448711641727101 -0.2117564844917145 0 -0.20170606227319191 -0.2274440110248333 0 -0.19448711641727101 -0.2117564844917145 0 -0.20170606227319191 -0.2274440110248333 0 -0.19229780810459929 -0.23425014389435131 0 -0.1885592387594299 -0.22197575537902009 0 -0.20170606227319191 -0.2274440110248333 0 -0.21590752674250749 -0.2249386515478389 0 -0.20834873064914081 -0.2153905365847206 0 -0.21485834255099689 -0.23460273084348621 0 -0.20170606227319191 -0.2274440110248333 0 -0.21590752674250749 -0.2249386515478389 0 -0.21590752674250749 -0.2249386515478389 0 -0.20834873064914081 -0.2153905365847206 0 -0.22399409872118831 -0.21023527456907809 0 -0.20834873064914081 -0.2153905365847206 0 -0.20564884909154571 -0.2025782612901384 0 -0.22399409872118831 -0.21023527456907809 0 -0.20170606227319191 -0.2274440110248333 0 -0.20834873064914081 -0.2153905365847206 0 -0.19448711641727101 -0.2117564844917145 0 -0.17994311528247389 -0.21007246302574459 0 -0.19448711641727101 -0.2117564844917145 0 -0.19265263703144589 -0.18918803772672951 0 -0.17994311528247389 -0.21007246302574459 0 -0.1885592387594299 -0.22197575537902009 0 -0.19448711641727101 -0.2117564844917145 0 -0.20834873064914081 -0.2153905365847206 0 -0.19448711641727101 -0.2117564844917145 0 -0.20564884909154571 -0.2025782612901384 0 -0.19448711641727101 -0.2117564844917145 0 -0.19265263703144589 -0.18918803772672951 0 -0.20564884909154571 -0.2025782612901384 0 -0.19265263703144589 -0.18918803772672951 0 -0.20564884909154571 -0.2025782612901384 0 -0.20769472528400251 -0.18731997443218659 0 -0.20564884909154571 -0.2025782612901384 0 -0.22399409872118831 -0.21023527456907809 0 -0.20769472528400251 -0.18731997443218659 0 -0.22399409872118831 -0.21023527456907809 0 -0.20769472528400251 -0.18731997443218659 0 -0.24160456374486119 -0.20059791260100521 0 -0.22399409872118831 -0.21023527456907809 0 -0.23109541153227051 -0.18678546932195139 0 -0.22399409872118831 -0.21023527456907809 0 -0.20769472528400251 -0.18731997443218659 0 -0.23109541153227051 -0.18678546932195139 0 -0.24160456374486119 -0.20059791260100521 0 -0.23109541153227051 -0.18678546932195139 0 -0.25722886412535378 -0.19335711591291441 0 -0.24160456374486119 -0.20059791260100521 0 -0.25074328421046649 -0.21472882973901561 0 -0.25722886412535378 -0.19335711591291441 0 -0.24160456374486119 -0.20059791260100521 0 -0.22399409872118831 -0.21023527456907809 0 -0.25074328421046649 -0.21472882973901561 0 -0.22399409872118831 -0.21023527456907809 0 -0.2255844672302515 -0.23294690547340849 0 -0.24029347215837399 -0.2331505747059695 0 -0.22399409872118831 -0.21023527456907809 0 -0.24029347215837399 -0.2331505747059695 0 -0.21590752674250749 -0.2249386515478389 0 -0.22399409872118831 -0.21023527456907809 0 -0.2255844672302515 -0.23294690547340849 0 -0.21485834255099689 -0.23460273084348621 0 -0.21590752674250749 -0.2249386515478389 0 -0.2255844672302515 -0.23294690547340849 0 -0.24029347215837399 -0.2331505747059695 0 -0.25538287117702868 -0.23503940974181059 0 -0.25074328421046649 -0.21472882973901561 0 -0.22399409872118831 -0.21023527456907809 0 -0.24029347215837399 -0.2331505747059695 0 -0.25074328421046649 -0.21472882973901561 0 -0.25659284559555973 -0.25606587484286092 0 -0.24029347215837399 -0.2331505747059695 0 -0.23501637759635341 -0.24636648197866201 0 -0.25659284559555973 -0.25606587484286092 0 -0.24029347215837399 -0.2331505747059695 0 -0.22345399557089571 -0.25089217415423459 0 -0.23501637759635341 -0.24636648197866201 0 -0.2221686483799197 -0.2445525486133989 0 -0.2255844672302515 -0.23294690547340849 0 -0.23501637759635341 -0.24636648197866201 0 -0.2221686483799197 -0.2445525486133989 0 -0.2255844672302515 -0.23294690547340849 0 -0.24029347215837399 -0.2331505747059695 0 -0.23501637759635341 -0.24636648197866201 0 -0.21485834255099689 -0.23460273084348621 0 -0.2255844672302515 -0.23294690547340849 0 -0.2221686483799197 -0.2445525486133989 0 -0.22345399557089571 -0.25089217415423459 0 -0.2221686483799197 -0.2445525486133989 0 -0.1999975182835847 -0.14251783211016211 0 -0.20055795866794709 -0.16376471288952449 0 -0.21213319532337629 -0.16151698830984959 0 -0.1999975182835847 -0.14251783211016211 0 -0.21213319532337629 -0.16151698830984959 0 -0.2266258819038405 -0.1449016261665623 0 -0.1999975182835847 -0.14251783211016211 0 -0.2266258819038405 -0.1449016261665623 0 -0.21132439079308629 -0.12067388129338449 0 -0.1999975182835847 -0.14251783211016211 0 -0.21132439079308629 -0.12067388129338449 0 -0.19015116838246979 -0.1254817463093949 0 -0.1999975182835847 -0.14251783211016211 0 -0.21132439079308629 -0.12067388129338449 0 -0.18475216274978321 -0.14883130870713779 0 -0.19015116838246979 -0.1254817463093949 0 -0.1999975182835847 -0.14251783211016211 0 -0.18475216274978321 -0.14883130870713779 0 -0.1999975182835847 -0.14251783211016211 0 -0.1886706457740778 -0.16436178292693679 0 -0.1999975182835847 -0.14251783211016211 0 -0.1886706457740778 -0.16436178292693679 0 -0.1999975182835847 -0.14251783211016211 0 -0.1886706457740778 -0.16436178292693679 0 -0.20055795866794709 -0.16376471288952449 0 -0.1886706457740778 -0.16436178292693679 0 -0.20055795866794709 -0.16376471288952449 0 -0.1994526454150376 -0.17564941116829291 0 -0.17734377326457251 -0.18620573374371241 0 -0.19265263703144589 -0.18918803772672951 0 -0.1994526454150376 -0.17564941116829291 0 -0.17734377326457251 -0.18620573374371241 0 -0.1886706457740778 -0.16436178292693679 0 -0.1994526454150376 -0.17564941116829291 0 -0.19265263703144589 -0.18918803772672951 0 -0.1994526454150376 -0.17564941116829291 0 -0.20769472528400251 -0.18731997443218659 0 -0.1994526454150376 -0.17564941116829291 0 -0.20769472528400251 -0.18731997443218659 0 -0.21850075767241581 -0.17697837347446729 0 -0.1994526454150376 -0.17564941116829291 0 -0.21850075767241581 -0.17697837347446729 0 -0.21213319532337629 -0.16151698830984959 0 -0.20055795866794709 -0.16376471288952449 0 -0.1994526454150376 -0.17564941116829291 0 -0.21213319532337629 -0.16151698830984959 0 -0.24192737301459721 -0.16912937103973849 0 -0.2266258819038405 -0.1449016261665623 0 -0.21213319532337629 -0.16151698830984959 0 -0.2260565238893 -0.16786236566251381 0 -0.2266258819038405 -0.1449016261665623 0 -0.2260565238893 -0.16786236566251381 0 -0.24192737301459721 -0.16912937103973849 0 -0.2266258819038405 -0.1449016261665623 0 -0.21850075767241581 -0.17697837347446729 0 -0.21213319532337629 -0.16151698830984959 0 -0.2260565238893 -0.16786236566251381 0 -0.20769472528400251 -0.18731997443218659 0 -0.21850075767241581 -0.17697837347446729 0 -0.23109541153227051 -0.18678546932195139 0 -0.21850075767241581 -0.17697837347446729 0 -0.2260565238893 -0.16786236566251381 0 -0.23109541153227051 -0.18678546932195139 0 -0.2260565238893 -0.16786236566251381 0 -0.23109541153227051 -0.18678546932195139 0 -0.24192737301459721 -0.16912937103973849 0 -0.23109541153227051 -0.18678546932195139 0 -0.24192737301459721 -0.16912937103973849 0 -0.25722886412535378 -0.19335711591291441 0 -0.24192737301459721 -0.16912937103973849 0 -0.25722886412535378 -0.19335711591291441 0 -0.24192737301459721 -0.16912937103973849 0 -0.2489969078183929 -0.14640780640600881 0 -0.2266258819038405 -0.1449016261665623 0 -0.2266258819038405 -0.1449016261665623 0 -0.23639419879351459 -0.12334831618873481 0 -0.21132439079308629 -0.12067388129338449 0 -0.2266258819038405 -0.1449016261665623 0 -0.21132439079308629 -0.12067388129338449 0 -0.2489969078183929 -0.14640780640600881 0 -0.23639419879351459 -0.12334831618873481 0 -0.26074582502319632 -0.12800473347032279 0 -0.2489969078183929 -0.14640780640600881 0 -0.2266258819038405 -0.1449016261665623 0 -0.23639419879351459 -0.12334831618873481 0 -0.23639419879351459 -0.12334831618873481 0 -0.2481785535912879 -0.10092058963553061 0 -0.26074582502319632 -0.12800473347032279 0 -0.23639419879351459 -0.12334831618873481 0 -0.2481785535912879 -0.10092058963553061 0 -0.22346783647623439 -0.097255163547062595 0 -0.23639419879351459 -0.12334831618873481 0 -0.22346783647623439 -0.097255163547062595 0 -0.21132439079308629 -0.12067388129338449 0 -0.23561128215937871 -0.073836445800738698 0 -0.2444074063686876 -0.056873060325608168 0 -0.25260129650960822 -0.072607917740521638 0 -0.23561128215937871 -0.073836445800738698 0 -0.2444074063686876 -0.056873060325608168 0 -0.2481785535912879 -0.10092058963553061 0 -0.23561128215937871 -0.073836445800738698 0 -0.25260129650960822 -0.072607917740521638 0 -0.2481785535912879 -0.10092058963553061 0 -0.23561128215937871 -0.073836445800738698 0 -0.2481785535912879 -0.10092058963553061 0 -0.22346783647623439 -0.097255163547062595 0 -0.23561128215937871 -0.073836445800738698 0 -0.22346783647623439 -0.097255163547062595 0 -0.23561128215937871 -0.073836445800738698 0 -0.21441938717327891 -0.071680831157661051 0 -0.22346783647623439 -0.097255163547062595 0 -0.23561128215937871 -0.073836445800738698 0 -0.23561128215937871 -0.073836445800738698 0 -0.22677051212766791 -0.054783408835112533 0 -0.23561128215937871 -0.073836445800738698 0 -0.21441938717327891 -0.071680831157661051 0 -0.22677051212766791 -0.054783408835112533 0 -0.21441938717327891 -0.071680831157661051 0 -0.20485003048302819 -0.087228083605811968 0 -0.1930151482330652 -0.072250647631845244 0 -0.21441938717327891 -0.071680831157661051 0 -0.1930151482330652 -0.072250647631845244 0 -0.20286271060828709 -0.062875082175595995 0 -0.22346783647623439 -0.097255163547062595 0 -0.21441938717327891 -0.071680831157661051 0 -0.20485003048302819 -0.087228083605811968 0 -0.20485003048302819 -0.087228083605811968 0 -0.19179039009067861 -0.089744556697199634 0 -0.1930151482330652 -0.072250647631845244 0 -0.19179039009067861 -0.089744556697199634 0 -0.1930151482330652 -0.072250647631845244 0 -0.19179039009067861 -0.089744556697199634 0 -0.1930151482330652 -0.072250647631845244 0 -0.18486954620527379 -0.078786380219554808 0 -0.19179039009067861 -0.089744556697199634 0 -0.18486954620527379 -0.078786380219554808 0 -0.1930151482330652 -0.072250647631845244 0 -0.1942399063754538 -0.054756738566490958 0 -0.18486954620527379 -0.078786380219554808 0 -0.1942399063754538 -0.054756738566490958 0 -0.1930151482330652 -0.072250647631845244 0 -0.18486954620527379 -0.078786380219554808 0 -0.1942399063754538 -0.054756738566490958 0 -0.1930151482330652 -0.072250647631845244 0 -0.20286271060828709 -0.062875082175595995 0 -0.1942399063754538 -0.054756738566490958 0 -0.21132439079308629 -0.12067388129338449 0 -0.20155739044188201 -0.1052092189952924 0 -0.22346783647623439 -0.097255163547062595 0 -0.21132439079308629 -0.12067388129338449 0 -0.22346783647623439 -0.097255163547062595 0 -0.21132439079308629 -0.12067388129338449 0 -0.20155739044188201 -0.1052092189952924 0 -0.22346783647623439 -0.097255163547062595 0 -0.20485003048302819 -0.087228083605811968 0 -0.20155739044188201 -0.1052092189952924 0 -0.20485003048302819 -0.087228083605811968 0 -0.19179039009067861 -0.089744556697199634 0 -0.20155739044188201 -0.1052092189952924 0 -0.19179039009067861 -0.089744556697199634 0 -0.20155739044188201 -0.1052092189952924 0 -0.1871032117669765 -0.106078956588987 0 -0.19179039009067861 -0.089744556697199634 0 -0.20155739044188201 -0.1052092189952924 0 -0.19015116838246979 -0.1254817463093949 0 -0.20155739044188201 -0.1052092189952924 0 -0.1871032117669765 -0.106078956588987 0 -0.19015116838246979 -0.1254817463093949 0 -0.21132439079308629 -0.12067388129338449 0 -0.20155739044188201 -0.1052092189952924 0 -0.19015116838246979 -0.1254817463093949 0 -0.17267468114370541 -0.1150717760811448 0 -0.1871032117669765 -0.106078956588987 0 -0.16224778818487001 -0.12683595852352469 0 -0.17267468114370541 -0.1150717760811448 0 -0.1499981068493583 -0.11453917037313199 0 -0.17267468114370541 -0.1150717760811448 0 -0.16573440851305851 -0.097502296957512558 0 -0.1499981068493583 -0.11453917037313199 0 -0.17267468114370541 -0.1150717760811448 0 -0.1784600320881915 -0.095223136609564954 0 -0.1871032117669765 -0.106078956588987 0 -0.19179039009067861 -0.089744556697199634 0 -0.1784600320881915 -0.095223136609564954 0 -0.1871032117669765 -0.106078956588987 0 -0.17267468114370541 -0.1150717760811448 0 -0.16573440851305851 -0.097502296957512558 0 -0.1784600320881915 -0.095223136609564954 0 -0.1784600320881915 -0.095223136609564954 0 -0.18486954620527379 -0.078786380219554808 0 -0.1747804455603531 -0.086451533664003558 0 -0.18486954620527379 -0.078786380219554808 0 -0.1747804455603531 -0.086451533664003558 0 -0.16583149524823201 -0.080830564531392118 0 -0.19179039009067861 -0.089744556697199634 0 -0.1784600320881915 -0.095223136609564954 0 -0.18486954620527379 -0.078786380219554808 0 -0.1784600320881915 -0.095223136609564954 0 -0.18486954620527379 -0.078786380219554808 0 -0.16573440851305851 -0.097502296957512558 0 -0.1784600320881915 -0.095223136609564954 0 -0.1747804455603531 -0.086451533664003558 0 -0.18486954620527379 -0.078786380219554808 0 -0.16583149524823201 -0.080830564531392118 0 -0.17223872217731789 -0.058787258573683859 0 -0.18486954620527379 -0.078786380219554808 0 -0.17223872217731789 -0.058787258573683859 0 -0.18486954620527379 -0.078786380219554808 0 -0.17223872217731789 -0.058787258573683859 0 -0.1942399063754538 -0.054756738566490958 0 -0.16583149524823201 -0.080830564531392118 0 -0.14885925780001841 -0.068882694716345505 0 -0.17223872217731789 -0.058787258573683859 0 -0.16573440851305851 -0.097502296957512558 0 -0.16583149524823201 -0.080830564531392118 0 -0.1515610911815681 -0.094599747272820167 0 -0.16573440851305851 -0.097502296957512558 0 -0.1747804455603531 -0.086451533664003558 0 -0.16583149524823201 -0.080830564531392118 0 -0.14404015619550301 -0.082548381437534804 0 -0.133307176752236 -0.094422029774925906 0 -0.1515610911815681 -0.094599747272820167 0 -0.16583149524823201 -0.080830564531392118 0 -0.14404015619550301 -0.082548381437534804 0 -0.1515610911815681 -0.094599747272820167 0 -0.14404015619550301 -0.082548381437534804 0 -0.14885925780001841 -0.068882694716345505 0 -0.12906645921732871 -0.07580305906623587 0 -0.16583149524823201 -0.080830564531392118 0 -0.14404015619550301 -0.082548381437534804 0 -0.14885925780001841 -0.068882694716345505 0 -0.14885925780001841 -0.068882694716345505 0 -0.12906645921732871 -0.07580305906623587 0 -0.13709359078461281 -0.052088298419020303 0 -0.12184901788244509 -0.060160628118238559 0 -0.12906645921732871 -0.07580305906623587 0 -0.13709359078461281 -0.052088298419020303 0 -0.14404015619550301 -0.082548381437534804 0 -0.12906645921732871 -0.07580305906623587 0 -0.133307176752236 -0.094422029774925906 0 -0.1145051005884575 -0.10462938318120731 0 -0.133307176752236 -0.094422029774925906 0 -0.13160637301854569 -0.1122637712045312 0 -0.133307176752236 -0.094422029774925906 0 -0.13160637301854569 -0.1122637712045312 0 -0.1499981068493583 -0.11453917037313199 0 -0.11367617279860549 -0.12665642718973519 0 -0.1328817461805134 -0.1328031097637781 0 -0.13160637301854569 -0.1122637712045312 0 -0.1328817461805134 -0.1328031097637781 0 -0.13160637301854569 -0.1122637712045312 0 -0.1499981068493583 -0.11453917037313199 0 -0.133307176752236 -0.094422029774925906 0 -0.1499981068493583 -0.11453917037313199 0 -0.1515610911815681 -0.094599747272820167 0 -0.16573440851305851 -0.097502296957512558 0 -0.1499981068493583 -0.11453917037313199 0 -0.1515610911815681 -0.094599747272820167 0 -0.14697707412140981 -0.018789015281939658 0 -0.15960789814936391 -0.038788136927811738 0 -0.14697707412140981 -0.018789015281939658 0 -0.13353221057960871 -0.032914864881728997 0 -0.15960789814936391 -0.038788136927811738 0 -0.14697707412140981 -0.018789015281939658 0 -0.15576748062744969 -0.00031078042690116522 0 -0.13389714270702699 -0.0020157165474106232 0 -0.1215205382654178 -0.018105944207045511 0 -0.14697707412140981 -0.018789015281939658 0 -0.13389714270702699 -0.0020157165474106232 0 -0.1215205382654178 -0.018105944207045511 0 -0.14697707412140981 -0.018789015281939658 0 -0.13353221057960871 -0.032914864881728997 0 -0.11589472230902841 -0.046303252306023099 0 -0.13353221057960871 -0.032914864881728997 0 -0.13709359078461281 -0.052088298419020303 0 -0.14885925780001841 -0.068882694716345505 0 -0.13709359078461281 -0.052088298419020303 0 -0.1537368177474159 -0.054145285127033697 0 -0.13709359078461281 -0.052088298419020303 0 -0.1537368177474159 -0.054145285127033697 0 -0.15960789814936391 -0.038788136927811738 0 -0.13353221057960871 -0.032914864881728997 0 -0.13709359078461281 -0.052088298419020303 0 -0.15960789814936391 -0.038788136927811738 0 -0.15960789814936391 -0.038788136927811738 0 -0.17840232654000099 -0.03890066956767857 0 -0.1711774719144433 -0.02194175344562126 0 -0.15960789814936391 -0.038788136927811738 0 -0.17223872217731789 -0.058787258573683859 0 -0.17840232654000099 -0.03890066956767857 0 -0.14885925780001841 -0.068882694716345505 0 -0.1537368177474159 -0.054145285127033697 0 -0.17223872217731789 -0.058787258573683859 0 -0.1537368177474159 -0.054145285127033697 0 -0.15960789814936391 -0.038788136927811738 0 -0.17223872217731789 -0.058787258573683859 0 -0.15960789814936391 -0.038788136927811738 0 -0.17223872217731789 -0.058787258573683859 0 -0.17223872217731789 -0.058787258573683859 0 -0.17840232654000099 -0.03890066956767857 0 -0.1942399063754538 -0.054756738566490958 0 -0.17840232654000099 -0.03890066956767857 0 -0.18468525479549161 -0.01890368281039766 0 -0.1711774719144433 -0.02194175344562126 0 -0.17840232654000099 -0.03890066956767857 0 -0.18468525479549161 -0.01890368281039766 0 -0.19566096639075331 -0.034458939496088817 0 -0.14697707412140981 -0.018789015281939658 0 -0.15960789814936391 -0.038788136927811738 0 -0.1711774719144433 -0.02194175344562126 0 -0.15576748062744969 -0.00031078042690116522 0 -0.1711774719144433 -0.02194175344562126 0 -0.17597156425881641 -0.00050571397354614092 0 -0.14697707412140981 -0.018789015281939658 0 -0.15576748062744969 -0.00031078042690116522 0 -0.1711774719144433 -0.02194175344562126 0 -0.18468525479549161 -0.01890368281039766 0 -0.1711774719144433 -0.02194175344562126 0 -0.17597156425881641 -0.00050571397354614092 0 -0.1711774719144433 -0.02194175344562126 0 -0.17597156425881641 -0.00050571397354614092 0 -0.18468525479549161 -0.01890368281039766 0 -0.17597156425881641 -0.00050571397354614092 0 -0.18981717326288339 -0.0034538799537645599 0 -0.19708202640605221 -0.01416114042568664 0 -0.2090889720642426 -0.016677334903861789 0 -0.1985030864213515 0.0061366586447154734 0 -0.19708202640605221 -0.01416114042568664 0 -0.1985030864213515 0.0061366586447154734 0 -0.18981717326288339 -0.0034538799537645599 0 -0.19708202640605221 -0.01416114042568664 0 -0.1985030864213515 0.0061366586447154734 0 -0.18468525479549161 -0.01890368281039766 0 -0.18981717326288339 -0.0034538799537645599 0 -0.19708202640605221 -0.01416114042568664 0 -0.19708202640605221 -0.01416114042568664 0 -0.2016644392198467 -0.035717036735175789 0 -0.19566096639075331 -0.034458939496088817 0 -0.18468525479549161 -0.01890368281039766 0 -0.19708202640605221 -0.01416114042568664 0 -0.19566096639075331 -0.034458939496088817 0 -0.19708202640605221 -0.01416114042568664 0 -0.19566096639075331 -0.034458939496088817 0 -0.19708202640605221 -0.01416114042568664 0 -0.2090889720642426 -0.016677334903861789 0 -0.2016644392198467 -0.035717036735175789 0 -0.2090889720642426 -0.016677334903861789 0 -0.21792974209595611 -0.035730371869486723 0 -0.2090889720642426 -0.016677334903861789 0 -0.21792974209595611 -0.035730371869486723 0 -0.21957591570653801 -0.017210486668956141 0 -0.2090889720642426 -0.016677334903861789 0 -0.2016644392198467 -0.035717036735175789 0 -0.21792974209595611 -0.035730371869486723 0 -0.2090889720642426 -0.016677334903861789 0 -0.2016644392198467 -0.035717036735175789 0 -0.21404830102904951 -0.01231705745203378 0 -0.21931011999256581 -0.0061116476317358984 0 -0.21957591570653801 -0.017210486668956141 0 -0.2090889720642426 -0.016677334903861789 0 -0.20779613328301311 -0.0019964439540379399 0 -0.1985030864213515 0.0061366586447154734 0 -0.2090889720642426 -0.016677334903861789 0 -0.21404830102904951 -0.01231705745203378 0 -0.21957591570653801 -0.017210486668956141 0 -0.2090889720642426 -0.016677334903861789 0 -0.1985030864213515 0.0061366586447154734 0 -0.2090889720642426 -0.016677334903861789 0 -0.21404830102904951 -0.01231705745203378 0 -0.2100812942627075 -0.01413259314361902 0 -0.21404830102904951 -0.01231705745203378 0 -0.21218520311919201 -0.0074532249119968952 0 -0.2100812942627075 -0.01413259314361902 0 -0.21404830102904951 -0.01231705745203378 0 -0.21218520311919201 -0.0074532249119968952 0 -0.21931011999256581 -0.0061116476317358984 0 -0.20779613328301311 -0.0019964439540379399 0 -0.21931011999256581 -0.0061116476317358984 0 -0.21690278361190021 0.0038105162234524769 0 -0.21218520311919201 -0.0074532249119968952 0 -0.20779613328301311 -0.0019964439540379399 0 -0.21931011999256581 -0.0061116476317358984 0 -0.2090889720642426 -0.016677334903861789 0 -0.20779613328301311 -0.0019964439540379399 0 -0.2100812942627075 -0.01413259314361902 0 -0.21218520311919201 -0.0074532249119968952 0 -0.20779613328301311 -0.0019964439540379399 0 -0.2100812942627075 -0.01413259314361902 0 -0.2090889720642426 -0.016677334903861789 0 -0.2100812942627075 -0.01413259314361902 0 -0.1942399063754538 -0.054756738566490958 0 -0.2016644392198467 -0.035717036735175789 0 -0.2097764006513502 -0.052812111346386692 0 -0.20286271060828709 -0.062875082175595995 0 -0.1942399063754538 -0.054756738566490958 0 -0.2097764006513502 -0.052812111346386692 0 -0.1942399063754538 -0.054756738566490958 0 -0.2016644392198467 -0.035717036735175789 0 -0.19566096639075331 -0.034458939496088817 0 -0.17840232654000099 -0.03890066956767857 0 -0.1942399063754538 -0.054756738566490958 0 -0.19566096639075331 -0.034458939496088817 0 -0.1942399063754538 -0.054756738566490958 0 -0.2016644392198467 -0.035717036735175789 0 -0.1942399063754538 -0.054756738566490958 0 -0.19566096639075331 -0.034458939496088817 0 -0.2016644392198467 -0.035717036735175789 0 -0.21792974209595611 -0.035730371869486723 0 -0.2097764006513502 -0.052812111346386692 0 -0.21441938717327891 -0.071680831157661051 0 -0.20286271060828709 -0.062875082175595995 0 -0.2097764006513502 -0.052812111346386692 0 -0.21792974209595611 -0.035730371869486723 0 -0.2097764006513502 -0.052812111346386692 0 -0.22677051212766791 -0.054783408835112533 0 -0.21441938717327891 -0.071680831157661051 0 -0.2097764006513502 -0.052812111346386692 0 -0.22677051212766791 -0.054783408835112533 0 -0.21792974209595611 -0.035730371869486723 0 -0.22677051212766791 -0.054783408835112533 0 -0.23233275567850109 -0.040925105665635758 0 -0.21792974209595611 -0.035730371869486723 0 -0.22677051212766791 -0.054783408835112533 0 -0.21792974209595611 -0.035730371869486723 0 -0.23233275567850109 -0.040925105665635758 0 -0.2230720520445392 -0.028972350484336239 0 -0.23233275567850109 -0.040925105665635758 0 -0.2230720520445392 -0.028972350484336239 0 -0.23601018915270569 -0.028180166155598551 0 -0.23233275567850109 -0.040925105665635758 0 -0.2444074063686876 -0.056873060325608168 0 -0.25320353057799788 -0.039909674850478402 0 -0.23233275567850109 -0.040925105665635758 0 -0.23601018915270569 -0.028180166155598551 0 -0.25320353057799788 -0.039909674850478402 0 -0.23561128215937871 -0.073836445800738698 0 -0.22677051212766791 -0.054783408835112533 0 -0.2444074063686876 -0.056873060325608168 0 -0.2444074063686876 -0.056873060325608168 0 -0.25320353057799788 -0.039909674850478402 0 -0.22677051212766791 -0.054783408835112533 0 -0.23233275567850109 -0.040925105665635758 0 -0.2444074063686876 -0.056873060325608168 0 -0.23116781587639321 -0.0031280525547601541 0 -0.21931011999256581 -0.0061116476317358984 0 -0.21690278361190021 0.0038105162234524769 0 -0.23116781587639321 -0.0031280525547601541 0 -0.21931011999256581 -0.0061116476317358984 0 -0.21957591570653801 -0.017210486668956141 0 -0.23116781587639321 -0.0031280525547601541 0 -0.2230720520445392 -0.028972350484336239 0 -0.23601018915270569 -0.028180166155598551 0 -0.21792974209595611 -0.035730371869486723 0 -0.21957591570653801 -0.017210486668956141 0 -0.2230720520445392 -0.028972350484336239 0 -0.23116781587639321 -0.0031280525547601541 0 -0.2230720520445392 -0.028972350484336239 0 -0.23116781587639321 -0.0031280525547601541 0 -0.21957591570653801 -0.017210486668956141 0 -0.2230720520445392 -0.028972350484336239 0 -0.24586379921786591 -0.02147910777146016 0 -0.23601018915270569 -0.028180166155598551 0 -0.25320353057799788 -0.039909674850478402 0 -0.23116781587639321 -0.0031280525547601541 0 -0.24586379921786591 -0.02147910777146016 0 -0.23601018915270569 -0.028180166155598551 0 -0.23116781587639321 -0.0031280525547601541 0 -0.24586379921786591 -0.02147910777146016 0 -0.25715972521422209 -0.0092794489872814849 0 -0.23116781587639321 -0.0031280525547601541 0 -0.25715972521422209 -0.0092794489872814849 0 -0.25553597653539439 0.0095935892600428532 0 -0.25715972521422209 -0.0092794489872814849 0 -0.26796219795245502 -0.0029687651997826361 0 -0.25553597653539439 0.0095935892600428532 0 -0.24586379921786591 -0.02147910777146016 0 -0.25715972521422209 -0.0092794489872814849 0 -0.26749504649034328 -0.023845403773278821 0 -0.24586379921786591 -0.02147910777146016 0 -0.26749504649034328 -0.023845403773278821 0 -0.25320353057799788 -0.039909674850478402 0 -0.25715972521422209 -0.0092794489872814849 0 -0.26749504649034328 -0.023845403773278821 0 -0.27522151933612982 -0.014214828934513349 0 -0.26749504649034328 -0.023845403773278821 0 -0.27522151933612982 -0.014214828934513349 0 -0.28624887718946068 -0.02704598392147552 0 -0.26749504649034328 -0.023845403773278821 0 -0.28624887718946068 -0.02704598392147552 0 -0.27906274139419429 -0.041230475048035252 0 -0.26796219795245502 -0.0029687651997826361 0 -0.28428084544043303 -0.0056095822498450102 0 -0.27337512905471228 0.0080427144041445506 0 -0.26796219795245502 -0.0029687651997826361 0 -0.27522151933612982 -0.014214828934513349 0 -0.28428084544043303 -0.0056095822498450102 0 -0.25715972521422209 -0.0092794489872814849 0 -0.26796219795245502 -0.0029687651997826361 0 -0.27522151933612982 -0.014214828934513349 0 -0.28428084544043303 -0.0056095822498450102 0 -0.29417512086228659 -0.001696616376471291 0 -0.28594873904622642 0.0060220758898533724 0 -0.29417512086228659 -0.001696616376471291 0 -0.29347063912961541 -0.01048448569829053 0 -0.29969977015223243 -0.0077508257482722474 0 -0.28428084544043303 -0.0056095822498450102 0 -0.29417512086228659 -0.001696616376471291 0 -0.29347063912961541 -0.01048448569829053 0 -0.29347063912961541 -0.01048448569829053 0 -0.29726202015548492 -0.017629035753128231 0 -0.29969977015223243 -0.0077508257482722474 0 -0.29347063912961541 -0.01048448569829053 0 -0.28818242372986469 -0.016539789475416629 0 -0.29726202015548492 -0.017629035753128231 0 -0.27522151933612982 -0.014214828934513349 0 -0.28428084544043303 -0.0056095822498450102 0 -0.28818242372986469 -0.016539789475416629 0 -0.28428084544043303 -0.0056095822498450102 0 -0.29347063912961541 -0.01048448569829053 0 -0.28818242372986469 -0.016539789475416629 0 -0.28624887718946068 -0.02704598392147552 0 -0.29726202015548492 -0.017629035753128231 0 -0.30386196627780893 -0.033784553857861249 0 -0.27522151933612982 -0.014214828934513349 0 -0.28818242372986469 -0.016539789475416629 0 -0.28624887718946068 -0.02704598392147552 0 -0.28818242372986469 -0.016539789475416629 0 -0.28624887718946068 -0.02704598392147552 0 -0.29726202015548492 -0.017629035753128231 0 -0.30888249110521099 -0.0078607938915956459 0 -0.30386196627780893 -0.033784553857861249 0 -0.30888249110521099 -0.0078607938915956459 0 -0.30386196627780893 -0.033784553857861249 0 -0.31485828335798272 -0.021852640086795432 0 -0.29726202015548492 -0.017629035753128231 0 -0.30888249110521099 -0.0078607938915956459 0 -0.30386196627780893 -0.033784553857861249 0 -0.30888249110521099 -0.0078607938915956459 0 -0.31485828335798272 -0.021852640086795432 0 -0.30888249110521099 -0.0078607938915956459 0 -0.30982358942777027 -0.0030013802132798752 0 -0.29417512086228659 -0.001696616376471291 0 -0.30470857950856411 -0.0010831970218755369 0 -0.29969977015223243 -0.0077508257482722474 0 -0.30888249110521099 -0.0078607938915956459 0 -0.30470857950856411 -0.0010831970218755369 0 -0.29969977015223243 -0.0077508257482722474 0 -0.29726202015548492 -0.017629035753128231 0 -0.30888249110521099 -0.0078607938915956459 0 -0.29969977015223243 -0.0077508257482722474 0 -0.29884144145040431 -0.059708313824126433 0 -0.30386196627780893 -0.033784553857861249 0 -0.31432743326135881 -0.047496541304556161 0 -0.29884144145040431 -0.059708313824126433 0 -0.31432743326135881 -0.047496541304556161 0 -0.31826301089750819 -0.061100145414892289 0 -0.29884144145040431 -0.059708313824126433 0 -0.30386196627780893 -0.033784553857861249 0 -0.29884144145040431 -0.059708313824126433 0 -0.30386196627780893 -0.033784553857861249 0 -0.29000573570109223 -0.043933126897014119 0 -0.28624887718946068 -0.02704598392147552 0 -0.30386196627780893 -0.033784553857861249 0 -0.29000573570109223 -0.043933126897014119 0 -0.28624887718946068 -0.02704598392147552 0 -0.29000573570109223 -0.043933126897014119 0 -0.27906274139419429 -0.041230475048035252 0 -0.29884144145040431 -0.059708313824126433 0 -0.29000573570109223 -0.043933126897014119 0 -0.28201365219359242 -0.057896307833572157 0 -0.29000573570109223 -0.043933126897014119 0 -0.28201365219359242 -0.057896307833572157 0 -0.27906274139419429 -0.041230475048035252 0 -0.28201365219359242 -0.057896307833572157 0 -0.27906274139419429 -0.041230475048035252 0 -0.26414944812674979 -0.054598842554995072 0 -0.27906274139419429 -0.041230475048035252 0 -0.26630642810145633 -0.03717728522059649 0 -0.26414944812674979 -0.054598842554995072 0 -0.26749504649034328 -0.023845403773278821 0 -0.27906274139419429 -0.041230475048035252 0 -0.26630642810145633 -0.03717728522059649 0 -0.26749504649034328 -0.023845403773278821 0 -0.26630642810145633 -0.03717728522059649 0 -0.25320353057799788 -0.039909674850478402 0 -0.26630642810145633 -0.03717728522059649 0 -0.25320353057799788 -0.039909674850478402 0 -0.26414944812674979 -0.054598842554995072 0 -0.2444074063686876 -0.056873060325608168 0 -0.25320353057799788 -0.039909674850478402 0 -0.26414944812674979 -0.054598842554995072 0 -0.2444074063686876 -0.056873060325608168 0 -0.26414944812674979 -0.054598842554995072 0 -0.25260129650960822 -0.072607917740521638 0 -0.26414944812674979 -0.054598842554995072 0 -0.25260129650960822 -0.072607917740521638 0 -0.2706597923019361 -0.076810650385736007 0 -0.2481785535912879 -0.10092058963553061 0 -0.2706597923019361 -0.076810650385736007 0 -0.27402551635240402 -0.1024852600019745 0 -0.2481785535912879 -0.10092058963553061 0 -0.25260129650960822 -0.072607917740521638 0 -0.2706597923019361 -0.076810650385736007 0 -0.2706597923019361 -0.076810650385736007 0 -0.27402551635240402 -0.1024852600019745 0 -0.29026040844819651 -0.080310998979073123 0 -0.28201365219359242 -0.057896307833572157 0 -0.26414944812674979 -0.054598842554995072 0 -0.2706597923019361 -0.076810650385736007 0 -0.28201365219359242 -0.057896307833572157 0 -0.2706597923019361 -0.076810650385736007 0 -0.29026040844819651 -0.080310998979073123 0 -0.2481785535912879 -0.10092058963553061 0 -0.26074582502319632 -0.12800473347032279 0 -0.2481785535912879 -0.10092058963553061 0 -0.27402551635240402 -0.1024852600019745 0 -0.26074582502319632 -0.12800473347032279 0 -0.27402551635240402 -0.1024852600019745 0 -0.28509579788972589 -0.11826796550592369 0 -0.26074582502319632 -0.12800473347032279 0 -0.28509579788972589 -0.11826796550592369 0 -0.30444996704189831 -0.1171273293737107 0 -0.29847031586069389 -0.1358763760612911 0 -0.28509579788972589 -0.11826796550592369 0 -0.30072710867069441 -0.099384648226113384 0 -0.30444996704189831 -0.1171273293737107 0 -0.27402551635240402 -0.1024852600019745 0 -0.28509579788972589 -0.11826796550592369 0 -0.30072710867069441 -0.099384648226113384 0 -0.27402551635240402 -0.1024852600019745 0 -0.30072710867069441 -0.099384648226113384 0 -0.29026040844819651 -0.080310998979073123 0 -0.30072710867069441 -0.099384648226113384 0 -0.30444996704189831 -0.1171273293737107 0 -0.32076982596781117 -0.107750009699651 0 -0.29884144145040431 -0.059708313824126433 0 -0.28201365219359242 -0.057896307833572157 0 -0.29026040844819651 -0.080310998979073123 0 -0.30072710867069441 -0.099384648226113384 0 -0.30978894604782969 -0.076428626919669951 0 -0.31948449055149758 -0.092024528626418967 0 -0.30072710867069441 -0.099384648226113384 0 -0.29026040844819651 -0.080310998979073123 0 -0.30978894604782969 -0.076428626919669951 0 -0.29884144145040431 -0.059708313824126433 0 -0.30978894604782969 -0.076428626919669951 0 -0.31826301089750819 -0.061100145414892289 0 -0.29884144145040431 -0.059708313824126433 0 -0.29026040844819651 -0.080310998979073123 0 -0.30978894604782969 -0.076428626919669951 0 -0.30978894604782969 -0.076428626919669951 0 -0.32758711610783131 -0.075468607476914723 0 -0.31826301089750819 -0.061100145414892289 0 -0.32758711610783131 -0.075468607476914723 0 -0.3358678052684872 -0.06276472059054411 0 -0.31826301089750819 -0.061100145414892289 0 -0.30978894604782969 -0.076428626919669951 0 -0.32758711610783131 -0.075468607476914723 0 -0.31948449055149758 -0.092024528626418967 0 -0.32758711610783131 -0.075468607476914723 0 -0.31948449055149758 -0.092024528626418967 0 -0.33356311092959412 -0.092498510402305362 0 -0.32758711610783131 -0.075468607476914723 0 -0.33356311092959412 -0.092498510402305362 0 -0.34252779417376888 -0.074354751173952682 0 -0.33356311092959412 -0.092498510402305362 0 -0.34252779417376888 -0.074354751173952682 0 -0.34794519482868042 -0.091220650236502485 0 -0.3358678052684872 -0.06276472059054411 0 -0.34496606717487971 -0.066968220469138195 0 -0.34522156768399448 -0.060229127794416873 0 -0.34252779417376888 -0.074354751173952682 0 -0.3358678052684872 -0.06276472059054411 0 -0.34496606717487971 -0.066968220469138195 0 -0.32758711610783131 -0.075468607476914723 0 -0.34252779417376888 -0.074354751173952682 0 -0.3358678052684872 -0.06276472059054411 0 -0.32076982596781117 -0.107750009699651 0 -0.33060114566198168 -0.1196751892858389 0 -0.31761821886671587 -0.12670866964638561 0 -0.30444996704189831 -0.1171273293737107 0 -0.32076982596781117 -0.107750009699651 0 -0.31761821886671587 -0.12670866964638561 0 -0.30072710867069441 -0.099384648226113384 0 -0.31948449055149758 -0.092024528626418967 0 -0.32076982596781117 -0.107750009699651 0 -0.31948449055149758 -0.092024528626418967 0 -0.33356311092959412 -0.092498510402305362 0 -0.32076982596781117 -0.107750009699651 0 -0.33356311092959412 -0.092498510402305362 0 -0.32076982596781117 -0.107750009699651 0 -0.33669421117825732 -0.1068791589385762 0 -0.33356311092959412 -0.092498510402305362 0 -0.33669421117825732 -0.1068791589385762 0 -0.34794519482868042 -0.091220650236502485 0 -0.33669421117825732 -0.1068791589385762 0 -0.34230468808653469 -0.1146394587153107 0 -0.34794519482868042 -0.091220650236502485 0 -0.32076982596781117 -0.107750009699651 0 -0.33669421117825732 -0.1068791589385762 0 -0.33060114566198168 -0.1196751892858389 0 -0.33669421117825732 -0.1068791589385762 0 -0.34230468808653469 -0.1146394587153107 0 -0.33060114566198168 -0.1196751892858389 0 -0.33669421117825732 -0.1068791589385762 0 -0.34230468808653469 -0.1146394587153107 0 -0.34230468808653469 -0.1146394587153107 0 -0.36076284682018672 -0.10351041987419519 0 -0.36312341026428441 -0.12164868183308809 0 -0.34230468808653469 -0.1146394587153107 0 -0.36312341026428441 -0.12164868183308809 0 -0.3576779918695136 -0.13590350593717249 0 -0.34230468808653469 -0.1146394587153107 0 -0.36076284682018672 -0.10351041987419519 0 -0.34794519482868042 -0.091220650236502485 0 -0.34230468808653469 -0.1146394587153107 0 -0.34794519482868042 -0.091220650236502485 0 -0.36076284682018672 -0.10351041987419519 0 -0.38079654958623532 -0.11836951387004981 0 -0.37777349582894543 -0.094652887237985484 0 -0.36076284682018672 -0.10351041987419519 0 -0.36312341026428441 -0.12164868183308809 0 -0.38079654958623532 -0.11836951387004981 0 -0.35671675928689012 -0.063789804091651442 0 -0.35358570157082397 -0.067801841757693743 0 -0.36096493326393059 -0.081967829743574902 0 -0.34252779417376888 -0.074354751173952682 0 -0.35358570157082397 -0.067801841757693743 0 -0.34794519482868042 -0.091220650236502485 0 -0.34252779417376888 -0.074354751173952682 0 -0.35358570157082397 -0.067801841757693743 0 -0.34496606717487971 -0.066968220469138195 0 -0.35358570157082397 -0.067801841757693743 0 -0.34496606717487971 -0.066968220469138195 0 -0.34522156768399448 -0.060229127794416873 0 -0.35358570157082397 -0.067801841757693743 0 -0.34794519482868042 -0.091220650236502485 0 -0.35358570157082397 -0.067801841757693743 0 -0.34794519482868042 -0.091220650236502485 0 -0.36096493326393059 -0.081967829743574902 0 -0.36076284682018672 -0.10351041987419519 0 -0.34794519482868042 -0.091220650236502485 0 -0.36096493326393059 -0.081967829743574902 0 -0.36096493326393059 -0.081967829743574902 0 -0.3752858952862641 -0.07489405262300125 0 -0.37777349582894543 -0.094652887237985484 0 -0.36076284682018672 -0.10351041987419519 0 -0.36096493326393059 -0.081967829743574902 0 -0.37777349582894543 -0.094652887237985484 0 -0.36806707769969937 -0.062668025913299938 0 -0.37471765028999571 -0.057476887024812788 0 -0.3752858952862641 -0.07489405262300125 0 -0.35671675928689012 -0.063789804091651442 0 -0.3752858952862641 -0.07489405262300125 0 -0.35671675928689012 -0.063789804091651442 0 -0.36096493326393059 -0.081967829743574902 0 -0.3752858952862641 -0.07489405262300125 0 -0.35671675928689012 -0.063789804091651442 0 -0.36806707769969937 -0.062668025913299938 0 -0.3752858952862641 -0.07489405262300125 0 -0.35671675928689012 -0.063789804091651442 0 -0.36554800593564768 -0.054511359913734271 0 -0.35922620831296759 -0.04438303327888489 0 -0.36806707769969937 -0.062668025913299938 0 -0.37471765028999571 -0.057476887024812788 0 -0.36554800593564768 -0.054511359913734271 0 -0.37471765028999571 -0.057476887024812788 0 -0.36554800593564768 -0.054511359913734271 0 -0.37113280592422371 -0.04501736919390327 0 -0.36554800593564768 -0.054511359913734271 0 -0.35922620831296759 -0.04438303327888489 0 -0.37113280592422371 -0.04501736919390327 0 -0.35671675928689012 -0.063789804091651442 0 -0.36806707769969937 -0.062668025913299938 0 -0.36554800593564768 -0.054511359913734271 0 -0.35671675928689012 -0.063789804091651442 0 -0.35358570157082397 -0.067801841757693743 0 -0.35922620831296759 -0.04438303327888489 0 -0.35358570157082397 -0.067801841757693743 0 -0.35922620831296759 -0.04438303327888489 0 -0.35358570157082397 -0.067801841757693743 0 -0.35078123681890477 -0.055099962794722283 0 -0.35922620831296759 -0.04438303327888489 0 -0.35078123681890477 -0.055099962794722283 0 -0.34832022124261641 -0.046784918156700481 0 -0.35922620831296759 -0.04438303327888489 0 -0.34633301487877483 -0.053649867014115372 0 -0.35078123681890477 -0.055099962794722283 0 -0.34832022124261641 -0.046784918156700481 0 -0.34633301487877483 -0.053649867014115372 0 -0.34832022124261641 -0.046784918156700481 0 -0.34100903376958369 -0.052485459310621818 0 -0.34633301487877483 -0.053649867014115372 0 -0.34522156768399448 -0.060229127794416873 0 -0.35078123681890477 -0.055099962794722283 0 -0.35358570157082397 -0.067801841757693743 0 -0.34522156768399448 -0.060229127794416873 0 -0.35078123681890477 -0.055099962794722283 0 -0.34633301487877483 -0.053649867014115372 0 -0.34522156768399448 -0.060229127794416873 0 -0.34100903376958369 -0.052485459310621818 0 -0.35922620831296759 -0.04438303327888489 0 -0.35310500857832861 -0.036633981733035517 0 -0.3648667150551112 -0.020964224800075929 0 -0.34550060756462209 -0.039250682700001351 0 -0.35310500857832861 -0.036633981733035517 0 -0.34215536841002359 -0.03147467722308487 0 -0.34550060756462209 -0.039250682700001351 0 -0.34832022124261641 -0.046784918156700481 0 -0.35310500857832861 -0.036633981733035517 0 -0.34550060756462209 -0.039250682700001351 0 -0.34832022124261641 -0.046784918156700481 0 -0.34076847482412148 -0.044190161255000783 0 -0.34832022124261641 -0.046784918156700481 0 -0.35922620831296759 -0.04438303327888489 0 -0.35310500857832861 -0.036633981733035517 0 -0.35922620831296759 -0.04438303327888489 0 -0.3648667150551112 -0.020964224800075929 0 -0.35922620831296759 -0.04438303327888489 0 -0.37006071063856599 -0.03423271493283038 0 -0.3648667150551112 -0.020964224800075929 0 -0.35922620831296759 -0.04438303327888489 0 -0.37113280592422371 -0.04501736919390327 0 -0.37006071063856599 -0.03423271493283038 0 -0.37113280592422371 -0.04501736919390327 0 -0.37006071063856599 -0.03423271493283038 0 -0.37821849620680698 -0.036718047427377831 0 -0.37006071063856599 -0.03423271493283038 0 -0.3648667150551112 -0.020964224800075929 0 -0.37685932769372071 -0.024080899963909989 0 -0.3648667150551112 -0.020964224800075929 0 -0.37411213593823611 -0.0119982943080427 0 -0.37685932769372071 -0.024080899963909989 0 -0.37411213593823611 -0.0119982943080427 0 -0.35801402945876409 -0.0097454314118406681 0 -0.36856376189484402 0.001934125399975535 0 -0.37411213593823611 -0.0119982943080427 0 -0.35801402945876409 -0.0097454314118406681 0 -0.3648667150551112 -0.020964224800075929 0 -0.37411213593823611 -0.0119982943080427 0 -0.35801402945876409 -0.0097454314118406681 0 -0.35801402945876409 -0.0097454314118406681 0 -0.33391880944326718 -0.0063734058125605297 0 -0.35801402945876409 -0.0097454314118406681 0 -0.34487290736086129 -0.021238660527113359 0 -0.33391880944326718 -0.0063734058125605297 0 -0.35637279930410171 -0.0019893404263803048 0 -0.35801402945876409 -0.0097454314118406681 0 -0.33391880944326718 -0.0063734058125605297 0 -0.35310500857832861 -0.036633981733035517 0 -0.35801402945876409 -0.0097454314118406681 0 -0.34487290736086129 -0.021238660527113359 0 -0.35310500857832861 -0.036633981733035517 0 -0.35801402945876409 -0.0097454314118406681 0 -0.35310500857832861 -0.036633981733035517 0 -0.3648667150551112 -0.020964224800075929 0 -0.35801402945876409 -0.0097454314118406681 0 -0.35310500857832861 -0.036633981733035517 0 -0.34487290736086129 -0.021238660527113359 0 -0.34215536841002359 -0.03147467722308487 0 -0.34487290736086129 -0.021238660527113359 0 -0.33093612351762419 -0.02341194844944881 0 -0.33391880944326718 -0.0063734058125605297 0 -0.34487290736086129 -0.021238660527113359 0 -0.33093612351762419 -0.02341194844944881 0 -0.34215536841002359 -0.03147467722308487 0 -0.33093612351762419 -0.02341194844944881 0 -0.34215536841002359 -0.03147467722308487 0 -0.3354824321090778 -0.036795164205001507 0 -0.33093612351762419 -0.02341194844944881 0 -0.33391880944326718 -0.0063734058125605297 0 -0.32062886597598789 -0.01161624336177248 0 -0.30982358942777027 -0.0030013802132798752 0 -0.33391880944326718 -0.0063734058125605297 0 -0.32507815226155978 0.0078470452659696287 0 -0.30982358942777027 -0.0030013802132798752 0 -0.33391880944326718 -0.0063734058125605297 0 -0.30982358942777027 -0.0030013802132798752 0 -0.33391880944326718 -0.0063734058125605297 0 -0.32062886597598789 -0.01161624336177248 0 -0.30888249110521099 -0.0078607938915956459 0 -0.32062886597598789 -0.01161624336177248 0 -0.31485828335798272 -0.021852640086795432 0 -0.30888249110521099 -0.0078607938915956459 0 -0.30982358942777027 -0.0030013802132798752 0 -0.32062886597598789 -0.01161624336177248 0 -0.33093612351762419 -0.02341194844944881 0 -0.32062886597598789 -0.01161624336177248 0 -0.31485828335798272 -0.021852640086795432 0 -0.33093612351762419 -0.02341194844944881 0 -0.31485828335798272 -0.021852640086795432 0 -0.32083407561075622 -0.035844486281994457 0 -0.30386196627780893 -0.033784553857861249 0 -0.31485828335798272 -0.021852640086795432 0 -0.32083407561075622 -0.035844486281994457 0 -0.31485828335798272 -0.021852640086795432 0 -0.32083407561075622 -0.035844486281994457 0 -0.30386196627780893 -0.033784553857861249 0 -0.32083407561075622 -0.035844486281994457 0 -0.31432743326135881 -0.047496541304556161 0 -0.32083407561075622 -0.035844486281994457 0 -0.31432743326135881 -0.047496541304556161 0 -0.32983667207031642 -0.047045207143906392 0 -0.3358678052684872 -0.06276472059054411 0 -0.31826301089750819 -0.061100145414892289 0 -0.32983667207031642 -0.047045207143906392 0 -0.31432743326135881 -0.047496541304556161 0 -0.31826301089750819 -0.061100145414892289 0 -0.32983667207031642 -0.047045207143906392 0 -0.3358678052684872 -0.06276472059054411 0 -0.32983667207031642 -0.047045207143906392 0 -0.34100903376958369 -0.052485459310621818 0 -0.3358678052684872 -0.06276472059054411 0 -0.34522156768399448 -0.060229127794416873 0 -0.34100903376958369 -0.052485459310621818 0 -0.34832022124261641 -0.046784918156700481 0 -0.34100903376958369 -0.052485459310621818 0 -0.34076847482412148 -0.044190161255000783 0 -0.32983667207031642 -0.047045207143906392 0 -0.34100903376958369 -0.052485459310621818 0 -0.34076847482412148 -0.044190161255000783 0 -0.34550060756462209 -0.039250682700001351 0 -0.34076847482412148 -0.044190161255000783 0 -0.3354824321090778 -0.036795164205001507 0 -0.34550060756462209 -0.039250682700001351 0 -0.34215536841002359 -0.03147467722308487 0 -0.3354824321090778 -0.036795164205001507 0 -0.33093612351762419 -0.02341194844944881 0 -0.32083407561075622 -0.035844486281994457 0 -0.3354824321090778 -0.036795164205001507 0 -0.32983667207031642 -0.047045207143906392 0 -0.34076847482412148 -0.044190161255000783 0 -0.3354824321090778 -0.036795164205001507 0 -0.32083407561075622 -0.035844486281994457 0 -0.32983667207031642 -0.047045207143906392 0 -0.3354824321090778 -0.036795164205001507 0 -0.30902144292812472 -0.25508140255992368 0 -0.31028933955907062 -0.2431915154081086 0 -0.301328339625071 -0.229070466327533 0 -0.30902144292812472 -0.25508140255992368 0 -0.301328339625071 -0.229070466327533 0 -0.30902144292812472 -0.25508140255992368 0 -0.301328339625071 -0.229070466327533 0 -0.29250533150630659 -0.23324394549190461 0 -0.31028933955907062 -0.2431915154081086 0 -0.301328339625071 -0.229070466327533 0 -0.301328339625071 -0.229070466327533 0 -0.30495758464502543 -0.21463521182342921 0 -0.31922173491624478 -0.2276193743845949 0 -0.31028933955907062 -0.2431915154081086 0 -0.301328339625071 -0.229070466327533 0 -0.31922173491624478 -0.2276193743845949 0 -0.29250533150630659 -0.23324394549190461 0 -0.28698067004258959 -0.22487305680055 0 -0.28783184634686698 -0.24181260565926621 0 -0.301328339625071 -0.229070466327533 0 -0.29250533150630659 -0.23324394549190461 0 -0.28698067004258959 -0.22487305680055 0 -0.28698067004258959 -0.22487305680055 0 -0.28783184634686698 -0.24181260565926621 0 -0.27253035523611052 -0.2175848607860903 0 -0.301328339625071 -0.229070466327533 0 -0.28698067004258959 -0.22487305680055 0 -0.28790979277639722 -0.20792506290874779 0 -0.28783184634686698 -0.24181260565926621 0 -0.28581464292015868 -0.240993386766231 0 -0.27253035523611052 -0.2175848607860903 0 -0.27935343097645138 -0.25998728087299189 0 -0.28783184634686698 -0.24181260565926621 0 -0.28581464292015868 -0.240993386766231 0 -0.30902144292812472 -0.25508140255992368 0 -0.29250533150630659 -0.23324394549190461 0 -0.28783184634686698 -0.24181260565926621 0 -0.27935343097645138 -0.25998728087299189 0 -0.28581464292015868 -0.240993386766231 0 -0.27308269416881231 -0.24675275968706359 0 -0.28581464292015868 -0.240993386766231 0 -0.27593520084406231 -0.23714070394168371 0 -0.27308269416881231 -0.24675275968706359 0 -0.27593520084406231 -0.23714070394168371 0 -0.26619856243411227 -0.23651107287702711 0 -0.27308269416881231 -0.24675275968706359 0 -0.26619856243411227 -0.23651107287702711 0 -0.27308269416881231 -0.24675275968706359 0 -0.26334720402422163 -0.24640170976257569 0 -0.25659284559555973 -0.25606587484286092 0 -0.24029347215837399 -0.2331505747059695 0 -0.25538287117702868 -0.23503940974181059 0 -0.25659284559555973 -0.25606587484286092 0 -0.26334720402422163 -0.24640170976257569 0 -0.25538287117702868 -0.23503940974181059 0 -0.26619856243411227 -0.23651107287702711 0 -0.26334720402422163 -0.24640170976257569 0 -0.25538287117702868 -0.23503940974181059 0 -0.25538287117702868 -0.23503940974181059 0 -0.2610275368265344 -0.22477270393301749 0 -0.25074328421046649 -0.21472882973901561 0 -0.2610275368265344 -0.22477270393301749 0 -0.27253035523611052 -0.2175848607860903 0 -0.25074328421046649 -0.21472882973901561 0 -0.26619856243411227 -0.23651107287702711 0 -0.25538287117702868 -0.23503940974181059 0 -0.2610275368265344 -0.22477270393301749 0 -0.26619856243411227 -0.23651107287702711 0 -0.2610275368265344 -0.22477270393301749 0 -0.26892291383520478 -0.22900233538445469 0 -0.28783184634686698 -0.24181260565926621 0 -0.27253035523611052 -0.2175848607860903 0 -0.28581464292015868 -0.240993386766231 0 -0.27593520084406231 -0.23714070394168371 0 -0.27253035523611052 -0.2175848607860903 0 -0.2610275368265344 -0.22477270393301749 0 -0.26892291383520478 -0.22900233538445469 0 -0.27253035523611052 -0.2175848607860903 0 -0.27593520084406231 -0.23714070394168371 0 -0.26892291383520478 -0.22900233538445469 0 -0.27253035523611052 -0.2175848607860903 0 -0.27593520084406231 -0.23714070394168371 0 -0.26619856243411227 -0.23651107287702711 0 -0.26892291383520478 -0.22900233538445469 0 -0.28698067004258959 -0.22487305680055 0 -0.27253035523611052 -0.2175848607860903 0 -0.28236273330718392 -0.2160751422385741 0 -0.27909627896431782 -0.2109429682916254 0 -0.27253035523611052 -0.2175848607860903 0 -0.28236273330718392 -0.2160751422385741 0 -0.27253035523611052 -0.2175848607860903 0 -0.25722886412535378 -0.19335711591291441 0 -0.27358223453757952 -0.20218680723308929 0 -0.27909627896431782 -0.2109429682916254 0 -0.27358223453757952 -0.20218680723308929 0 -0.28790979277639722 -0.20792506290874779 0 -0.27909627896431782 -0.2109429682916254 0 -0.27253035523611052 -0.2175848607860903 0 -0.27358223453757952 -0.20218680723308929 0 -0.27253035523611052 -0.2175848607860903 0 -0.25722886412535378 -0.19335711591291441 0 -0.27253035523611052 -0.2175848607860903 0 -0.25074328421046649 -0.21472882973901561 0 -0.25722886412535378 -0.19335711591291441 0 -0.28790979277639722 -0.20792506290874779 0 -0.27449124592772328 -0.18677965948996281 0 -0.25722886412535378 -0.19335711591291441 0 -0.27358223453757952 -0.20218680723308929 0 -0.27449124592772328 -0.18677965948996281 0 -0.27358223453757952 -0.20218680723308929 0 -0.28790979277639722 -0.20792506290874779 0 -0.27449124592772328 -0.18677965948996281 0 -0.29424373000846382 -0.205116891065415 0 -0.29821082813477517 -0.18932062196335811 0 -0.28715912039185681 -0.181163315803297 0 -0.28578852597207022 -0.1945931630605654 0 -0.28715912039185681 -0.181163315803297 0 -0.27449124592772328 -0.18677965948996281 0 -0.28578852597207022 -0.1945931630605654 0 -0.28790979277639722 -0.20792506290874779 0 -0.27449124592772328 -0.18677965948996281 0 -0.28578852597207022 -0.1945931630605654 0 -0.29424373000846382 -0.205116891065415 0 -0.28715912039185681 -0.181163315803297 0 -0.29424373000846382 -0.205116891065415 0 -0.28715912039185681 -0.181163315803297 0 -0.28578852597207022 -0.1945931630605654 0 -0.28790979277639722 -0.20792506290874779 0 -0.29424373000846382 -0.205116891065415 0 -0.301328339625071 -0.229070466327533 0 -0.28790979277639722 -0.20792506290874779 0 -0.28698067004258959 -0.22487305680055 0 -0.28790979277639722 -0.20792506290874779 0 -0.28236273330718392 -0.2160751422385741 0 -0.301328339625071 -0.229070466327533 0 -0.28790979277639722 -0.20792506290874779 0 -0.29424373000846382 -0.205116891065415 0 -0.27909627896431782 -0.2109429682916254 0 -0.28790979277639722 -0.20792506290874779 0 -0.28236273330718392 -0.2160751422385741 0 -0.30495758464502543 -0.21463521182342921 0 -0.30894904837666082 -0.20300102323291419 0 -0.32241269956020208 -0.21031663600823439 0 -0.301328339625071 -0.229070466327533 0 -0.29424373000846382 -0.205116891065415 0 -0.30495758464502543 -0.21463521182342921 0 -0.301328339625071 -0.229070466327533 0 -0.29424373000846382 -0.205116891065415 0 -0.29424373000846382 -0.205116891065415 0 -0.30246998826925992 -0.20501798528266879 0 -0.30495758464502543 -0.21463521182342921 0 -0.30246998826925992 -0.20501798528266879 0 -0.30495758464502543 -0.21463521182342921 0 -0.30894904837666082 -0.20300102323291419 0 -0.29424373000846382 -0.205116891065415 0 -0.29821082813477517 -0.18932062196335811 0 -0.30172959004688982 -0.1973188150089169 0 -0.30894904837666082 -0.20300102323291419 0 -0.30727144838685388 -0.18823928406475229 0 -0.30172959004688982 -0.1973188150089169 0 -0.30894904837666082 -0.20300102323291419 0 -0.30727144838685388 -0.18823928406475229 0 -0.32016609751438357 -0.1942500649247598 0 -0.30727144838685388 -0.18823928406475229 0 -0.29821082813477517 -0.18932062196335811 0 -0.30172959004688982 -0.1973188150089169 0 -0.29424373000846382 -0.205116891065415 0 -0.30246998826925992 -0.20501798528266879 0 -0.30172959004688982 -0.1973188150089169 0 -0.30246998826925992 -0.20501798528266879 0 -0.30894904837666082 -0.20300102323291419 0 -0.30172959004688982 -0.1973188150089169 0 -0.30727144838685388 -0.18823928406475229 0 -0.29821082813477517 -0.18932062196335811 0 -0.30065025183981192 -0.17476480387440901 0 -0.30727144838685388 -0.18823928406475229 0 -0.30065025183981192 -0.17476480387440901 0 -0.31491639317988801 -0.17650043654926861 0 -0.30065025183981192 -0.17476480387440901 0 -0.30416630419106538 -0.15920745014825041 0 -0.31491639317988801 -0.17650043654926861 0 -0.30065025183981192 -0.17476480387440901 0 -0.30416630419106538 -0.15920745014825041 0 -0.29030498594612569 -0.16817840695066419 0 -0.30416630419106538 -0.15920745014825041 0 -0.29030498594612569 -0.16817840695066419 0 -0.28177608198463711 -0.1544008127306703 0 -0.29030498594612569 -0.16817840695066419 0 -0.27777317132325691 -0.1713556521966943 0 -0.28177608198463711 -0.1544008127306703 0 -0.29030498594612569 -0.16817840695066419 0 -0.28715912039185681 -0.181163315803297 0 -0.27777317132325691 -0.1713556521966943 0 -0.30065025183981192 -0.17476480387440901 0 -0.29030498594612569 -0.16817840695066419 0 -0.28715912039185681 -0.181163315803297 0 -0.29821082813477517 -0.18932062196335811 0 -0.30065025183981192 -0.17476480387440901 0 -0.28715912039185681 -0.181163315803297 0 -0.28715912039185681 -0.181163315803297 0 -0.27449124592772328 -0.18677965948996281 0 -0.27777317132325691 -0.1713556521966943 0 -0.27449124592772328 -0.18677965948996281 0 -0.26107269907904929 -0.1656342560711776 0 -0.27777317132325691 -0.1713556521966943 0 -0.27449124592772328 -0.18677965948996281 0 -0.26107269907904929 -0.1656342560711776 0 -0.25722886412535378 -0.19335711591291441 0 -0.27449124592772328 -0.18677965948996281 0 -0.26112179522418177 -0.17958537158220919 0 -0.24192737301459721 -0.16912937103973849 0 -0.25722886412535378 -0.19335711591291441 0 -0.26112179522418177 -0.17958537158220919 0 -0.27449124592772328 -0.18677965948996281 0 -0.26112179522418177 -0.17958537158220919 0 -0.26107269907904929 -0.1656342560711776 0 -0.24192737301459721 -0.16912937103973849 0 -0.2489969078183929 -0.14640780640600881 0 -0.26107269907904929 -0.1656342560711776 0 -0.24192737301459721 -0.16912937103973849 0 -0.26112179522418177 -0.17958537158220919 0 -0.26107269907904929 -0.1656342560711776 0 -0.26107269907904929 -0.1656342560711776 0 -0.27777317132325691 -0.1713556521966943 0 -0.28177608198463711 -0.1544008127306703 0 -0.26107269907904929 -0.1656342560711776 0 -0.26631175581474609 -0.1458039723583619 0 -0.28177608198463711 -0.1544008127306703 0 -0.26631175581474609 -0.1458039723583619 0 -0.27847995531459979 -0.13647077202531399 0 -0.28177608198463711 -0.1544008127306703 0 -0.2489969078183929 -0.14640780640600881 0 -0.26107269907904929 -0.1656342560711776 0 -0.26631175581474609 -0.1458039723583619 0 -0.2489969078183929 -0.14640780640600881 0 -0.26631175581474609 -0.1458039723583619 0 -0.26074582502319632 -0.12800473347032279 0 -0.28509579788972589 -0.11826796550592369 0 -0.26074582502319632 -0.12800473347032279 0 -0.27847995531459979 -0.13647077202531399 0 -0.26631175581474609 -0.1458039723583619 0 -0.26074582502319632 -0.12800473347032279 0 -0.27847995531459979 -0.13647077202531399 0 -0.28509579788972589 -0.11826796550592369 0 -0.27847995531459979 -0.13647077202531399 0 -0.29847031586069389 -0.1358763760612911 0 -0.27847995531459979 -0.13647077202531399 0 -0.28177608198463711 -0.1544008127306703 0 -0.29847031586069389 -0.1358763760612911 0 -0.30416630419106538 -0.15920745014825041 0 -0.28177608198463711 -0.1544008127306703 0 -0.29847031586069389 -0.1358763760612911 0 -0.30416630419106538 -0.15920745014825041 0 -0.29847031586069389 -0.1358763760612911 0 -0.31606628785773022 -0.14520886148579459 0 -0.30444996704189831 -0.1171273293737107 0 -0.29847031586069389 -0.1358763760612911 0 -0.31761821886671587 -0.12670866964638561 0 -0.29847031586069389 -0.1358763760612911 0 -0.31761821886671587 -0.12670866964638561 0 -0.31606628785773022 -0.14520886148579459 0 -0.33060114566198168 -0.1196751892858389 0 -0.31761821886671587 -0.12670866964638561 0 -0.33561878421058938 -0.1423986494292708 0 -0.31761821886671587 -0.12670866964638561 0 -0.31606628785773022 -0.14520886148579459 0 -0.33561878421058938 -0.1423986494292708 0 -0.30416630419106538 -0.15920745014825041 0 -0.31606628785773022 -0.14520886148579459 0 -0.32445781615958652 -0.16185316214377499 0 -0.31606628785773022 -0.14520886148579459 0 -0.33561878421058938 -0.1423986494292708 0 -0.32445781615958652 -0.16185316214377499 0 -0.34230468808653469 -0.1146394587153107 0 -0.33060114566198168 -0.1196751892858389 0 -0.33561878421058938 -0.1423986494292708 0 -0.34230468808653469 -0.1146394587153107 0 -0.33561878421058938 -0.1423986494292708 0 -0.34230468808653469 -0.1146394587153107 0 -0.3576779918695136 -0.13590350593717249 0 -0.34230468808653469 -0.1146394587153107 0 -0.33561878421058938 -0.1423986494292708 0 -0.3576779918695136 -0.13590350593717249 0 -0.36312341026428441 -0.12164868183308809 0 -0.3576779918695136 -0.13590350593717249 0 -0.37407497495895142 -0.13582051076871221 0 -0.36312341026428441 -0.12164868183308809 0 -0.37407497495895142 -0.13582051076871221 0 -0.38079654958623532 -0.11836951387004981 0 -0.3576779918695136 -0.13590350593717249 0 -0.37305129565249362 -0.15716755315903319 0 -0.3576779918695136 -0.13590350593717249 0 -0.35468346856307681 -0.15374345197413011 0 -0.37305129565249362 -0.15716755315903319 0 -0.3576779918695136 -0.13590350593717249 0 -0.37407497495895142 -0.13582051076871221 0 -0.37305129565249362 -0.15716755315903319 0 -0.33561878421058938 -0.1423986494292708 0 -0.3576779918695136 -0.13590350593717249 0 -0.35468346856307681 -0.15374345197413011 0 -0.33561878421058938 -0.1423986494292708 0 -0.35468346856307681 -0.15374345197413011 0 -0.34247440795590578 -0.1652682629621316 0 -0.35468346856307681 -0.15374345197413011 0 -0.36247282214726251 -0.1705339627658643 0 -0.34247440795590578 -0.1652682629621316 0 -0.37305129565249362 -0.15716755315903319 0 -0.36247282214726251 -0.1705339627658643 0 -0.38842459943547358 -0.17843160038089409 0 -0.35468346856307681 -0.15374345197413011 0 -0.37305129565249362 -0.15716755315903319 0 -0.36247282214726251 -0.1705339627658643 0 -0.36247282214726251 -0.1705339627658643 0 -0.36628765953275139 -0.18631694637052931 0 -0.38842459943547358 -0.17843160038089409 0 -0.36247282214726251 -0.1705339627658643 0 -0.36628765953275139 -0.18631694637052931 0 -0.34885448125406482 -0.18355329893987879 0 -0.36247282214726251 -0.1705339627658643 0 -0.34885448125406482 -0.18355329893987879 0 -0.34247440795590578 -0.1652682629621316 0 -0.34885448125406482 -0.18355329893987879 0 -0.32875410934604399 -0.18173809193947649 0 -0.34247440795590578 -0.1652682629621316 0 -0.33561878421058938 -0.1423986494292708 0 -0.34247440795590578 -0.1652682629621316 0 -0.32445781615958652 -0.16185316214377499 0 -0.32875410934604399 -0.18173809193947649 0 -0.34247440795590578 -0.1652682629621316 0 -0.32445781615958652 -0.16185316214377499 0 -0.30416630419106538 -0.15920745014825041 0 -0.32445781615958652 -0.16185316214377499 0 -0.31491639317988801 -0.17650043654926861 0 -0.32875410934604399 -0.18173809193947649 0 -0.32445781615958652 -0.16185316214377499 0 -0.31491639317988801 -0.17650043654926861 0 -0.30727144838685388 -0.18823928406475229 0 -0.31491639317988801 -0.17650043654926861 0 -0.32016609751438357 -0.1942500649247598 0 -0.32875410934604399 -0.18173809193947649 0 -0.31491639317988801 -0.17650043654926861 0 -0.32016609751438357 -0.1942500649247598 0 -0.32016609751438357 -0.1942500649247598 0 -0.32241269956020208 -0.21031663600823439 0 -0.33727518779021959 -0.1990248523193241 0 -0.30894904837666082 -0.20300102323291419 0 -0.32016609751438357 -0.1942500649247598 0 -0.32241269956020208 -0.21031663600823439 0 -0.30495758464502543 -0.21463521182342921 0 -0.32241269956020208 -0.21031663600823439 0 -0.31922173491624478 -0.2276193743845949 0 -0.32241269956020208 -0.21031663600823439 0 -0.33727518779021959 -0.1990248523193241 0 -0.34120580798714251 -0.22210436358079541 0 -0.32875410934604399 -0.18173809193947649 0 -0.32016609751438357 -0.1942500649247598 0 -0.33727518779021959 -0.1990248523193241 0 -0.34885448125406482 -0.18355329893987879 0 -0.32875410934604399 -0.18173809193947649 0 -0.33727518779021959 -0.1990248523193241 0 -0.34885448125406482 -0.18355329893987879 0 -0.33727518779021959 -0.1990248523193241 0 -0.35715062655391699 -0.2018822502212595 0 -0.36628765953275139 -0.18631694637052931 0 -0.34885448125406482 -0.18355329893987879 0 -0.35715062655391699 -0.2018822502212595 0 -0.36628765953275139 -0.18631694637052931 0 -0.35715062655391699 -0.2018822502212595 0 -0.38170047497830317 -0.20006524719771759 0 -0.35715062655391699 -0.2018822502212595 0 -0.36758014778102083 -0.22022879291931199 0 -0.38170047497830317 -0.20006524719771759 0 -0.35715062655391699 -0.2018822502212595 0 -0.36758014778102083 -0.22022879291931199 0 -0.34120580798714251 -0.22210436358079541 0 -0.33727518779021959 -0.1990248523193241 0 -0.35715062655391699 -0.2018822502212595 0 -0.34120580798714251 -0.22210436358079541 0 -0.36758014778102083 -0.22022879291931199 0 -0.35853993563269182 -0.24102559817267619 0 -0.34120580798714251 -0.22210436358079541 0 -0.36758014778102083 -0.22022879291931199 0 -0.35853993563269182 -0.24102559817267619 0 -0.37777606617109538 -0.237362407884319 0 -0.3763037954690257 -0.25782291262723228 0 -0.35853993563269182 -0.24102559817267619 0 -0.37777606617109538 -0.237362407884319 0 -0.35459118184703559 -0.26411840664259661 0 -0.35853993563269182 -0.24102559817267619 0 -0.33378261454083102 -0.2445167053818022 0 -0.35853993563269182 -0.24102559817267619 0 -0.33378261454083102 -0.2445167053818022 0 -0.34120580798714251 -0.22210436358079541 0 -0.33378261454083102 -0.2445167053818022 0 -0.34120580798714251 -0.22210436358079541 0 -0.31922173491624478 -0.2276193743845949 0 -0.32241269956020208 -0.21031663600823439 0 -0.34120580798714251 -0.22210436358079541 0 -0.31922173491624478 -0.2276193743845949 0 -0.33378261454083102 -0.2445167053818022 0 -0.31922173491624478 -0.2276193743845949 0 -0.32068947056735231 -0.24048917789145491 0 -0.31028933955907062 -0.2431915154081086 0 -0.31922173491624478 -0.2276193743845949 0 -0.32068947056735231 -0.24048917789145491 0 -0.30902144292812472 -0.25508140255992368 0 -0.31028933955907062 -0.2431915154081086 0 -0.31903478947653158 -0.2490707193413304 0 -0.31028933955907062 -0.2431915154081086 0 -0.31903478947653158 -0.2490707193413304 0 -0.32068947056735231 -0.24048917789145491 0 -0.33378261454083102 -0.2445167053818022 0 -0.31903478947653158 -0.2490707193413304 0 -0.32068947056735231 -0.24048917789145491 0 -0.43756377598948099 -0.25291960467424568 0 -0.43483927168794589 -0.22306765672170031 0 -0.43756377598948099 -0.25291960467424568 0 -0.42545479913516582 -0.24105237425538689 0 -0.43483927168794589 -0.22306765672170031 0 -0.43756377598948099 -0.25291960467424568 0 -0.41671389558424848 -0.25538125365822723 0 -0.42545479913516582 -0.24105237425538689 0 -0.41270225327898769 -0.2328409819673746 0 -0.43384560230191238 -0.2183293319967772 0 -0.41270225327898769 -0.2328409819673746 0 -0.42013311344227589 -0.21640255638264211 0 -0.43384560230191238 -0.2183293319967772 0 -0.43483927168794589 -0.22306765672170031 0 -0.41270225327898769 -0.2328409819673746 0 -0.43384560230191238 -0.2183293319967772 0 -0.42545479913516582 -0.24105237425538689 0 -0.43483927168794589 -0.22306765672170031 0 -0.41270225327898769 -0.2328409819673746 0 -0.41270225327898769 -0.2328409819673746 0 -0.40838912611312528 -0.20860675300129741 0 -0.42013311344227589 -0.21640255638264211 0 -0.41270225327898769 -0.2328409819673746 0 -0.40838912611312528 -0.20860675300129741 0 -0.41671389558424848 -0.25538125365822723 0 -0.41270225327898769 -0.2328409819673746 0 -0.39450302437400731 -0.24533194729730429 0 -0.41671389558424848 -0.25538125365822723 0 -0.41270225327898769 -0.2328409819673746 0 -0.41671389558424848 -0.25538125365822723 0 -0.42545479913516582 -0.24105237425538689 0 -0.41270225327898769 -0.2328409819673746 0 -0.41270225327898769 -0.2328409819673746 0 -0.39450302437400731 -0.24533194729730429 0 -0.39450302437400731 -0.24533194729730429 0 -0.37777606617109538 -0.237362407884319 0 -0.38920244639535873 -0.22298489534234009 0 -0.3763037954690257 -0.25782291262723228 0 -0.39450302437400731 -0.24533194729730429 0 -0.37777606617109538 -0.237362407884319 0 -0.36758014778102083 -0.22022879291931199 0 -0.37777606617109538 -0.237362407884319 0 -0.38920244639535873 -0.22298489534234009 0 -0.41270225327898769 -0.2328409819673746 0 -0.39450302437400731 -0.24533194729730429 0 -0.38920244639535873 -0.22298489534234009 0 -0.41270225327898769 -0.2328409819673746 0 -0.38920244639535873 -0.22298489534234009 0 -0.40838912611312528 -0.20860675300129741 0 -0.38920244639535873 -0.22298489534234009 0 -0.38170047497830317 -0.20006524719771759 0 -0.40838912611312528 -0.20860675300129741 0 -0.36758014778102083 -0.22022879291931199 0 -0.38920244639535873 -0.22298489534234009 0 -0.38170047497830317 -0.20006524719771759 0 -0.36628765953275139 -0.18631694637052931 0 -0.38170047497830317 -0.20006524719771759 0 -0.38842459943547358 -0.17843160038089409 0 -0.38170047497830317 -0.20006524719771759 0 -0.40727289571962672 -0.19039414016162401 0 -0.40838912611312528 -0.20860675300129741 0 -0.38170047497830317 -0.20006524719771759 0 -0.40727289571962672 -0.19039414016162401 0 -0.38842459943547358 -0.17843160038089409 0 -0.40727289571962672 -0.19039414016162401 0 -0.42291680513146751 -0.20496830021866169 0 -0.42754975823233932 -0.19098729163828251 0 -0.40727289571962672 -0.19039414016162401 0 -0.40838912611312528 -0.20860675300129741 0 -0.42291680513146751 -0.20496830021866169 0 -0.40838912611312528 -0.20860675300129741 0 -0.42013311344227589 -0.21640255638264211 0 -0.42291680513146751 -0.20496830021866169 0 -0.42291680513146751 -0.20496830021866169 0 -0.43384560230191238 -0.2183293319967772 0 -0.43691065694156878 -0.20117926096894781 0 -0.42013311344227589 -0.21640255638264211 0 -0.42291680513146751 -0.20496830021866169 0 -0.43384560230191238 -0.2183293319967772 0 -0.43691065694156878 -0.20117926096894781 0 -0.42754975823233932 -0.19098729163828251 0 -0.4452521677172887 -0.18779369896483969 0 -0.42291680513146751 -0.20496830021866169 0 -0.43691065694156878 -0.20117926096894781 0 -0.42754975823233932 -0.19098729163828251 0 -0.42754975823233932 -0.19098729163828251 0 -0.43411001395794552 -0.1702002151611712 0 -0.41196535535030471 -0.16678136571553831 0 -0.42754975823233932 -0.19098729163828251 0 -0.43411001395794552 -0.1702002151611712 0 -0.4452521677172887 -0.18779369896483969 0 -0.43411001395794552 -0.1702002151611712 0 -0.42442350960272301 -0.1529063654536329 0 -0.44416274103490638 -0.15292188410367499 0 -0.43411001395794552 -0.1702002151611712 0 -0.41196535535030471 -0.16678136571553831 0 -0.42442350960272301 -0.1529063654536329 0 -0.41196535535030471 -0.16678136571553831 0 -0.41076055528019079 -0.15148896968995049 0 -0.42442350960272301 -0.1529063654536329 0 -0.40727289571962672 -0.19039414016162401 0 -0.42754975823233932 -0.19098729163828251 0 -0.41196535535030471 -0.16678136571553831 0 -0.42754975823233932 -0.19098729163828251 0 -0.41196535535030471 -0.16678136571553831 0 -0.40727289571962672 -0.19039414016162401 0 -0.41196535535030471 -0.16678136571553831 0 -0.38842459943547358 -0.17843160038089409 0 -0.37305129565249362 -0.15716755315903319 0 -0.38842459943547358 -0.17843160038089409 0 -0.39245555072663552 -0.16123898976206491 0 -0.37305129565249362 -0.15716755315903319 0 -0.38842459943547358 -0.17843160038089409 0 -0.41196535535030471 -0.16678136571553831 0 -0.39245555072663552 -0.16123898976206491 0 -0.39638095246826999 -0.142575439792794 0 -0.41196535535030471 -0.16678136571553831 0 -0.38842459943547358 -0.17843160038089409 0 -0.39245555072663552 -0.16123898976206491 0 -0.41196535535030471 -0.16678136571553831 0 -0.39638095246826999 -0.142575439792794 0 -0.39638095246826999 -0.142575439792794 0 -0.41027240369946549 -0.14369270779783669 0 -0.41076055528019079 -0.15148896968995049 0 -0.37407497495895142 -0.13582051076871221 0 -0.37305129565249362 -0.15716755315903319 0 -0.39638095246826999 -0.142575439792794 0 -0.37305129565249362 -0.15716755315903319 0 -0.39245555072663552 -0.16123898976206491 0 -0.39638095246826999 -0.142575439792794 0 -0.37407497495895142 -0.13582051076871221 0 -0.39638095246826999 -0.142575439792794 0 -0.38079654958623532 -0.11836951387004981 0 -0.39638095246826999 -0.142575439792794 0 -0.38079654958623532 -0.11836951387004981 0 -0.39638095246826999 -0.142575439792794 0 -0.41027240369946549 -0.14369270779783669 0 -0.41134828549223978 -0.1203976287417684 0 -0.39638095246826999 -0.142575439792794 0 -0.38079654958623532 -0.11836951387004981 0 -0.41134828549223978 -0.1203976287417684 0 -0.41027240369946549 -0.14369270779783669 0 -0.41134828549223978 -0.1203976287417684 0 -0.42376388886322641 -0.13479359418636511 0 -0.41134828549223978 -0.1203976287417684 0 -0.4285341093514749 -0.12137368290942629 0 -0.41027240369946549 -0.14369270779783669 0 -0.42376388886322641 -0.13479359418636511 0 -0.41134828549223978 -0.1203976287417684 0 -0.41196535535030471 -0.16678136571553831 0 -0.39638095246826999 -0.142575439792794 0 -0.41076055528019079 -0.15148896968995049 0 -0.41027240369946549 -0.14369270779783669 0 -0.42442350960272301 -0.1529063654536329 0 -0.42376388886322641 -0.13479359418636511 0 -0.41027240369946549 -0.14369270779783669 0 -0.41076055528019079 -0.15148896968995049 0 -0.42442350960272301 -0.1529063654536329 0 -0.42442350960272301 -0.1529063654536329 0 -0.44212174051044112 -0.13390713333507301 0 -0.44416274103490638 -0.15292188410367499 0 -0.42442350960272301 -0.1529063654536329 0 -0.44212174051044112 -0.13390713333507301 0 -0.42442350960272301 -0.1529063654536329 0 -0.42376388886322641 -0.13479359418636511 0 -0.44212174051044112 -0.13390713333507301 0 -0.42376388886322641 -0.13479359418636511 0 -0.44212174051044112 -0.13390713333507301 0 -0.4285341093514749 -0.12137368290942629 0 -0.44212174051044112 -0.13390713333507301 0 -0.44416274103490638 -0.15292188410367499 0 -0.46067804684488911 -0.138051002720327 0 -0.44416274103490638 -0.15292188410367499 0 -0.46089808955909989 -0.15595794645861799 0 -0.46067804684488911 -0.138051002720327 0 -0.46089808955909989 -0.15595794645861799 0 -0.46067804684488911 -0.138051002720327 0 -0.47734038621158209 -0.15111463579900661 0 -0.46067804684488911 -0.138051002720327 0 -0.45981997141815928 -0.11490790121651311 0 -0.47742929426872849 -0.1235116524484795 0 -0.44212174051044112 -0.13390713333507301 0 -0.46067804684488911 -0.138051002720327 0 -0.45981997141815928 -0.11490790121651311 0 -0.46067804684488911 -0.138051002720327 0 -0.47734038621158209 -0.15111463579900661 0 -0.47742929426872849 -0.1235116524484795 0 -0.4886924201200773 -0.1366671477661783 0 -0.47734038621158209 -0.15111463579900661 0 -0.47742929426872849 -0.1235116524484795 0 -0.47734038621158209 -0.15111463579900661 0 -0.47742929426872849 -0.1235116524484795 0 -0.4886924201200773 -0.1366671477661783 0 -0.5 -0.1509889820765894 0 -0.49999999999999922 -0.1210533207406375 0 -0.4886924201200773 -0.1366671477661783 0 -0.47742929426872849 -0.1235116524484795 0 -0.49999999999999922 -0.1210533207406375 0 -0.5 -0.1509889820765894 0 -0.47734038621158209 -0.15111463579900661 0 -0.48588018327850302 -0.16640069267737839 0 -0.4886924201200773 -0.1366671477661783 0 -0.5 -0.1509889820765894 0 -0.47734038621158209 -0.15111463579900661 0 -0.47017824572289302 -0.1677527697375906 0 -0.48588018327850302 -0.16640069267737839 0 -0.48233283981299718 -0.181158716578213 0 -0.46089808955909989 -0.15595794645861799 0 -0.47734038621158209 -0.15111463579900661 0 -0.47017824572289302 -0.1677527697375906 0 -0.47734038621158209 -0.15111463579900661 0 -0.47017824572289302 -0.1677527697375906 0 -0.48588018327850302 -0.16640069267737839 0 -0.5 -0.1509889820765894 0 -0.48588018327850302 -0.16640069267737839 0 -0.5 -0.18092464341254119 0 -0.5 -0.18092464341254119 0 -0.48233283981299718 -0.181158716578213 0 -0.49133030247608911 -0.19434306459689549 0 -0.48588018327850302 -0.16640069267737839 0 -0.5 -0.18092464341254119 0 -0.48233283981299718 -0.181158716578213 0 -0.47017824572289302 -0.1677527697375906 0 -0.48233283981299718 -0.181158716578213 0 -0.4632456110862509 -0.18392405475835641 0 -0.48233283981299718 -0.181158716578213 0 -0.4632456110862509 -0.18392405475835641 0 -0.4708889430788607 -0.19333226175277049 0 -0.47017824572289302 -0.1677527697375906 0 -0.4632456110862509 -0.18392405475835641 0 -0.45213102798122901 -0.1699494399324907 0 -0.4632456110862509 -0.18392405475835641 0 -0.45213102798122901 -0.1699494399324907 0 -0.4452521677172887 -0.18779369896483969 0 -0.46089808955909989 -0.15595794645861799 0 -0.47017824572289302 -0.1677527697375906 0 -0.45213102798122901 -0.1699494399324907 0 -0.43411001395794552 -0.1702002151611712 0 -0.44416274103490638 -0.15292188410367499 0 -0.45213102798122901 -0.1699494399324907 0 -0.44416274103490638 -0.15292188410367499 0 -0.46089808955909989 -0.15595794645861799 0 -0.45213102798122901 -0.1699494399324907 0 -0.43411001395794552 -0.1702002151611712 0 -0.45213102798122901 -0.1699494399324907 0 -0.4452521677172887 -0.18779369896483969 0 -0.43691065694156878 -0.20117926096894781 0 -0.4452521677172887 -0.18779369896483969 0 -0.45498895132483591 -0.20381768202617809 0 -0.43384560230191238 -0.2183293319967772 0 -0.43691065694156878 -0.20117926096894781 0 -0.45498895132483591 -0.20381768202617809 0 -0.43384560230191238 -0.2183293319967772 0 -0.45498895132483591 -0.20381768202617809 0 -0.43384560230191238 -0.2183293319967772 0 -0.45498895132483591 -0.20381768202617809 0 -0.44873340756343022 -0.22006285569021081 0 -0.45498895132483591 -0.20381768202617809 0 -0.46647081877939572 -0.22071089821934431 0 -0.44873340756343022 -0.22006285569021081 0 -0.45498895132483591 -0.20381768202617809 0 -0.48298837009135898 -0.20442859364833479 0 -0.46647081877939572 -0.22071089821934431 0 -0.4632456110862509 -0.18392405475835641 0 -0.4452521677172887 -0.18779369896483969 0 -0.45498895132483591 -0.20381768202617809 0 -0.4632456110862509 -0.18392405475835641 0 -0.45498895132483591 -0.20381768202617809 0 -0.4708889430788607 -0.19333226175277049 0 -0.45498895132483591 -0.20381768202617809 0 -0.4708889430788607 -0.19333226175277049 0 -0.48298837009135898 -0.20442859364833479 0 -0.48233283981299718 -0.181158716578213 0 -0.48298837009135898 -0.20442859364833479 0 -0.48233283981299718 -0.181158716578213 0 -0.4708889430788607 -0.19333226175277049 0 -0.48298837009135898 -0.20442859364833479 0 -0.5 -0.18092464341254119 0 -0.49133030247608911 -0.19434306459689549 0 -0.5 -0.21086030474849321 0 -0.48233283981299718 -0.181158716578213 0 -0.49133030247608911 -0.19434306459689549 0 -0.48298837009135898 -0.20442859364833479 0 -0.5 -0.21086030474849321 0 -0.48298837009135898 -0.20442859364833479 0 -0.48364390036972082 -0.22769847071845681 0 -0.49133030247608911 -0.19434306459689549 0 -0.5 -0.21086030474849321 0 -0.48298837009135898 -0.20442859364833479 0 -0.48298837009135898 -0.20442859364833479 0 -0.48364390036972082 -0.22769847071845681 0 -0.48298837009135898 -0.20442859364833479 0 -0.48364390036972082 -0.22769847071845681 0 -0.46647081877939572 -0.22071089821934431 0 -0.48364390036972082 -0.22769847071845681 0 -0.47198119584673859 -0.23618912343786691 0 -0.46647081877939572 -0.22071089821934431 0 -0.5 -0.21086030474849321 0 -0.48364390036972082 -0.22769847071845681 0 -0.5 -0.24079596608444509 0 -0.48429943064808267 -0.25096834778857868 0 -0.48364390036972082 -0.22769847071845681 0 -0.5 -0.24079596608444509 0 -0.48429943064808267 -0.25096834778857868 0 -0.48364390036972082 -0.22769847071845681 0 -0.47198119584673859 -0.23618912343786691 0 -0.48429943064808267 -0.25096834778857868 0 -0.48364390036972082 -0.22769847071845681 0 -0.48429943064808267 -0.25096834778857868 0 -0.47198119584673859 -0.23618912343786691 0 -0.46880928642042569 -0.24775111837086261 0 -0.45557434351230569 -0.25093383716493078 0 -0.46880928642042569 -0.24775111837086261 0 -0.45668254301606759 -0.23381678209209231 0 -0.47198119584673859 -0.23618912343786691 0 -0.46880928642042569 -0.24775111837086261 0 -0.45668254301606759 -0.23381678209209231 0 -0.47198119584673859 -0.23618912343786691 0 -0.46647081877939572 -0.22071089821934431 0 -0.45668254301606759 -0.23381678209209231 0 -0.46647081877939572 -0.22071089821934431 0 -0.45668254301606759 -0.23381678209209231 0 -0.44873340756343022 -0.22006285569021081 0 -0.45668254301606759 -0.23381678209209231 0 -0.44873340756343022 -0.22006285569021081 0 -0.44451764664233873 -0.2271947299431254 0 -0.45668254301606759 -0.23381678209209231 0 -0.44451764664233873 -0.2271947299431254 0 -0.44542215607522428 -0.23785495527669259 0 -0.43483927168794589 -0.22306765672170031 0 -0.44873340756343022 -0.22006285569021081 0 -0.44451764664233873 -0.2271947299431254 0 -0.43483927168794589 -0.22306765672170031 0 -0.43384560230191238 -0.2183293319967772 0 -0.44873340756343022 -0.22006285569021081 0 -0.43483927168794589 -0.22306765672170031 0 -0.44451764664233873 -0.2271947299431254 0 -0.44542215607522428 -0.23785495527669259 0 -0.43756377598948099 -0.25291960467424568 0 -0.45557434351230569 -0.25093383716493078 0 -0.44542215607522428 -0.23785495527669259 0 -0.45557434351230569 -0.25093383716493078 0 -0.45668254301606759 -0.23381678209209231 0 -0.44542215607522428 -0.23785495527669259 0 -0.43756377598948099 -0.25291960467424568 0 -0.43483927168794589 -0.22306765672170031 0 -0.44542215607522428 -0.23785495527669259 0 -0.41479488809741788 -0.045771512098006499 0 -0.41013181147591971 -0.030432868783010561 0 -0.39888131906764362 -0.033010462063145542 0 -0.41479488809741788 -0.045771512098006499 0 -0.41572476654434032 -0.025637709222071699 0 -0.41013181147591971 -0.030432868783010561 0 -0.41479488809741788 -0.045771512098006499 0 -0.41572476654434032 -0.025637709222071699 0 -0.41479488809741788 -0.045771512098006499 0 -0.42671650211210338 -0.038082446873258471 0 -0.41572476654434032 -0.025637709222071699 0 -0.41479488809741788 -0.045771512098006499 0 -0.40755239571757801 -0.051769766922048793 0 -0.39888131906764362 -0.033010462063145542 0 -0.42671650211210338 -0.038082446873258471 0 -0.41572476654434032 -0.025637709222071699 0 -0.41479488809741788 -0.045771512098006499 0 -0.40865508819795299 -0.058627249055024588 0 -0.41386500965049849 -0.065905314973941531 0 -0.41479488809741788 -0.045771512098006499 0 -0.41386500965049849 -0.065905314973941531 0 -0.41479488809741788 -0.045771512098006499 0 -0.40755239571757801 -0.051769766922048793 0 -0.40865508819795299 -0.058627249055024588 0 -0.41479488809741788 -0.045771512098006499 0 -0.43270526777360407 -0.053669180454199779 0 -0.41386500965049849 -0.065905314973941531 0 -0.40865508819795299 -0.058627249055024588 0 -0.40572222117263512 -0.062750589631340142 0 -0.41028000754260452 -0.065421530158180197 0 -0.43270526777360407 -0.053669180454199779 0 -0.42671650211210338 -0.038082446873258471 0 -0.44153591957887289 -0.054860849281181442 0 -0.43270526777360407 -0.053669180454199779 0 -0.43869403343510588 -0.069255914035140684 0 -0.42671650211210338 -0.038082446873258471 0 -0.44153591957887289 -0.054860849281181442 0 -0.41479488809741788 -0.045771512098006499 0 -0.43270526777360407 -0.053669180454199779 0 -0.42671650211210338 -0.038082446873258471 0 -0.43270526777360407 -0.053669180454199779 0 -0.42671650211210338 -0.038082446873258471 0 -0.42671650211210338 -0.038082446873258471 0 -0.41911416853087419 -0.018296141176611089 0 -0.42671650211210338 -0.038082446873258471 0 -0.42623480169884148 -0.019292644105822949 0 -0.41911416853087419 -0.018296141176611089 0 -0.42671650211210338 -0.038082446873258471 0 -0.43435323239023732 -0.02311928885114474 0 -0.44168375293114098 -0.028297666540855231 0 -0.42671650211210338 -0.038082446873258471 0 -0.43435323239023732 -0.02311928885114474 0 -0.42623480169884148 -0.019292644105822949 0 -0.43435323239023732 -0.02311928885114474 0 -0.43710530310494261 -0.01521073869997124 0 -0.43002424842672338 -0.01420412880494144 0 -0.43435323239023732 -0.02311928885114474 0 -0.42623480169884148 -0.019292644105822949 0 -0.43002424842672338 -0.01420412880494144 0 -0.42623480169884148 -0.019292644105822949 0 -0.42415894466574589 -0.01178522279969362 0 -0.41911416853087419 -0.018296141176611089 0 -0.42623480169884148 -0.019292644105822949 0 -0.41911416853087419 -0.018296141176611089 0 -0.42982370354703892 -0.0063502003913228199 0 -0.44719866247023571 -0.01128748441340546 0 -0.43266517963891288 0.0075949269461795792 0 -0.42982370354703892 -0.0063502003913228199 0 -0.43710530310494261 -0.01521073869997124 0 -0.43002424842672338 -0.01420412880494144 0 -0.42982370354703892 -0.0063502003913228199 0 -0.43002424842672338 -0.01420412880494144 0 -0.42415894466574589 -0.01178522279969362 0 -0.42623480169884148 -0.019292644105822949 0 -0.43002424842672338 -0.01420412880494144 0 -0.42415894466574589 -0.01178522279969362 0 -0.42982370354703892 -0.0063502003913228199 0 -0.42415894466574589 -0.01178522279969362 0 -0.42313726855021128 -0.0031628373071165691 0 -0.42982370354703892 -0.0063502003913228199 0 -0.42313726855021128 -0.0031628373071165691 0 -0.43266517963891288 0.0075949269461795792 0 -0.42313726855021128 -0.0031628373071165691 0 -0.41639115317892977 -0.01120905224601686 0 -0.41726142499325641 0.0076341430298727531 0 -0.41639115317892977 -0.01120905224601686 0 -0.413250266904851 -0.0030343864919660651 0 -0.41726142499325641 0.0076341430298727531 0 -0.41639115317892977 -0.01120905224601686 0 -0.41726142499325641 0.0076341430298727531 0 -0.41639115317892977 -0.01120905224601686 0 -0.413250266904851 -0.0030343864919660651 0 -0.42415894466574589 -0.01178522279969362 0 -0.42313726855021128 -0.0031628373071165691 0 -0.41639115317892977 -0.01120905224601686 0 -0.42415894466574589 -0.01178522279969362 0 -0.41639115317892977 -0.01120905224601686 0 -0.41911416853087419 -0.018296141176611089 0 -0.41639115317892977 -0.01120905224601686 0 -0.41608342528716979 -0.017872001293428131 0 -0.41639115317892977 -0.01120905224601686 0 -0.41911416853087419 -0.018296141176611089 0 -0.41639115317892977 -0.01120905224601686 0 -0.40710123882972238 -0.0098873133326912981 0 -0.413250266904851 -0.0030343864919660651 0 -0.41639115317892977 -0.01120905224601686 0 -0.40710123882972238 -0.0098873133326912981 0 -0.41608342528716979 -0.017872001293428131 0 -0.40710123882972238 -0.0098873133326912981 0 -0.413250266904851 -0.0030343864919660651 0 -0.39957110635995358 -0.0030699694278027712 0 -0.413250266904851 -0.0030343864919660651 0 -0.39957110635995358 -0.0030699694278027712 0 -0.40747240468044288 0.005226299697164637 0 -0.42671650211210338 -0.038082446873258471 0 -0.41572476654434032 -0.025637709222071699 0 -0.41911416853087419 -0.018296141176611089 0 -0.41572476654434032 -0.025637709222071699 0 -0.41401024008758708 -0.02369653880190957 0 -0.41639115317892977 -0.01120905224601686 0 -0.41911416853087419 -0.018296141176611089 0 -0.41608342528716979 -0.017872001293428131 0 -0.41911416853087419 -0.018296141176611089 0 -0.41608342528716979 -0.017872001293428131 0 -0.41572476654434032 -0.025637709222071699 0 -0.41608342528716979 -0.017872001293428131 0 -0.41572476654434032 -0.025637709222071699 0 -0.41911416853087419 -0.018296141176611089 0 -0.41608342528716979 -0.017872001293428131 0 -0.41572476654434032 -0.025637709222071699 0 -0.41608342528716979 -0.017872001293428131 0 -0.41401024008758708 -0.02369653880190957 0 -0.41608342528716979 -0.017872001293428131 0 -0.40795957696412832 -0.02488509932056716 0 -0.40211455566535298 -0.021087580842637069 0 -0.41608342528716979 -0.017872001293428131 0 -0.40795957696412832 -0.02488509932056716 0 -0.41401024008758708 -0.02369653880190957 0 -0.41572476654434032 -0.025637709222071699 0 -0.41401024008758708 -0.02369653880190957 0 -0.41013181147591971 -0.030432868783010561 0 -0.40795957696412832 -0.02488509932056716 0 -0.41401024008758708 -0.02369653880190957 0 -0.41013181147591971 -0.030432868783010561 0 -0.40211455566535298 -0.021087580842637069 0 -0.39021024241770819 -0.014251157204242649 0 -0.39888131906764362 -0.033010462063145542 0 -0.40795957696412832 -0.02488509932056716 0 -0.40211455566535298 -0.021087580842637069 0 -0.39888131906764362 -0.033010462063145542 0 -0.40795957696412832 -0.02488509932056716 0 -0.41013181147591971 -0.030432868783010561 0 -0.39888131906764362 -0.033010462063145542 0 -0.39021024241770819 -0.014251157204242649 0 -0.38745433633156051 -0.029571583863591398 0 -0.39888131906764362 -0.033010462063145542 0 -0.39021024241770819 -0.014251157204242649 0 -0.39888131906764362 -0.033010462063145542 0 -0.41608342528716979 -0.017872001293428131 0 -0.39021024241770819 -0.014251157204242649 0 -0.41608342528716979 -0.017872001293428131 0 -0.40211455566535298 -0.021087580842637069 0 -0.39021024241770819 -0.014251157204242649 0 -0.40710123882972238 -0.0098873133326912981 0 -0.39957110635995358 -0.0030699694278027712 0 -0.39021024241770819 -0.014251157204242649 0 -0.40710123882972238 -0.0098873133326912981 0 -0.41608342528716979 -0.017872001293428131 0 -0.39021024241770819 -0.014251157204242649 0 -0.37411213593823611 -0.0119982943080427 0 -0.39021024241770819 -0.014251157204242649 0 -0.3788418722442029 0.01034356504807175 0 -0.39021024241770819 -0.014251157204242649 0 -0.3788418722442029 0.01034356504807175 0 -0.37411213593823611 -0.0119982943080427 0 -0.39021024241770819 -0.014251157204242649 0 -0.39957110635995358 -0.0030699694278027712 0 -0.39021024241770819 -0.014251157204242649 0 -0.3788418722442029 0.01034356504807175 0 -0.37411213593823611 -0.0119982943080427 0 -0.39021024241770819 -0.014251157204242649 0 -0.37685932769372071 -0.024080899963909989 0 -0.39021024241770819 -0.014251157204242649 0 -0.38745433633156051 -0.029571583863591398 0 -0.37685932769372071 -0.024080899963909989 0 -0.38745433633156051 -0.029571583863591398 0 -0.37685932769372071 -0.024080899963909989 0 -0.37821849620680698 -0.036718047427377831 0 -0.37006071063856599 -0.03423271493283038 0 -0.37685932769372071 -0.024080899963909989 0 -0.37821849620680698 -0.036718047427377831 0 -0.38745433633156051 -0.029571583863591398 0 -0.37821849620680698 -0.036718047427377831 0 -0.39284458779225812 -0.046889061087724851 0 -0.37113280592422371 -0.04501736919390327 0 -0.37821849620680698 -0.036718047427377831 0 -0.38157065715762389 -0.048656613702884592 0 -0.37821849620680698 -0.036718047427377831 0 -0.39284458779225812 -0.046889061087724851 0 -0.38157065715762389 -0.048656613702884592 0 -0.40755239571757801 -0.051769766922048793 0 -0.39888131906764362 -0.033010462063145542 0 -0.38745433633156051 -0.029571583863591398 0 -0.39888131906764362 -0.033010462063145542 0 -0.39284458779225812 -0.046889061087724851 0 -0.40755239571757801 -0.051769766922048793 0 -0.39888131906764362 -0.033010462063145542 0 -0.39284458779225812 -0.046889061087724851 0 -0.40865508819795299 -0.058627249055024588 0 -0.40121813936661982 -0.059277568727740843 0 -0.40572222117263512 -0.062750589631340142 0 -0.40755239571757801 -0.051769766922048793 0 -0.40865508819795299 -0.058627249055024588 0 -0.40121813936661982 -0.059277568727740843 0 -0.40755239571757801 -0.051769766922048793 0 -0.40121813936661982 -0.059277568727740843 0 -0.39284458779225812 -0.046889061087724851 0 -0.40121813936661982 -0.059277568727740843 0 -0.39284458779225812 -0.046889061087724851 0 -0.39064156190252203 -0.062246907542840728 0 -0.37471765028999571 -0.057476887024812788 0 -0.39064156190252203 -0.062246907542840728 0 -0.38157065715762389 -0.048656613702884592 0 -0.39284458779225812 -0.046889061087724851 0 -0.39064156190252203 -0.062246907542840728 0 -0.38157065715762389 -0.048656613702884592 0 -0.37471765028999571 -0.057476887024812788 0 -0.37113280592422371 -0.04501736919390327 0 -0.38157065715762389 -0.048656613702884592 0 -0.37471765028999571 -0.057476887024812788 0 -0.39064156190252203 -0.062246907542840728 0 -0.3752858952862641 -0.07489405262300125 0 -0.39064156190252203 -0.062246907542840728 0 -0.3752858952862641 -0.07489405262300125 0 -0.39521224240174702 -0.074376803740023228 0 -0.3752858952862641 -0.07489405262300125 0 -0.3938550312856382 -0.085998301154351059 0 -0.37777349582894543 -0.094652887237985484 0 -0.3752858952862641 -0.07489405262300125 0 -0.3938550312856382 -0.085998301154351059 0 -0.39521224240174702 -0.074376803740023228 0 -0.3752858952862641 -0.07489405262300125 0 -0.3938550312856382 -0.085998301154351059 0 -0.3938550312856382 -0.085998301154351059 0 -0.39521224240174702 -0.074376803740023228 0 -0.4131445884677562 -0.081503932329820991 0 -0.3938550312856382 -0.085998301154351059 0 -0.41242416728501258 -0.097102549685700312 0 -0.4027356495833635 -0.067676010584414956 0 -0.39521224240174702 -0.074376803740023228 0 -0.4131445884677562 -0.081503932329820991 0 -0.40121813936661982 -0.059277568727740843 0 -0.4027356495833635 -0.067676010584414956 0 -0.40572222117263512 -0.062750589631340142 0 -0.4027356495833635 -0.067676010584414956 0 -0.40572222117263512 -0.062750589631340142 0 -0.41028000754260452 -0.065421530158180197 0 -0.40121813936661982 -0.059277568727740843 0 -0.39064156190252203 -0.062246907542840728 0 -0.4027356495833635 -0.067676010584414956 0 -0.39064156190252203 -0.062246907542840728 0 -0.4027356495833635 -0.067676010584414956 0 -0.39521224240174702 -0.074376803740023228 0 -0.3938550312856382 -0.085998301154351059 0 -0.37777349582894543 -0.094652887237985484 0 -0.39497571873141762 -0.1031772061627407 0 -0.38079654958623532 -0.11836951387004981 0 -0.37777349582894543 -0.094652887237985484 0 -0.39497571873141762 -0.1031772061627407 0 -0.3938550312856382 -0.085998301154351059 0 -0.39497571873141762 -0.1031772061627407 0 -0.41242416728501258 -0.097102549685700312 0 -0.39497571873141762 -0.1031772061627407 0 -0.41134828549223978 -0.1203976287417684 0 -0.41242416728501258 -0.097102549685700312 0 -0.38079654958623532 -0.11836951387004981 0 -0.39497571873141762 -0.1031772061627407 0 -0.41134828549223978 -0.1203976287417684 0 -0.41134828549223978 -0.1203976287417684 0 -0.41242416728501258 -0.097102549685700312 0 -0.41134828549223978 -0.1203976287417684 0 -0.41242416728501258 -0.097102549685700312 0 -0.42586228671819798 -0.10513847650454081 0 -0.41242416728501258 -0.097102549685700312 0 -0.42586228671819798 -0.10513847650454081 0 -0.42050465795274028 -0.089659801668030573 0 -0.41242416728501258 -0.097102549685700312 0 -0.42586228671819798 -0.10513847650454081 0 -0.43573832975008381 -0.099599447354386306 0 -0.42586228671819798 -0.10513847650454081 0 -0.43147667401578099 -0.089108720006094724 0 -0.42586228671819798 -0.10513847650454081 0 -0.42050465795274028 -0.089659801668030573 0 -0.43147667401578099 -0.089108720006094724 0 -0.43573832975008381 -0.099599447354386306 0 -0.42586228671819798 -0.10513847650454081 0 -0.44165193849873452 -0.1141567135660162 0 -0.42586228671819798 -0.10513847650454081 0 -0.4285341093514749 -0.12137368290942629 0 -0.44165193849873452 -0.1141567135660162 0 -0.41134828549223978 -0.1203976287417684 0 -0.42586228671819798 -0.10513847650454081 0 -0.4285341093514749 -0.12137368290942629 0 -0.44212174051044112 -0.13390713333507301 0 -0.4285341093514749 -0.12137368290942629 0 -0.44165193849873452 -0.1141567135660162 0 -0.4027356495833635 -0.067676010584414956 0 -0.41028000754260452 -0.065421530158180197 0 -0.4131445884677562 -0.081503932329820991 0 -0.41386500965049849 -0.065905314973941531 0 -0.41028000754260452 -0.065421530158180197 0 -0.4131445884677562 -0.081503932329820991 0 -0.41386500965049849 -0.065905314973941531 0 -0.4131445884677562 -0.081503932329820991 0 -0.4267236877588505 -0.077959694795444207 0 -0.40865508819795299 -0.058627249055024588 0 -0.41386500965049849 -0.065905314973941531 0 -0.41028000754260452 -0.065421530158180197 0 -0.41386500965049849 -0.065905314973941531 0 -0.41028000754260452 -0.065421530158180197 0 -0.41386500965049849 -0.065905314973941531 0 -0.4131445884677562 -0.081503932329820991 0 -0.3938550312856382 -0.085998301154351059 0 -0.41242416728501258 -0.097102549685700312 0 -0.4131445884677562 -0.081503932329820991 0 -0.41242416728501258 -0.097102549685700312 0 -0.4131445884677562 -0.081503932329820991 0 -0.41242416728501258 -0.097102549685700312 0 -0.4131445884677562 -0.081503932329820991 0 -0.42050465795274028 -0.089659801668030573 0 -0.4131445884677562 -0.081503932329820991 0 -0.42050465795274028 -0.089659801668030573 0 -0.4267236877588505 -0.077959694795444207 0 -0.42050465795274028 -0.089659801668030573 0 -0.43147667401578099 -0.089108720006094724 0 -0.4267236877588505 -0.077959694795444207 0 -0.43573832975008381 -0.099599447354386306 0 -0.43147667401578099 -0.089108720006094724 0 -0.44063228395431769 -0.086372442164386248 0 -0.43147667401578099 -0.089108720006094724 0 -0.43568334925231672 -0.079533643736262025 0 -0.44063228395431769 -0.086372442164386248 0 -0.43147667401578099 -0.089108720006094724 0 -0.43568334925231672 -0.079533643736262025 0 -0.4267236877588505 -0.077959694795444207 0 -0.41386500965049849 -0.065905314973941531 0 -0.43869403343510588 -0.069255914035140684 0 -0.43568334925231672 -0.079533643736262025 0 -0.4267236877588505 -0.077959694795444207 0 -0.43869403343510588 -0.069255914035140684 0 -0.41386500965049849 -0.065905314973941531 0 -0.4267236877588505 -0.077959694795444207 0 -0.43869403343510588 -0.069255914035140684 0 -0.43270526777360407 -0.053669180454199779 0 -0.41386500965049849 -0.065905314973941531 0 -0.43869403343510588 -0.069255914035140684 0 -0.46015872919595152 -0.063050312626030031 0 -0.45635533704564157 -0.071639251689105121 0 -0.44153591957887289 -0.054860849281181442 0 -0.43869403343510588 -0.069255914035140684 0 -0.45635533704564157 -0.071639251689105121 0 -0.44153591957887289 -0.054860849281181442 0 -0.45635533704564157 -0.071639251689105121 0 -0.44153591957887289 -0.054860849281181442 0 -0.43869403343510588 -0.069255914035140684 0 -0.44089006709752798 -0.074971447680244677 0 -0.45635533704564157 -0.071639251689105121 0 -0.43869403343510588 -0.069255914035140684 0 -0.45635533704564157 -0.071639251689105121 0 -0.44089006709752798 -0.074971447680244677 0 -0.45289234821956031 -0.085016759335170555 0 -0.45635533704564157 -0.071639251689105121 0 -0.43568334925231672 -0.079533643736262025 0 -0.43869403343510588 -0.069255914035140684 0 -0.44089006709752798 -0.074971447680244677 0 -0.43869403343510588 -0.069255914035140684 0 -0.44089006709752798 -0.074971447680244677 0 -0.44089006709752798 -0.074971447680244677 0 -0.44063228395431769 -0.086372442164386248 0 -0.45289234821956031 -0.085016759335170555 0 -0.43568334925231672 -0.079533643736262025 0 -0.44089006709752798 -0.074971447680244677 0 -0.44063228395431769 -0.086372442164386248 0 -0.44063228395431769 -0.086372442164386248 0 -0.45289234821956031 -0.085016759335170555 0 -0.44667932241198188 -0.096681957085985121 0 -0.45289234821956031 -0.085016759335170555 0 -0.45514404763632438 -0.093535525006131368 0 -0.44667932241198188 -0.096681957085985121 0 -0.45289234821956031 -0.085016759335170555 0 -0.4669372655544618 -0.083620009716267846 0 -0.45635533704564157 -0.071639251689105121 0 -0.45289234821956031 -0.085016759335170555 0 -0.46171082494488941 -0.091312343310857844 0 -0.4669372655544618 -0.083620009716267846 0 -0.45289234821956031 -0.085016759335170555 0 -0.45514404763632438 -0.093535525006131368 0 -0.46171082494488941 -0.091312343310857844 0 -0.46171082494488941 -0.091312343310857844 0 -0.4669372655544618 -0.083620009716267846 0 -0.46959739638363412 -0.095729204238284529 0 -0.45635533704564157 -0.071639251689105121 0 -0.47758714452626122 -0.074504417667009701 0 -0.4669372655544618 -0.083620009716267846 0 -0.45635533704564157 -0.071639251689105121 0 -0.4669372655544618 -0.083620009716267846 0 -0.45635533704564157 -0.071639251689105121 0 -0.47758714452626122 -0.074504417667009701 0 -0.46015872919595152 -0.063050312626030031 0 -0.45635533704564157 -0.071639251689105121 0 -0.47758714452626122 -0.074504417667009701 0 -0.44165193849873452 -0.1141567135660162 0 -0.45350127541754948 -0.1056135085451427 0 -0.45981997141815928 -0.11490790121651311 0 -0.44212174051044112 -0.13390713333507301 0 -0.45981997141815928 -0.11490790121651311 0 -0.44212174051044112 -0.13390713333507301 0 -0.44165193849873452 -0.1141567135660162 0 -0.45981997141815928 -0.11490790121651311 0 -0.44165193849873452 -0.1141567135660162 0 -0.44667932241198188 -0.096681957085985121 0 -0.45350127541754948 -0.1056135085451427 0 -0.43573832975008381 -0.099599447354386306 0 -0.44165193849873452 -0.1141567135660162 0 -0.44667932241198188 -0.096681957085985121 0 -0.43573832975008381 -0.099599447354386306 0 -0.44063228395431769 -0.086372442164386248 0 -0.44667932241198188 -0.096681957085985121 0 -0.45514404763632438 -0.093535525006131368 0 -0.44667932241198188 -0.096681957085985121 0 -0.45350127541754948 -0.1056135085451427 0 -0.46029583498390619 -0.099865048803852358 0 -0.45981997141815928 -0.11490790121651311 0 -0.46959739638363412 -0.095729204238284529 0 -0.45981997141815928 -0.11490790121651311 0 -0.47751820232587661 -0.095908669097952509 0 -0.45514404763632438 -0.093535525006131368 0 -0.46029583498390619 -0.099865048803852358 0 -0.45350127541754948 -0.1056135085451427 0 -0.45514404763632438 -0.093535525006131368 0 -0.46171082494488941 -0.091312343310857844 0 -0.46029583498390619 -0.099865048803852358 0 -0.46171082494488941 -0.091312343310857844 0 -0.46029583498390619 -0.099865048803852358 0 -0.46959739638363412 -0.095729204238284529 0 -0.46029583498390619 -0.099865048803852358 0 -0.45350127541754948 -0.1056135085451427 0 -0.45981997141815928 -0.11490790121651311 0 -0.45981997141815928 -0.11490790121651311 0 -0.47742929426872849 -0.1235116524484795 0 -0.47751820232587661 -0.095908669097952509 0 -0.47742929426872849 -0.1235116524484795 0 -0.47751820232587661 -0.095908669097952509 0 -0.45981997141815928 -0.11490790121651311 0 -0.46959739638363412 -0.095729204238284529 0 -0.47751820232587661 -0.095908669097952509 0 -0.47742929426872849 -0.1235116524484795 0 -0.47751820232587661 -0.095908669097952509 0 -0.48882915241612329 -0.10840579418163949 0 -0.47751820232587661 -0.095908669097952509 0 -0.48882915241612329 -0.10840579418163949 0 -0.48882915241612329 -0.10840579418163949 0 -0.49999999999999922 -0.1210533207406375 0 -0.5 -0.093000128235680601 0 -0.47751820232587661 -0.095908669097952509 0 -0.48869182998141419 -0.095380026636414386 0 -0.48882915241612329 -0.10840579418163949 0 -0.48869182998141419 -0.095380026636414386 0 -0.48882915241612329 -0.10840579418163949 0 -0.5 -0.093000128235680601 0 -0.47742929426872849 -0.1235116524484795 0 -0.48882915241612329 -0.10840579418163949 0 -0.49999999999999922 -0.1210533207406375 0 -0.48882915241612329 -0.10840579418163949 0 -0.49999999999999922 -0.1210533207406375 0 -0.46015872919595152 -0.063050312626030031 0 -0.47758714452626122 -0.074504417667009701 0 -0.46853244322739701 -0.06002241340957 0 -0.47758714452626122 -0.074504417667009701 0 -0.49115503314830078 -0.07633536177797362 0 -0.47763514703283272 -0.059601242046782313 0 -0.47758714452626122 -0.074504417667009701 0 -0.49115503314830078 -0.07633536177797362 0 -0.47758714452626122 -0.074504417667009701 0 -0.47763514703283272 -0.059601242046782313 0 -0.47758714452626122 -0.074504417667009701 0 -0.47763514703283272 -0.059601242046782313 0 -0.46853244322739701 -0.06002241340957 0 -0.4669372655544618 -0.083620009716267846 0 -0.47751820232587661 -0.095908669097952509 0 -0.47758714452626122 -0.074504417667009701 0 -0.47751820232587661 -0.095908669097952509 0 -0.47758714452626122 -0.074504417667009701 0 -0.48827986267728551 -0.084355916505696238 0 -0.47751820232587661 -0.095908669097952509 0 -0.47758714452626122 -0.074504417667009701 0 -0.4669372655544618 -0.083620009716267846 0 -0.46959739638363412 -0.095729204238284529 0 -0.47751820232587661 -0.095908669097952509 0 -0.4669372655544618 -0.083620009716267846 0 -0.47751820232587661 -0.095908669097952509 0 -0.47751820232587661 -0.095908669097952509 0 -0.48827986267728551 -0.084355916505696238 0 -0.47758714452626122 -0.074504417667009701 0 -0.48827986267728551 -0.084355916505696238 0 -0.49115503314830078 -0.07633536177797362 0 -0.48827986267728551 -0.084355916505696238 0 -0.5 -0.093000128235680601 0 -0.49890142052232178 -0.07295356538875207 0 -0.47751820232587661 -0.095908669097952509 0 -0.48869182998141419 -0.095380026636414386 0 -0.48827986267728551 -0.084355916505696238 0 -0.48869182998141419 -0.095380026636414386 0 -0.48827986267728551 -0.084355916505696238 0 -0.5 -0.093000128235680601 0 -0.48827986267728551 -0.084355916505696238 0 -0.49890142052232178 -0.07295356538875207 0 -0.5 -0.093000128235680601 0 -0.49890142052232178 -0.07295356538875207 0 -0.49999999999999928 -0.064946935730723993 0 -0.48827986267728551 -0.084355916505696238 0 -0.49890142052232178 -0.07295356538875207 0 -0.49115503314830078 -0.07633536177797362 0 -0.49115503314830078 -0.07633536177797362 0 -0.49999999999999928 -0.064946935730723993 0 -0.47763514703283272 -0.059601242046782313 0 -0.49890142052232178 -0.07295356538875207 0 -0.49115503314830078 -0.07633536177797362 0 -0.49999999999999928 -0.064946935730723993 0 -0.49999999999999928 -0.064946935730723993 0 -0.48721112176578851 -0.04607957040685666 0 -0.47763514703283272 -0.059601242046782313 0 -0.49999999999999928 -0.064946935730723993 0 -0.47763514703283272 -0.059601242046782313 0 -0.49999999999999928 -0.064946935730723993 0 -0.48721112176578851 -0.04607957040685666 0 -0.5 -0.035544890082579661 0 -0.48721112176578851 -0.04607957040685666 0 -0.5 -0.035544890082579661 0 -0.47772245030021943 -0.032496492337336133 0 -0.47772245030021943 -0.032496492337336133 0 -0.47763514703283272 -0.059601242046782313 0 -0.48721112176578851 -0.04607957040685666 0 -0.47772245030021943 -0.032496492337336133 0 -0.47763514703283272 -0.059601242046782313 0 -0.47772245030021943 -0.032496492337336133 0 -0.46797245215544381 -0.057291644614965873 0 -0.46217025309650178 -0.02899750757629465 0 -0.47772245030021943 -0.032496492337336133 0 -0.47763514703283272 -0.059601242046782313 0 -0.46797245215544381 -0.057291644614965873 0 -0.47763514703283272 -0.059601242046782313 0 -0.46853244322739701 -0.06002241340957 0 -0.46797245215544381 -0.057291644614965873 0 -0.47763514703283272 -0.059601242046782313 0 -0.46797245215544381 -0.057291644614965873 0 -0.46797245215544381 -0.057291644614965873 0 -0.46350101003743238 -0.059631392960778788 0 -0.45682811182850519 -0.054627901205390947 0 -0.46797245215544381 -0.057291644614965873 0 -0.45682811182850519 -0.054627901205390947 0 -0.46217025309650178 -0.02899750757629465 0 -0.46797245215544381 -0.057291644614965873 0 -0.45682811182850519 -0.054627901205390947 0 -0.46015872919595152 -0.063050312626030031 0 -0.46853244322739701 -0.06002241340957 0 -0.46350101003743238 -0.059631392960778788 0 -0.46853244322739701 -0.06002241340957 0 -0.46797245215544381 -0.057291644614965873 0 -0.46350101003743238 -0.059631392960778788 0 -0.46853244322739701 -0.06002241340957 0 -0.46797245215544381 -0.057291644614965873 0 -0.46015872919595152 -0.063050312626030031 0 -0.46350101003743238 -0.059631392960778788 0 -0.45682811182850519 -0.054627901205390947 0 -0.46797245215544381 -0.057291644614965873 0 -0.46217025309650178 -0.02899750757629465 0 -0.45682811182850519 -0.054627901205390947 0 -0.44820380004561933 -0.040249698193196168 0 -0.46217025309650178 -0.02899750757629465 0 -0.42671650211210338 -0.038082446873258471 0 -0.44820380004561933 -0.040249698193196168 0 -0.44153591957887289 -0.054860849281181442 0 -0.42671650211210338 -0.038082446873258471 0 -0.44820380004561933 -0.040249698193196168 0 -0.44168375293114098 -0.028297666540855231 0 -0.46015872919595152 -0.063050312626030031 0 -0.45682811182850519 -0.054627901205390947 0 -0.44153591957887289 -0.054860849281181442 0 -0.43270526777360407 -0.053669180454199779 0 -0.43869403343510588 -0.069255914035140684 0 -0.44153591957887289 -0.054860849281181442 0 -0.45682811182850519 -0.054627901205390947 0 -0.44820380004561933 -0.040249698193196168 0 -0.44153591957887289 -0.054860849281181442 0 -0.44719866247023571 -0.01128748441340546 0 -0.43266517963891288 0.0075949269461795792 0 -0.44719866247023571 -0.01128748441340546 0 -0.45092119698023891 -0.021743729886358289 0 -0.45636805403755859 -0.00070337053762374244 0 -0.42982370354703892 -0.0063502003913228199 0 -0.43710530310494261 -0.01521073869997124 0 -0.44719866247023571 -0.01128748441340546 0 -0.44719866247023571 -0.01128748441340546 0 -0.45636805403755859 -0.00070337053762374244 0 -0.43266517963891288 0.0075949269461795792 0 -0.43710530310494261 -0.01521073869997124 0 -0.44168375293114098 -0.028297666540855231 0 -0.45092119698023891 -0.021743729886358289 0 -0.43710530310494261 -0.01521073869997124 0 -0.44719866247023571 -0.01128748441340546 0 -0.45092119698023891 -0.021743729886358289 0 -0.44820380004561933 -0.040249698193196168 0 -0.44168375293114098 -0.028297666540855231 0 -0.45092119698023891 -0.021743729886358289 0 -0.43435323239023732 -0.02311928885114474 0 -0.43710530310494261 -0.01521073869997124 0 -0.44168375293114098 -0.028297666540855231 0 -0.45092119698023891 -0.021743729886358289 0 -0.46217025309650178 -0.02899750757629465 0 -0.45636805403755859 -0.00070337053762374244 0 -0.44820380004561933 -0.040249698193196168 0 -0.45092119698023891 -0.021743729886358289 0 -0.46217025309650178 -0.02899750757629465 0 -0.46217025309650178 -0.02899750757629465 0 -0.45636805403755859 -0.00070337053762374244 0 -0.47780975356760558 -0.005391742627889981 0 -0.46217025309650178 -0.02899750757629465 0 -0.45636805403755859 -0.00070337053762374244 0 -0.47772245030021943 -0.032496492337336133 0 -0.47780975356760558 -0.005391742627889981 0 -0.48888305096695622 -0.01989399237056028 0 -0.47772245030021943 -0.032496492337336133 0 -0.46217025309650178 -0.02899750757629465 0 -0.47780975356760558 -0.005391742627889981 0 -0.47772245030021943 -0.032496492337336133 0 -0.47780975356760558 -0.005391742627889981 0 -0.5 -0.035544890082579661 0 -0.48888305096695622 -0.01989399237056028 0 -0.5 -0.0061428444344353572 0 -0.5 -0.035544890082579661 0 -0.47772245030021943 -0.032496492337336133 0 -0.48888305096695622 -0.01989399237056028 0 -0.47780975356760558 -0.005391742627889981 0 -0.48888305096695622 -0.01989399237056028 0 -0.5 -0.0061428444344353572 0 -0.47780975356760558 -0.005391742627889981 0 -0.5 -0.0061428444344353572 0 -0.48892670260064941 0.0083594053082349223 0 -0.5 -0.0061428444344353572 0 -0.48892670260064941 0.0083594053082349223 0 -0.5 0.023259201213708891 0 -0.5 0.023259201213708891 0 -0.47789705683499178 0.02171300708155614 0 -0.48897035423434249 0.036612802987030117 0 -0.48892670260064941 0.0083594053082349223 0 -0.5 0.023259201213708891 0 -0.47789705683499178 0.02171300708155614 0 -0.47780975356760558 -0.005391742627889981 0 -0.47789705683499178 0.02171300708155614 0 -0.47780975356760558 -0.005391742627889981 0 -0.48892670260064941 0.0083594053082349223 0 -0.47789705683499178 0.02171300708155614 0 -0.47780975356760558 -0.005391742627889981 0 -0.47789705683499178 0.02171300708155614 0 -0.46345763030816328 0.016199802009902349 0 -0.5 0.052661246861853188 0 -0.47798436010237788 0.048817756791002268 0 -0.48099767904005042 0.069034640704691591 0 -0.5 0.052661246861853188 0 -0.48897035423434249 0.036612802987030117 0 -0.47798436010237788 0.048817756791002268 0 -0.5 0.023259201213708891 0 -0.5 0.052661246861853188 0 -0.48897035423434249 0.036612802987030117 0 -0.47789705683499178 0.02171300708155614 0 -0.48897035423434249 0.036612802987030117 0 -0.47798436010237788 0.048817756791002268 0 -0.47789705683499178 0.02171300708155614 0 -0.47798436010237788 0.048817756791002268 0 -0.45968131818271118 0.039487895559809173 0 -0.47789705683499178 0.02171300708155614 0 -0.47798436010237788 0.048817756791002268 0 -0.47798436010237788 0.048817756791002268 0 -0.46291622961982948 0.060674309380508662 0 -0.48099767904005042 0.069034640704691591 0 -0.46291622961982948 0.060674309380508662 0 -0.45968131818271118 0.039487895559809173 0 -0.44712191934716877 0.054497760779067352 0 -0.47798436010237788 0.048817756791002268 0 -0.46291622961982948 0.060674309380508662 0 -0.45968131818271118 0.039487895559809173 0 -0.45968131818271118 0.039487895559809173 0 -0.45056585497861562 0.027590766501047151 0 -0.43510562210724341 0.038719994233844597 0 -0.45968131818271118 0.039487895559809173 0 -0.44712191934716877 0.054497760779067352 0 -0.43510562210724341 0.038719994233844597 0 -0.44712191934716877 0.054497760779067352 0 -0.43510562210724341 0.038719994233844597 0 -0.43105219830675012 0.061168187569970563 0 -0.46291622961982948 0.060674309380508662 0 -0.44712191934716877 0.054497760779067352 0 -0.44660402721785702 0.071093975513867869 0 -0.44712191934716877 0.054497760779067352 0 -0.43105219830675012 0.061168187569970563 0 -0.44660402721785702 0.071093975513867869 0 -0.45636805403755859 -0.00070337053762374244 0 -0.46345763030816328 0.016199802009902349 0 -0.45056585497861562 0.027590766501047151 0 -0.45636805403755859 -0.00070337053762374244 0 -0.45056585497861562 0.027590766501047151 0 -0.45636805403755859 -0.00070337053762374244 0 -0.47780975356760558 -0.005391742627889981 0 -0.46345763030816328 0.016199802009902349 0 -0.47789705683499178 0.02171300708155614 0 -0.45968131818271118 0.039487895559809173 0 -0.46345763030816328 0.016199802009902349 0 -0.45968131818271118 0.039487895559809173 0 -0.46345763030816328 0.016199802009902349 0 -0.45056585497861562 0.027590766501047151 0 -0.45056585497861562 0.027590766501047151 0 -0.43266517963891288 0.0075949269461795792 0 -0.43369891241556791 0.024388458557057069 0 -0.45056585497861562 0.027590766501047151 0 -0.43369891241556791 0.024388458557057069 0 -0.43510562210724341 0.038719994233844597 0 -0.45636805403755859 -0.00070337053762374244 0 -0.45056585497861562 0.027590766501047151 0 -0.43266517963891288 0.0075949269461795792 0 -0.43266517963891288 0.0075949269461795792 0 -0.41726142499325641 0.0076341430298727531 0 -0.41813169680758677 0.026477338305762141 0 -0.42313726855021128 -0.0031628373071165691 0 -0.43266517963891288 0.0075949269461795792 0 -0.41726142499325641 0.0076341430298727531 0 -0.41726142499325641 0.0076341430298727531 0 -0.40836690322158709 0.014421509683229109 0 -0.40747240468044288 0.005226299697164637 0 -0.413250266904851 -0.0030343864919660651 0 -0.41726142499325641 0.0076341430298727531 0 -0.40747240468044288 0.005226299697164637 0 -0.41726142499325641 0.0076341430298727531 0 -0.40836690322158709 0.014421509683229109 0 -0.41813169680758677 0.026477338305762141 0 -0.41813169680758677 0.026477338305762141 0 -0.40019708166987722 0.034524740777996131 0 -0.40092296716499187 0.022749346687558729 0 -0.40836690322158709 0.014421509683229109 0 -0.41813169680758677 0.026477338305762141 0 -0.40092296716499187 0.022749346687558729 0 -0.41726142499325641 0.0076341430298727531 0 -0.41813169680758677 0.026477338305762141 0 -0.43266517963891288 0.0075949269461795792 0 -0.41813169680758677 0.026477338305762141 0 -0.41813169680758677 0.026477338305762141 0 -0.43369891241556791 0.024388458557057069 0 -0.43510562210724341 0.038719994233844597 0 -0.43266517963891288 0.0075949269461795792 0 -0.41813169680758677 0.026477338305762141 0 -0.43369891241556791 0.024388458557057069 0 -0.41813169680758677 0.026477338305762141 0 -0.43510562210724341 0.038719994233844597 0 -0.4192231360678787 0.050109268899093548 0 -0.43510562210724341 0.038719994233844597 0 -0.43105219830675012 0.061168187569970563 0 -0.4192231360678787 0.050109268899093548 0 -0.43105219830675012 0.061168187569970563 0 -0.4192231360678787 0.050109268899093548 0 -0.42031457532817379 0.073741199492424733 0 -0.4192231360678787 0.050109268899093548 0 -0.40121626485099859 0.04845446163101777 0 -0.40968658494279558 0.063326047533102392 0 -0.4192231360678787 0.050109268899093548 0 -0.42031457532817379 0.073741199492424733 0 -0.4192231360678787 0.050109268899093548 0 -0.40968658494279558 0.063326047533102392 0 -0.42031457532817379 0.073741199492424733 0 -0.41813169680758677 0.026477338305762141 0 -0.40121626485099859 0.04845446163101777 0 -0.41813169680758677 0.026477338305762141 0 -0.40019708166987722 0.034524740777996131 0 -0.40121626485099859 0.04845446163101777 0 -0.41813169680758677 0.026477338305762141 0 -0.4192231360678787 0.050109268899093548 0 -0.40121626485099859 0.04845446163101777 0 -0.41813169680758677 0.026477338305762141 0 -0.4192231360678787 0.050109268899093548 0 -0.40019708166987722 0.034524740777996131 0 -0.39121574313336183 0.041598261801476889 0 -0.40121626485099859 0.04845446163101777 0 -0.40019708166987722 0.034524740777996131 0 -0.39121574313336183 0.041598261801476889 0 -0.38982337382458082 0.031197799354009761 0 -0.39121574313336183 0.041598261801476889 0 -0.40121626485099859 0.04845446163101777 0 -0.3848201313223118 0.053332953293612081 0 -0.3994105542920785 0.060781195296676263 0 -0.40121626485099859 0.04845446163101777 0 -0.38430083289440709 0.070431584956270971 0 -0.40121626485099859 0.04845446163101777 0 -0.38430083289440709 0.070431584956270971 0 -0.3994105542920785 0.060781195296676263 0 -0.40121626485099859 0.04845446163101777 0 -0.40968658494279558 0.063326047533102392 0 -0.3848201313223118 0.053332953293612081 0 -0.38430083289440709 0.070431584956270971 0 -0.36855999041758208 0.04801875595526809 0 -0.3848201313223118 0.053332953293612081 0 -0.38002186399904031 0.040481353950748707 0 -0.36855999041758208 0.04801875595526809 0 -0.40121626485099859 0.04845446163101777 0 -0.3848201313223118 0.053332953293612081 0 -0.38430083289440709 0.070431584956270971 0 -0.38002186399904031 0.040481353950748707 0 -0.38104965905818899 0.026890106180675721 0 -0.38982337382458082 0.031197799354009761 0 -0.39121574313336183 0.041598261801476889 0 -0.38002186399904031 0.040481353950748707 0 -0.38982337382458082 0.031197799354009761 0 -0.39121574313336183 0.041598261801476889 0 -0.3848201313223118 0.053332953293612081 0 -0.38002186399904031 0.040481353950748707 0 -0.38002186399904031 0.040481353950748707 0 -0.38104965905818899 0.026890106180675721 0 -0.36747350207069668 0.034938287300385923 0 -0.38104965905818899 0.026890106180675721 0 -0.3788418722442029 0.01034356504807175 0 -0.36747350207069668 0.034938287300385923 0 -0.38104965905818899 0.026890106180675721 0 -0.38955132300835282 0.019454326923775449 0 -0.3788418722442029 0.01034356504807175 0 -0.38104965905818899 0.026890106180675721 0 -0.38982337382458082 0.031197799354009761 0 -0.38955132300835282 0.019454326923775449 0 -0.38955132300835282 0.019454326923775449 0 -0.3788418722442029 0.01034356504807175 0 -0.39804602246165721 0.010020420695787281 0 -0.39957110635995358 -0.0030699694278027712 0 -0.3788418722442029 0.01034356504807175 0 -0.39804602246165721 0.010020420695787281 0 -0.39957110635995358 -0.0030699694278027712 0 -0.40747240468044288 0.005226299697164637 0 -0.39804602246165721 0.010020420695787281 0 -0.40836690322158709 0.014421509683229109 0 -0.40747240468044288 0.005226299697164637 0 -0.39804602246165721 0.010020420695787281 0 -0.40836690322158709 0.014421509683229109 0 -0.39804602246165721 0.010020420695787281 0 -0.40092296716499187 0.022749346687558729 0 -0.38982337382458082 0.031197799354009761 0 -0.38955132300835282 0.019454326923775449 0 -0.40092296716499187 0.022749346687558729 0 -0.40019708166987722 0.034524740777996131 0 -0.38982337382458082 0.031197799354009761 0 -0.40092296716499187 0.022749346687558729 0 -0.38955132300835282 0.019454326923775449 0 -0.39804602246165721 0.010020420695787281 0 -0.40092296716499187 0.022749346687558729 0 -0.39662481479212569 0.1080458583255976 0 -0.40352959093489932 0.096383688938327369 0 -0.41340238791534201 0.1115710955179815 0 -0.39662481479212569 0.1080458583255976 0 -0.40352959093489932 0.096383688938327369 0 -0.39172839295725881 0.093485992946841526 0 -0.39662481479212569 0.1080458583255976 0 -0.40075941481743349 0.1225741189652923 0 -0.41340238791534201 0.1115710955179815 0 -0.39662481479212569 0.1080458583255976 0 -0.40075941481743349 0.1225741189652923 0 -0.38820782885147548 0.1181024390932839 0 -0.39662481479212569 0.1080458583255976 0 -0.38820782885147548 0.1181024390932839 0 -0.37891579966332573 0.10487214628639061 0 -0.38820782885147548 0.1181024390932839 0 -0.37891579966332573 0.10487214628639061 0 -0.36490626752174521 0.1179528804700226 0 -0.38820782885147548 0.1181024390932839 0 -0.38685432343279053 0.13565646252113281 0 -0.36490626752174521 0.1179528804700226 0 -0.39662481479212569 0.1080458583255976 0 -0.37891579966332573 0.10487214628639061 0 -0.39172839295725881 0.093485992946841526 0 -0.37891579966332573 0.10487214628639061 0 -0.38292166471271538 0.088177755764103222 0 -0.39172839295725881 0.093485992946841526 0 -0.37891579966332573 0.10487214628639061 0 -0.38292166471271538 0.088177755764103222 0 -0.36738540093781552 0.092408708281524171 0 -0.38292166471271538 0.088177755764103222 0 -0.38430083289440709 0.070431584956270971 0 -0.39227789711077021 0.079690346349488822 0 -0.38292166471271538 0.088177755764103222 0 -0.38430083289440709 0.070431584956270971 0 -0.36738540093781552 0.092408708281524171 0 -0.38430083289440709 0.070431584956270971 0 -0.36738540093781552 0.092408708281524171 0 -0.38430083289440709 0.070431584956270971 0 -0.37383297089699108 0.076900849638822669 0 -0.36738540093781552 0.092408708281524171 0 -0.38292166471271538 0.088177755764103222 0 -0.39172839295725881 0.093485992946841526 0 -0.39227789711077021 0.079690346349488822 0 -0.38430083289440709 0.070431584956270971 0 -0.36855999041758208 0.04801875595526809 0 -0.37383297089699108 0.076900849638822669 0 -0.38430083289440709 0.070431584956270971 0 -0.39445619404594601 0.070801194745946192 0 -0.39227789711077021 0.079690346349488822 0 -0.3994105542920785 0.060781195296676263 0 -0.38430083289440709 0.070431584956270971 0 -0.39445619404594601 0.070801194745946192 0 -0.39445619404594601 0.070801194745946192 0 -0.40183549188652817 0.072301652381348683 0 -0.39227789711077021 0.079690346349488822 0 -0.40183549188652817 0.072301652381348683 0 -0.40299582192285283 0.08452665841800594 0 -0.41022104841778262 0.076314783143678747 0 -0.3994105542920785 0.060781195296676263 0 -0.40183549188652817 0.072301652381348683 0 -0.40968658494279558 0.063326047533102392 0 -0.3994105542920785 0.060781195296676263 0 -0.39445619404594601 0.070801194745946192 0 -0.40183549188652817 0.072301652381348683 0 -0.39172839295725881 0.093485992946841526 0 -0.39227789711077021 0.079690346349488822 0 -0.40299582192285283 0.08452665841800594 0 -0.40183549188652817 0.072301652381348683 0 -0.39227789711077021 0.079690346349488822 0 -0.40299582192285283 0.08452665841800594 0 -0.40352959093489932 0.096383688938327369 0 -0.39172839295725881 0.093485992946841526 0 -0.40299582192285283 0.08452665841800594 0 -0.42031457532817379 0.073741199492424733 0 -0.42140601458846888 0.097373130085756029 0 -0.40352959093489932 0.096383688938327369 0 -0.40299582192285283 0.08452665841800594 0 -0.41450800396129089 0.086218788078434583 0 -0.41450800396129089 0.086218788078434583 0 -0.42031457532817379 0.073741199492424733 0 -0.42140601458846888 0.097373130085756029 0 -0.40299582192285283 0.08452665841800594 0 -0.41450800396129089 0.086218788078434583 0 -0.41022104841778262 0.076314783143678747 0 -0.41450800396129089 0.086218788078434583 0 -0.41022104841778262 0.076314783143678747 0 -0.42031457532817379 0.073741199492424733 0 -0.40968658494279558 0.063326047533102392 0 -0.41022104841778262 0.076314783143678747 0 -0.42031457532817379 0.073741199492424733 0 -0.40183549188652817 0.072301652381348683 0 -0.40968658494279558 0.063326047533102392 0 -0.41022104841778262 0.076314783143678747 0 -0.43105219830675012 0.061168187569970563 0 -0.43144194734269958 0.076940215619443003 0 -0.44660402721785702 0.071093975513867869 0 -0.43105219830675012 0.061168187569970563 0 -0.42031457532817379 0.073741199492424733 0 -0.43144194734269958 0.076940215619443003 0 -0.43144194734269958 0.076940215619443003 0 -0.43674442515826029 0.10308188294141481 0 -0.42140601458846888 0.097373130085756029 0 -0.42031457532817379 0.073741199492424733 0 -0.43144194734269958 0.076940215619443003 0 -0.42140601458846888 0.097373130085756029 0 -0.43144194734269958 0.076940215619443003 0 -0.43674442515826029 0.10308188294141481 0 -0.43674442515826029 0.10308188294141481 0 -0.42140601458846888 0.097373130085756029 0 -0.4280400740505228 0.1175705519793649 0 -0.40352959093489932 0.096383688938327369 0 -0.41450800396129089 0.086218788078434583 0 -0.41340238791534201 0.1115710955179815 0 -0.42140601458846888 0.097373130085756029 0 -0.41340238791534201 0.1115710955179815 0 -0.4280400740505228 0.1175705519793649 0 -0.41450800396129089 0.086218788078434583 0 -0.42140601458846888 0.097373130085756029 0 -0.41340238791534201 0.1115710955179815 0 -0.41450800396129089 0.086218788078434583 0 -0.41340238791534201 0.1115710955179815 0 -0.40075941481743349 0.1225741189652923 0 -0.41340238791534201 0.1115710955179815 0 -0.41229677186939317 0.13692340295752839 0 -0.41340238791534201 0.1115710955179815 0 -0.41229677186939317 0.13692340295752839 0 -0.41340238791534201 0.1115710955179815 0 -0.4280400740505228 0.1175705519793649 0 -0.41229677186939317 0.13692340295752839 0 -0.43674442515826029 0.10308188294141481 0 -0.4280400740505228 0.1175705519793649 0 -0.4420469029738211 0.12922355026338661 0 -0.45354505872831208 0.1077894841318511 0 -0.46042575096861171 0.1238777133964412 0 -0.4420469029738211 0.12922355026338661 0 -0.43674442515826029 0.10308188294141481 0 -0.45354505872831208 0.1077894841318511 0 -0.4420469029738211 0.12922355026338661 0 -0.43674442515826029 0.10308188294141481 0 -0.4420469029738211 0.12922355026338661 0 -0.43674442515826029 0.10308188294141481 0 -0.45354505872831208 0.1077894841318511 0 -0.44964149228164968 0.087604814487147353 0 -0.45354505872831208 0.1077894841318511 0 -0.46378214764774051 0.094656287467409561 0 -0.44964149228164968 0.087604814487147353 0 -0.45354505872831208 0.1077894841318511 0 -0.46378214764774051 0.094656287467409561 0 -0.46813336601275091 0.109075776418709 0 -0.45354505872831208 0.1077894841318511 0 -0.46813336601275091 0.109075776418709 0 -0.46042575096861171 0.1238777133964412 0 -0.46813336601275091 0.109075776418709 0 -0.46042575096861171 0.1238777133964412 0 -0.47405990914704249 0.1191300072678862 0 -0.43144194734269958 0.076940215619443003 0 -0.44660402721785702 0.071093975513867869 0 -0.44964149228164968 0.087604814487147353 0 -0.43144194734269958 0.076940215619443003 0 -0.43674442515826029 0.10308188294141481 0 -0.44964149228164968 0.087604814487147353 0 -0.46378214764774051 0.094656287467409561 0 -0.44964149228164968 0.087604814487147353 0 -0.46413644740717319 0.078184586883993934 0 -0.44660402721785702 0.071093975513867869 0 -0.44964149228164968 0.087604814487147353 0 -0.46413644740717319 0.078184586883993934 0 -0.46291622961982948 0.060674309380508662 0 -0.44660402721785702 0.071093975513867869 0 -0.46413644740717319 0.078184586883993934 0 -0.46291622961982948 0.060674309380508662 0 -0.46413644740717319 0.078184586883993934 0 -0.48099767904005042 0.069034640704691591 0 -0.46413644740717319 0.078184586883993934 0 -0.48099767904005042 0.069034640704691591 0 -0.47936836756207879 0.09254827215704578 0 -0.46378214764774051 0.094656287467409561 0 -0.46413644740717319 0.078184586883993934 0 -0.47936836756207879 0.09254827215704578 0 -0.47936836756207879 0.09254827215704578 0 -0.5 0.082063292509997443 0 -0.49079833614394219 0.099892698612268599 0 -0.48099767904005042 0.069034640704691591 0 -0.47936836756207879 0.09254827215704578 0 -0.5 0.082063292509997443 0 -0.5 0.052661246861853188 0 -0.48099767904005042 0.069034640704691591 0 -0.5 0.082063292509997443 0 -0.46813336601275091 0.109075776418709 0 -0.48382497701368998 0.1134938916238895 0 -0.47405990914704249 0.1191300072678862 0 -0.48382497701368998 0.1134938916238895 0 -0.47405990914704249 0.1191300072678862 0 -0.48479395194408692 0.1244281978259577 0 -0.47405990914704249 0.1191300072678862 0 -0.48479395194408692 0.1244281978259577 0 -0.47409670868447051 0.13028041834573001 0 -0.46042575096861171 0.1238777133964412 0 -0.47405990914704249 0.1191300072678862 0 -0.47409670868447051 0.13028041834573001 0 -0.46378214764774051 0.094656287467409561 0 -0.46813336601275091 0.109075776418709 0 -0.47936836756207879 0.09254827215704578 0 -0.46813336601275091 0.109075776418709 0 -0.47936836756207879 0.09254827215704578 0 -0.48382497701368998 0.1134938916238895 0 -0.47936836756207879 0.09254827215704578 0 -0.48382497701368998 0.1134938916238895 0 -0.49079833614394219 0.099892698612268599 0 -0.48382497701368998 0.1134938916238895 0 -0.49079833614394219 0.099892698612268599 0 -0.5 0.11146533815814171 0 -0.5 0.082063292509997443 0 -0.49079833614394219 0.099892698612268599 0 -0.5 0.11146533815814171 0 -0.48382497701368998 0.1134938916238895 0 -0.5 0.11146533815814171 0 -0.49656539840157371 0.12366385035685371 0 -0.48382497701368998 0.1134938916238895 0 -0.48479395194408692 0.1244281978259577 0 -0.49656539840157371 0.12366385035685371 0 -0.49656539840157371 0.12366385035685371 0 -0.4876959066660328 0.14749180809225271 0 -0.49656539840157371 0.12366385035685371 0 -0.5 0.14086738380628611 0 -0.4876959066660328 0.14749180809225271 0 -0.49656539840157371 0.12366385035685371 0 -0.48293764590110821 0.13494193259965601 0 -0.4876959066660328 0.14749180809225271 0 -0.5 0.11146533815814171 0 -0.49656539840157371 0.12366385035685371 0 -0.5 0.14086738380628611 0 -0.48479395194408692 0.1244281978259577 0 -0.49656539840157371 0.12366385035685371 0 -0.48293764590110821 0.13494193259965601 0 -0.48293764590110821 0.13494193259965601 0 -0.47409670868447051 0.13028041834573001 0 -0.46696943951977121 0.14653976017461209 0 -0.48479395194408692 0.1244281978259577 0 -0.48293764590110821 0.13494193259965601 0 -0.47409670868447051 0.13028041834573001 0 -0.4876959066660328 0.14749180809225271 0 -0.47882641493049188 0.17131976582765149 0 -0.46696943951977121 0.14653976017461209 0 -0.48293764590110821 0.13494193259965601 0 -0.4876959066660328 0.14749180809225271 0 -0.46696943951977121 0.14653976017461209 0 -0.5 0.14086738380628611 0 -0.4876959066660328 0.14749180809225271 0 -0.5 0.1702694294544303 0 -0.4876959066660328 0.14749180809225271 0 -0.5 0.1702694294544303 0 -0.47882641493049188 0.17131976582765149 0 -0.5 0.1702694294544303 0 -0.48643782559660298 0.18771769111697709 0 -0.5 0.1996714751025746 0 -0.5 0.1702694294544303 0 -0.47882641493049188 0.17131976582765149 0 -0.48643782559660298 0.18771769111697709 0 -0.47882641493049188 0.17131976582765149 0 -0.48643782559660298 0.18771769111697709 0 -0.46995692319495092 0.19514772356305049 0 -0.47882641493049188 0.17131976582765149 0 -0.46995692319495092 0.19514772356305049 0 -0.47882641493049188 0.17131976582765149 0 -0.46134773403041851 0.17032295594530619 0 -0.46995692319495092 0.19514772356305049 0 -0.47882641493049188 0.17131976582765149 0 -0.46134773403041851 0.17032295594530619 0 -0.46696943951977121 0.14653976017461209 0 -0.4876959066660328 0.14749180809225271 0 -0.47882641493049188 0.17131976582765149 0 -0.46134773403041851 0.17032295594530619 0 -0.44734938078938169 0.1553652175853581 0 -0.46696943951977121 0.14653976017461209 0 -0.46134773403041851 0.17032295594530619 0 -0.44363651171749668 0.18324231257585849 0 -0.46995692319495092 0.19514772356305049 0 -0.44363651171749668 0.18324231257585849 0 -0.44734938078938169 0.1553652175853581 0 -0.42634302163459709 0.174416069723554 0 -0.46134773403041851 0.17032295594530619 0 -0.44363651171749668 0.18324231257585849 0 -0.44734938078938169 0.1553652175853581 0 -0.44734938078938169 0.1553652175853581 0 -0.4420469029738211 0.12922355026338661 0 -0.46696943951977121 0.14653976017461209 0 -0.44734938078938169 0.1553652175853581 0 -0.4420469029738211 0.12922355026338661 0 -0.4278454466181274 0.15164079018538049 0 -0.44734938078938169 0.1553652175853581 0 -0.4420469029738211 0.12922355026338661 0 -0.46042575096861171 0.1238777133964412 0 -0.47409670868447051 0.13028041834573001 0 -0.46696943951977121 0.14653976017461209 0 -0.46042575096861171 0.1238777133964412 0 -0.4420469029738211 0.12922355026338661 0 -0.46696943951977121 0.14653976017461209 0 -0.48424209390549622 0.24364495738757519 0 -0.46618190703049672 0.2368572506235759 0 -0.4774546046869968 0.26366471964743471 0 -0.48424209390549622 0.24364495738757519 0 -0.47868820088782038 0.227561026282985 0 -0.46618190703049672 0.2368572506235759 0 -0.48424209390549622 0.24364495738757519 0 -0.5 0.2290735207507188 0 -0.5 0.25847556639886299 0 -0.48424209390549622 0.24364495738757519 0 -0.5 0.2290735207507188 0 -0.47868820088782038 0.227561026282985 0 -0.5 0.2290735207507188 0 -0.47868820088782038 0.227561026282985 0 -0.48192957204369941 0.20925372135460579 0 -0.48192957204369941 0.20925372135460579 0 -0.46995692319495092 0.19514772356305049 0 -0.46108743145940989 0.21897568129844949 0 -0.47868820088782038 0.227561026282985 0 -0.48192957204369941 0.20925372135460579 0 -0.46108743145940989 0.21897568129844949 0 -0.5 0.2290735207507188 0 -0.48192957204369941 0.20925372135460579 0 -0.5 0.1996714751025746 0 -0.48192957204369941 0.20925372135460579 0 -0.48643782559660298 0.18771769111697709 0 -0.5 0.1996714751025746 0 -0.48192957204369941 0.20925372135460579 0 -0.48643782559660298 0.18771769111697709 0 -0.46995692319495092 0.19514772356305049 0 -0.44363651171749668 0.18324231257585849 0 -0.46995692319495092 0.19514772356305049 0 -0.45490920937399681 0.21004978159971721 0 -0.44363651171749668 0.18324231257585849 0 -0.45490920937399681 0.21004978159971721 0 -0.43310841546947432 0.19609099923792089 0 -0.44363651171749668 0.18324231257585849 0 -0.45490920937399681 0.21004978159971721 0 -0.43867222422868313 0.21501193504127211 0 -0.45490920937399681 0.21004978159971721 0 -0.43310841546947432 0.19609099923792089 0 -0.43867222422868313 0.21501193504127211 0 -0.45490920937399681 0.21004978159971721 0 -0.45162875776410177 0.22305384572913059 0 -0.46995692319495092 0.19514772356305049 0 -0.46108743145940989 0.21897568129844949 0 -0.46995692319495092 0.19514772356305049 0 -0.45490920937399681 0.21004978159971721 0 -0.46108743145940989 0.21897568129844949 0 -0.45162875776410177 0.22305384572913059 0 -0.44675169042323082 0.23029641565195749 0 -0.46618190703049672 0.2368572506235759 0 -0.45490920937399681 0.21004978159971721 0 -0.45162875776410177 0.22305384572913059 0 -0.46618190703049672 0.2368572506235759 0 -0.47868820088782038 0.227561026282985 0 -0.46108743145940989 0.21897568129844949 0 -0.46618190703049672 0.2368572506235759 0 -0.45490920937399681 0.21004978159971721 0 -0.46108743145940989 0.21897568129844949 0 -0.46618190703049672 0.2368572506235759 0 -0.45490920937399681 0.21004978159971721 0 -0.46618190703049672 0.2368572506235759 0 -0.43867222422868313 0.21501193504127211 0 -0.45162875776410177 0.22305384572913059 0 -0.44675169042323082 0.23029641565195749 0 -0.44675169042323082 0.23029641565195749 0 -0.44017406994621899 0.2437866164395486 0 -0.43384873093252602 0.22811222404456419 0 -0.43867222422868313 0.21501193504127211 0 -0.44675169042323082 0.23029641565195749 0 -0.43384873093252602 0.22811222404456419 0 -0.44675169042323082 0.23029641565195749 0 -0.44017406994621899 0.2437866164395486 0 -0.45243106288897972 0.2433917260359395 0 -0.44017406994621899 0.2437866164395486 0 -0.45243106288897972 0.2433917260359395 0 -0.44673989411664999 0.25758984241340521 0 -0.44675169042323082 0.23029641565195749 0 -0.45243106288897972 0.2433917260359395 0 -0.46618190703049672 0.2368572506235759 0 -0.45243106288897972 0.2433917260359395 0 -0.46618190703049672 0.2368572506235759 0 -0.46053122000710361 0.25350710693694489 0 -0.41462508750399713 0.24751559102145201 0 -0.40597563450133117 0.23124457392373601 0 -0.40103416962140581 0.24859735505825861 0 -0.41462508750399713 0.24751559102145201 0 -0.42604187394323662 0.2379625173284714 0 -0.40597563450133117 0.23124457392373601 0 -0.44017406994621899 0.2437866164395486 0 -0.42604187394323662 0.2379625173284714 0 -0.43384873093252602 0.22811222404456419 0 -0.41462508750399713 0.24751559102145201 0 -0.42604187394323662 0.2379625173284714 0 -0.42859055273082508 0.25928952813567319 0 -0.44017406994621899 0.2437866164395486 0 -0.42604187394323662 0.2379625173284714 0 -0.42859055273082508 0.25928952813567319 0 -0.43867222422868313 0.21501193504127211 0 -0.42200673237672542 0.22093974976641939 0 -0.43384873093252602 0.22811222404456419 0 -0.42604187394323662 0.2379625173284714 0 -0.42200673237672542 0.22093974976641939 0 -0.43384873093252602 0.22811222404456419 0 -0.42604187394323662 0.2379625173284714 0 -0.42200673237672542 0.22093974976641939 0 -0.40597563450133117 0.23124457392373601 0 -0.42200673237672542 0.22093974976641939 0 -0.40577566940886878 0.2085008470875224 0 -0.40597563450133117 0.23124457392373601 0 -0.42200673237672542 0.22093974976641939 0 -0.4226435396322617 0.20635559159062741 0 -0.40577566940886878 0.2085008470875224 0 -0.43867222422868313 0.21501193504127211 0 -0.4226435396322617 0.20635559159062741 0 -0.43310841546947432 0.19609099923792089 0 -0.43867222422868313 0.21501193504127211 0 -0.42200673237672542 0.22093974976641939 0 -0.4226435396322617 0.20635559159062741 0 -0.4226435396322617 0.20635559159062741 0 -0.43310841546947432 0.19609099923792089 0 -0.41244598622981071 0.1874703048964961 0 -0.4226435396322617 0.20635559159062741 0 -0.40577566940886878 0.2085008470875224 0 -0.41244598622981071 0.1874703048964961 0 -0.38694824628001662 0.18812635662359531 0 -0.40577566940886878 0.2085008470875224 0 -0.41244598622981071 0.1874703048964961 0 -0.38694824628001662 0.18812635662359531 0 -0.38650688021192631 0.21493748530638171 0 -0.37318914960858662 0.20182442623768179 0 -0.38694824628001662 0.18812635662359531 0 -0.3704281889129728 0.17386724431512879 0 -0.37318914960858662 0.20182442623768179 0 -0.38694824628001662 0.18812635662359531 0 -0.38650688021192631 0.21493748530638171 0 -0.38650688021192631 0.21493748530638171 0 -0.37595011030420039 0.22978160816023471 0 -0.37318914960858662 0.20182442623768179 0 -0.38694824628001662 0.18812635662359531 0 -0.38650688021192631 0.21493748530638171 0 -0.40577566940886878 0.2085008470875224 0 -0.38650688021192631 0.21493748530638171 0 -0.40577566940886878 0.2085008470875224 0 -0.40597563450133117 0.23124457392373601 0 -0.38650688021192631 0.21493748530638171 0 -0.40597563450133117 0.23124457392373601 0 -0.38606551414383578 0.24174861398916819 0 -0.38650688021192631 0.21493748530638171 0 -0.37595011030420039 0.22978160816023471 0 -0.38606551414383578 0.24174861398916819 0 -0.38650688021192631 0.21493748530638171 0 -0.38606551414383578 0.24174861398916819 0 -0.37595011030420039 0.22978160816023471 0 -0.38606551414383578 0.24174861398916819 0 -0.36999811548425843 0.24403541582306271 0 -0.40597563450133117 0.23124457392373601 0 -0.38606551414383578 0.24174861398916819 0 -0.40103416962140581 0.24859735505825861 0 -0.41229677186939317 0.13692340295752839 0 -0.4278454466181274 0.15164079018538049 0 -0.41119115582344418 0.16227571039707539 0 -0.41229677186939317 0.13692340295752839 0 -0.41119115582344418 0.16227571039707539 0 -0.4420469029738211 0.12922355026338661 0 -0.41229677186939317 0.13692340295752839 0 -0.4278454466181274 0.15164079018538049 0 -0.4280400740505228 0.1175705519793649 0 -0.4420469029738211 0.12922355026338661 0 -0.41229677186939317 0.13692340295752839 0 -0.44734938078938169 0.1553652175853581 0 -0.4278454466181274 0.15164079018538049 0 -0.42634302163459709 0.174416069723554 0 -0.43310841546947432 0.19609099923792089 0 -0.42634302163459709 0.174416069723554 0 -0.41244598622981071 0.1874703048964961 0 -0.44363651171749668 0.18324231257585849 0 -0.43310841546947432 0.19609099923792089 0 -0.42634302163459709 0.174416069723554 0 -0.41244598622981071 0.1874703048964961 0 -0.41119115582344418 0.16227571039707539 0 -0.39592431992702498 0.17359955252709169 0 -0.42634302163459709 0.174416069723554 0 -0.41244598622981071 0.1874703048964961 0 -0.41119115582344418 0.16227571039707539 0 -0.4278454466181274 0.15164079018538049 0 -0.42634302163459709 0.174416069723554 0 -0.41119115582344418 0.16227571039707539 0 -0.41119115582344418 0.16227571039707539 0 -0.39592431992702498 0.17359955252709169 0 -0.38795188497608618 0.15802173814765971 0 -0.38694824628001662 0.18812635662359531 0 -0.41244598622981071 0.1874703048964961 0 -0.39592431992702498 0.17359955252709169 0 -0.38694824628001662 0.18812635662359531 0 -0.39592431992702498 0.17359955252709169 0 -0.3704281889129728 0.17386724431512879 0 -0.38795188497608618 0.15802173814765971 0 -0.36766722821735898 0.1459100623925757 0 -0.3704281889129728 0.17386724431512879 0 -0.39592431992702498 0.17359955252709169 0 -0.38795188497608618 0.15802173814765971 0 -0.3704281889129728 0.17386724431512879 0 -0.38795188497608618 0.15802173814765971 0 -0.38685432343279053 0.13565646252113281 0 -0.36766722821735898 0.1459100623925757 0 -0.41229677186939317 0.13692340295752839 0 -0.38795188497608618 0.15802173814765971 0 -0.38685432343279053 0.13565646252113281 0 -0.41229677186939317 0.13692340295752839 0 -0.41119115582344418 0.16227571039707539 0 -0.38795188497608618 0.15802173814765971 0 -0.40075941481743349 0.1225741189652923 0 -0.38820782885147548 0.1181024390932839 0 -0.38685432343279053 0.13565646252113281 0 -0.40075941481743349 0.1225741189652923 0 -0.41229677186939317 0.13692340295752839 0 -0.38685432343279053 0.13565646252113281 0 -0.34957141400323899 0.1415591533391049 0 -0.36766722821735898 0.1459100623925757 0 -0.36490626752174521 0.1179528804700226 0 -0.38685432343279053 0.13565646252113281 0 -0.36766722821735898 0.1459100623925757 0 -0.36490626752174521 0.1179528804700226 0 -0.36766722821735898 0.1459100623925757 0 -0.36490626752174521 0.1179528804700226 0 -0.34957141400323899 0.1415591533391049 0 -0.33479753361297487 0.13631043978595389 0 -0.34765681885093153 0.1235314467134202 0 -0.34957141400323899 0.1415591533391049 0 -0.36490626752174521 0.1179528804700226 0 -0.34765681885093153 0.1235314467134202 0 -0.34957141400323899 0.1415591533391049 0 -0.36766722821735898 0.1459100623925757 0 -0.35272054698551619 0.15933649008073431 0 -0.34957141400323899 0.1415591533391049 0 -0.35272054698551619 0.15933649008073431 0 -0.33845028312092962 0.15113308644408069 0 -0.36766722821735898 0.1459100623925757 0 -0.3704281889129728 0.17386724431512879 0 -0.36766722821735898 0.1459100623925757 0 -0.3704281889129728 0.17386724431512879 0 -0.35272054698551619 0.15933649008073431 0 -0.3704281889129728 0.17386724431512879 0 -0.35191522382812618 0.17781693252833569 0 -0.3598781022474774 0.19219028427608489 0 -0.35191522382812618 0.17781693252833569 0 -0.35272054698551619 0.15933649008073431 0 -0.33872455303168569 0.16619938585723909 0 -0.3704281889129728 0.17386724431512879 0 -0.35191522382812618 0.17781693252833569 0 -0.35272054698551619 0.15933649008073431 0 -0.35272054698551619 0.15933649008073431 0 -0.33872455303168569 0.16619938585723909 0 -0.33845028312092962 0.15113308644408069 0 -0.33872455303168569 0.16619938585723909 0 -0.32865656454264519 0.15672840871918789 0 -0.32412327180326622 0.1694513638489572 0 -0.33872455303168569 0.16619938585723909 0 -0.32865656454264519 0.15672840871918789 0 -0.33845028312092962 0.15113308644408069 0 -0.35191522382812618 0.17781693252833569 0 -0.33227007044034912 0.18110949600348231 0 -0.34439986196988082 0.19770614786167831 0 -0.35191522382812618 0.17781693252833569 0 -0.33872455303168569 0.16619938585723909 0 -0.33227007044034912 0.18110949600348231 0 -0.33872455303168569 0.16619938585723909 0 -0.33227007044034912 0.18110949600348231 0 -0.32412327180326622 0.1694513638489572 0 -0.33227007044034912 0.18110949600348231 0 -0.31618483198826958 0.18113801714152369 0 -0.32218660962690771 0.19453279750090291 0 -0.33227007044034912 0.18110949600348231 0 -0.31618483198826958 0.18113801714152369 0 -0.32412327180326622 0.1694513638489572 0 -0.31618483198826958 0.18113801714152369 0 -0.32412327180326622 0.1694513638489572 0 -0.31013284338517821 0.17141722359861841 0 -0.32865656454264519 0.15672840871918789 0 -0.32412327180326622 0.1694513638489572 0 -0.31507824830394332 0.15123947491571299 0 -0.31507824830394332 0.15123947491571299 0 -0.31013284338517821 0.17141722359861841 0 -0.32412327180326622 0.1694513638489572 0 -0.31507824830394332 0.15123947491571299 0 -0.31013284338517821 0.17141722359861841 0 -0.31507824830394332 0.15123947491571299 0 -0.32002365322270898 0.1310617262328076 0 -0.31507824830394332 0.15123947491571299 0 -0.32740125656064029 0.14529462721954861 0 -0.32002365322270898 0.1310617262328076 0 -0.32865656454264519 0.15672840871918789 0 -0.31507824830394332 0.15123947491571299 0 -0.32740125656064029 0.14529462721954861 0 -0.31507824830394332 0.15123947491571299 0 -0.32002365322270898 0.1310617262328076 0 -0.30545747947471119 0.13892787316644381 0 -0.32002365322270898 0.1310617262328076 0 -0.33479753361297487 0.13631043978595389 0 -0.32740125656064029 0.14529462721954861 0 -0.32002365322270898 0.1310617262328076 0 -0.33479753361297487 0.13631043978595389 0 -0.32002365322270898 0.1310617262328076 0 -0.33479753361297487 0.13631043978595389 0 -0.33461532157825957 0.12113217609242 0 -0.33479753361297487 0.13631043978595389 0 -0.34765681885093153 0.1235314467134202 0 -0.33461532157825957 0.12113217609242 0 -0.34957141400323899 0.1415591533391049 0 -0.33479753361297487 0.13631043978595389 0 -0.34957141400323899 0.1415591533391049 0 -0.33479753361297487 0.13631043978595389 0 -0.33845028312092962 0.15113308644408069 0 -0.32865656454264519 0.15672840871918789 0 -0.32740125656064029 0.14529462721954861 0 -0.33845028312092962 0.15113308644408069 0 -0.32740125656064029 0.14529462721954861 0 -0.33479753361297487 0.13631043978595389 0 -0.33845028312092962 0.15113308644408069 0 -0.34891688895579709 0.22593108738521131 0 -0.33370932118784702 0.24721270588692151 0 -0.35343391594171342 0.25415602690874428 0 -0.36999811548425843 0.24403541582306271 0 -0.34891688895579709 0.22593108738521131 0 -0.35343391594171342 0.25415602690874428 0 -0.34891688895579709 0.22593108738521131 0 -0.35343391594171342 0.25415602690874428 0 -0.37595011030420039 0.22978160816023471 0 -0.34891688895579709 0.22593108738521131 0 -0.36400168043952141 0.21684667364938839 0 -0.37595011030420039 0.22978160816023471 0 -0.36999811548425843 0.24403541582306271 0 -0.34891688895579709 0.22593108738521131 0 -0.34891688895579709 0.22593108738521131 0 -0.34439986196988082 0.19770614786167831 0 -0.34891688895579709 0.22593108738521131 0 -0.36400168043952141 0.21684667364938839 0 -0.34439986196988082 0.19770614786167831 0 -0.37595011030420039 0.22978160816023471 0 -0.36400168043952141 0.21684667364938839 0 -0.37318914960858662 0.20182442623768179 0 -0.36400168043952141 0.21684667364938839 0 -0.37318914960858662 0.20182442623768179 0 -0.3598781022474774 0.19219028427608489 0 -0.37595011030420039 0.22978160816023471 0 -0.37318914960858662 0.20182442623768179 0 -0.3704281889129728 0.17386724431512879 0 -0.37318914960858662 0.20182442623768179 0 -0.3598781022474774 0.19219028427608489 0 -0.3704281889129728 0.17386724431512879 0 -0.37318914960858662 0.20182442623768179 0 -0.36400168043952141 0.21684667364938839 0 -0.3598781022474774 0.19219028427608489 0 -0.34439986196988082 0.19770614786167831 0 -0.35191522382812618 0.17781693252833569 0 -0.3598781022474774 0.19219028427608489 0 -0.34439986196988082 0.19770614786167831 0 -0.33227007044034912 0.18110949600348231 0 -0.34439986196988082 0.19770614786167831 0 -0.32218660962690771 0.19453279750090291 0 -0.34439986196988082 0.19770614786167831 0 -0.32218660962690771 0.19453279750090291 0 -0.32585108444444028 0.2115742607558537 0 -0.31618483198826958 0.18113801714152369 0 -0.32218660962690771 0.19453279750090291 0 -0.30518743846641377 0.191594972281524 0 -0.32218660962690771 0.19453279750090291 0 -0.31317930855649789 0.2056059691452371 0 -0.30518743846641377 0.191594972281524 0 -0.32218660962690771 0.19453279750090291 0 -0.31317930855649789 0.2056059691452371 0 -0.32585108444444028 0.2115742607558537 0 -0.31317930855649789 0.2056059691452371 0 -0.32585108444444028 0.2115742607558537 0 -0.3109923206506211 0.21914608154957119 0 -0.34891688895579709 0.22593108738521131 0 -0.34439986196988082 0.19770614786167831 0 -0.32585108444444028 0.2115742607558537 0 -0.34891688895579709 0.22593108738521131 0 -0.32585108444444028 0.2115742607558537 0 -0.32149413344710259 0.2303324082989317 0 -0.32585108444444028 0.2115742607558537 0 -0.32149413344710259 0.2303324082989317 0 -0.3109923206506211 0.21914608154957119 0 -0.32149413344710259 0.2303324082989317 0 -0.33370932118784702 0.24721270588692151 0 -0.3140295821328859 0.25661908962302432 0 -0.34891688895579709 0.22593108738521131 0 -0.32149413344710259 0.2303324082989317 0 -0.33370932118784702 0.24721270588692151 0 -0.29456223838123857 0.23494685560471429 0 -0.27922229857353581 0.2377571716516165 0 -0.28924963833865119 0.25662279726630949 0 -0.29456223838123857 0.23494685560471429 0 -0.28924963833865119 0.25662279726630949 0 -0.29456223838123857 0.23494685560471429 0 -0.3140295821328859 0.25661908962302432 0 -0.28924963833865119 0.25662279726630949 0 -0.32149413344710259 0.2303324082989317 0 -0.29456223838123857 0.23494685560471429 0 -0.3140295821328859 0.25661908962302432 0 -0.29456223838123857 0.23494685560471429 0 -0.29987483842382578 0.21327091394311901 0 -0.29456223838123857 0.23494685560471429 0 -0.3109923206506211 0.21914608154957119 0 -0.29987483842382578 0.21327091394311901 0 -0.32149413344710259 0.2303324082989317 0 -0.29456223838123857 0.23494685560471429 0 -0.3109923206506211 0.21914608154957119 0 -0.29456223838123857 0.23494685560471429 0 -0.28559722141464539 0.2238337380796695 0 -0.29987483842382578 0.21327091394311901 0 -0.29456223838123857 0.23494685560471429 0 -0.28559722141464539 0.2238337380796695 0 -0.27922229857353581 0.2377571716516165 0 -0.28559722141464539 0.2238337380796695 0 -0.28694399575348162 0.2089418883184184 0 -0.29987483842382578 0.21327091394311901 0 -0.31317930855649789 0.2056059691452371 0 -0.29987483842382578 0.21327091394311901 0 -0.30518743846641377 0.191594972281524 0 -0.28694399575348162 0.2089418883184184 0 -0.29987483842382578 0.21327091394311901 0 -0.30518743846641377 0.191594972281524 0 -0.31317930855649789 0.2056059691452371 0 -0.3109923206506211 0.21914608154957119 0 -0.29987483842382578 0.21327091394311901 0 -0.29987483842382578 0.21327091394311901 0 -0.30518743846641377 0.191594972281524 0 -0.28694399575348162 0.2089418883184184 0 -0.28790045706955197 0.19238138912823699 0 -0.27982586280140459 0.19790950176002869 0 -0.28694399575348162 0.2089418883184184 0 -0.30518743846641377 0.191594972281524 0 -0.28694399575348162 0.2089418883184184 0 -0.30518743846641377 0.191594972281524 0 -0.28790045706955197 0.19238138912823699 0 -0.26010777135593222 0.18842696646094859 0 -0.26932415696888068 0.20610220426381809 0 -0.27513484141370431 0.18421252532964119 0 -0.26932415696888068 0.20610220426381809 0 -0.27513484141370431 0.18421252532964119 0 -0.27982586280140459 0.19790950176002869 0 -0.26932415696888068 0.20610220426381809 0 -0.27513484141370431 0.18421252532964119 0 -0.28790045706955197 0.19238138912823699 0 -0.27982586280140459 0.19790950176002869 0 -0.27513484141370431 0.18421252532964119 0 -0.26010777135593222 0.18842696646094859 0 -0.25526582845676382 0.20120504055455479 0 -0.26932415696888068 0.20610220426381809 0 -0.26010777135593222 0.18842696646094859 0 -0.25526582845676382 0.20120504055455479 0 -0.24626160846194331 0.1908969395737985 0 -0.25526582845676382 0.20120504055455479 0 -0.25928656524005339 0.21281780106370049 0 -0.26932415696888068 0.20610220426381809 0 -0.25928656524005339 0.21281780106370049 0 -0.26932415696888068 0.20610220426381809 0 -0.2635134725240571 0.22799188319799521 0 -0.25526582845676382 0.20120504055455479 0 -0.25051188917443029 0.21282450007166201 0 -0.25928656524005339 0.21281780106370049 0 -0.25051188917443029 0.21282450007166201 0 -0.25928656524005339 0.21281780106370049 0 -0.25583614873833388 0.22066379978710099 0 -0.28694399575348162 0.2089418883184184 0 -0.26870055304054891 0.22628880435531251 0 -0.26932415696888068 0.20610220426381809 0 -0.2635134725240571 0.22799188319799521 0 -0.28694399575348162 0.2089418883184184 0 -0.26932415696888068 0.20610220426381809 0 -0.26870055304054891 0.22628880435531251 0 -0.28694399575348162 0.2089418883184184 0 -0.27982586280140459 0.19790950176002869 0 -0.26932415696888068 0.20610220426381809 0 -0.28559722141464539 0.2238337380796695 0 -0.28694399575348162 0.2089418883184184 0 -0.26870055304054891 0.22628880435531251 0 -0.28559722141464539 0.2238337380796695 0 -0.26870055304054891 0.22628880435531251 0 -0.27922229857353581 0.2377571716516165 0 -0.26932415696888068 0.20610220426381809 0 -0.26870055304054891 0.22628880435531251 0 -0.2635134725240571 0.22799188319799521 0 -0.26870055304054891 0.22628880435531251 0 -0.26707790692851863 0.2389157350558874 0 -0.27922229857353581 0.2377571716516165 0 -0.25449942054154362 0.22934195390922801 0 -0.2635134725240571 0.22799188319799521 0 -0.25045711032761642 0.24363572039220641 0 -0.25449942054154362 0.22934195390922801 0 -0.25045711032761642 0.24363572039220641 0 -0.24819095057616741 0.2250764122596095 0 -0.25928656524005339 0.21281780106370049 0 -0.25583614873833388 0.22066379978710099 0 -0.2635134725240571 0.22799188319799521 0 -0.25583614873833388 0.22066379978710099 0 -0.25449942054154362 0.22934195390922801 0 -0.2635134725240571 0.22799188319799521 0 -0.26870055304054891 0.22628880435531251 0 -0.2635134725240571 0.22799188319799521 0 -0.25045711032761642 0.24363572039220641 0 -0.25051188917443029 0.21282450007166201 0 -0.25583614873833388 0.22066379978710099 0 -0.24819095057616741 0.2250764122596095 0 -0.25583614873833388 0.22066379978710099 0 -0.25449942054154362 0.22934195390922801 0 -0.24819095057616741 0.2250764122596095 0 -0.26870055304054891 0.22628880435531251 0 -0.25045711032761642 0.24363572039220641 0 -0.26707790692851863 0.2389157350558874 0 -0.25045711032761642 0.24363572039220641 0 -0.26993166577237349 0.24798124382441419 0 -0.26707790692851863 0.2389157350558874 0 -0.26870055304054891 0.22628880435531251 0 -0.25045711032761642 0.24363572039220641 0 -0.26993166577237349 0.24798124382441419 0 -0.27922229857353581 0.2377571716516165 0 -0.28924963833865119 0.25662279726630949 0 -0.26993166577237349 0.24798124382441419 0 -0.26707790692851863 0.2389157350558874 0 -0.27922229857353581 0.2377571716516165 0 -0.28675621030335141 0.14043316746128759 0 -0.28094552585852778 0.1623228463954644 0 -0.28675621030335141 0.14043316746128759 0 -0.29861985190732532 0.156861393007491 0 -0.28094552585852778 0.1623228463954644 0 -0.28675621030335141 0.14043316746128759 0 -0.27967509235997401 0.12850249167489669 0 -0.29962721462886172 0.12381548754292571 0 -0.28675621030335141 0.14043316746128759 0 -0.30545747947471119 0.13892787316644381 0 -0.29962721462886172 0.12381548754292571 0 -0.32002365322270898 0.1310617262328076 0 -0.29962721462886172 0.12381548754292571 0 -0.32002365322270898 0.1310617262328076 0 -0.30545747947471119 0.13892787316644381 0 -0.29962721462886172 0.12381548754292571 0 -0.31507824830394332 0.15123947491571299 0 -0.30545747947471119 0.13892787316644381 0 -0.29861985190732532 0.156861393007491 0 -0.28675621030335141 0.14043316746128759 0 -0.30545747947471119 0.13892787316644381 0 -0.29861985190732532 0.156861393007491 0 -0.29861985190732532 0.156861393007491 0 -0.31013284338517821 0.17141722359861841 0 -0.29284329883900539 0.17744516294435639 0 -0.31507824830394332 0.15123947491571299 0 -0.29861985190732532 0.156861393007491 0 -0.31013284338517821 0.17141722359861841 0 -0.31618483198826958 0.18113801714152369 0 -0.30518743846641377 0.191594972281524 0 -0.31013284338517821 0.17141722359861841 0 -0.30518743846641377 0.191594972281524 0 -0.31013284338517821 0.17141722359861841 0 -0.29284329883900539 0.17744516294435639 0 -0.30518743846641377 0.191594972281524 0 -0.31013284338517821 0.17141722359861841 0 -0.31618483198826958 0.18113801714152369 0 -0.30518743846641377 0.191594972281524 0 -0.29284329883900539 0.17744516294435639 0 -0.28094552585852778 0.1623228463954644 0 -0.27513484141370431 0.18421252532964119 0 -0.28790045706955197 0.19238138912823699 0 -0.29284329883900539 0.17744516294435639 0 -0.27513484141370431 0.18421252532964119 0 -0.30518743846641377 0.191594972281524 0 -0.28790045706955197 0.19238138912823699 0 -0.29284329883900539 0.17744516294435639 0 -0.29861985190732532 0.156861393007491 0 -0.29284329883900539 0.17744516294435639 0 -0.28094552585852778 0.1623228463954644 0 -0.28094552585852778 0.1623228463954644 0 -0.26526483302520132 0.17043968526237169 0 -0.26878919418934938 0.152659849577398 0 -0.28094552585852778 0.1623228463954644 0 -0.27513484141370431 0.18421252532964119 0 -0.26526483302520132 0.17043968526237169 0 -0.28094552585852778 0.1623228463954644 0 -0.27513484141370431 0.18421252532964119 0 -0.26010777135593222 0.18842696646094859 0 -0.27513484141370431 0.18421252532964119 0 -0.26526483302520132 0.17043968526237169 0 -0.26010777135593222 0.18842696646094859 0 -0.26526483302520132 0.17043968526237169 0 -0.2497056474311469 0.1755171798261628 0 -0.26010777135593222 0.18842696646094859 0 -0.2497056474311469 0.1755171798261628 0 -0.24626160846194331 0.1908969395737985 0 -0.26526483302520132 0.17043968526237169 0 -0.25540322622398609 0.15989595989159269 0 -0.26878919418934938 0.152659849577398 0 -0.26526483302520132 0.17043968526237169 0 -0.25540322622398609 0.15989595989159269 0 -0.2497056474311469 0.1755171798261628 0 -0.25540322622398609 0.15989595989159269 0 -0.25706893222783389 0.14503385368758079 0 -0.24607893308399709 0.15010989851926379 0 -0.25706893222783389 0.14503385368758079 0 -0.26878919418934938 0.152659849577398 0 -0.26729643749719623 0.13783358476609101 0 -0.25540322622398609 0.15989595989159269 0 -0.25706893222783389 0.14503385368758079 0 -0.26878919418934938 0.152659849577398 0 -0.28675621030335141 0.14043316746128759 0 -0.28094552585852778 0.1623228463954644 0 -0.26878919418934938 0.152659849577398 0 -0.28675621030335141 0.14043316746128759 0 -0.26878919418934938 0.152659849577398 0 -0.26729643749719623 0.13783358476609101 0 -0.28675621030335141 0.14043316746128759 0 -0.27967509235997401 0.12850249167489669 0 -0.26729643749719623 0.13783358476609101 0 -0.27967509235997401 0.12850249167489669 0 -0.26729643749719623 0.13783358476609101 0 -0.26546482333544791 0.12386096975113051 0 -0.26729643749719623 0.13783358476609101 0 -0.25752404103732751 0.13367538580379701 0 -0.26546482333544791 0.12386096975113051 0 -0.25752404103732751 0.13367538580379701 0 -0.25273500344119731 0.1236041196145701 0 -0.26546482333544791 0.12386096975113051 0 -0.25706893222783389 0.14503385368758079 0 -0.26729643749719623 0.13783358476609101 0 -0.25752404103732751 0.13367538580379701 0 -0.25706893222783389 0.14503385368758079 0 -0.25752404103732751 0.13367538580379701 0 -0.24663566944123119 0.13788522906596781 0 -0.25752404103732751 0.13367538580379701 0 -0.25273500344119731 0.1236041196145701 0 -0.24663566944123119 0.13788522906596781 0 -0.25273500344119731 0.1236041196145701 0 -0.25589673383806139 0.10827936831430771 0 -0.2437612768425127 0.1264934834278312 0 -0.25595073737572299 0.10097814733788971 0 -0.25589673383806139 0.10827936831430771 0 -0.2437612768425127 0.1264934834278312 0 -0.25273500344119731 0.1236041196145701 0 -0.25883433744116319 0.1093230101631724 0 -0.25273500344119731 0.1236041196145701 0 -0.25589673383806139 0.10827936831430771 0 -0.25883433744116319 0.1093230101631724 0 -0.25273500344119731 0.1236041196145701 0 -0.26546482333544791 0.12386096975113051 0 -0.25883433744116319 0.1093230101631724 0 -0.25595073737572299 0.10097814733788971 0 -0.25883433744116319 0.1093230101631724 0 -0.26884396817397249 0.085886249352218613 0 -0.25883433744116319 0.1093230101631724 0 -0.26884396817397249 0.085886249352218613 0 -0.25595073737572299 0.10097814733788971 0 -0.24671611800426321 0.1059645128826938 0 -0.24936280118073731 0.095837282057005563 0 -0.25595073737572299 0.10097814733788971 0 -0.25375978814058769 0.086747229721519409 0 -0.24936280118073731 0.095837282057005563 0 -0.25595073737572299 0.10097814733788971 0 -0.25589673383806139 0.10827936831430771 0 -0.25883433744116319 0.1093230101631724 0 -0.25589673383806139 0.10827936831430771 0 -0.25883433744116319 0.1093230101631724 0 -0.25883433744116319 0.1093230101631724 0 -0.27594260339893661 0.1005371193769156 0 -0.27923077603501267 0.1165692488530486 0 -0.25883433744116319 0.1093230101631724 0 -0.27594260339893661 0.1005371193769156 0 -0.26884396817397249 0.085886249352218613 0 -0.27594260339893661 0.1005371193769156 0 -0.28681370984592242 0.094017658414540212 0 -0.27896065233857781 0.088607045190109382 0 -0.26546482333544791 0.12386096975113051 0 -0.25883433744116319 0.1093230101631724 0 -0.27923077603501267 0.1165692488530486 0 -0.25883433744116319 0.1093230101631724 0 -0.27923077603501267 0.1165692488530486 0 -0.27967509235997401 0.12850249167489669 0 -0.26546482333544791 0.12386096975113051 0 -0.27923077603501267 0.1165692488530486 0 -0.27923077603501267 0.1165692488530486 0 -0.28982305067343372 0.1075802136315171 0 -0.29962721462886172 0.12381548754292571 0 -0.27923077603501267 0.1165692488530486 0 -0.29962721462886172 0.12381548754292571 0 -0.27967509235997401 0.12850249167489669 0 -0.27923077603501267 0.1165692488530486 0 -0.29962721462886172 0.12381548754292571 0 -0.27594260339893661 0.1005371193769156 0 -0.27923077603501267 0.1165692488530486 0 -0.28982305067343372 0.1075802136315171 0 -0.28681370984592242 0.094017658414540212 0 -0.28982305067343372 0.1075802136315171 0 -0.30423721869932269 0.1041667734235983 0 -0.27594260339893661 0.1005371193769156 0 -0.28681370984592242 0.094017658414540212 0 -0.28982305067343372 0.1075802136315171 0 -0.28681370984592242 0.094017658414540212 0 -0.30423721869932269 0.1041667734235983 0 -0.29996822404875428 0.085670113586550814 0 -0.30423721869932269 0.1041667734235983 0 -0.29996822404875428 0.085670113586550814 0 -0.31485839972047341 0.091895479568931487 0 -0.30423721869932269 0.1041667734235983 0 -0.29962721462886172 0.12381548754292571 0 -0.31275067939429319 0.1174960684229327 0 -0.32002365322270898 0.1310617262328076 0 -0.29962721462886172 0.12381548754292571 0 -0.31275067939429319 0.1174960684229327 0 -0.28982305067343372 0.1075802136315171 0 -0.30423721869932269 0.1041667734235983 0 -0.29962721462886172 0.12381548754292571 0 -0.29673557460461752 0.071036086576749313 0 -0.30680361733535938 0.056225534010597489 0 -0.31406039897721522 0.074746566992624927 0 -0.29996822404875428 0.085670113586550814 0 -0.29673557460461752 0.071036086576749313 0 -0.31406039897721522 0.074746566992624927 0 -0.29996822404875428 0.085670113586550814 0 -0.31485839972047341 0.091895479568931487 0 -0.31406039897721522 0.074746566992624927 0 -0.29996822404875428 0.085670113586550814 0 -0.28417426094823078 0.078577787912347083 0 -0.29673557460461752 0.071036086576749313 0 -0.28681370984592242 0.094017658414540212 0 -0.29996822404875428 0.085670113586550814 0 -0.28417426094823078 0.078577787912347083 0 -0.28681370984592242 0.094017658414540212 0 -0.28417426094823078 0.078577787912347083 0 -0.27896065233857781 0.088607045190109382 0 -0.28417426094823078 0.078577787912347083 0 -0.28810462834562339 0.067307946919099804 0 -0.27885359890678169 0.062449488541264801 0 -0.28417426094823078 0.078577787912347083 0 -0.29673557460461752 0.071036086576749313 0 -0.28810462834562339 0.067307946919099804 0 -0.29673557460461752 0.071036086576749313 0 -0.28810462834562339 0.067307946919099804 0 -0.29265507892286402 0.057168424646038031 0 -0.26814019790893329 0.075462811247948375 0 -0.26884396817397249 0.085886249352218613 0 -0.27885359890678169 0.062449488541264801 0 -0.26814019790893329 0.075462811247948375 0 -0.28032965844214358 0.04994747515800705 0 -0.27885359890678169 0.062449488541264801 0 -0.26884396817397249 0.085886249352218613 0 -0.27885359890678169 0.062449488541264801 0 -0.26814019790893329 0.075462811247948375 0 -0.28032965844214358 0.04994747515800705 0 -0.28417426094823078 0.078577787912347083 0 -0.26884396817397249 0.085886249352218613 0 -0.27885359890678169 0.062449488541264801 0 -0.27594260339893661 0.1005371193769156 0 -0.27896065233857781 0.088607045190109382 0 -0.26884396817397249 0.085886249352218613 0 -0.28417426094823078 0.078577787912347083 0 -0.27896065233857781 0.088607045190109382 0 -0.26884396817397249 0.085886249352218613 0 -0.25595073737572299 0.10097814733788971 0 -0.26814019790893329 0.075462811247948375 0 -0.25375978814058769 0.086747229721519409 0 -0.25595073737572299 0.10097814733788971 0 -0.26814019790893329 0.075462811247948375 0 -0.25595073737572299 0.10097814733788971 0 -0.26814019790893329 0.075462811247948375 0 -0.26884396817397249 0.085886249352218613 0 -0.26814019790893329 0.075462811247948375 0 -0.25375978814058769 0.086747229721519409 0 -0.25545510737195509 0.074404841233968427 0 -0.25375978814058769 0.086747229721519409 0 -0.25545510737195509 0.074404841233968427 0 -0.24449910376866571 0.079759326066660169 0 -0.26242606202310259 0.067399179882392191 0 -0.25545510737195509 0.074404841233968427 0 -0.24735934354010111 0.048560543304392148 0 -0.26814019790893329 0.075462811247948375 0 -0.26242606202310259 0.067399179882392191 0 -0.26504333914448958 0.056840534120428783 0 -0.26814019790893329 0.075462811247948375 0 -0.26242606202310259 0.067399179882392191 0 -0.25545510737195509 0.074404841233968427 0 -0.26504333914448958 0.056840534120428783 0 -0.26557370857375268 0.041173675233807383 0 -0.24735934354010111 0.048560543304392148 0 -0.25545510737195509 0.074404841233968427 0 -0.24735934354010111 0.048560543304392148 0 -0.26242606202310259 0.067399179882392191 0 -0.26504333914448958 0.056840534120428783 0 -0.24735934354010111 0.048560543304392148 0 -0.2538421426984831 0.032030530267164042 0 -0.26557370857375268 0.041173675233807383 0 -0.24735934354010111 0.048560543304392148 0 -0.2538421426984831 0.032030530267164042 0 -0.26557370857375268 0.041173675233807383 0 -0.26663342824123337 0.022926601184129529 0 -0.26557370857375268 0.041173675233807383 0 -0.27726664531588591 0.031686248792015127 0 -0.26663342824123337 0.022926601184129529 0 -0.26557370857375268 0.041173675233807383 0 -0.27726664531588591 0.031686248792015127 0 -0.28032965844214358 0.04994747515800705 0 -0.26814019790893329 0.075462811247948375 0 -0.26504333914448958 0.056840534120428783 0 -0.28032965844214358 0.04994747515800705 0 -0.26504333914448958 0.056840534120428783 0 -0.26557370857375268 0.041173675233807383 0 -0.28032965844214358 0.04994747515800705 0 -0.25553597653539439 0.0095935892600428532 0 -0.26663342824123337 0.022926601184129529 0 -0.27337512905471228 0.0080427144041445506 0 -0.26796219795245502 -0.0029687651997826361 0 -0.25553597653539439 0.0095935892600428532 0 -0.27337512905471228 0.0080427144041445506 0 -0.2538421426984831 0.032030530267164042 0 -0.25553597653539439 0.0095935892600428532 0 -0.26663342824123337 0.022926601184129529 0 -0.27726664531588591 0.031686248792015127 0 -0.27988958711253159 0.018292367540469191 0 -0.26663342824123337 0.022926601184129529 0 -0.27988958711253159 0.018292367540469191 0 -0.26663342824123337 0.022926601184129529 0 -0.27337512905471228 0.0080427144041445506 0 -0.27988958711253159 0.018292367540469191 0 -0.27337512905471228 0.0080427144041445506 0 -0.28594873904622642 0.0060220758898533724 0 -0.28428084544043303 -0.0056095822498450102 0 -0.27337512905471228 0.0080427144041445506 0 -0.28594873904622642 0.0060220758898533724 0 -0.30470857950856411 -0.0010831970218755369 0 -0.29308960056540129 0.0083733541148227047 0 -0.29251911897535388 0.02443213906806576 0 -0.29417512086228659 -0.001696616376471291 0 -0.28594873904622642 0.0060220758898533724 0 -0.29308960056540129 0.0083733541148227047 0 -0.27988958711253159 0.018292367540469191 0 -0.28594873904622642 0.0060220758898533724 0 -0.28809644443457572 0.01419236901454122 0 -0.28594873904622642 0.0060220758898533724 0 -0.28809644443457572 0.01419236901454122 0 -0.29308960056540129 0.0083733541148227047 0 -0.29887286037240002 0.0155759669193573 0 -0.28886322963959088 0.039012727730311017 0 -0.29887286037240002 0.0155759669193573 0 -0.28886322963959088 0.039012727730311017 0 -0.30197405484791201 0.03233259735877108 0 -0.29251911897535388 0.02443213906806576 0 -0.29887286037240002 0.0155759669193573 0 -0.28886322963959088 0.039012727730311017 0 -0.28809644443457572 0.01419236901454122 0 -0.29308960056540129 0.0083733541148227047 0 -0.29251911897535388 0.02443213906806576 0 -0.27988958711253159 0.018292367540469191 0 -0.28809644443457572 0.01419236901454122 0 -0.29251911897535388 0.02443213906806576 0 -0.27726664531588591 0.031686248792015127 0 -0.27988958711253159 0.018292367540469191 0 -0.29251911897535388 0.02443213906806576 0 -0.29887286037240002 0.0155759669193573 0 -0.30197405484791201 0.03233259735877108 0 -0.314666678730188 0.022006181523243171 0 -0.30982358942777027 -0.0030013802132798752 0 -0.29887286037240002 0.0155759669193573 0 -0.314666678730188 0.022006181523243171 0 -0.30470857950856411 -0.0010831970218755369 0 -0.29251911897535388 0.02443213906806576 0 -0.30888249110521099 -0.0078607938915956459 0 -0.30982358942777027 -0.0030013802132798752 0 -0.29887286037240002 0.0155759669193573 0 -0.30888249110521099 -0.0078607938915956459 0 -0.29887286037240002 0.0155759669193573 0 -0.30888249110521099 -0.0078607938915956459 0 -0.30470857950856411 -0.0010831970218755369 0 -0.29887286037240002 0.0155759669193573 0 -0.30982358942777027 -0.0030013802132798752 0 -0.314666678730188 0.022006181523243171 0 -0.30470857950856411 -0.0010831970218755369 0 -0.29251911897535388 0.02443213906806576 0 -0.29887286037240002 0.0155759669193573 0 -0.29417512086228659 -0.001696616376471291 0 -0.30470857950856411 -0.0010831970218755369 0 -0.29308960056540129 0.0083733541148227047 0 -0.28032965844214358 0.04994747515800705 0 -0.27885359890678169 0.062449488541264801 0 -0.28886322963959088 0.039012727730311017 0 -0.27885359890678169 0.062449488541264801 0 -0.29265507892286402 0.057168424646038031 0 -0.28886322963959088 0.039012727730311017 0 -0.27885359890678169 0.062449488541264801 0 -0.28886322963959088 0.039012727730311017 0 -0.29265507892286402 0.057168424646038031 0 -0.28886322963959088 0.039012727730311017 0 -0.299421659865722 0.045000355031982783 0 -0.28810462834562339 0.067307946919099804 0 -0.27885359890678169 0.062449488541264801 0 -0.29265507892286402 0.057168424646038031 0 -0.27726664531588591 0.031686248792015127 0 -0.28032965844214358 0.04994747515800705 0 -0.29251911897535388 0.02443213906806576 0 -0.28032965844214358 0.04994747515800705 0 -0.29251911897535388 0.02443213906806576 0 -0.28886322963959088 0.039012727730311017 0 -0.28032965844214358 0.04994747515800705 0 -0.29251911897535388 0.02443213906806576 0 -0.28886322963959088 0.039012727730311017 0 -0.299421659865722 0.045000355031982783 0 -0.30197405484791201 0.03233259735877108 0 -0.30197405484791201 0.03233259735877108 0 -0.30927937268043448 0.039873019763725953 0 -0.314666678730188 0.022006181523243171 0 -0.299421659865722 0.045000355031982783 0 -0.30197405484791201 0.03233259735877108 0 -0.30927937268043448 0.039873019763725953 0 -0.30927937268043448 0.039873019763725953 0 -0.30680361733535938 0.056225534010597489 0 -0.3191731441965498 0.047567289701347278 0 -0.299421659865722 0.045000355031982783 0 -0.30927937268043448 0.039873019763725953 0 -0.30680361733535938 0.056225534010597489 0 -0.29265507892286402 0.057168424646038031 0 -0.299421659865722 0.045000355031982783 0 -0.30680361733535938 0.056225534010597489 0 -0.29673557460461752 0.071036086576749313 0 -0.29265507892286402 0.057168424646038031 0 -0.30680361733535938 0.056225534010597489 0 -0.32225186190673449 0.059377664188140472 0 -0.3191731441965498 0.047567289701347278 0 -0.33976341947063959 0.046941704009176959 0 -0.30680361733535938 0.056225534010597489 0 -0.32225186190673449 0.059377664188140472 0 -0.3191731441965498 0.047567289701347278 0 -0.30927937268043448 0.039873019763725953 0 -0.3229357217563098 0.035308927906917177 0 -0.314666678730188 0.022006181523243171 0 -0.30927937268043448 0.039873019763725953 0 -0.3191731441965498 0.047567289701347278 0 -0.3229357217563098 0.035308927906917177 0 -0.3191731441965498 0.047567289701347278 0 -0.3229357217563098 0.035308927906917177 0 -0.33976341947063959 0.046941704009176959 0 -0.3229357217563098 0.035308927906917177 0 -0.33976341947063959 0.046941704009176959 0 -0.33136976137249879 0.022072944168094789 0 -0.32225186190673449 0.059377664188140472 0 -0.33976341947063959 0.046941704009176959 0 -0.33145872955390848 0.071407226226955695 0 -0.33976341947063959 0.046941704009176959 0 -0.33145872955390848 0.071407226226955695 0 -0.30982358942777027 -0.0030013802132798752 0 -0.32507815226155978 0.0078470452659696287 0 -0.314666678730188 0.022006181523243171 0 -0.32507815226155978 0.0078470452659696287 0 -0.314666678730188 0.022006181523243171 0 -0.33136976137249879 0.022072944168094789 0 -0.3229357217563098 0.035308927906917177 0 -0.314666678730188 0.022006181523243171 0 -0.33136976137249879 0.022072944168094789 0 -0.33976341947063959 0.046941704009176959 0 -0.33136976137249879 0.022072944168094789 0 -0.34806810938737059 0.022476181791398368 0 -0.33136976137249879 0.022072944168094789 0 -0.33896152635375959 0.0088066849973043922 0 -0.34806810938737059 0.022476181791398368 0 -0.35637279930410171 -0.0019893404263803048 0 -0.33391880944326718 -0.0063734058125605297 0 -0.33896152635375959 0.0088066849973043922 0 -0.32507815226155978 0.0078470452659696287 0 -0.33136976137249879 0.022072944168094789 0 -0.33896152635375959 0.0088066849973043922 0 -0.33391880944326718 -0.0063734058125605297 0 -0.32507815226155978 0.0078470452659696287 0 -0.33896152635375959 0.0088066849973043922 0 -0.35637279930410171 -0.0019893404263803048 0 -0.34806810938737059 0.022476181791398368 0 -0.35637279930410171 -0.0019893404263803048 0 -0.33896152635375959 0.0088066849973043922 0 -0.34806810938737059 0.022476181791398368 0 -0.35637279930410171 -0.0019893404263803048 0 -0.35801402945876409 -0.0097454314118406681 0 -0.36328700993817309 0.019136662271713761 0 -0.35637279930410171 -0.0019893404263803048 0 -0.34806810938737059 0.022476181791398368 0 -0.36328700993817309 0.019136662271713761 0 -0.34806810938737059 0.022476181791398368 0 -0.36328700993817309 0.019136662271713761 0 -0.35474283797702061 0.037484702676813413 0 -0.3788418722442029 0.01034356504807175 0 -0.36328700993817309 0.019136662271713761 0 -0.36747350207069668 0.034938287300385923 0 -0.3788418722442029 0.01034356504807175 0 -0.36747350207069668 0.034938287300385923 0 -0.35801402945876409 -0.0097454314118406681 0 -0.36328700993817309 0.019136662271713761 0 -0.3788418722442029 0.01034356504807175 0 -0.36328700993817309 0.019136662271713761 0 -0.36856376189484402 0.001934125399975535 0 -0.37411213593823611 -0.0119982943080427 0 -0.3788418722442029 0.01034356504807175 0 -0.36856376189484402 0.001934125399975535 0 -0.35801402945876409 -0.0097454314118406681 0 -0.36328700993817309 0.019136662271713761 0 -0.36856376189484402 0.001934125399975535 0 -0.33976341947063959 0.046941704009176959 0 -0.35224424497583301 0.06128169998581981 0 -0.34365986517888958 0.071559289906448303 0 -0.33976341947063959 0.046941704009176959 0 -0.35567220172851682 0.050430402215009627 0 -0.35224424497583301 0.06128169998581981 0 -0.35567220172851682 0.050430402215009627 0 -0.35224424497583301 0.06128169998581981 0 -0.36172356783104731 0.062303658782236648 0 -0.33976341947063959 0.046941704009176959 0 -0.34806810938737059 0.022476181791398368 0 -0.33976341947063959 0.046941704009176959 0 -0.35567220172851682 0.050430402215009627 0 -0.35474283797702061 0.037484702676813413 0 -0.33976341947063959 0.046941704009176959 0 -0.34806810938737059 0.022476181791398368 0 -0.35474283797702061 0.037484702676813413 0 -0.36328700993817309 0.019136662271713761 0 -0.36747350207069668 0.034938287300385923 0 -0.36855999041758208 0.04801875595526809 0 -0.36328700993817309 0.019136662271713761 0 -0.36855999041758208 0.04801875595526809 0 -0.35567220172851682 0.050430402215009627 0 -0.35474283797702061 0.037484702676813413 0 -0.36855999041758208 0.04801875595526809 0 -0.36328700993817309 0.019136662271713761 0 -0.35474283797702061 0.037484702676813413 0 -0.36855999041758208 0.04801875595526809 0 -0.38002186399904031 0.040481353950748707 0 -0.36747350207069668 0.034938287300385923 0 -0.36855999041758208 0.04801875595526809 0 -0.36855999041758208 0.04801875595526809 0 -0.37383297089699108 0.076900849638822669 0 -0.36855999041758208 0.04801875595526809 0 -0.36172356783104731 0.062303658782236648 0 -0.37383297089699108 0.076900849638822669 0 -0.35567220172851682 0.050430402215009627 0 -0.36855999041758208 0.04801875595526809 0 -0.36172356783104731 0.062303658782236648 0 -0.36172356783104731 0.062303658782236648 0 -0.37383297089699108 0.076900849638822669 0 -0.3583084311363135 0.074886586116263004 0 -0.35224424497583301 0.06128169998581981 0 -0.36172356783104731 0.062303658782236648 0 -0.3583084311363135 0.074886586116263004 0 -0.3583084311363135 0.074886586116263004 0 -0.3495338160791171 0.087135602283766891 0 -0.34365986517888958 0.071559289906448303 0 -0.35224424497583301 0.06128169998581981 0 -0.3583084311363135 0.074886586116263004 0 -0.34365986517888958 0.071559289906448303 0 -0.3583084311363135 0.074886586116263004 0 -0.3495338160791171 0.087135602283766891 0 -0.36738540093781552 0.092408708281524171 0 -0.37383297089699108 0.076900849638822669 0 -0.3583084311363135 0.074886586116263004 0 -0.36738540093781552 0.092408708281524171 0 -0.37891579966332573 0.10487214628639061 0 -0.36738540093781552 0.092408708281524171 0 -0.36490626752174521 0.1179528804700226 0 -0.36490626752174521 0.1179528804700226 0 -0.34765681885093153 0.1235314467134202 0 -0.3452615006645654 0.1053749442051606 0 -0.36738540093781552 0.092408708281524171 0 -0.36490626752174521 0.1179528804700226 0 -0.3452615006645654 0.1053749442051606 0 -0.3495338160791171 0.087135602283766891 0 -0.36738540093781552 0.092408708281524171 0 -0.3452615006645654 0.1053749442051606 0 -0.3452615006645654 0.1053749442051606 0 -0.32533710154011719 0.1093823235247575 0 -0.33065054985752601 0.087702920816707483 0 -0.34765681885093153 0.1235314467134202 0 -0.3452615006645654 0.1053749442051606 0 -0.33461532157825957 0.12113217609242 0 -0.3452615006645654 0.1053749442051606 0 -0.33461532157825957 0.12113217609242 0 -0.32533710154011719 0.1093823235247575 0 -0.32002365322270898 0.1310617262328076 0 -0.32533710154011719 0.1093823235247575 0 -0.30423721869932269 0.1041667734235983 0 -0.31275067939429319 0.1174960684229327 0 -0.32533710154011719 0.1093823235247575 0 -0.32002365322270898 0.1310617262328076 0 -0.33461532157825957 0.12113217609242 0 -0.32533710154011719 0.1093823235247575 0 -0.32002365322270898 0.1310617262328076 0 -0.31275067939429319 0.1174960684229327 0 -0.32533710154011719 0.1093823235247575 0 -0.30423721869932269 0.1041667734235983 0 -0.32533710154011719 0.1093823235247575 0 -0.31485839972047341 0.091895479568931487 0 -0.32533710154011719 0.1093823235247575 0 -0.31485839972047341 0.091895479568931487 0 -0.33065054985752601 0.087702920816707483 0 -0.32533710154011719 0.1093823235247575 0 -0.33065054985752601 0.087702920816707483 0 -0.31485839972047341 0.091895479568931487 0 -0.31406039897721522 0.074746566992624927 0 -0.33065054985752601 0.087702920816707483 0 -0.31406039897721522 0.074746566992624927 0 -0.33145872955390848 0.071407226226955695 0 -0.33065054985752601 0.087702920816707483 0 -0.32225186190673449 0.059377664188140472 0 -0.31406039897721522 0.074746566992624927 0 -0.33145872955390848 0.071407226226955695 0 -0.30680361733535938 0.056225534010597489 0 -0.32225186190673449 0.059377664188140472 0 -0.31406039897721522 0.074746566992624927 0 -0.33976341947063959 0.046941704009176959 0 -0.33145872955390848 0.071407226226955695 0 -0.34365986517888958 0.071559289906448303 0 -0.33145872955390848 0.071407226226955695 0 -0.34365986517888958 0.071559289906448303 0 -0.33065054985752601 0.087702920816707483 0 -0.3495338160791171 0.087135602283766891 0 -0.34365986517888958 0.071559289906448303 0 -0.33065054985752601 0.087702920816707483 0 -0.3495338160791171 0.087135602283766891 0 -0.3452615006645654 0.1053749442051606 0 -0.33065054985752601 0.087702920816707483 0 -0.39221456942223848 0.47573913198506912 0 -0.37811729756025808 0.5 0 -0.40764636310990249 0.5 0 -0.39221456942223848 0.47573913198506912 0 -0.41556679578253702 0.48149896119758068 0 -0.40764636310990249 0.5 0 -0.39221456942223848 0.47573913198506912 0 -0.37811729756025808 0.5 0 -0.36980452883543607 0.4834465324852697 0 -0.39221456942223848 0.47573913198506912 0 -0.37291664837371968 0.46556447324140798 0 -0.36980452883543607 0.4834465324852697 0 -0.39221456942223848 0.47573913198506912 0 -0.38709347080002487 0.43843432851619352 0 -0.37291664837371968 0.46556447324140798 0 -0.39221456942223848 0.47573913198506912 0 -0.38709347080002487 0.43843432851619352 0 -0.41477252115024521 0.46040771730250629 0 -0.38709347080002487 0.43843432851619352 0 -0.41477252115024521 0.46040771730250629 0 -0.41899904709050578 0.44137125956882511 0 -0.41899904709050578 0.44137125956882511 0 -0.4450437246832602 0.45319684593535148 0 -0.43421333992029559 0.42979526890302411 0 -0.41477252115024521 0.46040771730250629 0 -0.41899904709050578 0.44137125956882511 0 -0.4450437246832602 0.45319684593535148 0 -0.41477252115024521 0.46040771730250629 0 -0.43299002327403457 0.47406835013696019 0 -0.4450437246832602 0.45319684593535148 0 -0.41477252115024521 0.46040771730250629 0 -0.43299002327403457 0.47406835013696019 0 -0.41556679578253702 0.48149896119758068 0 -0.39221456942223848 0.47573913198506912 0 -0.41477252115024521 0.46040771730250629 0 -0.41556679578253702 0.48149896119758068 0 -0.41556679578253702 0.48149896119758068 0 -0.40764636310990249 0.5 0 -0.43717542865954678 0.5 0 -0.43299002327403457 0.47406835013696019 0 -0.41556679578253702 0.48149896119758068 0 -0.43717542865954678 0.5 0 -0.43299002327403457 0.47406835013696019 0 -0.43717542865954678 0.5 0 -0.45587410944622481 0.47659842296767901 0 -0.45587410944622481 0.47659842296767901 0 -0.47246804025405398 0.48312754105877309 0 -0.47036748677894258 0.46531041702462472 0 -0.43717542865954678 0.5 0 -0.45587410944622481 0.47659842296767901 0 -0.46670449420919152 0.50000000000000544 0 -0.45587410944622481 0.47659842296767901 0 -0.46670449420919152 0.50000000000000544 0 -0.45587410944622481 0.47659842296767901 0 -0.46670449420919152 0.50000000000000544 0 -0.47246804025405398 0.48312754105877309 0 -0.48269852578167999 0.5 0 -0.47246804025405398 0.48312754105877309 0 -0.48669558505423127 0.47372886530156177 0 -0.48669558505423127 0.47372886530156177 0 -0.5 0.5 0 -0.5 0.46196837827663467 0 -0.46670449420919152 0.50000000000000544 0 -0.48269852578167999 0.5 0 -0.47246804025405398 0.48312754105877309 0 -0.47246804025405398 0.48312754105877309 0 -0.48669558505423127 0.47372886530156177 0 -0.47036748677894258 0.46531041702462472 0 -0.48669558505423127 0.47372886530156177 0 -0.5 0.5 0 -0.48269852578167999 0.5 0 -0.48669558505423127 0.47372886530156177 0 -0.5 0.5 0 -0.49306815056837838 0.45091777785973852 0 -0.5 0.46196837827663467 0 -0.49653407528418908 0.42964855760543108 0 -0.49306815056837838 0.45091777785973852 0 -0.49653407528418908 0.42964855760543108 0 -0.49306815056837838 0.45091777785973852 0 -0.48615250498618873 0.43851134966579097 0 -0.47469861275429498 0.4474577306031205 0 -0.49306815056837838 0.45091777785973852 0 -0.48615250498618873 0.43851134966579097 0 -0.49653407528418908 0.42964855760543108 0 -0.48669558505423127 0.47372886530156177 0 -0.49306815056837838 0.45091777785973852 0 -0.47469861275429498 0.4474577306031205 0 -0.48669558505423127 0.47372886530156177 0 -0.49306815056837838 0.45091777785973852 0 -0.5 0.46196837827663467 0 -0.48669558505423127 0.47372886530156177 0 -0.47036748677894258 0.46531041702462472 0 -0.47469861275429498 0.4474577306031205 0 -0.47036748677894258 0.46531041702462472 0 -0.47469861275429498 0.4474577306031205 0 -0.46129719488004672 0.45365821498201048 0 -0.48669558505423127 0.47372886530156177 0 -0.47469861275429498 0.4474577306031205 0 -0.47469861275429498 0.4474577306031205 0 -0.45429071645379959 0.43809599748642208 0 -0.46129719488004672 0.45365821498201048 0 -0.45429071645379959 0.43809599748642208 0 -0.46129719488004672 0.45365821498201048 0 -0.4450437246832602 0.45319684593535148 0 -0.45587410944622481 0.47659842296767901 0 -0.47036748677894258 0.46531041702462472 0 -0.46129719488004672 0.45365821498201048 0 -0.45587410944622481 0.47659842296767901 0 -0.46129719488004672 0.45365821498201048 0 -0.4450437246832602 0.45319684593535148 0 -0.45587410944622481 0.47659842296767901 0 -0.4450437246832602 0.45319684593535148 0 -0.43299002327403457 0.47406835013696019 0 -0.45587410944622481 0.47659842296767901 0 -0.4450437246832602 0.45319684593535148 0 -0.4450437246832602 0.45319684593535148 0 -0.43421333992029559 0.42979526890302411 0 -0.45429071645379959 0.43809599748642208 0 -0.4450437246832602 0.45319684593535148 0 -0.43421333992029559 0.42979526890302411 0 -0.45429071645379959 0.43809599748642208 0 -0.44778978603054143 0.42328132859034739 0 -0.43421333992029559 0.42979526890302411 0 -0.44778978603054143 0.42328132859034739 0 -0.44431292075356421 0.4115394934434875 0 -0.43421333992029559 0.42979526890302411 0 -0.44431292075356421 0.4115394934434875 0 -0.43504429931119232 0.40431372549539291 0 -0.43421333992029559 0.42979526890302411 0 -0.44778978603054143 0.42328132859034739 0 -0.44431292075356421 0.4115394934434875 0 -0.45716791068658658 0.40784742819528169 0 -0.44778978603054143 0.42328132859034739 0 -0.45716791068658658 0.40784742819528169 0 -0.4627016404543588 0.42118659590467922 0 -0.45716791068658658 0.40784742819528169 0 -0.4627016404543588 0.42118659590467922 0 -0.47264034351874351 0.4073288231525713 0 -0.47469861275429498 0.4474577306031205 0 -0.45429071645379959 0.43809599748642208 0 -0.4627016404543588 0.42118659590467922 0 -0.45429071645379959 0.43809599748642208 0 -0.44778978603054143 0.42328132859034739 0 -0.4627016404543588 0.42118659590467922 0 -0.47469861275429498 0.4474577306031205 0 -0.4627016404543588 0.42118659590467922 0 -0.47469861275429498 0.4474577306031205 0 -0.4627016404543588 0.42118659590467922 0 -0.48152528866220479 0.42482756245672831 0 -0.48615250498618873 0.43851134966579097 0 -0.47469861275429498 0.4474577306031205 0 -0.48152528866220479 0.42482756245672831 0 -0.5 0.46196837827663467 0 -0.49999999999999989 0.40837933735112392 0 -0.49653407528418908 0.42964855760543108 0 -0.4627016404543588 0.42118659590467922 0 -0.48152528866220479 0.42482756245672831 0 -0.47264034351874351 0.4073288231525713 0 -0.48152528866220479 0.42482756245672831 0 -0.49999999999999989 0.40837933735112392 0 -0.49653407528418908 0.42964855760543108 0 -0.48152528866220479 0.42482756245672831 0 -0.47264034351874351 0.4073288231525713 0 -0.49999999999999989 0.40837933735112392 0 -0.49999999999999989 0.40837933735112392 0 -0.49653407528418908 0.42964855760543108 0 -0.48615250498618873 0.43851134966579097 0 -0.48152528866220479 0.42482756245672831 0 -0.49653407528418908 0.42964855760543108 0 -0.5 0.38560441743713081 0 -0.48003211416856562 0.38854745795401291 0 -0.48368728202572442 0.37336029337581811 0 -0.49999999999999989 0.40837933735112392 0 -0.5 0.38560441743713081 0 -0.48003211416856562 0.38854745795401291 0 -0.47264034351874351 0.4073288231525713 0 -0.49999999999999989 0.40837933735112392 0 -0.48003211416856562 0.38854745795401291 0 -0.47264034351874351 0.4073288231525713 0 -0.48003211416856562 0.38854745795401291 0 -0.45986423911503421 0.3893441811721764 0 -0.48003211416856562 0.38854745795401291 0 -0.46388811700424359 0.37349592997511422 0 -0.48368728202572442 0.37336029337581811 0 -0.45986423911503421 0.3893441811721764 0 -0.44708813471132491 0.37135953919178161 0 -0.48003211416856562 0.38854745795401291 0 -0.45986423911503421 0.3893441811721764 0 -0.46388811700424359 0.37349592997511422 0 -0.45986423911503421 0.3893441811721764 0 -0.44708813471132491 0.37135953919178161 0 -0.46388811700424359 0.37349592997511422 0 -0.45716791068658658 0.40784742819528169 0 -0.47264034351874351 0.4073288231525713 0 -0.45986423911503421 0.3893441811721764 0 -0.47264034351874351 0.4073288231525713 0 -0.45986423911503421 0.3893441811721764 0 -0.45716791068658658 0.40784742819528169 0 -0.45986423911503421 0.3893441811721764 0 -0.44488009349697438 0.3963041611069274 0 -0.44431292075356421 0.4115394934434875 0 -0.45716791068658658 0.40784742819528169 0 -0.44488009349697438 0.3963041611069274 0 -0.44431292075356421 0.4115394934434875 0 -0.44488009349697438 0.3963041611069274 0 -0.43504429931119232 0.40431372549539291 0 -0.45986423911503421 0.3893441811721764 0 -0.4407346049728903 0.38199235341668031 0 -0.44708813471132491 0.37135953919178161 0 -0.45986423911503421 0.3893441811721764 0 -0.44488009349697438 0.3963041611069274 0 -0.4407346049728903 0.38199235341668031 0 -0.44488009349697438 0.3963041611069274 0 -0.4407346049728903 0.38199235341668031 0 -0.43175243308889782 0.39124714800370031 0 -0.42702148119261318 0.37603622280867649 0 -0.41255257039436638 0.38299211483836942 0 -0.43175243308889782 0.39124714800370031 0 -0.4407346049728903 0.38199235341668031 0 -0.42702148119261318 0.37603622280867649 0 -0.43380124823249722 0.36766286821681943 0 -0.4407346049728903 0.38199235341668031 0 -0.42702148119261318 0.37603622280867649 0 -0.43175243308889782 0.39124714800370031 0 -0.42702148119261318 0.37603622280867649 0 -0.43175243308889782 0.39124714800370031 0 -0.41255257039436638 0.38299211483836942 0 -0.40926863015471648 0.39857638268130707 0 -0.40270079148555199 0.38946191254863632 0 -0.41255257039436638 0.38299211483836942 0 -0.40926863015471648 0.39857638268130707 0 -0.42338295515733099 0.40639369187069668 0 -0.41255257039436638 0.38299211483836942 0 -0.42338295515733099 0.40639369187069668 0 -0.40926863015471648 0.39857638268130707 0 -0.42338295515733099 0.40639369187069668 0 -0.40847542755034538 0.4109643206173087 0 -0.41255257039436638 0.38299211483836942 0 -0.43175243308889782 0.39124714800370031 0 -0.42338295515733099 0.40639369187069668 0 -0.44488009349697438 0.3963041611069274 0 -0.43175243308889782 0.39124714800370031 0 -0.43504429931119232 0.40431372549539291 0 -0.43175243308889782 0.39124714800370031 0 -0.43504429931119232 0.40431372549539291 0 -0.42338295515733099 0.40639369187069668 0 -0.43504429931119232 0.40431372549539291 0 -0.42338295515733099 0.40639369187069668 0 -0.43421333992029559 0.42979526890302411 0 -0.42338295515733099 0.40639369187069668 0 -0.43421333992029559 0.42979526890302411 0 -0.41387217889870309 0.42502213718704979 0 -0.38709347080002487 0.43843432851619352 0 -0.41899904709050578 0.44137125956882511 0 -0.41387217889870309 0.42502213718704979 0 -0.42338295515733099 0.40639369187069668 0 -0.43421333992029559 0.42979526890302411 0 -0.41899904709050578 0.44137125956882511 0 -0.43421333992029559 0.42979526890302411 0 -0.41387217889870309 0.42502213718704979 0 -0.42338295515733099 0.40639369187069668 0 -0.41387217889870309 0.42502213718704979 0 -0.40847542755034538 0.4109643206173087 0 -0.39485651039532332 0.41822926335688321 0 -0.38420888706705142 0.40439476868519481 0 -0.39876681224923322 0.40214085920018722 0 -0.41387217889870309 0.42502213718704979 0 -0.40847542755034538 0.4109643206173087 0 -0.39485651039532332 0.41822926335688321 0 -0.40847542755034538 0.4109643206173087 0 -0.39485651039532332 0.41822926335688321 0 -0.39876681224923322 0.40214085920018722 0 -0.38709347080002487 0.43843432851619352 0 -0.41387217889870309 0.42502213718704979 0 -0.39485651039532332 0.41822926335688321 0 -0.38709347080002487 0.43843432851619352 0 -0.41387217889870309 0.42502213718704979 0 -0.38709347080002487 0.43843432851619352 0 -0.39485651039532332 0.41822926335688321 0 -0.37385999747664039 0.4172657263094357 0 -0.39485651039532332 0.41822926335688321 0 -0.38420888706705142 0.40439476868519481 0 -0.37385999747664039 0.4172657263094357 0 -0.38420888706705142 0.40439476868519481 0 -0.37020002230820942 0.40253187886220859 0 -0.37385999747664039 0.4172657263094357 0 -0.38420888706705142 0.40439476868519481 0 -0.39166603739155259 0.39174787159725438 0 -0.37490490325085463 0.39019283557911949 0 -0.38420888706705142 0.40439476868519481 0 -0.37490490325085463 0.39019283557911949 0 -0.37020002230820942 0.40253187886220859 0 -0.38599277594717413 0.3766528482251898 0 -0.37829496868164919 0.37285390782438599 0 -0.37490490325085463 0.39019283557911949 0 -0.39859771627359297 0.375509066596386 0 -0.37490490325085463 0.39019283557911949 0 -0.39859771627359297 0.375509066596386 0 -0.39166603739155259 0.39174787159725438 0 -0.37490490325085463 0.39019283557911949 0 -0.38599277594717413 0.3766528482251898 0 -0.39859771627359297 0.375509066596386 0 -0.37490490325085463 0.39019283557911949 0 -0.39859771627359297 0.375509066596386 0 -0.40270079148555199 0.38946191254863632 0 -0.39166603739155259 0.39174787159725438 0 -0.41255257039436638 0.38299211483836942 0 -0.39859771627359297 0.375509066596386 0 -0.40270079148555199 0.38946191254863632 0 -0.40926863015471648 0.39857638268130707 0 -0.40270079148555199 0.38946191254863632 0 -0.39876681224923322 0.40214085920018722 0 -0.40926863015471648 0.39857638268130707 0 -0.40847542755034538 0.4109643206173087 0 -0.39876681224923322 0.40214085920018722 0 -0.38420888706705142 0.40439476868519481 0 -0.39876681224923322 0.40214085920018722 0 -0.39166603739155259 0.39174787159725438 0 -0.40270079148555199 0.38946191254863632 0 -0.39876681224923322 0.40214085920018722 0 -0.39166603739155259 0.39174787159725438 0 -0.39266723370360712 0.35479416231421562 0 -0.39955846613552909 0.34427897974585758 0 -0.40915732396643317 0.35091481287747861 0 -0.39266723370360712 0.35479416231421562 0 -0.40303373670769499 0.36162087661731612 0 -0.40915732396643317 0.35091481287747861 0 -0.39266723370360712 0.35479416231421562 0 -0.39955846613552909 0.34427897974585758 0 -0.39072035469552602 0.34196261672641598 0 -0.39955846613552909 0.34427897974585758 0 -0.40678709264582369 0.3406471047456483 0 -0.40915732396643317 0.35091481287747861 0 -0.39859771627359297 0.375509066596386 0 -0.40303373670769499 0.36162087661731612 0 -0.39217351558259977 0.36805558290086782 0 -0.38599277594717413 0.3766528482251898 0 -0.39859771627359297 0.375509066596386 0 -0.39217351558259977 0.36805558290086782 0 -0.39266723370360712 0.35479416231421562 0 -0.40303373670769499 0.36162087661731612 0 -0.39217351558259977 0.36805558290086782 0 -0.39266723370360712 0.35479416231421562 0 -0.39217351558259977 0.36805558290086782 0 -0.37829496868164919 0.37285390782438599 0 -0.39266723370360712 0.35479416231421562 0 -0.37829496868164919 0.37285390782438599 0 -0.38019916655858899 0.36005714209361489 0 -0.39266723370360712 0.35479416231421562 0 -0.37829496868164919 0.37285390782438599 0 -0.38599277594717413 0.3766528482251898 0 -0.39217351558259977 0.36805558290086782 0 -0.37829496868164919 0.37285390782438599 0 -0.37829496868164919 0.37285390782438599 0 -0.38019916655858899 0.36005714209361489 0 -0.37111636521306418 0.36464597148244798 0 -0.38019916655858899 0.36005714209361489 0 -0.37871809863603562 0.34793452675341041 0 -0.37111636521306418 0.36464597148244798 0 -0.39266723370360712 0.35479416231421562 0 -0.38019916655858899 0.36005714209361489 0 -0.37871809863603562 0.34793452675341041 0 -0.39266723370360712 0.35479416231421562 0 -0.37871809863603562 0.34793452675341041 0 -0.39072035469552602 0.34196261672641598 0 -0.37871809863603562 0.34793452675341041 0 -0.39226964822511778 0.32907702051968007 0 -0.37871809863603562 0.34793452675341041 0 -0.39072035469552602 0.34196261672641598 0 -0.39226964822511778 0.32907702051968007 0 -0.38640309735683059 0.32452517988264612 0 -0.36698499689946179 0.33883084547934339 0 -0.37871809863603562 0.34793452675341041 0 -0.38640309735683059 0.32452517988264612 0 -0.39226964822511778 0.32907702051968007 0 -0.37871809863603562 0.34793452675341041 0 -0.38640309735683059 0.32452517988264612 0 -0.36698499689946179 0.33883084547934339 0 -0.38640309735683059 0.32452517988264612 0 -0.37478345203948787 0.31696727382914908 0 -0.36698499689946179 0.33883084547934339 0 -0.38363677416668002 0.31667982790829569 0 -0.38602542227465969 0.3086915417053791 0 -0.37478345203948787 0.31696727382914908 0 -0.38640309735683059 0.32452517988264612 0 -0.38363677416668002 0.31667982790829569 0 -0.37478345203948787 0.31696727382914908 0 -0.38640309735683059 0.32452517988264612 0 -0.38880920892000392 0.31524939716674089 0 -0.39639687294407638 0.31332885240810482 0 -0.38363677416668002 0.31667982790829569 0 -0.38880920892000392 0.31524939716674089 0 -0.38602542227465969 0.3086915417053791 0 -0.38640309735683059 0.32452517988264612 0 -0.38363677416668002 0.31667982790829569 0 -0.38880920892000392 0.31524939716674089 0 -0.38640309735683059 0.32452517988264612 0 -0.39226964822511778 0.32907702051968007 0 -0.40641491105295252 0.30978211501136182 0 -0.38640309735683059 0.32452517988264612 0 -0.40641491105295252 0.30978211501136182 0 -0.40179331415043712 0.32481667171412643 0 -0.39226964822511778 0.32907702051968007 0 -0.40641491105295252 0.30978211501136182 0 -0.38640309735683059 0.32452517988264612 0 -0.39639687294407638 0.31332885240810482 0 -0.40641491105295252 0.30978211501136182 0 -0.39226964822511778 0.32907702051968007 0 -0.40641491105295252 0.30978211501136182 0 -0.38880920892000392 0.31524939716674089 0 -0.39639687294407638 0.31332885240810482 0 -0.39195394877634682 0.31172087277263483 0 -0.40179331415043712 0.32481667171412643 0 -0.40473984495136911 0.33038885268308488 0 -0.40657940773329998 0.32251564515555708 0 -0.40179331415043712 0.32481667171412643 0 -0.40657940773329998 0.32251564515555708 0 -0.40641491105295252 0.30978211501136182 0 -0.39955846613552909 0.34427897974585758 0 -0.39072035469552602 0.34196261672641598 0 -0.39672760801072432 0.3364921657492721 0 -0.40179331415043712 0.32481667171412643 0 -0.39226964822511778 0.32907702051968007 0 -0.39955647202819922 0.33188232592636119 0 -0.39072035469552602 0.34196261672641598 0 -0.39672760801072432 0.3364921657492721 0 -0.39226964822511778 0.32907702051968007 0 -0.39672760801072432 0.3364921657492721 0 -0.39226964822511778 0.32907702051968007 0 -0.39955647202819922 0.33188232592636119 0 -0.39955647202819922 0.33188232592636119 0 -0.40473984495136911 0.33038885268308488 0 -0.40247689428044692 0.33656955319488541 0 -0.39672760801072432 0.3364921657492721 0 -0.39955647202819922 0.33188232592636119 0 -0.40247689428044692 0.33656955319488541 0 -0.40179331415043712 0.32481667171412643 0 -0.39955647202819922 0.33188232592636119 0 -0.40473984495136911 0.33038885268308488 0 -0.40473984495136911 0.33038885268308488 0 -0.40247689428044692 0.33656955319488541 0 -0.40708913801307028 0.33572730423403141 0 -0.40247689428044692 0.33656955319488541 0 -0.40678709264582369 0.3406471047456483 0 -0.40708913801307028 0.33572730423403141 0 -0.39955846613552909 0.34427897974585758 0 -0.39672760801072432 0.3364921657492721 0 -0.40247689428044692 0.33656955319488541 0 -0.39955846613552909 0.34427897974585758 0 -0.40247689428044692 0.33656955319488541 0 -0.40678709264582369 0.3406471047456483 0 -0.40678709264582369 0.3406471047456483 0 -0.41435272017464159 0.33530370631250689 0 -0.40915732396643317 0.35091481287747861 0 -0.40678709264582369 0.3406471047456483 0 -0.40708913801307028 0.33572730423403141 0 -0.41435272017464159 0.33530370631250689 0 -0.40473984495136911 0.33038885268308488 0 -0.41435272017464159 0.33530370631250689 0 -0.40657940773329998 0.32251564515555708 0 -0.40473984495136911 0.33038885268308488 0 -0.40708913801307028 0.33572730423403141 0 -0.41435272017464159 0.33530370631250689 0 -0.41435272017464159 0.33530370631250689 0 -0.4182686019626406 0.33079091497352048 0 -0.41836483189185247 0.32491265087330168 0 -0.41435272017464159 0.33530370631250689 0 -0.40641491105295252 0.30978211501136182 0 -0.41435272017464159 0.33530370631250689 0 -0.40657940773329998 0.32251564515555708 0 -0.40641491105295252 0.30978211501136182 0 -0.41435272017464159 0.33530370631250689 0 -0.41836483189185247 0.32491265087330168 0 -0.41488021565345901 0.31885425279023177 0 -0.41435272017464159 0.33530370631250689 0 -0.41488021565345901 0.31885425279023177 0 -0.40641491105295252 0.30978211501136182 0 -0.41488021565345901 0.31885425279023177 0 -0.41425443717788168 0.31304316448484082 0 -0.40641491105295252 0.30978211501136182 0 -0.41836483189185247 0.32491265087330168 0 -0.42415682407907862 0.32267021065556001 0 -0.42249999878318079 0.32753053676274452 0 -0.4182686019626406 0.33079091497352048 0 -0.41836483189185247 0.32491265087330168 0 -0.42249999878318079 0.32753053676274452 0 -0.41836483189185247 0.32491265087330168 0 -0.42039400158545859 0.31879228330224058 0 -0.42415682407907862 0.32267021065556001 0 -0.41836483189185247 0.32491265087330168 0 -0.41488021565345901 0.31885425279023177 0 -0.42039400158545859 0.31879228330224058 0 -0.41488021565345901 0.31885425279023177 0 -0.42039400158545859 0.31879228330224058 0 -0.41920820612547571 0.31393898586475172 0 -0.42039400158545859 0.31879228330224058 0 -0.41920820612547571 0.31393898586475172 0 -0.42535993017742718 0.31358531632735792 0 -0.41488021565345901 0.31885425279023177 0 -0.41920820612547571 0.31393898586475172 0 -0.41425443717788168 0.31304316448484082 0 -0.42535993017742718 0.31358531632735792 0 -0.42415682407907862 0.32267021065556001 0 -0.43118966657624558 0.32000393798642168 0 -0.42535993017742718 0.31358531632735792 0 -0.43118966657624558 0.32000393798642168 0 -0.43111063185485421 0.30870240808416333 0 -0.42039400158545859 0.31879228330224058 0 -0.42535993017742718 0.31358531632735792 0 -0.42415682407907862 0.32267021065556001 0 -0.42415682407907862 0.32267021065556001 0 -0.42249999878318079 0.32753053676274452 0 -0.42920973719915151 0.33174837054859579 0 -0.42415682407907862 0.32267021065556001 0 -0.43118966657624558 0.32000393798642168 0 -0.42920973719915151 0.33174837054859579 0 -0.43118966657624558 0.32000393798642168 0 -0.43805423144936018 0.32838694661434359 0 -0.43924664469760227 0.31493037568850962 0 -0.43118966657624558 0.32000393798642168 0 -0.42920973719915151 0.33174837054859579 0 -0.43805423144936018 0.32838694661434359 0 -0.43118966657624558 0.32000393798642168 0 -0.43924664469760227 0.31493037568850962 0 -0.43111063185485421 0.30870240808416333 0 -0.42920973719915151 0.33174837054859579 0 -0.43431203030761562 0.35337489721138671 0 -0.4385283285811345 0.33889746930919629 0 -0.41435272017464159 0.33530370631250689 0 -0.4182686019626406 0.33079091497352048 0 -0.43431203030761562 0.35337489721138671 0 -0.4182686019626406 0.33079091497352048 0 -0.43431203030761562 0.35337489721138671 0 -0.4182686019626406 0.33079091497352048 0 -0.42920973719915151 0.33174837054859579 0 -0.43431203030761562 0.35337489721138671 0 -0.4182686019626406 0.33079091497352048 0 -0.42249999878318079 0.32753053676274452 0 -0.42920973719915151 0.33174837054859579 0 -0.42920973719915151 0.33174837054859579 0 -0.43805423144936018 0.32838694661434359 0 -0.4385283285811345 0.33889746930919629 0 -0.41435272017464159 0.33530370631250689 0 -0.43431203030761562 0.35337489721138671 0 -0.42229052929633121 0.3608252976136519 0 -0.43431203030761562 0.35337489721138671 0 -0.42229052929633121 0.3608252976136519 0 -0.41435272017464159 0.33530370631250689 0 -0.42229052929633121 0.3608252976136519 0 -0.41435272017464159 0.33530370631250689 0 -0.40915732396643317 0.35091481287747861 0 -0.42229052929633121 0.3608252976136519 0 -0.40303373670769499 0.36162087661731612 0 -0.40915732396643317 0.35091481287747861 0 -0.42229052929633121 0.3608252976136519 0 -0.39859771627359297 0.375509066596386 0 -0.40303373670769499 0.36162087661731612 0 -0.42229052929633121 0.3608252976136519 0 -0.39859771627359297 0.375509066596386 0 -0.42229052929633121 0.3608252976136519 0 -0.42702148119261318 0.37603622280867649 0 -0.41255257039436638 0.38299211483836942 0 -0.42229052929633121 0.3608252976136519 0 -0.41255257039436638 0.38299211483836942 0 -0.39859771627359297 0.375509066596386 0 -0.42229052929633121 0.3608252976136519 0 -0.42702148119261318 0.37603622280867649 0 -0.42229052929633121 0.3608252976136519 0 -0.43380124823249722 0.36766286821681943 0 -0.42702148119261318 0.37603622280867649 0 -0.42229052929633121 0.3608252976136519 0 -0.43431203030761562 0.35337489721138671 0 -0.42229052929633121 0.3608252976136519 0 -0.43380124823249722 0.36766286821681943 0 -0.43431203030761562 0.35337489721138671 0 -0.43380124823249722 0.36766286821681943 0 -0.44708813471132491 0.37135953919178161 0 -0.43431203030761562 0.35337489721138671 0 -0.44708813471132491 0.37135953919178161 0 -0.45135275575327483 0.35819532803128218 0 -0.43431203030761562 0.35337489721138671 0 -0.44708813471132491 0.37135953919178161 0 -0.4407346049728903 0.38199235341668031 0 -0.43380124823249722 0.36766286821681943 0 -0.44708813471132491 0.37135953919178161 0 -0.43431203030761562 0.35337489721138671 0 -0.4525373153684108 0.34207966286245922 0 -0.4385283285811345 0.33889746930919629 0 -0.43431203030761562 0.35337489721138671 0 -0.4525373153684108 0.34207966286245922 0 -0.43431203030761562 0.35337489721138671 0 -0.45135275575327483 0.35819532803128218 0 -0.4525373153684108 0.34207966286245922 0 -0.47175073077626772 0.35840446949194388 0 -0.48061665194443182 0.34306913456865329 0 -0.4525373153684108 0.34207966286245922 0 -0.45135275575327483 0.35819532803128218 0 -0.47175073077626772 0.35840446949194388 0 -0.4525373153684108 0.34207966286245922 0 -0.44708813471132491 0.37135953919178161 0 -0.45135275575327483 0.35819532803128218 0 -0.46388811700424359 0.37349592997511422 0 -0.45135275575327483 0.35819532803128218 0 -0.46388811700424359 0.37349592997511422 0 -0.47175073077626772 0.35840446949194388 0 -0.46388811700424359 0.37349592997511422 0 -0.48368728202572442 0.37336029337581811 0 -0.47175073077626772 0.35840446949194388 0 -0.47175073077626772 0.35840446949194388 0 -0.5 0.36282949752313759 0 -0.48061665194443182 0.34306913456865329 0 -0.5 0.36282949752313759 0 -0.5 0.34005457760914459 0 -0.48061665194443182 0.34306913456865329 0 -0.48368728202572442 0.37336029337581811 0 -0.47175073077626772 0.35840446949194388 0 -0.5 0.36282949752313759 0 -0.5 0.38560441743713081 0 -0.48368728202572442 0.37336029337581811 0 -0.5 0.36282949752313759 0 -0.49999999999999828 0.31727965769515148 0 -0.48313975263324332 0.32531821968009472 0 -0.48201283589311189 0.30794234260833642 0 -0.49999999999999828 0.31727965769515148 0 -0.5 0.34005457760914459 0 -0.48313975263324332 0.32531821968009472 0 -0.5 0.34005457760914459 0 -0.48061665194443182 0.34306913456865329 0 -0.48313975263324332 0.32531821968009472 0 -0.48061665194443182 0.34306913456865329 0 -0.48313975263324332 0.32531821968009472 0 -0.46685485282565381 0.32884759119429002 0 -0.48313975263324332 0.32531821968009472 0 -0.46978751389821782 0.3148653021812432 0 -0.46685485282565381 0.32884759119429002 0 -0.48313975263324332 0.32531821968009472 0 -0.46978751389821782 0.3148653021812432 0 -0.48201283589311189 0.30794234260833642 0 -0.46978751389821782 0.3148653021812432 0 -0.45821658461033249 0.3181863062482656 0 -0.46031444916202829 0.306745712227175 0 -0.46978751389821782 0.3148653021812432 0 -0.45821658461033249 0.3181863062482656 0 -0.46685485282565381 0.32884759119429002 0 -0.45821658461033249 0.3181863062482656 0 -0.45353553586935802 0.32888180771717501 0 -0.44809739556163458 0.31980780830221978 0 -0.45821658461033249 0.3181863062482656 0 -0.46685485282565381 0.32884759119429002 0 -0.45353553586935802 0.32888180771717501 0 -0.48061665194443182 0.34306913456865329 0 -0.46685485282565381 0.32884759119429002 0 -0.4525373153684108 0.34207966286245922 0 -0.46685485282565381 0.32884759119429002 0 -0.45353553586935802 0.32888180771717501 0 -0.4525373153684108 0.34207966286245922 0 -0.45353553586935802 0.32888180771717501 0 -0.4525373153684108 0.34207966286245922 0 -0.43805423144936018 0.32838694661434359 0 -0.4525373153684108 0.34207966286245922 0 -0.43805423144936018 0.32838694661434359 0 -0.4385283285811345 0.33889746930919629 0 -0.44809739556163458 0.31980780830221978 0 -0.43924664469760227 0.31493037568850962 0 -0.45001352602026418 0.30980627354480988 0 -0.45821658461033249 0.3181863062482656 0 -0.44809739556163458 0.31980780830221978 0 -0.45001352602026418 0.30980627354480988 0 -0.45353553586935802 0.32888180771717501 0 -0.43805423144936018 0.32838694661434359 0 -0.44809739556163458 0.31980780830221978 0 -0.43805423144936018 0.32838694661434359 0 -0.44809739556163458 0.31980780830221978 0 -0.43924664469760227 0.31493037568850962 0 -0.43924664469760227 0.31493037568850962 0 -0.44131617757999059 0.3037050483565305 0 -0.45001352602026418 0.30980627354480988 0 -0.44131617757999059 0.3037050483565305 0 -0.44110992143613331 0.29313553047580537 0 -0.43332154155043168 0.30046830731188973 0 -0.44131617757999059 0.3037050483565305 0 -0.45146716880131649 0.29921192474301689 0 -0.44110992143613331 0.29313553047580537 0 -0.44131617757999059 0.3037050483565305 0 -0.45146716880131649 0.29921192474301689 0 -0.45001352602026418 0.30980627354480988 0 -0.4385013521814638 0.2831029022380378 0 -0.44110992143613331 0.29313553047580537 0 -0.45429587335820693 0.28548920314894388 0 -0.45146716880131649 0.29921192474301689 0 -0.44110992143613331 0.29313553047580537 0 -0.45429587335820693 0.28548920314894388 0 -0.45146716880131649 0.29921192474301689 0 -0.45429587335820693 0.28548920314894388 0 -0.46099039916793849 0.29711317244113461 0 -0.45429587335820693 0.28548920314894388 0 -0.46099039916793849 0.29711317244113461 0 -0.4694505901931823 0.291423476174962 0 -0.45429587335820693 0.28548920314894388 0 -0.4694505901931823 0.291423476174962 0 -0.46734208588797738 0.27864428185158202 0 -0.45146716880131649 0.29921192474301689 0 -0.45001352602026418 0.30980627354480988 0 -0.46031444916202829 0.306745712227175 0 -0.45821658461033249 0.3181863062482656 0 -0.45001352602026418 0.30980627354480988 0 -0.46031444916202829 0.306745712227175 0 -0.45146716880131649 0.29921192474301689 0 -0.46031444916202829 0.306745712227175 0 -0.46099039916793849 0.29711317244113461 0 -0.46031444916202829 0.306745712227175 0 -0.46099039916793849 0.29711317244113461 0 -0.46942391432495822 0.30269554591157483 0 -0.46099039916793849 0.29711317244113461 0 -0.46942391432495822 0.30269554591157483 0 -0.4694505901931823 0.291423476174962 0 -0.46978751389821782 0.3148653021812432 0 -0.46031444916202829 0.306745712227175 0 -0.46942391432495822 0.30269554591157483 0 -0.46978751389821782 0.3148653021812432 0 -0.48201283589311189 0.30794234260833642 0 -0.46942391432495822 0.30269554591157483 0 -0.48201283589311189 0.30794234260833642 0 -0.4777025878581862 0.29592361905099518 0 -0.48872730234349693 0.29047218867129337 0 -0.48201283589311189 0.30794234260833642 0 -0.46942391432495822 0.30269554591157483 0 -0.4777025878581862 0.29592361905099518 0 -0.46942391432495822 0.30269554591157483 0 -0.4694505901931823 0.291423476174962 0 -0.4777025878581862 0.29592361905099518 0 -0.4694505901931823 0.291423476174962 0 -0.47654899634970549 0.28407271337933282 0 -0.4777025878581862 0.29592361905099518 0 -0.4694505901931823 0.291423476174962 0 -0.47654899634970549 0.28407271337933282 0 -0.46734208588797738 0.27864428185158202 0 -0.47654899634970549 0.28407271337933282 0 -0.4777025878581862 0.29592361905099518 0 -0.48872730234349693 0.29047218867129337 0 -0.48872730234349693 0.29047218867129337 0 -0.5 0.28787761204700718 0 -0.49082831046366338 0.27381485026776597 0 -0.49999999999999828 0.31727965769515148 0 -0.48201283589311189 0.30794234260833642 0 -0.48872730234349693 0.29047218867129337 0 -0.49999999999999828 0.31727965769515148 0 -0.48872730234349693 0.29047218867129337 0 -0.5 0.28787761204700718 0 -0.49999999999999828 0.31727965769515148 0 -0.48872730234349693 0.29047218867129337 0 -0.48424209390549622 0.24364495738757519 0 -0.5 0.25847556639886299 0 -0.4774546046869968 0.26366471964743471 0 -0.5 0.25847556639886299 0 -0.49082831046366338 0.27381485026776597 0 -0.4774546046869968 0.26366471964743471 0 -0.5 0.28787761204700718 0 -0.5 0.25847556639886299 0 -0.49082831046366338 0.27381485026776597 0 -0.48872730234349693 0.29047218867129337 0 -0.49082831046366338 0.27381485026776597 0 -0.4774546046869968 0.26366471964743471 0 -0.47654899634970549 0.28407271337933282 0 -0.4774546046869968 0.26366471964743471 0 -0.46734208588797738 0.27864428185158202 0 -0.47654899634970549 0.28407271337933282 0 -0.48872730234349693 0.29047218867129337 0 -0.4774546046869968 0.26366471964743471 0 -0.48872730234349693 0.29047218867129337 0 -0.4774546046869968 0.26366471964743471 0 -0.46618190703049672 0.2368572506235759 0 -0.4774546046869968 0.26366471964743471 0 -0.46618190703049672 0.2368572506235759 0 -0.4774546046869968 0.26366471964743471 0 -0.46053122000710361 0.25350710693694489 0 -0.4774546046869968 0.26366471964743471 0 -0.46053122000710361 0.25350710693694489 0 -0.45896036485179581 0.2685712969072368 0 -0.46053122000710361 0.25350710693694489 0 -0.45896036485179581 0.2685712969072368 0 -0.44673989411664999 0.25758984241340521 0 -0.45243106288897972 0.2433917260359395 0 -0.46053122000710361 0.25350710693694489 0 -0.44673989411664999 0.25758984241340521 0 -0.45429587335820693 0.28548920314894388 0 -0.46734208588797738 0.27864428185158202 0 -0.45896036485179581 0.2685712969072368 0 -0.4774546046869968 0.26366471964743471 0 -0.46734208588797738 0.27864428185158202 0 -0.45896036485179581 0.2685712969072368 0 -0.45896036485179581 0.2685712969072368 0 -0.44276200959945078 0.27235516663958143 0 -0.44673989411664999 0.25758984241340521 0 -0.45429587335820693 0.28548920314894388 0 -0.45896036485179581 0.2685712969072368 0 -0.44276200959945078 0.27235516663958143 0 -0.4385013521814638 0.2831029022380378 0 -0.45429587335820693 0.28548920314894388 0 -0.44276200959945078 0.27235516663958143 0 -0.44276200959945078 0.27235516663958143 0 -0.44673989411664999 0.25758984241340521 0 -0.42859055273082508 0.25928952813567319 0 -0.44017406994621899 0.2437866164395486 0 -0.44673989411664999 0.25758984241340521 0 -0.42859055273082508 0.25928952813567319 0 -0.41462508750399713 0.24751559102145201 0 -0.42859055273082508 0.25928952813567319 0 -0.40918691252527939 0.26176478003830178 0 -0.42859055273082508 0.25928952813567319 0 -0.40918691252527939 0.26176478003830178 0 -0.41742234914459408 0.27168192143670289 0 -0.41462508750399713 0.24751559102145201 0 -0.40103416962140581 0.24859735505825861 0 -0.40918691252527939 0.26176478003830178 0 -0.41742234914459408 0.27168192143670289 0 -0.41558611327415662 0.28158910909376611 0 -0.40557230462848742 0.27665405763845452 0 -0.40918691252527939 0.26176478003830178 0 -0.41742234914459408 0.27168192143670289 0 -0.40557230462848742 0.27665405763845452 0 -0.41742234914459408 0.27168192143670289 0 -0.42817586256422208 0.27911213227731868 0 -0.41558611327415662 0.28158910909376611 0 -0.42859055273082508 0.25928952813567319 0 -0.41742234914459408 0.27168192143670289 0 -0.42817586256422208 0.27911213227731868 0 -0.44276200959945078 0.27235516663958143 0 -0.42859055273082508 0.25928952813567319 0 -0.42817586256422208 0.27911213227731868 0 -0.4385013521814638 0.2831029022380378 0 -0.44276200959945078 0.27235516663958143 0 -0.42817586256422208 0.27911213227731868 0 -0.4385013521814638 0.2831029022380378 0 -0.42817586256422208 0.27911213227731868 0 -0.4285578687324692 0.2934689978462483 0 -0.4385013521814638 0.2831029022380378 0 -0.44110992143613331 0.29313553047580537 0 -0.4285578687324692 0.2934689978462483 0 -0.44110992143613331 0.29313553047580537 0 -0.4285578687324692 0.2934689978462483 0 -0.43332154155043168 0.30046830731188973 0 -0.42817586256422208 0.27911213227731868 0 -0.4285578687324692 0.2934689978462483 0 -0.41725319033529318 0.29431145382294932 0 -0.42817586256422208 0.27911213227731868 0 -0.41725319033529318 0.29431145382294932 0 -0.43924664469760227 0.31493037568850962 0 -0.44131617757999059 0.3037050483565305 0 -0.43111063185485421 0.30870240808416333 0 -0.44131617757999059 0.3037050483565305 0 -0.43111063185485421 0.30870240808416333 0 -0.43332154155043168 0.30046830731188973 0 -0.4285578687324692 0.2934689978462483 0 -0.42451310814871113 0.30332955179670079 0 -0.41842853147701869 0.30587296500286348 0 -0.4285578687324692 0.2934689978462483 0 -0.43332154155043168 0.30046830731188973 0 -0.42451310814871113 0.30332955179670079 0 -0.43111063185485421 0.30870240808416333 0 -0.43332154155043168 0.30046830731188973 0 -0.42451310814871113 0.30332955179670079 0 -0.42535993017742718 0.31358531632735792 0 -0.43111063185485421 0.30870240808416333 0 -0.42327908380131168 0.30935656044803461 0 -0.43111063185485421 0.30870240808416333 0 -0.42451310814871113 0.30332955179670079 0 -0.42327908380131168 0.30935656044803461 0 -0.42451310814871113 0.30332955179670079 0 -0.42327908380131168 0.30935656044803461 0 -0.4184023322730796 0.30974099587516668 0 -0.41920820612547571 0.31393898586475172 0 -0.42535993017742718 0.31358531632735792 0 -0.42327908380131168 0.30935656044803461 0 -0.4285578687324692 0.2934689978462483 0 -0.40641491105295252 0.30978211501136182 0 -0.4285578687324692 0.2934689978462483 0 -0.41842853147701869 0.30587296500286348 0 -0.40641491105295252 0.30978211501136182 0 -0.4285578687324692 0.2934689978462483 0 -0.40641491105295252 0.30978211501136182 0 -0.41725319033529318 0.29431145382294932 0 -0.41920820612547571 0.31393898586475172 0 -0.41425443717788168 0.31304316448484082 0 -0.4184023322730796 0.30974099587516668 0 -0.41425443717788168 0.31304316448484082 0 -0.4184023322730796 0.30974099587516668 0 -0.41842853147701869 0.30587296500286348 0 -0.41920820612547571 0.31393898586475172 0 -0.42327908380131168 0.30935656044803461 0 -0.4184023322730796 0.30974099587516668 0 -0.42451310814871113 0.30332955179670079 0 -0.4184023322730796 0.30974099587516668 0 -0.41842853147701869 0.30587296500286348 0 -0.40641491105295252 0.30978211501136182 0 -0.41725319033529318 0.29431145382294932 0 -0.40342021200630662 0.30015357847605029 0 -0.40641491105295252 0.30978211501136182 0 -0.41725319033529318 0.29431145382294932 0 -0.41425443717788168 0.31304316448484082 0 -0.41842853147701869 0.30587296500286348 0 -0.40641491105295252 0.30978211501136182 0 -0.42817586256422208 0.27911213227731868 0 -0.41558611327415662 0.28158910909376611 0 -0.41725319033529318 0.29431145382294932 0 -0.41725319033529318 0.29431145382294932 0 -0.40757743962991738 0.28824415749750892 0 -0.40342021200630662 0.30015357847605029 0 -0.41558611327415662 0.28158910909376611 0 -0.41725319033529318 0.29431145382294932 0 -0.40757743962991738 0.28824415749750892 0 -0.41558611327415662 0.28158910909376611 0 -0.40757743962991738 0.28824415749750892 0 -0.40557230462848742 0.27665405763845452 0 -0.40757743962991738 0.28824415749750892 0 -0.39687021788696769 0.28808125932582529 0 -0.40557230462848742 0.27665405763845452 0 -0.40757743962991738 0.28824415749750892 0 -0.39687021788696769 0.28808125932582529 0 -0.40342021200630662 0.30015357847605029 0 -0.39687021788696769 0.28808125932582529 0 -0.40342021200630662 0.30015357847605029 0 -0.39384442097369449 0.29950514831624242 0 -0.39687021788696769 0.28808125932582529 0 -0.39384442097369449 0.29950514831624242 0 -0.38518278200765499 0.29537087135474122 0 -0.39639687294407638 0.31332885240810482 0 -0.40641491105295252 0.30978211501136182 0 -0.39988858503606378 0.3091250182337717 0 -0.40641491105295252 0.30978211501136182 0 -0.40346248846264487 0.30798710189289841 0 -0.40342021200630662 0.30015357847605029 0 -0.40641491105295252 0.30978211501136182 0 -0.40342021200630662 0.30015357847605029 0 -0.40641491105295252 0.30978211501136182 0 -0.39988858503606378 0.3091250182337717 0 -0.40346248846264487 0.30798710189289841 0 -0.39988858503606378 0.3091250182337717 0 -0.40346248846264487 0.30798710189289841 0 -0.39886057976866152 0.30488318621444521 0 -0.40346248846264487 0.30798710189289841 0 -0.39886057976866152 0.30488318621444521 0 -0.40342021200630662 0.30015357847605029 0 -0.39886057976866152 0.30488318621444521 0 -0.40342021200630662 0.30015357847605029 0 -0.39384442097369449 0.29950514831624242 0 -0.39886057976866152 0.30488318621444521 0 -0.39384442097369449 0.29950514831624242 0 -0.39446756187574022 0.30770517468704572 0 -0.39446756187574022 0.30770517468704572 0 -0.39195394877634682 0.31172087277263483 0 -0.38602542227465969 0.3086915417053791 0 -0.39384442097369449 0.29950514831624242 0 -0.39446756187574022 0.30770517468704572 0 -0.38602542227465969 0.3086915417053791 0 -0.39988858503606378 0.3091250182337717 0 -0.39886057976866152 0.30488318621444521 0 -0.39446756187574022 0.30770517468704572 0 -0.39639687294407638 0.31332885240810482 0 -0.39446756187574022 0.30770517468704572 0 -0.39195394877634682 0.31172087277263483 0 -0.39639687294407638 0.31332885240810482 0 -0.39988858503606378 0.3091250182337717 0 -0.39446756187574022 0.30770517468704572 0 -0.38880920892000392 0.31524939716674089 0 -0.39195394877634682 0.31172087277263483 0 -0.38602542227465969 0.3086915417053791 0 -0.39384442097369449 0.29950514831624242 0 -0.38602542227465969 0.3086915417053791 0 -0.38518278200765499 0.29537087135474122 0 -0.38602542227465969 0.3086915417053791 0 -0.38518278200765499 0.29537087135474122 0 -0.37328211383259569 0.30280331185547138 0 -0.38602542227465969 0.3086915417053791 0 -0.37328211383259569 0.30280331185547138 0 -0.37478345203948787 0.31696727382914908 0 -0.38518278200765499 0.29537087135474122 0 -0.38562414807574541 0.2685597426719547 0 -0.38518278200765499 0.29537087135474122 0 -0.38562414807574541 0.2685597426719547 0 -0.35795094292762969 0.28238096643227728 0 -0.39687021788696769 0.28808125932582529 0 -0.38518278200765499 0.29537087135474122 0 -0.38562414807574541 0.2685597426719547 0 -0.38606551414383578 0.24174861398916819 0 -0.38562414807574541 0.2685597426719547 0 -0.38606551414383578 0.24174861398916819 0 -0.36999811548425843 0.24403541582306271 0 -0.38562414807574541 0.2685597426719547 0 -0.40103416962140581 0.24859735505825861 0 -0.40918691252527939 0.26176478003830178 0 -0.38562414807574541 0.2685597426719547 0 -0.38606551414383578 0.24174861398916819 0 -0.40103416962140581 0.24859735505825861 0 -0.38562414807574541 0.2685597426719547 0 -0.40918691252527939 0.26176478003830178 0 -0.38562414807574541 0.2685597426719547 0 -0.40557230462848742 0.27665405763845452 0 -0.39687021788696769 0.28808125932582529 0 -0.38562414807574541 0.2685597426719547 0 -0.40557230462848742 0.27665405763845452 0 -0.38562414807574541 0.2685597426719547 0 -0.35343391594171342 0.25415602690874428 0 -0.35795094292762969 0.28238096643227728 0 -0.36999811548425843 0.24403541582306271 0 -0.38562414807574541 0.2685597426719547 0 -0.35343391594171342 0.25415602690874428 0 -0.35343391594171342 0.25415602690874428 0 -0.35795094292762969 0.28238096643227728 0 -0.35343391594171342 0.25415602690874428 0 -0.35795094292762969 0.28238096643227728 0 -0.33906489762967329 0.27011065621968577 0 -0.38518278200765499 0.29537087135474122 0 -0.37328211383259569 0.30280331185547138 0 -0.35795094292762969 0.28238096643227728 0 -0.36246796991354602 0.31060590595581028 0 -0.35795094292762969 0.28238096643227728 0 -0.37328211383259569 0.30280331185547138 0 -0.36246796991354602 0.31060590595581028 0 -0.35795094292762969 0.28238096643227728 0 -0.37328211383259569 0.30280331185547138 0 -0.36246796991354602 0.31060590595581028 0 -0.37478345203948787 0.31696727382914908 0 -0.36246796991354602 0.31060590595581028 0 -0.33959971883120538 0.29409563879814621 0 -0.3395898029120985 0.31416640981528737 0 -0.35795094292762969 0.28238096643227728 0 -0.33959971883120538 0.29409563879814621 0 -0.33906489762967329 0.27011065621968577 0 -0.36246796991354602 0.31060590595581028 0 -0.35795094292762969 0.28238096643227728 0 -0.33959971883120538 0.29409563879814621 0 -0.33959971883120538 0.29409563879814621 0 -0.31982717126166482 0.280165777010907 0 -0.33906489762967329 0.27011065621968577 0 -0.33959971883120538 0.29409563879814621 0 -0.31870366134247341 0.30634456032188412 0 -0.3395898029120985 0.31416640981528737 0 -0.31870366134247341 0.30634456032188412 0 -0.31982717126166482 0.280165777010907 0 -0.30562294483922697 0.29132814336380708 0 -0.33959971883120538 0.29409563879814621 0 -0.31870366134247341 0.30634456032188412 0 -0.31982717126166482 0.280165777010907 0 -0.31982717126166482 0.280165777010907 0 -0.33906489762967329 0.27011065621968577 0 -0.3140295821328859 0.25661908962302432 0 -0.33370932118784702 0.24721270588692151 0 -0.33906489762967329 0.27011065621968577 0 -0.3140295821328859 0.25661908962302432 0 -0.33370932118784702 0.24721270588692151 0 -0.35343391594171342 0.25415602690874428 0 -0.33906489762967329 0.27011065621968577 0 -0.3140295821328859 0.25661908962302432 0 -0.30243282150151718 0.27396401982965002 0 -0.28924963833865119 0.25662279726630949 0 -0.31982717126166482 0.280165777010907 0 -0.3140295821328859 0.25661908962302432 0 -0.30243282150151718 0.27396401982965002 0 -0.30243282150151718 0.27396401982965002 0 -0.28924963833865119 0.25662279726630949 0 -0.28208193520053298 0.28449152701460001 0 -0.26475534925075223 0.26566675151901731 0 -0.25081694901592261 0.28766964991031257 0 -0.28208193520053298 0.28449152701460001 0 -0.26993166577237349 0.24798124382441419 0 -0.28924963833865119 0.25662279726630949 0 -0.26475534925075223 0.26566675151901731 0 -0.28924963833865119 0.25662279726630949 0 -0.26475534925075223 0.26566675151901731 0 -0.28208193520053298 0.28449152701460001 0 -0.26475534925075223 0.26566675151901731 0 -0.25081694901592261 0.28766964991031257 0 -0.24599897298213799 0.26558665621264371 0 -0.25045711032761642 0.24363572039220641 0 -0.26993166577237349 0.24798124382441419 0 -0.26475534925075223 0.26566675151901731 0 -0.25045711032761642 0.24363572039220641 0 -0.26475534925075223 0.26566675151901731 0 -0.24599897298213799 0.26558665621264371 0 -0.25081694901592261 0.28766964991031257 0 -0.27049677253945231 0.30662631809301588 0 -0.28208193520053298 0.28449152701460001 0 -0.25081694901592261 0.28766964991031257 0 -0.27049677253945231 0.30662631809301588 0 -0.2465246330966176 0.31184431865959172 0 -0.27049677253945231 0.30662631809301588 0 -0.29327240728402448 0.30650592297906659 0 -0.28277276211472452 0.32226049129842932 0 -0.27049677253945231 0.30662631809301588 0 -0.29327240728402448 0.30650592297906659 0 -0.28208193520053298 0.28449152701460001 0 -0.30243282150151718 0.27396401982965002 0 -0.28208193520053298 0.28449152701460001 0 -0.30562294483922697 0.29132814336380708 0 -0.29327240728402448 0.30650592297906659 0 -0.28208193520053298 0.28449152701460001 0 -0.30562294483922697 0.29132814336380708 0 -0.31982717126166482 0.280165777010907 0 -0.30243282150151718 0.27396401982965002 0 -0.30562294483922697 0.29132814336380708 0 -0.31870366134247341 0.30634456032188412 0 -0.29327240728402448 0.30650592297906659 0 -0.30562294483922697 0.29132814336380708 0 -0.31870366134247341 0.30634456032188412 0 -0.29327240728402448 0.30650592297906659 0 -0.30316407030739112 0.32961890560554208 0 -0.30316407030739112 0.32961890560554208 0 -0.28277276211472452 0.32226049129842932 0 -0.28083464720216261 0.34062260695346241 0 -0.30316407030739112 0.32961890560554208 0 -0.28083464720216261 0.34062260695346241 0 -0.29534144024516518 0.35579741099140838 0 -0.29327240728402448 0.30650592297906659 0 -0.30316407030739112 0.32961890560554208 0 -0.28277276211472452 0.32226049129842932 0 -0.27049677253945231 0.30662631809301588 0 -0.28277276211472452 0.32226049129842932 0 -0.26609591324059212 0.32792870286105952 0 -0.26609591324059212 0.32792870286105952 0 -0.28083464720216261 0.34062260695346241 0 -0.26293153347817638 0.34685411199629851 0 -0.28277276211472452 0.32226049129842932 0 -0.26609591324059212 0.32792870286105952 0 -0.28083464720216261 0.34062260695346241 0 -0.26609591324059212 0.32792870286105952 0 -0.26293153347817638 0.34685411199629851 0 -0.24655164257727771 0.33802435991743812 0 -0.27049677253945231 0.30662631809301588 0 -0.26609591324059212 0.32792870286105952 0 -0.2465246330966176 0.31184431865959172 0 -0.26609591324059212 0.32792870286105952 0 -0.24655164257727771 0.33802435991743812 0 -0.2465246330966176 0.31184431865959172 0 -0.2606990675530847 0.37148010627715611 0 -0.25653151514375572 0.35936582690291452 0 -0.2732861285426269 0.36221872313300107 0 -0.2606990675530847 0.37148010627715611 0 -0.25368036395360488 0.38081930711422929 0 -0.2493440915180106 0.36943577128316107 0 -0.2606990675530847 0.37148010627715611 0 -0.25653151514375572 0.35936582690291452 0 -0.2493440915180106 0.36943577128316107 0 -0.25174099968323921 0.35001832911737463 0 -0.26293153347817638 0.34685411199629851 0 -0.24655164257727771 0.33802435991743812 0 -0.25653151514375572 0.35936582690291452 0 -0.25174099968323921 0.35001832911737463 0 -0.26293153347817638 0.34685411199629851 0 -0.25653151514375572 0.35936582690291452 0 -0.26293153347817638 0.34685411199629851 0 -0.2732861285426269 0.36221872313300107 0 -0.28083464720216261 0.34062260695346241 0 -0.26293153347817638 0.34685411199629851 0 -0.2732861285426269 0.36221872313300107 0 -0.2606990675530847 0.37148010627715611 0 -0.2732861285426269 0.36221872313300107 0 -0.26991825836861838 0.38120660505307841 0 -0.2732861285426269 0.36221872313300107 0 -0.2855278107821696 0.37886506373961287 0 -0.26991825836861838 0.38120660505307841 0 -0.29534144024516518 0.35579741099140838 0 -0.2855278107821696 0.37886506373961287 0 -0.2732861285426269 0.36221872313300107 0 -0.29534144024516518 0.35579741099140838 0 -0.2855278107821696 0.37886506373961287 0 -0.29534144024516518 0.35579741099140838 0 -0.30258750704157827 0.37774401734938862 0 -0.2855278107821696 0.37886506373961287 0 -0.28083464720216261 0.34062260695346241 0 -0.2732861285426269 0.36221872313300107 0 -0.29534144024516518 0.35579741099140838 0 -0.29534144024516518 0.35579741099140838 0 -0.3169900684416963 0.36837575437752929 0 -0.32218017682391148 0.3491194300189861 0 -0.30316407030739112 0.32961890560554208 0 -0.29534144024516518 0.35579741099140838 0 -0.32218017682391148 0.3491194300189861 0 -0.29534144024516518 0.35579741099140838 0 -0.3169900684416963 0.36837575437752929 0 -0.30258750704157827 0.37774401734938862 0 -0.3169900684416963 0.36837575437752929 0 -0.33107535947289812 0.36566542383208311 0 -0.32218017682391148 0.3491194300189861 0 -0.3169900684416963 0.36837575437752929 0 -0.33107535947289812 0.36566542383208311 0 -0.33176451686915082 0.38255684378926957 0 -0.33107535947289812 0.36566542383208311 0 -0.34251937273020799 0.37098037073136519 0 -0.33176451686915082 0.38255684378926957 0 -0.33107535947289812 0.36566542383208311 0 -0.34251937273020799 0.37098037073136519 0 -0.34192266249952369 0.35729472024326508 0 -0.34192266249952369 0.35729472024326508 0 -0.32218017682391148 0.3491194300189861 0 -0.33944104373085848 0.34129414316287909 0 -0.33107535947289812 0.36566542383208311 0 -0.34192266249952369 0.35729472024326508 0 -0.32218017682391148 0.3491194300189861 0 -0.30316407030739112 0.32961890560554208 0 -0.32218017682391148 0.3491194300189861 0 -0.32849265600286842 0.32760643643375809 0 -0.31870366134247341 0.30634456032188412 0 -0.30316407030739112 0.32961890560554208 0 -0.32849265600286842 0.32760643643375809 0 -0.31870366134247341 0.30634456032188412 0 -0.32849265600286842 0.32760643643375809 0 -0.3395898029120985 0.31416640981528737 0 -0.32849265600286842 0.32760643643375809 0 -0.3395898029120985 0.31416640981528737 0 -0.34864993467528688 0.329285135718762 0 -0.32218017682391148 0.3491194300189861 0 -0.32849265600286842 0.32760643643375809 0 -0.33944104373085848 0.34129414316287909 0 -0.32849265600286842 0.32760643643375809 0 -0.33944104373085848 0.34129414316287909 0 -0.34864993467528688 0.329285135718762 0 -0.34864993467528688 0.329285135718762 0 -0.36698499689946179 0.33883084547934339 0 -0.35445382969949268 0.34806278286130421 0 -0.33944104373085848 0.34129414316287909 0 -0.34864993467528688 0.329285135718762 0 -0.35445382969949268 0.34806278286130421 0 -0.36246796991354602 0.31060590595581028 0 -0.34864993467528688 0.329285135718762 0 -0.36698499689946179 0.33883084547934339 0 -0.36246796991354602 0.31060590595581028 0 -0.3395898029120985 0.31416640981528737 0 -0.34864993467528688 0.329285135718762 0 -0.36246796991354602 0.31060590595581028 0 -0.36698499689946179 0.33883084547934339 0 -0.36246796991354602 0.31060590595581028 0 -0.37478345203948787 0.31696727382914908 0 -0.36698499689946179 0.33883084547934339 0 -0.36698499689946179 0.33883084547934339 0 -0.35445382969949268 0.34806278286130421 0 -0.36698499689946179 0.33883084547934339 0 -0.37111636521306418 0.36464597148244798 0 -0.35802345118583728 0.36113880686732841 0 -0.37871809863603562 0.34793452675341041 0 -0.36698499689946179 0.33883084547934339 0 -0.37111636521306418 0.36464597148244798 0 -0.36698499689946179 0.33883084547934339 0 -0.35802345118583728 0.36113880686732841 0 -0.35445382969949268 0.34806278286130421 0 -0.36698499689946179 0.33883084547934339 0 -0.37111636521306418 0.36464597148244798 0 -0.37829496868164919 0.37285390782438599 0 -0.37111636521306418 0.36464597148244798 0 -0.36538239406157003 0.3765359598329111 0 -0.36239372111463208 0.36921727229677831 0 -0.35505267399805668 0.37454835100442552 0 -0.36538239406157003 0.3765359598329111 0 -0.37111636521306418 0.36464597148244798 0 -0.36239372111463208 0.36921727229677831 0 -0.36538239406157003 0.3765359598329111 0 -0.37111636521306418 0.36464597148244798 0 -0.36239372111463208 0.36921727229677831 0 -0.35802345118583728 0.36113880686732841 0 -0.34251937273020799 0.37098037073136519 0 -0.34192266249952369 0.35729472024326508 0 -0.35802345118583728 0.36113880686732841 0 -0.36239372111463208 0.36921727229677831 0 -0.35802345118583728 0.36113880686732841 0 -0.35505267399805668 0.37454835100442552 0 -0.34251937273020799 0.37098037073136519 0 -0.35802345118583728 0.36113880686732841 0 -0.35505267399805668 0.37454835100442552 0 -0.34192266249952369 0.35729472024326508 0 -0.35445382969949268 0.34806278286130421 0 -0.34192266249952369 0.35729472024326508 0 -0.33944104373085848 0.34129414316287909 0 -0.35445382969949268 0.34806278286130421 0 -0.34192266249952369 0.35729472024326508 0 -0.35802345118583728 0.36113880686732841 0 -0.35445382969949268 0.34806278286130421 0 -0.36392270365969132 0.39091365333455652 0 -0.34955043863773327 0.408973398844727 0 -0.34991442698929909 0.38726316798763261 0 -0.34955043863773327 0.408973398844727 0 -0.33993665169993392 0.39599843889079178 0 -0.34991442698929909 0.38726316798763261 0 -0.36392270365969132 0.39091365333455652 0 -0.34955043863773327 0.408973398844727 0 -0.34251937273020799 0.37098037073136519 0 -0.35505267399805668 0.37454835100442552 0 -0.34991442698929909 0.38726316798763261 0 -0.35505267399805668 0.37454835100442552 0 -0.34991442698929909 0.38726316798763261 0 -0.35874779616150221 0.38305622861008398 0 -0.34991442698929909 0.38726316798763261 0 -0.35874779616150221 0.38305622861008398 0 -0.36392270365969132 0.39091365333455652 0 -0.37829496868164919 0.37285390782438599 0 -0.36392270365969132 0.39091365333455652 0 -0.35874779616150221 0.38305622861008398 0 -0.36538239406157003 0.3765359598329111 0 -0.36392270365969132 0.39091365333455652 0 -0.37829496868164919 0.37285390782438599 0 -0.36538239406157003 0.3765359598329111 0 -0.36392270365969132 0.39091365333455652 0 -0.37829496868164919 0.37285390782438599 0 -0.37490490325085463 0.39019283557911949 0 -0.36392270365969132 0.39091365333455652 0 -0.35505267399805668 0.37454835100442552 0 -0.35874779616150221 0.38305622861008398 0 -0.36538239406157003 0.3765359598329111 0 -0.37490490325085463 0.39019283557911949 0 -0.36392270365969132 0.39091365333455652 0 -0.37020002230820942 0.40253187886220859 0 -0.36392270365969132 0.39091365333455652 0 -0.37020002230820942 0.40253187886220859 0 -0.34955043863773327 0.408973398844727 0 -0.37385999747664039 0.4172657263094357 0 -0.35630202524022841 0.43105488457477742 0 -0.34955043863773327 0.408973398844727 0 -0.37020002230820942 0.40253187886220859 0 -0.37385999747664039 0.4172657263094357 0 -0.34955043863773327 0.408973398844727 0 -0.38709347080002487 0.43843432851619352 0 -0.37385999747664039 0.4172657263094357 0 -0.35630202524022841 0.43105488457477742 0 -0.35630202524022841 0.43105488457477742 0 -0.34955043863773327 0.408973398844727 0 -0.3351781736157754 0.42703314435489748 0 -0.34955043863773327 0.408973398844727 0 -0.3351781736157754 0.42703314435489748 0 -0.34955043863773327 0.408973398844727 0 -0.3351781736157754 0.42703314435489748 0 -0.32851722430355229 0.40520034494153828 0 -0.35630202524022841 0.43105488457477742 0 -0.3351781736157754 0.42703314435489748 0 -0.33179952530721402 0.44465781725744602 0 -0.3351781736157754 0.42703314435489748 0 -0.31496493893201499 0.42562641388966421 0 -0.33179952530721402 0.44465781725744602 0 -0.3351781736157754 0.42703314435489748 0 -0.31496493893201499 0.42562641388966421 0 -0.32851722430355229 0.40520034494153828 0 -0.31496493893201499 0.42562641388966421 0 -0.32851722430355229 0.40520034494153828 0 -0.31049507826267958 0.40696684952782319 0 -0.32851722430355229 0.40520034494153828 0 -0.31493017100574933 0.38947298006934089 0 -0.31049507826267958 0.40696684952782319 0 -0.32851722430355229 0.40520034494153828 0 -0.33176451686915082 0.38255684378926957 0 -0.31493017100574933 0.38947298006934089 0 -0.33993665169993392 0.39599843889079178 0 -0.32851722430355229 0.40520034494153828 0 -0.33176451686915082 0.38255684378926957 0 -0.34955043863773327 0.408973398844727 0 -0.33993665169993392 0.39599843889079178 0 -0.32851722430355229 0.40520034494153828 0 -0.34251937273020799 0.37098037073136519 0 -0.34991442698929909 0.38726316798763261 0 -0.33176451686915082 0.38255684378926957 0 -0.34991442698929909 0.38726316798763261 0 -0.33993665169993392 0.39599843889079178 0 -0.33176451686915082 0.38255684378926957 0 -0.3169900684416963 0.36837575437752929 0 -0.33176451686915082 0.38255684378926957 0 -0.31493017100574933 0.38947298006934089 0 -0.31493017100574933 0.38947298006934089 0 -0.30258750704157827 0.37774401734938862 0 -0.3001480447331113 0.39620887756905132 0 -0.3169900684416963 0.36837575437752929 0 -0.31493017100574933 0.38947298006934089 0 -0.30258750704157827 0.37774401734938862 0 -0.31493017100574933 0.38947298006934089 0 -0.3001480447331113 0.39620887756905132 0 -0.31049507826267958 0.40696684952782319 0 -0.3001480447331113 0.39620887756905132 0 -0.2855278107821696 0.37886506373961287 0 -0.27571418131917391 0.40193271648781742 0 -0.3001480447331113 0.39620887756905132 0 -0.27571418131917391 0.40193271648781742 0 -0.29694285951898791 0.41636583072157313 0 -0.30258750704157827 0.37774401734938862 0 -0.3001480447331113 0.39620887756905132 0 -0.2855278107821696 0.37886506373961287 0 -0.2855278107821696 0.37886506373961287 0 -0.27571418131917391 0.40193271648781742 0 -0.2855278107821696 0.37886506373961287 0 -0.26991825836861838 0.38120660505307841 0 -0.27571418131917391 0.40193271648781742 0 -0.26991825836861838 0.38120660505307841 0 -0.27571418131917391 0.40193271648781742 0 -0.26016782792427312 0.39089462502409272 0 -0.27571418131917391 0.40193271648781742 0 -0.25375205352728097 0.40146823210252353 0 -0.25664701127637302 0.41407326147083012 0 -0.27571418131917391 0.40193271648781742 0 -0.26016782792427312 0.39089462502409272 0 -0.25375205352728097 0.40146823210252353 0 -0.26016782792427312 0.39089462502409272 0 -0.25375205352728097 0.40146823210252353 0 -0.24701119926623211 0.38899119577334063 0 -0.26991825836861838 0.38120660505307841 0 -0.26016782792427312 0.39089462502409272 0 -0.25368036395360488 0.38081930711422929 0 -0.26016782792427312 0.39089462502409272 0 -0.25368036395360488 0.38081930711422929 0 -0.24701119926623211 0.38899119577334063 0 -0.2606990675530847 0.37148010627715611 0 -0.26991825836861838 0.38120660505307841 0 -0.25368036395360488 0.38081930711422929 0 -0.25006690965690609 0.43533975727924512 0 -0.26590055185617828 0.42500036923602202 0 -0.25608692239317332 0.44806802198422252 0 -0.25006690965690609 0.43533975727924512 0 -0.26590055185617828 0.42500036923602202 0 -0.24685170225863229 0.42476087260794038 0 -0.26590055185617828 0.42500036923602202 0 -0.25608692239317332 0.44806802198422252 0 -0.25664701127637302 0.41407326147083012 0 -0.26590055185617828 0.42500036923602202 0 -0.24685170225863229 0.42476087260794038 0 -0.25375205352728097 0.40146823210252353 0 -0.25664701127637302 0.41407326147083012 0 -0.24516326863653259 0.41134049731755618 0 -0.27571418131917391 0.40193271648781742 0 -0.25664701127637302 0.41407326147083012 0 -0.26590055185617828 0.42500036923602202 0 -0.27571418131917391 0.40193271648781742 0 -0.26590055185617828 0.42500036923602202 0 -0.27571418131917391 0.40193271648781742 0 -0.28100668546540147 0.42726876773213229 0 -0.26590055185617828 0.42500036923602202 0 -0.28100668546540147 0.42726876773213229 0 -0.28186676726284521 0.44341248357766438 0 -0.27187807853035922 0.44037842249562198 0 -0.28100668546540147 0.42726876773213229 0 -0.26590055185617828 0.42500036923602202 0 -0.27187807853035922 0.44037842249562198 0 -0.28100668546540147 0.42726876773213229 0 -0.29373767430486442 0.43652278387409488 0 -0.29694285951898791 0.41636583072157313 0 -0.28100668546540147 0.42726876773213229 0 -0.29373767430486442 0.43652278387409488 0 -0.28186676726284521 0.44341248357766438 0 -0.29373767430486442 0.43652278387409488 0 -0.29694285951898791 0.41636583072157313 0 -0.27571418131917391 0.40193271648781742 0 -0.28100668546540147 0.42726876773213229 0 -0.29694285951898791 0.41636583072157313 0 -0.31496493893201499 0.42562641388966421 0 -0.29694285951898791 0.41636583072157313 0 -0.31049507826267958 0.40696684952782319 0 -0.3001480447331113 0.39620887756905132 0 -0.29694285951898791 0.41636583072157313 0 -0.31049507826267958 0.40696684952782319 0 -0.3001480447331113 0.39620887756905132 0 -0.29694285951898791 0.41636583072157313 0 -0.31496493893201499 0.42562641388966421 0 -0.29373767430486442 0.43652278387409488 0 -0.3118473007805812 0.44491780861520408 0 -0.31496493893201499 0.42562641388966421 0 -0.29373767430486442 0.43652278387409488 0 -0.29694285951898791 0.41636583072157313 0 -0.29373767430486442 0.43652278387409488 0 -0.3118473007805812 0.44491780861520408 0 -0.30214103171479928 0.45372104983326761 0 -0.3118473007805812 0.44491780861520408 0 -0.30214103171479928 0.45372104983326761 0 -0.31577524624978781 0.46323678500514992 0 -0.30429044142205081 0.46275675256206439 0 -0.30729670196985992 0.46931049525556362 0 -0.31577524624978781 0.46323678500514992 0 -0.30429044142205081 0.46275675256206439 0 -0.30299054387667163 0.46794784702157022 0 -0.30729670196985992 0.46931049525556362 0 -0.30214103171479928 0.45372104983326761 0 -0.30429044142205081 0.46275675256206439 0 -0.31577524624978781 0.46323678500514992 0 -0.30214103171479928 0.45372104983326761 0 -0.30429044142205081 0.46275675256206439 0 -0.2966630384407562 0.4582124319164731 0 -0.30429044142205081 0.46275675256206439 0 -0.29734061864109868 0.46408392140487342 0 -0.2966630384407562 0.4582124319164731 0 -0.29734061864109868 0.46408392140487342 0 -0.30299054387667163 0.46794784702157022 0 -0.29882597608340089 0.46890597516477828 0 -0.29734061864109868 0.46408392140487342 0 -0.29614009872571889 0.46739291878686662 0 -0.29882597608340089 0.46890597516477828 0 -0.30429044142205081 0.46275675256206439 0 -0.29734061864109868 0.46408392140487342 0 -0.30299054387667163 0.46794784702157022 0 -0.2905324890907558 0.45667973702661913 0 -0.28789556927335819 0.47326295006270652 0 -0.2905324890907558 0.45667973702661913 0 -0.27330970574196489 0.45237387950541941 0 -0.29206005293655862 0.46543382747972378 0 -0.2905324890907558 0.45667973702661913 0 -0.28789556927335819 0.47326295006270652 0 -0.2905324890907558 0.45667973702661913 0 -0.28416706196420349 0.46524795967135552 0 -0.28789556927335819 0.47326295006270652 0 -0.29206005293655862 0.46543382747972378 0 -0.29414904977729228 0.46110247945692229 0 -0.2905324890907558 0.45667973702661913 0 -0.29734061864109868 0.46408392140487342 0 -0.29206005293655862 0.46543382747972378 0 -0.29614009872571889 0.46739291878686662 0 -0.29206005293655862 0.46543382747972378 0 -0.29614009872571889 0.46739291878686662 0 -0.29633374724181738 0.47114795109809099 0 -0.29734061864109868 0.46408392140487342 0 -0.29414904977729228 0.46110247945692229 0 -0.2966630384407562 0.4582124319164731 0 -0.29734061864109868 0.46408392140487342 0 -0.29206005293655862 0.46543382747972378 0 -0.29414904977729228 0.46110247945692229 0 -0.30214103171479928 0.45372104983326761 0 -0.2966630384407562 0.4582124319164731 0 -0.2905324890907558 0.45667973702661913 0 -0.29414904977729228 0.46110247945692229 0 -0.2966630384407562 0.4582124319164731 0 -0.2905324890907558 0.45667973702661913 0 -0.2966630384407562 0.4582124319164731 0 -0.2905324890907558 0.45667973702661913 0 -0.2905324890907558 0.45667973702661913 0 -0.28416706196420349 0.46524795967135552 0 -0.27764546847614041 0.46137959349653179 0 -0.2905324890907558 0.45667973702661913 0 -0.28186676726284521 0.44341248357766438 0 -0.27330970574196489 0.45237387950541941 0 -0.29373767430486442 0.43652278387409488 0 -0.2905324890907558 0.45667973702661913 0 -0.28186676726284521 0.44341248357766438 0 -0.29373767430486442 0.43652278387409488 0 -0.30214103171479928 0.45372104983326761 0 -0.2905324890907558 0.45667973702661913 0 -0.29373767430486442 0.43652278387409488 0 -0.2905324890907558 0.45667973702661913 0 -0.27187807853035922 0.44037842249562198 0 -0.27330970574196489 0.45237387950541941 0 -0.25608692239317332 0.44806802198422252 0 -0.28186676726284521 0.44341248357766438 0 -0.27187807853035922 0.44037842249562198 0 -0.27330970574196489 0.45237387950541941 0 -0.27330970574196489 0.45237387950541941 0 -0.27764546847614041 0.46137959349653179 0 -0.2610552679452382 0.46119490081245512 0 -0.2905324890907558 0.45667973702661913 0 -0.27330970574196489 0.45237387950541941 0 -0.27764546847614041 0.46137959349653179 0 -0.27764546847614041 0.46137959349653179 0 -0.2610552679452382 0.46119490081245512 0 -0.27047538765085549 0.47204572306727383 0 -0.27764546847614041 0.46137959349653179 0 -0.27047538765085549 0.47204572306727383 0 -0.28023719326214441 0.4702262197735938 0 -0.28416706196420349 0.46524795967135552 0 -0.27764546847614041 0.46137959349653179 0 -0.28023719326214441 0.4702262197735938 0 -0.27330970574196489 0.45237387950541941 0 -0.2610552679452382 0.46119490081245512 0 -0.25608692239317332 0.44806802198422252 0 -0.2610552679452382 0.46119490081245512 0 -0.25080008176163249 0.45850327174093269 0 -0.2484552336533217 0.46824585218344728 0 -0.2610552679452382 0.46119490081245512 0 -0.25430131016150398 0.45226523393915352 0 -0.25608692239317332 0.44806802198422252 0 -0.2610552679452382 0.46119490081245512 0 -0.25080008176163249 0.45850327174093269 0 -0.25430131016150398 0.45226523393915352 0 -0.25080008176163249 0.45850327174093269 0 -0.25430131016150398 0.45226523393915352 0 -0.24879253035357149 0.45309417336833219 0 -0.26590055185617828 0.42500036923602202 0 -0.27187807853035922 0.44037842249562198 0 -0.25608692239317332 0.44806802198422252 0 -0.27330970574196489 0.45237387950541941 0 -0.25608692239317332 0.44806802198422252 0 -0.25430131016150398 0.45226523393915352 0 -0.25608692239317332 0.44806802198422252 0 -0.24879253035357149 0.45309417336833219 0 -0.25430131016150398 0.45226523393915352 0 -0.25608692239317332 0.44806802198422252 0 -0.25006690965690609 0.43533975727924512 0 -0.25608692239317332 0.44806802198422252 0 -0.24597044430589751 0.44110090428765197 0 -0.26000103536168068 0.5 0 -0.25876622828037049 0.4775651242701755 0 -0.24234536659229261 0.48372168905812007 0 -0.26000103536168068 0.5 0 -0.25876622828037049 0.4775651242701755 0 -0.27001423797074731 0.48363469986996299 0 -0.2610552679452382 0.46119490081245512 0 -0.25876622828037049 0.4775651242701755 0 -0.2484552336533217 0.46824585218344728 0 -0.2610552679452382 0.46119490081245512 0 -0.25876622828037049 0.4775651242701755 0 -0.27047538765085549 0.47204572306727383 0 -0.25876622828037049 0.4775651242701755 0 -0.27001423797074731 0.48363469986996299 0 -0.27047538765085549 0.47204572306727383 0 -0.27001423797074731 0.48363469986996299 0 -0.27047538765085549 0.47204572306727383 0 -0.27870926838914389 0.47829140424571431 0 -0.28023719326214441 0.4702262197735938 0 -0.27870926838914389 0.47829140424571431 0 -0.28286137508044878 0.47478350823355669 0 -0.27047538765085549 0.47204572306727383 0 -0.28023719326214441 0.4702262197735938 0 -0.27870926838914389 0.47829140424571431 0 -0.27001423797074731 0.48363469986996299 0 -0.27870926838914389 0.47829140424571431 0 -0.281393483874251 0.48823070159734983 0 -0.26000103536168068 0.5 0 -0.281393483874251 0.48823070159734983 0 -0.28953010091132497 0.5 0 -0.26000103536168068 0.5 0 -0.27001423797074731 0.48363469986996299 0 -0.281393483874251 0.48823070159734983 0 -0.281393483874251 0.48823070159734983 0 -0.29618020375311199 0.48701747875039281 0 -0.28953010091132497 0.5 0 -0.28416706196420349 0.46524795967135552 0 -0.28023719326214441 0.4702262197735938 0 -0.28789556927335819 0.47326295006270652 0 -0.28023719326214441 0.4702262197735938 0 -0.28789556927335819 0.47326295006270652 0 -0.28023719326214441 0.4702262197735938 0 -0.28286137508044878 0.47478350823355669 0 -0.28789556927335819 0.47326295006270652 0 -0.28789556927335819 0.47326295006270652 0 -0.28717562523136292 0.47779057556871452 0 -0.28286137508044878 0.47478350823355669 0 -0.28789556927335819 0.47326295006270652 0 -0.28717562523136292 0.47779057556871452 0 -0.27870926838914389 0.47829140424571431 0 -0.281393483874251 0.48823070159734983 0 -0.28717562523136292 0.47779057556871452 0 -0.281393483874251 0.48823070159734983 0 -0.29618020375311199 0.48701747875039281 0 -0.28717562523136292 0.47779057556871452 0 -0.27870926838914389 0.47829140424571431 0 -0.28286137508044878 0.47478350823355669 0 -0.28717562523136292 0.47779057556871452 0 -0.29618020375311199 0.48701747875039281 0 -0.28789556927335819 0.47326295006270652 0 -0.28717562523136292 0.47779057556871452 0 -0.29206005293655862 0.46543382747972378 0 -0.28789556927335819 0.47326295006270652 0 -0.29633374724181738 0.47114795109809099 0 -0.28789556927335819 0.47326295006270652 0 -0.30921459692234959 0.48171645729470519 0 -0.30675734650399022 0.4786709025036246 0 -0.29618020375311199 0.48701747875039281 0 -0.28789556927335819 0.47326295006270652 0 -0.30921459692234959 0.48171645729470519 0 -0.28789556927335819 0.47326295006270652 0 -0.29633374724181738 0.47114795109809099 0 -0.30675734650399022 0.4786709025036246 0 -0.28789556927335819 0.47326295006270652 0 -0.30921459692234959 0.48171645729470519 0 -0.29633374724181738 0.47114795109809099 0 -0.30327868461370422 0.47228025616731439 0 -0.30675734650399022 0.4786709025036246 0 -0.30299054387667163 0.46794784702157022 0 -0.30327868461370422 0.47228025616731439 0 -0.29882597608340089 0.46890597516477828 0 -0.30299054387667163 0.46794784702157022 0 -0.30327868461370422 0.47228025616731439 0 -0.30729670196985992 0.46931049525556362 0 -0.29633374724181738 0.47114795109809099 0 -0.30327868461370422 0.47228025616731439 0 -0.29882597608340089 0.46890597516477828 0 -0.29614009872571889 0.46739291878686662 0 -0.29633374724181738 0.47114795109809099 0 -0.29882597608340089 0.46890597516477828 0 -0.30327868461370422 0.47228025616731439 0 -0.30675734650399022 0.4786709025036246 0 -0.30729670196985992 0.46931049525556362 0 -0.30675734650399022 0.4786709025036246 0 -0.30729670196985992 0.46931049525556362 0 -0.31577524624978781 0.46323678500514992 0 -0.29618020375311199 0.48701747875039281 0 -0.28953010091132497 0.5 0 -0.31905916646096938 0.5 0 -0.29618020375311199 0.48701747875039281 0 -0.30921459692234959 0.48171645729470519 0 -0.31905916646096938 0.5 0 -0.30921459692234959 0.48171645729470519 0 -0.33053362457134161 0.49016996452670281 0 -0.30921459692234959 0.48171645729470519 0 -0.31905916646096938 0.5 0 -0.33053362457134161 0.49016996452670281 0 -0.33053362457134161 0.49016996452670281 0 -0.35185265222033352 0.49862347175870042 0 -0.34858823201061379 0.5 0 -0.31905916646096938 0.5 0 -0.33053362457134161 0.49016996452670281 0 -0.34858823201061379 0.5 0 -0.33053362457134161 0.49016996452670281 0 -0.35185265222033352 0.49862347175870042 0 -0.33053362457134161 0.49016996452670281 0 -0.33353605460266839 0.46525871117448092 0 -0.35268704309170962 0.47625531750717071 0 -0.30675734650399022 0.4786709025036246 0 -0.33353605460266839 0.46525871117448092 0 -0.30921459692234959 0.48171645729470519 0 -0.33053362457134161 0.49016996452670281 0 -0.33353605460266839 0.46525871117448092 0 -0.30675734650399022 0.4786709025036246 0 -0.31577524624978781 0.46323678500514992 0 -0.33353605460266839 0.46525871117448092 0 -0.30921459692234959 0.48171645729470519 0 -0.30675734650399022 0.4786709025036246 0 -0.33353605460266839 0.46525871117448092 0 -0.31577524624978781 0.46323678500514992 0 -0.33179952530721402 0.44465781725744602 0 -0.33353605460266839 0.46525871117448092 0 -0.3118473007805812 0.44491780861520408 0 -0.31577524624978781 0.46323678500514992 0 -0.33179952530721402 0.44465781725744602 0 -0.31496493893201499 0.42562641388966421 0 -0.3118473007805812 0.44491780861520408 0 -0.33179952530721402 0.44465781725744602 0 -0.33179952530721402 0.44465781725744602 0 -0.33353605460266839 0.46525871117448092 0 -0.36031476270134671 0.45184651984533719 0 -0.33353605460266839 0.46525871117448092 0 -0.36031476270134671 0.45184651984533719 0 -0.33353605460266839 0.46525871117448092 0 -0.36031476270134671 0.45184651984533719 0 -0.35268704309170962 0.47625531750717071 0 -0.35630202524022841 0.43105488457477742 0 -0.33179952530721402 0.44465781725744602 0 -0.36031476270134671 0.45184651984533719 0 -0.38709347080002487 0.43843432851619352 0 -0.35630202524022841 0.43105488457477742 0 -0.36031476270134671 0.45184651984533719 0 -0.38709347080002487 0.43843432851619352 0 -0.36031476270134671 0.45184651984533719 0 -0.38709347080002487 0.43843432851619352 0 -0.36031476270134671 0.45184651984533719 0 -0.37291664837371968 0.46556447324140798 0 -0.36031476270134671 0.45184651984533719 0 -0.37291664837371968 0.46556447324140798 0 -0.35268704309170962 0.47625531750717071 0 -0.37291664837371968 0.46556447324140798 0 -0.36980452883543607 0.4834465324852697 0 -0.35268704309170962 0.47625531750717071 0 -0.37811729756025808 0.5 0 -0.35185265222033352 0.49862347175870042 0 -0.34858823201061379 0.5 0 -0.37811729756025808 0.5 0 -0.36980452883543607 0.4834465324852697 0 -0.35185265222033352 0.49862347175870042 0 -0.36980452883543607 0.4834465324852697 0 -0.35185265222033352 0.49862347175870042 0 -0.35268704309170962 0.47625531750717071 0 -0.33053362457134161 0.49016996452670281 0 -0.35185265222033352 0.49862347175870042 0 -0.35268704309170962 0.47625531750717071 0 -0.14490553391082911 0.4706375895829078 0 -0.1643906344224918 0.4623306939569759 0 -0.15707428497799611 0.48372836400960822 0 -0.13104564872830479 0.5 0 -0.15707428497799611 0.48372836400960822 0 -0.15648124420071929 0.5 0 -0.14490553391082911 0.4706375895829078 0 -0.13104564872830479 0.5 0 -0.15707428497799611 0.48372836400960822 0 -0.14490553391082911 0.4706375895829078 0 -0.13104564872830479 0.5 0 -0.1243874746446645 0.46969277243405372 0 -0.14005825561459909 0.45165588172300247 0 -0.1243874746446645 0.46969277243405372 0 -0.14005825561459909 0.45165588172300247 0 -0.1152373021199995 0.46466451657126651 0 -0.1243874746446645 0.46969277243405372 0 -0.14490553391082911 0.4706375895829078 0 -0.14005825561459909 0.45165588172300247 0 -0.1243874746446645 0.46969277243405372 0 -0.14005825561459909 0.45165588172300247 0 -0.1152373021199995 0.46466451657126651 0 -0.1260854709599725 0.43948899796761159 0 -0.14005825561459909 0.45165588172300247 0 -0.11645457586906111 0.44976834879686639 0 -0.1260854709599725 0.43948899796761159 0 -0.14005825561459909 0.45165588172300247 0 -0.13780910039508121 0.44008853217054311 0 -0.14005825561459909 0.45165588172300247 0 -0.13780910039508121 0.44008853217054311 0 -0.15169143256620091 0.43826622732728898 0 -0.14005825561459909 0.45165588172300247 0 -0.15169143256620091 0.43826622732728898 0 -0.14005825561459909 0.45165588172300247 0 -0.15562753179717201 0.44349604093546202 0 -0.14005825561459909 0.45165588172300247 0 -0.15562753179717201 0.44349604093546202 0 -0.1518486315357728 0.45673018566757217 0 -0.14005825561459909 0.45165588172300247 0 -0.15562753179717201 0.44349604093546202 0 -0.15169143256620091 0.43826622732728898 0 -0.15562753179717201 0.44349604093546202 0 -0.15400808985646711 0.44001535283379389 0 -0.15910269061007121 0.44167471396482139 0 -0.15562753179717201 0.44349604093546202 0 -0.15400808985646711 0.44001535283379389 0 -0.15562753179717201 0.44349604093546202 0 -0.15400808985646711 0.44001535283379389 0 -0.15169143256620091 0.43826622732728898 0 -0.14490553391082911 0.4706375895829078 0 -0.1518486315357728 0.45673018566757217 0 -0.1643906344224918 0.4623306939569759 0 -0.14490553391082911 0.4706375895829078 0 -0.14005825561459909 0.45165588172300247 0 -0.1518486315357728 0.45673018566757217 0 -0.15562753179717201 0.44349604093546202 0 -0.1518486315357728 0.45673018566757217 0 -0.1643906344224918 0.4623306939569759 0 -0.15562753179717201 0.44349604093546202 0 -0.1643906344224918 0.4623306939569759 0 -0.16600797995755481 0.44733126655826461 0 -0.15562753179717201 0.44349604093546202 0 -0.1643906344224918 0.4623306939569759 0 -0.15562753179717201 0.44349604093546202 0 -0.15910269061007121 0.44167471396482139 0 -0.16600797995755481 0.44733126655826461 0 -0.15562753179717201 0.44349604093546202 0 -0.15910269061007121 0.44167471396482139 0 -0.1643906344224918 0.4623306939569759 0 -0.16600797995755481 0.44733126655826461 0 -0.1793424226757715 0.44951128246081462 0 -0.15910269061007121 0.44167471396482139 0 -0.16600797995755481 0.44733126655826461 0 -0.17157662028226731 0.43964360147324921 0 -0.17157662028226731 0.43964360147324921 0 -0.1793424226757715 0.44951128246081462 0 -0.1894564240513151 0.43140977188513752 0 -0.16600797995755481 0.44733126655826461 0 -0.17157662028226731 0.43964360147324921 0 -0.1793424226757715 0.44951128246081462 0 -0.1643906344224918 0.4623306939569759 0 -0.1793424226757715 0.44951128246081462 0 -0.18870676415954371 0.46642950948682238 0 -0.17315373704781231 0.48116534697848951 0 -0.18975313319078921 0.4848981393496466 0 -0.18870676415954371 0.46642950948682238 0 -0.1643906344224918 0.4623306939569759 0 -0.17315373704781231 0.48116534697848951 0 -0.18870676415954371 0.46642950948682238 0 -0.1643906344224918 0.4623306939569759 0 -0.17315373704781231 0.48116534697848951 0 -0.15707428497799611 0.48372836400960822 0 -0.1643906344224918 0.4623306939569759 0 -0.17315373704781231 0.48116534697848951 0 -0.17315373704781231 0.48116534697848951 0 -0.15648124420071929 0.5 0 -0.18191683967313391 0.50000000000000266 0 -0.17315373704781231 0.48116534697848951 0 -0.15707428497799611 0.48372836400960822 0 -0.15648124420071929 0.5 0 -0.17315373704781231 0.48116534697848951 0 -0.18191683967313391 0.50000000000000266 0 -0.17315373704781231 0.48116534697848951 0 -0.18191683967313391 0.50000000000000266 0 -0.18975313319078921 0.4848981393496466 0 -0.18191683967313391 0.50000000000000266 0 -0.200942904262392 0.50000000000000044 0 -0.18975313319078921 0.4848981393496466 0 -0.200942904262392 0.50000000000000044 0 -0.18975313319078921 0.4848981393496466 0 -0.20582468236987281 0.47931432361289961 0 -0.18975313319078921 0.4848981393496466 0 -0.20582468236987281 0.47931432361289961 0 -0.18870676415954371 0.46642950948682238 0 -0.20582468236987281 0.47931432361289961 0 -0.2107064604773535 0.45862864722579849 0 -0.20582468236987281 0.47931432361289961 0 -0.22252843248487369 0.48315573661511391 0 -0.22189465786714621 0.46717838261556488 0 -0.200942904262392 0.50000000000000044 0 -0.20582468236987281 0.47931432361289961 0 -0.200942904262392 0.50000000000000044 0 -0.20582468236987281 0.47931432361289961 0 -0.22252843248487369 0.48315573661511391 0 -0.200942904262392 0.50000000000000044 0 -0.2304719698120363 0.5 0 -0.22252843248487369 0.48315573661511391 0 -0.2304719698120363 0.5 0 -0.22252843248487369 0.48315573661511391 0 -0.24234536659229261 0.48372168905812007 0 -0.22252843248487369 0.48315573661511391 0 -0.23445348521000239 0.46880337530472888 0 -0.24234536659229261 0.48372168905812007 0 -0.22252843248487369 0.48315573661511391 0 -0.23445348521000239 0.46880337530472888 0 -0.22189465786714621 0.46717838261556488 0 -0.25876622828037049 0.4775651242701755 0 -0.24234536659229261 0.48372168905812007 0 -0.2484552336533217 0.46824585218344728 0 -0.23445348521000239 0.46880337530472888 0 -0.24234536659229261 0.48372168905812007 0 -0.2484552336533217 0.46824585218344728 0 -0.26000103536168068 0.5 0 -0.2304719698120363 0.5 0 -0.24234536659229261 0.48372168905812007 0 -0.25608692239317332 0.44806802198422252 0 -0.2414952988297159 0.44947358012674621 0 -0.2358375804889995 0.4430054964114582 0 -0.25608692239317332 0.44806802198422252 0 -0.2358375804889995 0.4430054964114582 0 -0.24597044430589751 0.44110090428765197 0 -0.25608692239317332 0.44806802198422252 0 -0.2358375804889995 0.4430054964114582 0 -0.2351342700386414 0.45252884949952588 0 -0.2414952988297159 0.44947358012674621 0 -0.2358375804889995 0.4430054964114582 0 -0.2358375804889995 0.4430054964114582 0 -0.24189036468451131 0.43799034147568239 0 -0.24597044430589751 0.44110090428765197 0 -0.2358375804889995 0.4430054964114582 0 -0.23467003349780591 0.44031822805760878 0 -0.2367115891685464 0.43871131212967079 0 -0.2358375804889995 0.4430054964114582 0 -0.2367115891685464 0.43871131212967079 0 -0.24189036468451131 0.43799034147568239 0 -0.23467003349780591 0.44031822805760878 0 -0.2367115891685464 0.43871131212967079 0 -0.23374274845353199 0.43781756279289752 0 -0.25006690965690609 0.43533975727924512 0 -0.24189036468451131 0.43799034147568239 0 -0.24597044430589751 0.44110090428765197 0 -0.25608692239317332 0.44806802198422252 0 -0.2414952988297159 0.44947358012674621 0 -0.24879253035357149 0.45309417336833219 0 -0.25080008176163249 0.45850327174093269 0 -0.24879253035357149 0.45309417336833219 0 -0.24139606669452679 0.45771619840127542 0 -0.2414952988297159 0.44947358012674621 0 -0.24879253035357149 0.45309417336833219 0 -0.24139606669452679 0.45771619840127542 0 -0.25080008176163249 0.45850327174093269 0 -0.2484552336533217 0.46824585218344728 0 -0.24139606669452679 0.45771619840127542 0 -0.23445348521000239 0.46880337530472888 0 -0.2484552336533217 0.46824585218344728 0 -0.24139606669452679 0.45771619840127542 0 -0.23445348521000239 0.46880337530472888 0 -0.24139606669452679 0.45771619840127542 0 -0.23221777176429839 0.45999217673748011 0 -0.2351342700386414 0.45252884949952588 0 -0.24139606669452679 0.45771619840127542 0 -0.23221777176429839 0.45999217673748011 0 -0.2351342700386414 0.45252884949952588 0 -0.2414952988297159 0.44947358012674621 0 -0.24139606669452679 0.45771619840127542 0 -0.2351342700386414 0.45252884949952588 0 -0.23221777176429839 0.45999217673748011 0 -0.22495994012945089 0.45302918312659579 0 -0.23445348521000239 0.46880337530472888 0 -0.23221777176429839 0.45999217673748011 0 -0.22189465786714621 0.46717838261556488 0 -0.23221777176429839 0.45999217673748011 0 -0.22189465786714621 0.46717838261556488 0 -0.22495994012945089 0.45302918312659579 0 -0.22189465786714621 0.46717838261556488 0 -0.22495994012945089 0.45302918312659579 0 -0.2107064604773535 0.45862864722579849 0 -0.22495994012945089 0.45302918312659579 0 -0.2322930169657963 0.44211932225501321 0 -0.21558823858482529 0.43794297083869538 0 -0.2322930169657963 0.44211932225501321 0 -0.21558823858482529 0.43794297083869538 0 -0.2351342700386414 0.45252884949952588 0 -0.2358375804889995 0.4430054964114582 0 -0.22495994012945089 0.45302918312659579 0 -0.2358375804889995 0.4430054964114582 0 -0.22495994012945089 0.45302918312659579 0 -0.2322930169657963 0.44211932225501321 0 -0.23467003349780591 0.44031822805760878 0 -0.23374274845353199 0.43781756279289752 0 -0.2322930169657963 0.44211932225501321 0 -0.2358375804889995 0.4430054964114582 0 -0.23467003349780591 0.44031822805760878 0 -0.2322930169657963 0.44211932225501321 0 -0.2358375804889995 0.4430054964114582 0 -0.2322930169657963 0.44211932225501321 0 -0.21558823858482529 0.43794297083869538 0 -0.2107064604773535 0.45862864722579849 0 -0.22495994012945089 0.45302918312659579 0 -0.21558823858482529 0.43794297083869538 0 -0.2107064604773535 0.45862864722579849 0 -0.21558823858482529 0.43794297083869538 0 -0.2107064604773535 0.45862864722579849 0 -0.19536944817723401 0.45029757230037748 0 -0.20582468236987281 0.47931432361289961 0 -0.22189465786714621 0.46717838261556488 0 -0.2107064604773535 0.45862864722579849 0 -0.1793424226757715 0.44951128246081462 0 -0.18870676415954371 0.46642950948682238 0 -0.19536944817723401 0.45029757230037748 0 -0.20582468236987281 0.47931432361289961 0 -0.2107064604773535 0.45862864722579849 0 -0.18870676415954371 0.46642950948682238 0 -0.2107064604773535 0.45862864722579849 0 -0.18870676415954371 0.46642950948682238 0 -0.19536944817723401 0.45029757230037748 0 -0.21558823858482529 0.43794297083869538 0 -0.19536944817723401 0.45029757230037748 0 -0.1894564240513151 0.43140977188513752 0 -0.1793424226757715 0.44951128246081462 0 -0.19536944817723401 0.45029757230037748 0 -0.1894564240513151 0.43140977188513752 0 -0.21558823858482529 0.43794297083869538 0 -0.1894564240513151 0.43140977188513752 0 -0.21558823858482529 0.43794297083869538 0 -0.1894564240513151 0.43140977188513752 0 -0.20195601522859091 0.41862517305455182 0 -0.20195601522859091 0.41862517305455182 0 -0.20917989157077799 0.40226970432232489 0 -0.18096191996797159 0.40457622914928959 0 -0.1894564240513151 0.43140977188513752 0 -0.20195601522859091 0.41862517305455182 0 -0.18096191996797159 0.40457622914928959 0 -0.21976055272341191 0.42026352327764621 0 -0.2215415272382617 0.41271695691252591 0 -0.20917989157077799 0.40226970432232489 0 -0.21976055272341191 0.42026352327764621 0 -0.20917989157077799 0.40226970432232489 0 -0.20195601522859091 0.41862517305455182 0 -0.21976055272341191 0.42026352327764621 0 -0.20917989157077799 0.40226970432232489 0 -0.21558823858482529 0.43794297083869538 0 -0.20195601522859091 0.41862517305455182 0 -0.21976055272341191 0.42026352327764621 0 -0.21558823858482529 0.43794297083869538 0 -0.21976055272341191 0.42026352327764621 0 -0.2322930169657963 0.44211932225501321 0 -0.21558823858482529 0.43794297083869538 0 -0.21976055272341191 0.42026352327764621 0 -0.23374274845353199 0.43781756279289752 0 -0.21976055272341191 0.42026352327764621 0 -0.2215415272382617 0.41271695691252591 0 -0.23374274845353199 0.43781756279289752 0 -0.2322930169657963 0.44211932225501321 0 -0.21976055272341191 0.42026352327764621 0 -0.2322930169657963 0.44211932225501321 0 -0.21976055272341191 0.42026352327764621 0 -0.23374274845353199 0.43781756279289752 0 -0.2215415272382617 0.41271695691252591 0 -0.2331517107760388 0.42072755055691058 0 -0.23374274845353199 0.43781756279289752 0 -0.2215415272382617 0.41271695691252591 0 -0.21976055272341191 0.42026352327764621 0 -0.2215415272382617 0.41271695691252591 0 -0.2215415272382617 0.41271695691252591 0 -0.23421683065355139 0.40675343787617207 0 -0.2331517107760388 0.42072755055691058 0 -0.23421683065355139 0.40675343787617207 0 -0.2331517107760388 0.42072755055691058 0 -0.23859579291039301 0.41754300389940502 0 -0.23421683065355139 0.40675343787617207 0 -0.23859579291039301 0.41754300389940502 0 -0.24516326863653259 0.41134049731755618 0 -0.25664701127637302 0.41407326147083012 0 -0.24516326863653259 0.41134049731755618 0 -0.24685170225863229 0.42476087260794038 0 -0.23859579291039301 0.41754300389940502 0 -0.24516326863653259 0.41134049731755618 0 -0.24685170225863229 0.42476087260794038 0 -0.24685170225863229 0.42476087260794038 0 -0.24299237248197239 0.43239848035777001 0 -0.2376616546244566 0.42880679130355293 0 -0.23374274845353199 0.43781756279289752 0 -0.2331517107760388 0.42072755055691058 0 -0.2376616546244566 0.42880679130355293 0 -0.25006690965690609 0.43533975727924512 0 -0.24189036468451131 0.43799034147568239 0 -0.24299237248197239 0.43239848035777001 0 -0.25006690965690609 0.43533975727924512 0 -0.24685170225863229 0.42476087260794038 0 -0.24299237248197239 0.43239848035777001 0 -0.24299237248197239 0.43239848035777001 0 -0.2384912311853559 0.43509463912242868 0 -0.2376616546244566 0.42880679130355293 0 -0.23374274845353199 0.43781756279289752 0 -0.2384912311853559 0.43509463912242868 0 -0.2376616546244566 0.42880679130355293 0 -0.2367115891685464 0.43871131212967079 0 -0.24189036468451131 0.43799034147568239 0 -0.2384912311853559 0.43509463912242868 0 -0.24189036468451131 0.43799034147568239 0 -0.24299237248197239 0.43239848035777001 0 -0.2384912311853559 0.43509463912242868 0 -0.2367115891685464 0.43871131212967079 0 -0.23374274845353199 0.43781756279289752 0 -0.2384912311853559 0.43509463912242868 0 -0.2331517107760388 0.42072755055691058 0 -0.23859579291039301 0.41754300389940502 0 -0.2376616546244566 0.42880679130355293 0 -0.23859579291039301 0.41754300389940502 0 -0.24685170225863229 0.42476087260794038 0 -0.2376616546244566 0.42880679130355293 0 -0.23709302789850881 0.37937416140070268 0 -0.24701119926623211 0.38899119577334063 0 -0.23705884017800211 0.39152691201409129 0 -0.23709302789850881 0.37937416140070268 0 -0.23705884017800211 0.39152691201409129 0 -0.22954887825545081 0.37878721487739792 0 -0.23709302789850881 0.37937416140070268 0 -0.24433670958102291 0.37834276661042449 0 -0.23565983180439021 0.3735328895692116 0 -0.25368036395360488 0.38081930711422929 0 -0.24433670958102291 0.37834276661042449 0 -0.24701119926623211 0.38899119577334063 0 -0.23709302789850881 0.37937416140070268 0 -0.24433670958102291 0.37834276661042449 0 -0.24701119926623211 0.38899119577334063 0 -0.25368036395360488 0.38081930711422929 0 -0.24433670958102291 0.37834276661042449 0 -0.2493440915180106 0.36943577128316107 0 -0.25375205352728097 0.40146823210252353 0 -0.24701119926623211 0.38899119577334063 0 -0.2429895718009317 0.40051236614732078 0 -0.24701119926623211 0.38899119577334063 0 -0.2429895718009317 0.40051236614732078 0 -0.23705884017800211 0.39152691201409129 0 -0.25375205352728097 0.40146823210252353 0 -0.24516326863653259 0.41134049731755618 0 -0.2429895718009317 0.40051236614732078 0 -0.23421683065355139 0.40675343787617207 0 -0.2429895718009317 0.40051236614732078 0 -0.23705884017800211 0.39152691201409129 0 -0.23421683065355139 0.40675343787617207 0 -0.24516326863653259 0.41134049731755618 0 -0.2429895718009317 0.40051236614732078 0 -0.2215415272382617 0.41271695691252591 0 -0.23421683065355139 0.40675343787617207 0 -0.22554520274685691 0.39575208589496202 0 -0.2215415272382617 0.41271695691252591 0 -0.22554520274685691 0.39575208589496202 0 -0.21299355121144301 0.3951318829647199 0 -0.23421683065355139 0.40675343787617207 0 -0.23705884017800211 0.39152691201409129 0 -0.22554520274685691 0.39575208589496202 0 -0.2215415272382617 0.41271695691252591 0 -0.22554520274685691 0.39575208589496202 0 -0.22554520274685691 0.39575208589496202 0 -0.21919065482987241 0.38749800283232999 0 -0.21299355121144301 0.3951318829647199 0 -0.22554520274685691 0.39575208589496202 0 -0.22954887825545081 0.37878721487739792 0 -0.23705884017800211 0.39152691201409129 0 -0.22554520274685691 0.39575208589496202 0 -0.22954887825545081 0.37878721487739792 0 -0.22554520274685691 0.39575208589496202 0 -0.21919065482987241 0.38749800283232999 0 -0.22954887825545081 0.37878721487739792 0 -0.23705884017800211 0.39152691201409129 0 -0.22954887825545081 0.37878721487739792 0 -0.23709302789850881 0.37937416140070268 0 -0.23008246721036771 0.37652622549973941 0 -0.23565983180439021 0.3735328895692116 0 -0.23709302789850881 0.37937416140070268 0 -0.22954887825545081 0.37878721487739792 0 -0.23008246721036771 0.37652622549973941 0 -0.22954887825545081 0.37878721487739792 0 -0.23008246721036771 0.37652622549973941 0 -0.22954887825545081 0.37878721487739792 0 -0.21733321146736029 0.37833819089407639 0 -0.21878023822731041 0.37130997880459371 0 -0.21919065482987241 0.38749800283232999 0 -0.22954887825545081 0.37878721487739792 0 -0.21733321146736029 0.37833819089407639 0 -0.21733321146736029 0.37833819089407639 0 -0.21030116731788551 0.3895930548590319 0 -0.20907755710027809 0.36694849222497278 0 -0.21030116731788551 0.3895930548590319 0 -0.20907755710027809 0.36694849222497278 0 -0.21030116731788551 0.3895930548590319 0 -0.20590769620775029 0.37586392434441351 0 -0.20907755710027809 0.36694849222497278 0 -0.21919065482987241 0.38749800283232999 0 -0.21733321146736029 0.37833819089407639 0 -0.21030116731788551 0.3895930548590319 0 -0.21030116731788551 0.3895930548590319 0 -0.20444557518462439 0.3775468090169139 0 -0.19982928395886959 0.38286010772800771 0 -0.21030116731788551 0.3895930548590319 0 -0.21299355121144301 0.3951318829647199 0 -0.1985992304181422 0.38427588536700491 0 -0.21030116731788551 0.3895930548590319 0 -0.20444557518462439 0.3775468090169139 0 -0.21030116731788551 0.3895930548590319 0 -0.20444557518462439 0.3775468090169139 0 -0.20590769620775029 0.37586392434441351 0 -0.20444557518462439 0.3775468090169139 0 -0.20590769620775029 0.37586392434441351 0 -0.20917989157077799 0.40226970432232489 0 -0.1985992304181422 0.38427588536700491 0 -0.20917989157077799 0.40226970432232489 0 -0.21299355121144301 0.3951318829647199 0 -0.1985992304181422 0.38427588536700491 0 -0.2215415272382617 0.41271695691252591 0 -0.21299355121144301 0.3951318829647199 0 -0.2215415272382617 0.41271695691252591 0 -0.20917989157077799 0.40226970432232489 0 -0.21299355121144301 0.3951318829647199 0 -0.21919065482987241 0.38749800283232999 0 -0.21030116731788551 0.3895930548590319 0 -0.21299355121144301 0.3951318829647199 0 -0.21030116731788551 0.3895930548590319 0 -0.21299355121144301 0.3951318829647199 0 -0.20917989157077799 0.40226970432232489 0 -0.1985992304181422 0.38427588536700491 0 -0.18096191996797159 0.40457622914928959 0 -0.1985992304181422 0.38427588536700491 0 -0.18096191996797159 0.40457622914928959 0 -0.19982928395886959 0.38286010772800771 0 -0.1985992304181422 0.38427588536700491 0 -0.19894880106289409 0.36623873104597332 0 -0.20444557518462439 0.3775468090169139 0 -0.19982928395886959 0.38286010772800771 0 -0.19894880106289409 0.36623873104597332 0 -0.20444557518462439 0.3775468090169139 0 -0.19982928395886959 0.38286010772800771 0 -0.21030116731788551 0.3895930548590319 0 -0.19982928395886959 0.38286010772800771 0 -0.1985992304181422 0.38427588536700491 0 -0.19982928395886959 0.38286010772800771 0 -0.1985992304181422 0.38427588536700491 0 -0.1985992304181422 0.38427588536700491 0 -0.16235386362753251 0.378691935116096 0 -0.18096191996797159 0.40457622914928959 0 -0.16235386362753251 0.378691935116096 0 -0.15836193748230809 0.40420719706451291 0 -0.18096191996797159 0.40457622914928959 0 -0.18096191996797159 0.40457622914928959 0 -0.16332460951780531 0.42487657293157788 0 -0.1894564240513151 0.43140977188513752 0 -0.18096191996797159 0.40457622914928959 0 -0.16332460951780531 0.42487657293157788 0 -0.17157662028226731 0.43964360147324921 0 -0.1894564240513151 0.43140977188513752 0 -0.16332460951780531 0.42487657293157788 0 -0.1894564240513151 0.43140977188513752 0 -0.16332460951780531 0.42487657293157788 0 -0.15400808985646711 0.44001535283379389 0 -0.15910269061007121 0.44167471396482139 0 -0.16332460951780531 0.42487657293157788 0 -0.15910269061007121 0.44167471396482139 0 -0.17157662028226731 0.43964360147324921 0 -0.16332460951780531 0.42487657293157788 0 -0.15400808985646711 0.44001535283379389 0 -0.15169143256620091 0.43826622732728898 0 -0.16332460951780531 0.42487657293157788 0 -0.15169143256620091 0.43826622732728898 0 -0.16332460951780531 0.42487657293157788 0 -0.15836193748230809 0.40420719706451291 0 -0.18096191996797159 0.40457622914928959 0 -0.16332460951780531 0.42487657293157788 0 -0.15836193748230809 0.40420719706451291 0 -0.16332460951780531 0.42487657293157788 0 -0.14003170609927379 0.41905312840788878 0 -0.15836193748230809 0.40420719706451291 0 -0.14003170609927379 0.41905312840788878 0 -0.13954633315413861 0.39596080950014978 0 -0.13780910039508121 0.44008853217054311 0 -0.15169143256620091 0.43826622732728898 0 -0.13285235375053711 0.42939774466110042 0 -0.15169143256620091 0.43826622732728898 0 -0.13285235375053711 0.42939774466110042 0 -0.14003170609927379 0.41905312840788878 0 -0.15169143256620091 0.43826622732728898 0 -0.16332460951780531 0.42487657293157788 0 -0.14003170609927379 0.41905312840788878 0 -0.16332460951780531 0.42487657293157788 0 -0.14003170609927379 0.41905312840788878 0 -0.1260854709599725 0.43948899796761159 0 -0.13285235375053711 0.42939774466110042 0 -0.12263358200653909 0.42204037491250163 0 -0.13285235375053711 0.42939774466110042 0 -0.14003170609927379 0.41905312840788878 0 -0.12263358200653909 0.42204037491250163 0 -0.1260854709599725 0.43948899796761159 0 -0.13780910039508121 0.44008853217054311 0 -0.13285235375053711 0.42939774466110042 0 -0.14003170609927379 0.41905312840788878 0 -0.13954633315413861 0.39596080950014978 0 -0.1167388026807422 0.41322968388420039 0 -0.14003170609927379 0.41905312840788878 0 -0.1167388026807422 0.41322968388420039 0 -0.12263358200653909 0.42204037491250163 0 -0.14003170609927379 0.41905312840788878 0 -0.1167388026807422 0.41322968388420039 0 -0.13954633315413861 0.39596080950014978 0 -0.1167388026807422 0.41322968388420039 0 -0.13954633315413861 0.39596080950014978 0 -0.14495549146979561 0.3701945448822912 0 -0.1223275436780724 0.37148413493605748 0 -0.13954633315413861 0.39596080950014978 0 -0.1223275436780724 0.37148413493605748 0 -0.1133621367785847 0.39135510416472669 0 -0.16235386362753251 0.378691935116096 0 -0.13954633315413861 0.39596080950014978 0 -0.14495549146979561 0.3701945448822912 0 -0.16235386362753251 0.378691935116096 0 -0.13954633315413861 0.39596080950014978 0 -0.16235386362753251 0.378691935116096 0 -0.15836193748230809 0.40420719706451291 0 -0.13954633315413861 0.39596080950014978 0 -0.15607149735638171 0.34934249620013202 0 -0.14495549146979561 0.3701945448822912 0 -0.13251362527846411 0.3503374573930958 0 -0.15607149735638171 0.34934249620013202 0 -0.14495549146979561 0.3701945448822912 0 -0.16692074145802591 0.36182497610869502 0 -0.14495549146979561 0.3701945448822912 0 -0.13251362527846411 0.3503374573930958 0 -0.1223275436780724 0.37148413493605748 0 -0.13251362527846411 0.3503374573930958 0 -0.14525518398998771 0.3294948240181097 0 -0.11773696639453191 0.32758389885076988 0 -0.14525518398998771 0.3294948240181097 0 -0.12985380469235749 0.30198144373150521 0 -0.11773696639453191 0.32758389885076988 0 -0.14525518398998771 0.3294948240181097 0 -0.15745973229504859 0.30998624581291001 0 -0.12985380469235749 0.30198144373150521 0 -0.15607149735638171 0.34934249620013202 0 -0.13251362527846411 0.3503374573930958 0 -0.14525518398998771 0.3294948240181097 0 -0.15607149735638171 0.34934249620013202 0 -0.14525518398998771 0.3294948240181097 0 -0.16914812934609411 0.33419037813069252 0 -0.14525518398998771 0.3294948240181097 0 -0.16914812934609411 0.33419037813069252 0 -0.15745973229504859 0.30998624581291001 0 -0.16914812934609411 0.33419037813069252 0 -0.17602811160998491 0.31768588217770521 0 -0.15745973229504859 0.30998624581291001 0 -0.17602811160998491 0.31768588217770521 0 -0.18885650467830681 0.33693200360877479 0 -0.19665788586986829 0.32299182126039272 0 -0.17602811160998491 0.31768588217770521 0 -0.19665788586986829 0.32299182126039272 0 -0.1824677510092465 0.29892005867125299 0 -0.16914812934609411 0.33419037813069252 0 -0.17715476172351211 0.34780671943136648 0 -0.18885650467830681 0.33693200360877479 0 -0.16914812934609411 0.33419037813069252 0 -0.17602811160998491 0.31768588217770521 0 -0.18885650467830681 0.33693200360877479 0 -0.16914812934609411 0.33419037813069252 0 -0.17715476172351211 0.34780671943136648 0 -0.17715476172351211 0.34780671943136648 0 -0.18769400824431201 0.34881349966716901 0 -0.18885650467830681 0.33693200360877479 0 -0.17715476172351211 0.34780671943136648 0 -0.16692074145802591 0.36182497610869502 0 -0.18516139410092669 0.36142306073204261 0 -0.1985992304181422 0.38427588536700491 0 -0.16235386362753251 0.378691935116096 0 -0.18516139410092669 0.36142306073204261 0 -0.17715476172351211 0.34780671943136648 0 -0.18516139410092669 0.36142306073204261 0 -0.17715476172351211 0.34780671943136648 0 -0.18516139410092669 0.36142306073204261 0 -0.18769400824431201 0.34881349966716901 0 -0.15607149735638171 0.34934249620013202 0 -0.16914812934609411 0.33419037813069252 0 -0.17715476172351211 0.34780671943136648 0 -0.15607149735638171 0.34934249620013202 0 -0.17715476172351211 0.34780671943136648 0 -0.16692074145802591 0.36182497610869502 0 -0.16235386362753251 0.378691935116096 0 -0.14495549146979561 0.3701945448822912 0 -0.16692074145802591 0.36182497610869502 0 -0.16235386362753251 0.378691935116096 0 -0.16692074145802591 0.36182497610869502 0 -0.18516139410092669 0.36142306073204261 0 -0.16235386362753251 0.378691935116096 0 -0.18516139410092669 0.36142306073204261 0 -0.19982928395886959 0.38286010772800771 0 -0.19894880106289409 0.36623873104597332 0 -0.1985992304181422 0.38427588536700491 0 -0.18516139410092669 0.36142306073204261 0 -0.1985992304181422 0.38427588536700491 0 -0.18516139410092669 0.36142306073204261 0 -0.19894880106289409 0.36623873104597332 0 -0.18516139410092669 0.36142306073204261 0 -0.19894880106289409 0.36623873104597332 0 -0.19352845574347 0.3550878839956908 0 -0.19894880106289409 0.36623873104597332 0 -0.19352845574347 0.3550878839956908 0 -0.20444557518462439 0.3775468090169139 0 -0.19894880106289409 0.36623873104597332 0 -0.20444557518462439 0.3775468090169139 0 -0.20590769620775029 0.37586392434441351 0 -0.19894880106289409 0.36623873104597332 0 -0.18769400824431201 0.34881349966716901 0 -0.19817186646344179 0.35157209448352761 0 -0.18885650467830681 0.33693200360877479 0 -0.18769400824431201 0.34881349966716901 0 -0.19228702332682501 0.35253398342559272 0 -0.19817186646344179 0.35157209448352761 0 -0.18516139410092669 0.36142306073204261 0 -0.18769400824431201 0.34881349966716901 0 -0.19228702332682501 0.35253398342559272 0 -0.18516139410092669 0.36142306073204261 0 -0.19352845574347 0.3550878839956908 0 -0.18516139410092669 0.36142306073204261 0 -0.19352845574347 0.3550878839956908 0 -0.19228702332682501 0.35253398342559272 0 -0.19352845574347 0.3550878839956908 0 -0.19228702332682501 0.35253398342559272 0 -0.19817186646344179 0.35157209448352761 0 -0.19352845574347 0.3550878839956908 0 -0.19228702332682501 0.35253398342559272 0 -0.19894880106289409 0.36623873104597332 0 -0.19817186646344179 0.35157209448352761 0 -0.19894880106289409 0.36623873104597332 0 -0.19817186646344179 0.35157209448352761 0 -0.2034552270897276 0.3572939156684804 0 -0.19894880106289409 0.36623873104597332 0 -0.19352845574347 0.3550878839956908 0 -0.19817186646344179 0.35157209448352761 0 -0.19352845574347 0.3550878839956908 0 -0.19817186646344179 0.35157209448352761 0 -0.2034552270897276 0.3572939156684804 0 -0.20907755710027809 0.36694849222497278 0 -0.20877373391685769 0.34354481956645561 0 -0.20907755710027809 0.36694849222497278 0 -0.20877373391685769 0.34354481956645561 0 -0.20907755710027809 0.36694849222497278 0 -0.21916130608615381 0.36116601722192698 0 -0.20877373391685769 0.34354481956645561 0 -0.21916130608615381 0.36116601722192698 0 -0.20877373391685769 0.34354481956645561 0 -0.19817186646344179 0.35157209448352761 0 -0.2034552270897276 0.3572939156684804 0 -0.20877373391685769 0.34354481956645561 0 -0.19817186646344179 0.35157209448352761 0 -0.20877373391685769 0.34354481956645561 0 -0.20741790245449651 0.34124482359084068 0 -0.19817186646344179 0.35157209448352761 0 -0.20877373391685769 0.34354481956645561 0 -0.20590769620775029 0.37586392434441351 0 -0.19894880106289409 0.36623873104597332 0 -0.20907755710027809 0.36694849222497278 0 -0.19894880106289409 0.36623873104597332 0 -0.2034552270897276 0.3572939156684804 0 -0.20907755710027809 0.36694849222497278 0 -0.20907755710027809 0.36694849222497278 0 -0.21878023822731041 0.37130997880459371 0 -0.21916130608615381 0.36116601722192698 0 -0.21733321146736029 0.37833819089407639 0 -0.20907755710027809 0.36694849222497278 0 -0.21878023822731041 0.37130997880459371 0 -0.22954887825545081 0.37878721487739792 0 -0.21916130608615381 0.36116601722192698 0 -0.23008246721036771 0.37652622549973941 0 -0.2297418035318845 0.36519841041280232 0 -0.21916130608615381 0.36116601722192698 0 -0.22954887825545081 0.37878721487739792 0 -0.21878023822731041 0.37130997880459371 0 -0.21916130608615381 0.36116601722192698 0 -0.22954887825545081 0.37878721487739792 0 -0.23008246721036771 0.37652622549973941 0 -0.21916130608615381 0.36116601722192698 0 -0.23008246721036771 0.37652622549973941 0 -0.2297418035318845 0.36519841041280232 0 -0.23565983180439021 0.3735328895692116 0 -0.21916130608615381 0.36116601722192698 0 -0.22896826779470711 0.34895155085363588 0 -0.20877373391685769 0.34354481956645561 0 -0.2297418035318845 0.36519841041280232 0 -0.22896826779470711 0.34895155085363588 0 -0.24158387434347911 0.35678608953990998 0 -0.2297418035318845 0.36519841041280232 0 -0.21916130608615381 0.36116601722192698 0 -0.22896826779470711 0.34895155085363588 0 -0.25174099968323921 0.35001832911737463 0 -0.24158387434347911 0.35678608953990998 0 -0.24655164257727771 0.33802435991743812 0 -0.22896826779470711 0.34895155085363588 0 -0.24158387434347911 0.35678608953990998 0 -0.24655164257727771 0.33802435991743812 0 -0.25653151514375572 0.35936582690291452 0 -0.25174099968323921 0.35001832911737463 0 -0.24158387434347911 0.35678608953990998 0 -0.24158387434347911 0.35678608953990998 0 -0.2493440915180106 0.36943577128316107 0 -0.2392848821630289 0.3686687286855308 0 -0.25653151514375572 0.35936582690291452 0 -0.24158387434347911 0.35678608953990998 0 -0.2493440915180106 0.36943577128316107 0 -0.24433670958102291 0.37834276661042449 0 -0.2493440915180106 0.36943577128316107 0 -0.2392848821630289 0.3686687286855308 0 -0.24433670958102291 0.37834276661042449 0 -0.2392848821630289 0.3686687286855308 0 -0.23565983180439021 0.3735328895692116 0 -0.2297418035318845 0.36519841041280232 0 -0.2392848821630289 0.3686687286855308 0 -0.23565983180439021 0.3735328895692116 0 -0.2297418035318845 0.36519841041280232 0 -0.24158387434347911 0.35678608953990998 0 -0.2392848821630289 0.3686687286855308 0 -0.24655164257727771 0.33802435991743812 0 -0.2279972463125893 0.32898960846328262 0 -0.2465246330966176 0.31184431865959172 0 -0.22896826779470711 0.34895155085363588 0 -0.24655164257727771 0.33802435991743812 0 -0.2279972463125893 0.32898960846328262 0 -0.22896826779470711 0.34895155085363588 0 -0.2279972463125893 0.32898960846328262 0 -0.20877373391685769 0.34354481956645561 0 -0.2279972463125893 0.32898960846328262 0 -0.2178727653292635 0.31693113023911179 0 -0.21384511812102491 0.32952967590932858 0 -0.2279972463125893 0.32898960846328262 0 -0.22708224816071809 0.30392575877730982 0 -0.2465246330966176 0.31184431865959172 0 -0.2279972463125893 0.32898960846328262 0 -0.2178727653292635 0.31693113023911179 0 -0.22708224816071809 0.30392575877730982 0 -0.2178727653292635 0.31693113023911179 0 -0.20587256948713911 0.31731169592278091 0 -0.2145666445648462 0.30489891212285691 0 -0.20587256948713911 0.31731169592278091 0 -0.20741790245449651 0.34124482359084068 0 -0.19665788586986829 0.32299182126039272 0 -0.2178727653292635 0.31693113023911179 0 -0.20587256948713911 0.31731169592278091 0 -0.21384511812102491 0.32952967590932858 0 -0.20587256948713911 0.31731169592278091 0 -0.21384511812102491 0.32952967590932858 0 -0.20741790245449651 0.34124482359084068 0 -0.2279972463125893 0.32898960846328262 0 -0.20877373391685769 0.34354481956645561 0 -0.2279972463125893 0.32898960846328262 0 -0.21384511812102491 0.32952967590932858 0 -0.20877373391685769 0.34354481956645561 0 -0.20587256948713911 0.31731169592278091 0 -0.20741790245449651 0.34124482359084068 0 -0.21384511812102491 0.32952967590932858 0 -0.20877373391685769 0.34354481956645561 0 -0.20741790245449651 0.34124482359084068 0 -0.20877373391685769 0.34354481956645561 0 -0.20741790245449651 0.34124482359084068 0 -0.19817186646344179 0.35157209448352761 0 -0.19665788586986829 0.32299182126039272 0 -0.19817186646344179 0.35157209448352761 0 -0.20741790245449651 0.34124482359084068 0 -0.19665788586986829 0.32299182126039272 0 -0.20741790245449651 0.34124482359084068 0 -0.19665788586986829 0.32299182126039272 0 -0.19817186646344179 0.35157209448352761 0 -0.18885650467830681 0.33693200360877479 0 -0.19665788586986829 0.32299182126039272 0 -0.19665788586986829 0.32299182126039272 0 -0.19567978467289279 0.30452764835890922 0 -0.20587256948713911 0.31731169592278091 0 -0.19665788586986829 0.32299182126039272 0 -0.19567978467289279 0.30452764835890922 0 -0.19665788586986829 0.32299182126039272 0 -0.19567978467289279 0.30452764835890922 0 -0.1824677510092465 0.29892005867125299 0 -0.19665788586986829 0.32299182126039272 0 -0.1824677510092465 0.29892005867125299 0 -0.20587256948713911 0.31731169592278091 0 -0.19567978467289279 0.30452764835890922 0 -0.20432723651978121 0.29337856825472119 0 -0.19470168347591901 0.28606347545742561 0 -0.18545151602799331 0.27164350976428459 0 -0.1824677510092465 0.29892005867125299 0 -0.19567978467289279 0.30452764835890922 0 -0.19470168347591901 0.28606347545742561 0 -0.19567978467289279 0.30452764835890922 0 -0.19470168347591901 0.28606347545742561 0 -0.1824677510092465 0.29892005867125299 0 -0.19567978467289279 0.30452764835890922 0 -0.19470168347591901 0.28606347545742561 0 -0.20432723651978121 0.29337856825472119 0 -0.19470168347591901 0.28606347545742561 0 -0.20432723651978121 0.29337856825472119 0 -0.2081493356945994 0.27835883461533939 0 -0.20432723651978121 0.29337856825472119 0 -0.2163870302225506 0.29332110565618957 0 -0.2081493356945994 0.27835883461533939 0 -0.2163870302225506 0.29332110565618957 0 -0.2226814222947513 0.28226533117065028 0 -0.2081493356945994 0.27835883461533939 0 -0.20587256948713911 0.31731169592278091 0 -0.20432723651978121 0.29337856825472119 0 -0.2145666445648462 0.30489891212285691 0 -0.20587256948713911 0.31731169592278091 0 -0.20432723651978121 0.29337856825472119 0 -0.20432723651978121 0.29337856825472119 0 -0.2163870302225506 0.29332110565618957 0 -0.2145666445648462 0.30489891212285691 0 -0.2178727653292635 0.31693113023911179 0 -0.2145666445648462 0.30489891212285691 0 -0.22708224816071809 0.30392575877730982 0 -0.2163870302225506 0.29332110565618957 0 -0.2145666445648462 0.30489891212285691 0 -0.22708224816071809 0.30392575877730982 0 -0.2226814222947513 0.28226533117065028 0 -0.23500330714286291 0.29151815563291289 0 -0.23464644930337711 0.27479951755366722 0 -0.2163870302225506 0.29332110565618957 0 -0.22708224816071809 0.30392575877730982 0 -0.23500330714286291 0.29151815563291289 0 -0.2163870302225506 0.29332110565618957 0 -0.2226814222947513 0.28226533117065028 0 -0.23500330714286291 0.29151815563291289 0 -0.25081694901592261 0.28766964991031257 0 -0.23500330714286291 0.29151815563291289 0 -0.23464644930337711 0.27479951755366722 0 -0.25081694901592261 0.28766964991031257 0 -0.23500330714286291 0.29151815563291289 0 -0.2465246330966176 0.31184431865959172 0 -0.22708224816071809 0.30392575877730982 0 -0.23500330714286291 0.29151815563291289 0 -0.2465246330966176 0.31184431865959172 0 -0.25045711032761642 0.24363572039220641 0 -0.24599897298213799 0.26558665621264371 0 -0.2339197671070874 0.25813995666386391 0 -0.25081694901592261 0.28766964991031257 0 -0.24599897298213799 0.26558665621264371 0 -0.23464644930337711 0.27479951755366722 0 -0.24599897298213799 0.26558665621264371 0 -0.23464644930337711 0.27479951755366722 0 -0.2339197671070874 0.25813995666386391 0 -0.2226814222947513 0.28226533117065028 0 -0.23464644930337711 0.27479951755366722 0 -0.2201942749923877 0.26379233055525497 0 -0.2201942749923877 0.26379233055525497 0 -0.20835417389391381 0.2511079513895409 0 -0.2287590834630335 0.24537160089975871 0 -0.2339197671070874 0.25813995666386391 0 -0.2201942749923877 0.26379233055525497 0 -0.2287590834630335 0.24537160089975871 0 -0.23464644930337711 0.27479951755366722 0 -0.2339197671070874 0.25813995666386391 0 -0.2201942749923877 0.26379233055525497 0 -0.2201942749923877 0.26379233055525497 0 -0.20835417389391381 0.2511079513895409 0 -0.20719360552454039 0.26568967911463559 0 -0.20835417389391381 0.2511079513895409 0 -0.20719360552454039 0.26568967911463559 0 -0.1965341121923749 0.26216170093390251 0 -0.2226814222947513 0.28226533117065028 0 -0.2201942749923877 0.26379233055525497 0 -0.2081493356945994 0.27835883461533939 0 -0.2201942749923877 0.26379233055525497 0 -0.20719360552454039 0.26568967911463559 0 -0.2081493356945994 0.27835883461533939 0 -0.20719360552454039 0.26568967911463559 0 -0.2081493356945994 0.27835883461533939 0 -0.1976936989327244 0.27338183308784703 0 -0.19470168347591901 0.28606347545742561 0 -0.2081493356945994 0.27835883461533939 0 -0.1976936989327244 0.27338183308784703 0 -0.20719360552454039 0.26568967911463559 0 -0.1976936989327244 0.27338183308784703 0 -0.1965341121923749 0.26216170093390251 0 -0.1976936989327244 0.27338183308784703 0 -0.1965341121923749 0.26216170093390251 0 -0.18545151602799331 0.27164350976428459 0 -0.19470168347591901 0.28606347545742561 0 -0.1976936989327244 0.27338183308784703 0 -0.18545151602799331 0.27164350976428459 0 -0.1965341121923749 0.26216170093390251 0 -0.1866657845812828 0.25087375523518007 0 -0.18545151602799331 0.27164350976428459 0 -0.20835417389391381 0.2511079513895409 0 -0.1965341121923749 0.26216170093390251 0 -0.1866657845812828 0.25087375523518007 0 -0.1866657845812828 0.25087375523518007 0 -0.17278085437684851 0.25461674707384091 0 -0.18545151602799331 0.27164350976428459 0 -0.17278085437684851 0.25461674707384091 0 -0.1682776161486236 0.27484829608211397 0 -0.15408748128800351 0.2507765334929733 0 -0.1682776161486236 0.27484829608211397 0 -0.15408748128800351 0.2507765334929733 0 -0.17278085437684851 0.25461674707384091 0 -0.1682776161486236 0.27484829608211397 0 -0.18545151602799331 0.27164350976428459 0 -0.1682776161486236 0.27484829608211397 0 -0.1824677510092465 0.29892005867125299 0 -0.1682776161486236 0.27484829608211397 0 -0.18545151602799331 0.27164350976428459 0 -0.1824677510092465 0.29892005867125299 0 -0.17602811160998491 0.31768588217770521 0 -0.1824677510092465 0.29892005867125299 0 -0.15745973229504859 0.30998624581291001 0 -0.1824677510092465 0.29892005867125299 0 -0.15745973229504859 0.30998624581291001 0 -0.155955120009973 0.28989531079771252 0 -0.1682776161486236 0.27484829608211397 0 -0.1824677510092465 0.29892005867125299 0 -0.155955120009973 0.28989531079771252 0 -0.155955120009973 0.28989531079771252 0 -0.12985380469235749 0.30198144373150521 0 -0.14197064299018319 0.27637898861224047 0 -0.15745973229504859 0.30998624581291001 0 -0.155955120009973 0.28989531079771252 0 -0.12985380469235749 0.30198144373150521 0 -0.12985380469235749 0.30198144373150521 0 -0.14197064299018319 0.27637898861224047 0 -0.12985380469235749 0.30198144373150521 0 -0.14197064299018319 0.27637898861224047 0 -0.11860746558853399 0.27355274928587919 0 -0.1331286652934861 0.25670434194603348 0 -0.14197064299018319 0.27637898861224047 0 -0.11860746558853399 0.27355274928587919 0 -0.1331286652934861 0.25670434194603348 0 -0.11860746558853399 0.27355274928587919 0 -0.15408748128800351 0.2507765334929733 0 -0.14197064299018319 0.27637898861224047 0 -0.1331286652934861 0.25670434194603348 0 -0.15408748128800351 0.2507765334929733 0 -0.14197064299018319 0.27637898861224047 0 -0.1682776161486236 0.27484829608211397 0 -0.155955120009973 0.28989531079771252 0 -0.14197064299018319 0.27637898861224047 0 -0.1682776161486236 0.27484829608211397 0 -0.15408748128800351 0.2507765334929733 0 -0.14197064299018319 0.27637898861224047 0 -0.1013955123803791 0.26753911772103678 0 -0.1040862658835819 0.29040115662572502 0 -0.085094416024571851 0.27550262755279531 0 -0.1013955123803791 0.26753911772103678 0 -0.11860746558853399 0.27355274928587919 0 -0.1040862658835819 0.29040115662572502 0 -0.1013955123803791 0.26753911772103678 0 -0.1008187498663107 0.25574917460916857 0 -0.088599765097097563 0.25664026374812482 0 -0.1008187498663107 0.25574917460916857 0 -0.088599765097097563 0.25664026374812482 0 -0.1009895371934106 0.24472517822418449 0 -0.1008187498663107 0.25574917460916857 0 -0.1122901847943558 0.25409213874332842 0 -0.1009895371934106 0.24472517822418449 0 -0.1013955123803791 0.26753911772103678 0 -0.1008187498663107 0.25574917460916857 0 -0.1122901847943558 0.25409213874332842 0 -0.1331286652934861 0.25670434194603348 0 -0.1122901847943558 0.25409213874332842 0 -0.11860746558853399 0.27355274928587919 0 -0.1331286652934861 0.25670434194603348 0 -0.1122901847943558 0.25409213874332842 0 -0.1213138599820428 0.24451737080076011 0 -0.1013955123803791 0.26753911772103678 0 -0.1122901847943558 0.25409213874332842 0 -0.11860746558853399 0.27355274928587919 0 -0.12985380469235749 0.30198144373150521 0 -0.11860746558853399 0.27355274928587919 0 -0.1040862658835819 0.29040115662572502 0 -0.11860746558853399 0.27355274928587919 0 -0.1040862658835819 0.29040115662572502 0 -0.12985380469235749 0.30198144373150521 0 -0.1047447463926522 0.31135620967673489 0 -0.1040862658835819 0.29040115662572502 0 -0.1047447463926522 0.31135620967673489 0 -0.1040862658835819 0.29040115662572502 0 -0.082707605576821622 0.30042353793210003 0 -0.082707605576821622 0.30042353793210003 0 -0.069929808126526119 0.28725468727518122 0 -0.085094416024571851 0.27550262755279531 0 -0.1040862658835819 0.29040115662572502 0 -0.082707605576821622 0.30042353793210003 0 -0.085094416024571851 0.27550262755279531 0 -0.1047447463926522 0.31135620967673489 0 -0.082707605576821622 0.30042353793210003 0 -0.085871002215315906 0.31853654317006902 0 -0.082707605576821622 0.30042353793210003 0 -0.069445454825504266 0.31776513982470789 0 -0.085871002215315906 0.31853654317006902 0 -0.082707605576821622 0.30042353793210003 0 -0.061479271411030052 0.30206637077657822 0 -0.069445454825504266 0.31776513982470789 0 -0.082707605576821622 0.30042353793210003 0 -0.069929808126526119 0.28725468727518122 0 -0.061479271411030052 0.30206637077657822 0 -0.069929808126526119 0.28725468727518122 0 -0.074984862953486289 0.25919700959078901 0 -0.069929808126526119 0.28725468727518122 0 -0.085094416024571851 0.27550262755279531 0 -0.074984862953486289 0.25919700959078901 0 -0.069929808126526119 0.28725468727518122 0 -0.074984862953486289 0.25919700959078901 0 -0.058329180750432481 0.27261467571611808 0 -0.1013955123803791 0.26753911772103678 0 -0.085094416024571851 0.27550262755279531 0 -0.088599765097097563 0.25664026374812482 0 -0.085094416024571851 0.27550262755279531 0 -0.088599765097097563 0.25664026374812482 0 -0.074984862953486289 0.25919700959078901 0 -0.074984862953486289 0.25919700959078901 0 -0.058467767652961238 0.25597873255923048 0 -0.067705927894238002 0.24337007985229739 0 -0.074984862953486289 0.25919700959078901 0 -0.058467767652961238 0.25597873255923048 0 -0.058329180750432481 0.27261467571611808 0 -0.058467767652961238 0.25597873255923048 0 -0.044324495695729389 0.26371067857588781 0 -0.047198255610383807 0.23921874466869039 0 -0.058467767652961238 0.25597873255923048 0 -0.058329180750432481 0.27261467571611808 0 -0.044324495695729389 0.26371067857588781 0 -0.058329180750432481 0.27261467571611808 0 -0.044324495695729389 0.26371067857588781 0 -0.04491761559288563 0.28837639349612693 0 -0.044324495695729389 0.26371067857588781 0 -0.028833080782455792 0.27150183577302472 0 -0.04491761559288563 0.28837639349612693 0 -0.044324495695729389 0.26371067857588781 0 -0.031272499591258017 0.25477444414791872 0 -0.047198255610383807 0.23921874466869039 0 -0.044324495695729389 0.26371067857588781 0 -0.031272499591258017 0.25477444414791872 0 -0.028833080782455792 0.27150183577302472 0 -0.031272499591258017 0.25477444414791872 0 -0.01212371819299778 0.26143575943564978 0 -0.02730234660756364 0.23781323143320901 0 -0.031272499591258017 0.25477444414791872 0 -0.028833080782455792 0.27150183577302472 0 -0.01212371819299778 0.26143575943564978 0 -0.028833080782455792 0.27150183577302472 0 -0.01212371819299778 0.26143575943564978 0 -0.019342970723306652 0.28691716998468558 0 -0.01212371819299778 0.26143575943564978 0 0.0030549102215680578 0.2850582874380907 0 0.0075277119225596904 0.26750173539258659 0 -0.01212371819299778 0.26143575943564978 0 0.0030549102215680578 0.2850582874380907 0 -0.01212371819299778 0.26143575943564978 0 -0.019342970723306652 0.28691716998468558 0 0.0030549102215680578 0.2850582874380907 0 -0.01212371819299778 0.26143575943564978 0 0.001483186948090515 0.24423222142217099 0 0.0075277119225596904 0.26750173539258659 0 -0.014950595744201191 0.30179338409306278 0 -0.0049081345466132111 0.31401112633659078 0 0.00072098176265058557 0.30298662136764021 0 -0.014950595744201191 0.30179338409306278 0 -0.0076294186208222979 0.29418886572086977 0 0.00072098176265058557 0.30298662136764021 0 -0.014950595744201191 0.30179338409306278 0 -0.018325041074974409 0.31596388099860701 0 -0.0049081345466132111 0.31401112633659078 0 -0.0076294186208222979 0.29418886572086977 0 -0.019342970723306652 0.28691716998468558 0 0.0030549102215680578 0.2850582874380907 0 -0.0076294186208222979 0.29418886572086977 0 0.0030549102215680578 0.2850582874380907 0 0.00072098176265058557 0.30298662136764021 0 -0.014950595744201191 0.30179338409306278 0 -0.0076294186208222979 0.29418886572086977 0 -0.019342970723306652 0.28691716998468558 0 -0.028833080782455792 0.27150183577302472 0 -0.019342970723306652 0.28691716998468558 0 -0.04491761559288563 0.28837639349612693 0 -0.014950595744201191 0.30179338409306278 0 -0.019342970723306652 0.28691716998468558 0 -0.030327326012835502 0.30483447578149131 0 -0.014950595744201191 0.30179338409306278 0 -0.030327326012835502 0.30483447578149131 0 -0.018325041074974409 0.31596388099860701 0 -0.030327326012835502 0.30483447578149131 0 -0.04491761559288563 0.28837639349612693 0 -0.048544956972280798 0.31611834836481301 0 -0.019342970723306652 0.28691716998468558 0 -0.030327326012835502 0.30483447578149131 0 -0.04491761559288563 0.28837639349612693 0 -0.069929808126526119 0.28725468727518122 0 -0.058329180750432481 0.27261467571611808 0 -0.04491761559288563 0.28837639349612693 0 -0.069929808126526119 0.28725468727518122 0 -0.04491761559288563 0.28837639349612693 0 -0.061479271411030052 0.30206637077657822 0 -0.04491761559288563 0.28837639349612693 0 -0.061479271411030052 0.30206637077657822 0 -0.048544956972280798 0.31611834836481301 0 -0.061479271411030052 0.30206637077657822 0 -0.048544956972280798 0.31611834836481301 0 -0.069445454825504266 0.31776513982470789 0 -0.048544956972280798 0.31611834836481301 0 -0.060016364832113978 0.33850649943930189 0 -0.069445454825504266 0.31776513982470789 0 -0.048544956972280798 0.31611834836481301 0 -0.060016364832113978 0.33850649943930189 0 -0.043714894308509868 0.33775781056119569 0 -0.043714894308509868 0.33775781056119569 0 -0.028006774586383829 0.3355700745587939 0 -0.027934242251989899 0.34773702937689233 0 -0.043714894308509868 0.33775781056119569 0 -0.032071492024092443 0.3215386443494358 0 -0.028006774586383829 0.3355700745587939 0 -0.048544956972280798 0.31611834836481301 0 -0.043714894308509868 0.33775781056119569 0 -0.032071492024092443 0.3215386443494358 0 -0.030327326012835502 0.30483447578149131 0 -0.048544956972280798 0.31611834836481301 0 -0.032071492024092443 0.3215386443494358 0 -0.030327326012835502 0.30483447578149131 0 -0.032071492024092443 0.3215386443494358 0 -0.018325041074974409 0.31596388099860701 0 -0.032071492024092443 0.3215386443494358 0 -0.018325041074974409 0.31596388099860701 0 -0.01887735450059572 0.328506945799386 0 -0.032071492024092443 0.3215386443494358 0 -0.028006774586383829 0.3355700745587939 0 -0.01887735450059572 0.328506945799386 0 -0.028006774586383829 0.3355700745587939 0 -0.01854134054014132 0.34209962622315371 0 -0.027934242251989899 0.34773702937689233 0 -0.028006774586383829 0.3355700745587939 0 -0.01854134054014132 0.34209962622315371 0 -0.01887735450059572 0.328506945799386 0 -0.01854134054014132 0.34209962622315371 0 -0.01887735450059572 0.328506945799386 0 -0.01059080456212926 0.33562109721251948 0 -0.01887735450059572 0.328506945799386 0 -0.01059080456212926 0.33562109721251948 0 -0.0085546869605645382 0.32494035147571138 0 -0.01854134054014132 0.34209962622315371 0 -0.01059080456212926 0.33562109721251948 0 -0.0066706576769541854 0.3445376449844928 0 -0.01059080456212926 0.33562109721251948 0 -0.0066706576769541854 0.3445376449844928 0 0.00023272768354288059 0.33553616346343818 0 -0.01059080456212926 0.33562109721251948 0 -0.0085546869605645382 0.32494035147571138 0 0.00023272768354288059 0.33553616346343818 0 -0.0085546869605645382 0.32494035147571138 0 0.0043098611574291486 0.32404816019410221 0 0.00023272768354288059 0.33553616346343818 0 -0.0049081345466132111 0.31401112633659078 0 -0.0085546869605645382 0.32494035147571138 0 0.0043098611574291486 0.32404816019410221 0 -0.018325041074974409 0.31596388099860701 0 -0.0049081345466132111 0.31401112633659078 0 -0.0085546869605645382 0.32494035147571138 0 -0.018325041074974409 0.31596388099860701 0 -0.01887735450059572 0.328506945799386 0 -0.0085546869605645382 0.32494035147571138 0 -0.015545768770812599 0.36421497264353792 0 -0.0054639786657414997 0.36480942301901431 0 -0.0096385696138773964 0.35899244478632569 0 -0.015545768770812599 0.36421497264353792 0 -0.0080145714158467232 0.37409564132268991 0 -0.01643469103552948 0.37512731116853271 0 -0.015545768770812599 0.36421497264353792 0 -0.0080145714158467232 0.37409564132268991 0 -0.0054639786657414997 0.36480942301901431 0 -0.0054639786657414997 0.36480942301901431 0 0.0032944978264949662 0.36476439149737783 0 0.0007935460593975805 0.37245843519919791 0 -0.0080145714158467232 0.37409564132268991 0 -0.0054639786657414997 0.36480942301901431 0 0.0007935460593975805 0.37245843519919791 0 -0.0054639786657414997 0.36480942301901431 0 -0.003025884944062029 0.3546009559621377 0 0.0032944978264949662 0.36476439149737783 0 -0.0054639786657414997 0.36480942301901431 0 -0.003025884944062029 0.3546009559621377 0 -0.0096385696138773964 0.35899244478632569 0 -0.003025884944062029 0.3546009559621377 0 -0.0066706576769541854 0.3445376449844928 0 0.006467075751715734 0.34671572535862699 0 -0.01854134054014132 0.34209962622315371 0 -0.0066706576769541854 0.3445376449844928 0 -0.01456571945065112 0.35265230168708073 0 -0.003025884944062029 0.3546009559621377 0 -0.0066706576769541854 0.3445376449844928 0 -0.01456571945065112 0.35265230168708073 0 -0.003025884944062029 0.3546009559621377 0 -0.0096385696138773964 0.35899244478632569 0 -0.01456571945065112 0.35265230168708073 0 -0.015545768770812599 0.36421497264353792 0 -0.0096385696138773964 0.35899244478632569 0 -0.01456571945065112 0.35265230168708073 0 -0.01456571945065112 0.35265230168708073 0 -0.027934242251989899 0.34773702937689233 0 -0.02630085264997558 0.36009900280077239 0 -0.015545768770812599 0.36421497264353792 0 -0.01456571945065112 0.35265230168708073 0 -0.02630085264997558 0.36009900280077239 0 -0.01854134054014132 0.34209962622315371 0 -0.01456571945065112 0.35265230168708073 0 -0.027934242251989899 0.34773702937689233 0 -0.027934242251989899 0.34773702937689233 0 -0.02630085264997558 0.36009900280077239 0 -0.038659292485100458 0.35366745170730041 0 -0.02630085264997558 0.36009900280077239 0 -0.024957175080329009 0.37026191614945853 0 -0.036620638644508957 0.36348020799592151 0 -0.015545768770812599 0.36421497264353792 0 -0.02630085264997558 0.36009900280077239 0 -0.024957175080329009 0.37026191614945853 0 -0.015545768770812599 0.36421497264353792 0 -0.024957175080329009 0.37026191614945853 0 -0.01643469103552948 0.37512731116853271 0 -0.036620638644508957 0.36348020799592151 0 -0.043638863148379878 0.37075138925195861 0 -0.032483197210526463 0.37753479734072598 0 -0.024957175080329009 0.37026191614945853 0 -0.036620638644508957 0.36348020799592151 0 -0.032483197210526463 0.37753479734072598 0 -0.036620638644508957 0.36348020799592151 0 -0.043638863148379878 0.37075138925195861 0 -0.051163892029815951 0.35822112073883178 0 -0.043714894308509868 0.33775781056119569 0 -0.038659292485100458 0.35366745170730041 0 -0.051163892029815951 0.35822112073883178 0 -0.043714894308509868 0.33775781056119569 0 -0.027934242251989899 0.34773702937689233 0 -0.038659292485100458 0.35366745170730041 0 -0.02630085264997558 0.36009900280077239 0 -0.036620638644508957 0.36348020799592151 0 -0.038659292485100458 0.35366745170730041 0 -0.036620638644508957 0.36348020799592151 0 -0.038659292485100458 0.35366745170730041 0 -0.051163892029815951 0.35822112073883178 0 -0.060016364832113978 0.33850649943930189 0 -0.051163892029815951 0.35822112073883178 0 -0.067290647042347718 0.35309665754773872 0 -0.051163892029815951 0.35822112073883178 0 -0.061214585670455429 0.3659654373620892 0 -0.067290647042347718 0.35309665754773872 0 -0.060016364832113978 0.33850649943930189 0 -0.043714894308509868 0.33775781056119569 0 -0.051163892029815951 0.35822112073883178 0 -0.043638863148379878 0.37075138925195861 0 -0.051163892029815951 0.35822112073883178 0 -0.0532133660291772 0.37336756547391059 0 -0.051163892029815951 0.35822112073883178 0 -0.0532133660291772 0.37336756547391059 0 -0.061214585670455429 0.3659654373620892 0 -0.0532133660291772 0.37336756547391059 0 -0.061214585670455429 0.3659654373620892 0 -0.062683468091378411 0.37631561042496281 0 -0.061214585670455429 0.3659654373620892 0 -0.074538273925497001 0.3677070735300309 0 -0.062683468091378411 0.37631561042496281 0 -0.061214585670455429 0.3659654373620892 0 -0.074538273925497001 0.3677070735300309 0 -0.067290647042347718 0.35309665754773872 0 -0.074538273925497001 0.3677070735300309 0 -0.084842198847078346 0.35385410234368531 0 -0.093503289798880743 0.37878880908929918 0 -0.084842198847078346 0.35385410234368531 0 -0.067290647042347718 0.35309665754773872 0 -0.076787479432811112 0.33433853348579751 0 -0.074538273925497001 0.3677070735300309 0 -0.084842198847078346 0.35385410234368531 0 -0.067290647042347718 0.35309665754773872 0 -0.060016364832113978 0.33850649943930189 0 -0.076787479432811112 0.33433853348579751 0 -0.069445454825504266 0.31776513982470789 0 -0.060016364832113978 0.33850649943930189 0 -0.067290647042347718 0.35309665754773872 0 -0.076787479432811112 0.33433853348579751 0 -0.076787479432811112 0.33433853348579751 0 -0.069445454825504266 0.31776513982470789 0 -0.085871002215315906 0.31853654317006902 0 -0.076787479432811112 0.33433853348579751 0 -0.085871002215315906 0.31853654317006902 0 -0.09585854139420974 0.33289315955040849 0 -0.084842198847078346 0.35385410234368531 0 -0.076787479432811112 0.33433853348579751 0 -0.09585854139420974 0.33289315955040849 0 -0.09585854139420974 0.33289315955040849 0 -0.11773696639453191 0.32758389885076988 0 -0.1056201280967063 0.35318635397003473 0 -0.1047447463926522 0.31135620967673489 0 -0.09585854139420974 0.33289315955040849 0 -0.11773696639453191 0.32758389885076988 0 -0.1047447463926522 0.31135620967673489 0 -0.085871002215315906 0.31853654317006902 0 -0.09585854139420974 0.33289315955040849 0 -0.12985380469235749 0.30198144373150521 0 -0.11773696639453191 0.32758389885076988 0 -0.12985380469235749 0.30198144373150521 0 -0.1047447463926522 0.31135620967673489 0 -0.11773696639453191 0.32758389885076988 0 -0.11773696639453191 0.32758389885076988 0 -0.1056201280967063 0.35318635397003473 0 -0.13251362527846411 0.3503374573930958 0 -0.11773696639453191 0.32758389885076988 0 -0.1056201280967063 0.35318635397003473 0 -0.13251362527846411 0.3503374573930958 0 -0.1223275436780724 0.37148413493605748 0 -0.1056201280967063 0.35318635397003473 0 -0.1056201280967063 0.35318635397003473 0 -0.093503289798880743 0.37878880908929918 0 -0.1223275436780724 0.37148413493605748 0 -0.1056201280967063 0.35318635397003473 0 -0.093503289798880743 0.37878880908929918 0 -0.084842198847078346 0.35385410234368531 0 -0.1056201280967063 0.35318635397003473 0 -0.093503289798880743 0.37878880908929918 0 -0.084842198847078346 0.35385410234368531 0 -0.09585854139420974 0.33289315955040849 0 -0.1056201280967063 0.35318635397003473 0 -0.1133621367785847 0.39135510416472669 0 -0.09906262709090112 0.40881047404638238 0 -0.093503289798880743 0.37878880908929918 0 -0.1223275436780724 0.37148413493605748 0 -0.1133621367785847 0.39135510416472669 0 -0.093503289798880743 0.37878880908929918 0 -0.1133621367785847 0.39135510416472669 0 -0.1167388026807422 0.41322968388420039 0 -0.09906262709090112 0.40881047404638238 0 -0.13954633315413861 0.39596080950014978 0 -0.1133621367785847 0.39135510416472669 0 -0.1167388026807422 0.41322968388420039 0 -0.12263358200653909 0.42204037491250163 0 -0.10784181088575789 0.43835757421165111 0 -0.1167388026807422 0.41322968388420039 0 -0.12263358200653909 0.42204037491250163 0 -0.10784181088575789 0.43835757421165111 0 -0.1260854709599725 0.43948899796761159 0 -0.12263358200653909 0.42204037491250163 0 -0.10784181088575789 0.43835757421165111 0 -0.1167388026807422 0.41322968388420039 0 -0.093818760702509302 0.43058374710736191 0 -0.10784181088575789 0.43835757421165111 0 -0.1167388026807422 0.41322968388420039 0 -0.093818760702509302 0.43058374710736191 0 -0.1167388026807422 0.41322968388420039 0 -0.09906262709090112 0.40881047404638238 0 -0.1167388026807422 0.41322968388420039 0 -0.093818760702509302 0.43058374710736191 0 -0.09906262709090112 0.40881047404638238 0 -0.093818760702509302 0.43058374710736191 0 -0.09906262709090112 0.40881047404638238 0 -0.087489336558949152 0.41754126925055979 0 -0.09906262709090112 0.40881047404638238 0 -0.081386451501059692 0.40439126420856591 0 -0.09906262709090112 0.40881047404638238 0 -0.087489336558949152 0.41754126925055979 0 -0.081386451501059692 0.40439126420856591 0 -0.087489336558949152 0.41754126925055979 0 -0.071142359313550924 0.42603667236056109 0 -0.081386451501059692 0.40439126420856591 0 -0.093818760702509302 0.43058374710736191 0 -0.071142359313550924 0.42603667236056109 0 -0.070898718724273974 0.44793781033052021 0 -0.093818760702509302 0.43058374710736191 0 -0.087489336558949152 0.41754126925055979 0 -0.071142359313550924 0.42603667236056109 0 -0.071142359313550924 0.42603667236056109 0 -0.047815184613567242 0.43540711048076519 0 -0.070898718724273974 0.44793781033052021 0 -0.071142359313550924 0.42603667236056109 0 -0.081386451501059692 0.40439126420856591 0 -0.05914122324254989 0.41485407648668587 0 -0.071142359313550924 0.42603667236056109 0 -0.081386451501059692 0.40439126420856591 0 -0.081386451501059692 0.40439126420856591 0 -0.057833175172297129 0.39850272401299103 0 -0.05914122324254989 0.41485407648668587 0 -0.081386451501059692 0.40439126420856591 0 -0.057833175172297129 0.39850272401299103 0 -0.071872086720500925 0.39461603409855778 0 -0.081386451501059692 0.40439126420856591 0 -0.057833175172297129 0.39850272401299103 0 -0.065099126062589246 0.39152176163930652 0 -0.071872086720500925 0.39461603409855778 0 -0.059704692130071797 0.39675454996955911 0 -0.071872086720500925 0.39461603409855778 0 -0.057833175172297129 0.39850272401299103 0 -0.059704692130071797 0.39675454996955911 0 -0.071872086720500925 0.39461603409855778 0 -0.081386451501059692 0.40439126420856591 0 -0.093503289798880743 0.37878880908929918 0 -0.081386451501059692 0.40439126420856591 0 -0.093503289798880743 0.37878880908929918 0 -0.09906262709090112 0.40881047404638238 0 -0.081386451501059692 0.40439126420856591 0 -0.093503289798880743 0.37878880908929918 0 -0.071872086720500925 0.39461603409855778 0 -0.093503289798880743 0.37878880908929918 0 -0.071943003082706972 0.38226234185213648 0 -0.074538273925497001 0.3677070735300309 0 -0.093503289798880743 0.37878880908929918 0 -0.071943003082706972 0.38226234185213648 0 -0.065099126062589246 0.39152176163930652 0 -0.071872086720500925 0.39461603409855778 0 -0.071943003082706972 0.38226234185213648 0 -0.065099126062589246 0.39152176163930652 0 -0.071943003082706972 0.38226234185213648 0 -0.060918028011633957 0.38620200393645632 0 -0.071943003082706972 0.38226234185213648 0 -0.062683468091378411 0.37631561042496281 0 -0.060918028011633957 0.38620200393645632 0 -0.074538273925497001 0.3677070735300309 0 -0.071943003082706972 0.38226234185213648 0 -0.062683468091378411 0.37631561042496281 0 -0.062683468091378411 0.37631561042496281 0 -0.060918028011633957 0.38620200393645632 0 -0.054273551828799962 0.38238924039515332 0 -0.0532133660291772 0.37336756547391059 0 -0.062683468091378411 0.37631561042496281 0 -0.054273551828799962 0.38238924039515332 0 -0.060918028011633957 0.38620200393645632 0 -0.05397255708656315 0.39053906743580252 0 -0.054273551828799962 0.38238924039515332 0 -0.065099126062589246 0.39152176163930652 0 -0.060918028011633957 0.38620200393645632 0 -0.060034863098817927 0.39135119179493572 0 -0.060918028011633957 0.38620200393645632 0 -0.05397255708656315 0.39053906743580252 0 -0.060034863098817927 0.39135119179493572 0 -0.05397255708656315 0.39053906743580252 0 -0.043059537247214792 0.39480917583979991 0 -0.04413242455325625 0.38292955191485151 0 -0.05397255708656315 0.39053906743580252 0 -0.054273551828799962 0.38238924039515332 0 -0.04413242455325625 0.38292955191485151 0 -0.043638863148379878 0.37075138925195861 0 -0.0532133660291772 0.37336756547391059 0 -0.04413242455325625 0.38292955191485151 0 -0.0532133660291772 0.37336756547391059 0 -0.054273551828799962 0.38238924039515332 0 -0.04413242455325625 0.38292955191485151 0 -0.057833175172297129 0.39850272401299103 0 -0.043059537247214792 0.39480917583979991 0 -0.042916840710610048 0.41243599275563142 0 -0.05397255708656315 0.39053906743580252 0 -0.057833175172297129 0.39850272401299103 0 -0.059704692130071797 0.39675454996955911 0 -0.057833175172297129 0.39850272401299103 0 -0.059704692130071797 0.39675454996955911 0 -0.065099126062589246 0.39152176163930652 0 -0.059704692130071797 0.39675454996955911 0 -0.060034863098817927 0.39135119179493572 0 -0.05397255708656315 0.39053906743580252 0 -0.059704692130071797 0.39675454996955911 0 -0.060034863098817927 0.39135119179493572 0 -0.057833175172297129 0.39850272401299103 0 -0.043059537247214792 0.39480917583979991 0 -0.05397255708656315 0.39053906743580252 0 -0.057833175172297129 0.39850272401299103 0 -0.043059537247214792 0.39480917583979991 0 -0.057833175172297129 0.39850272401299103 0 -0.042916840710610048 0.41243599275563142 0 -0.043059537247214792 0.39480917583979991 0 -0.032589563816712602 0.40808782734281462 0 -0.042916840710610048 0.41243599275563142 0 -0.043059537247214792 0.39480917583979991 0 -0.028285899322132251 0.39111562766660979 0 -0.032589563816712602 0.40808782734281462 0 -0.043059537247214792 0.39480917583979991 0 -0.028285899322132251 0.39111562766660979 0 -0.04413242455325625 0.38292955191485151 0 -0.032483197210526463 0.37753479734072598 0 -0.028285899322132251 0.39111562766660979 0 -0.043059537247214792 0.39480917583979991 0 -0.04413242455325625 0.38292955191485151 0 -0.028285899322132251 0.39111562766660979 0 -0.043638863148379878 0.37075138925195861 0 -0.04413242455325625 0.38292955191485151 0 -0.032483197210526463 0.37753479734072598 0 -0.024957175080329009 0.37026191614945853 0 -0.032483197210526463 0.37753479734072598 0 -0.02235790217062094 0.38111520494726098 0 -0.02235790217062094 0.38111520494726098 0 -0.028285899322132251 0.39111562766660979 0 -0.0024691455474451641 0.38466119686048522 0 -0.024957175080329009 0.37026191614945853 0 -0.02235790217062094 0.38111520494726098 0 -0.01643469103552948 0.37512731116853271 0 -0.032483197210526463 0.37753479734072598 0 -0.02235790217062094 0.38111520494726098 0 -0.028285899322132251 0.39111562766660979 0 -0.032483197210526463 0.37753479734072598 0 -0.028285899322132251 0.39111562766660979 0 -0.028285899322132251 0.39111562766660979 0 -0.02068503555468329 0.41570907895376041 0 -0.032589563816712602 0.40808782734281462 0 -0.028285899322132251 0.39111562766660979 0 -0.01363441759826633 0.40005872267877329 0 -0.02068503555468329 0.41570907895376041 0 -0.028285899322132251 0.39111562766660979 0 -0.02068503555468329 0.41570907895376041 0 -0.028285899322132251 0.39111562766660979 0 -0.01363441759826633 0.40005872267877329 0 -0.0024691455474451641 0.38466119686048522 0 -0.0024691455474451641 0.38466119686048522 0 -0.003439229935329113 0.41386824886973522 0 -0.01363441759826633 0.40005872267877329 0 -0.0024691455474451641 0.38466119686048522 0 -0.003439229935329113 0.41386824886973522 0 -0.028285899322132251 0.39111562766660979 0 -0.0024691455474451641 0.38466119686048522 0 -0.02235790217062094 0.38111520494726098 0 -0.01643469103552948 0.37512731116853271 0 -0.0024691455474451641 0.38466119686048522 0 -0.0024691455474451641 0.38466119686048522 0 -0.0023487211960432209 0.3810354913668384 0 -0.0080145714158467232 0.37409564132268991 0 -0.0023487211960432209 0.3810354913668384 0 0.0007935460593975805 0.37245843519919791 0 -0.0080145714158467232 0.37409564132268991 0 -0.0024691455474451641 0.38466119686048522 0 -0.0023487211960432209 0.3810354913668384 0 -0.0080145714158467232 0.37409564132268991 0 -0.01643469103552948 0.37512731116853271 0 -0.0024691455474451641 0.38466119686048522 0 -0.010650435050211271 0.42636234093856501 0 -0.0140681603876158 0.43279673505177918 0 -0.02068503555468329 0.41570907895376041 0 -0.010650435050211271 0.42636234093856501 0 -0.003439229935329113 0.41386824886973522 0 -0.0044093143232180974 0.44307530087898528 0 -0.010650435050211271 0.42636234093856501 0 -0.0140681603876158 0.43279673505177918 0 -0.0044093143232180974 0.44307530087898528 0 -0.003439229935329113 0.41386824886973522 0 -0.0044093143232180974 0.44307530087898528 0 0.0066674168791637199 0.42722611310505171 0 -0.003439229935329113 0.41386824886973522 0 -0.0044093143232180974 0.44307530087898528 0 -0.01363441759826633 0.40005872267877329 0 -0.003439229935329113 0.41386824886973522 0 -0.02068503555468329 0.41570907895376041 0 -0.010650435050211271 0.42636234093856501 0 -0.003439229935329113 0.41386824886973522 0 -0.02068503555468329 0.41570907895376041 0 -0.02068503555468329 0.41570907895376041 0 -0.02800050624892263 0.42636926149827142 0 -0.032589563816712602 0.40808782734281462 0 -0.0140681603876158 0.43279673505177918 0 -0.02068503555468329 0.41570907895376041 0 -0.013084171787234851 0.44030253024091109 0 -0.02068503555468329 0.41570907895376041 0 -0.02800050624892263 0.42636926149827142 0 -0.013084171787234851 0.44030253024091109 0 -0.02800050624892263 0.42636926149827142 0 -0.02906573163500686 0.4393399597479592 0 -0.013084171787234851 0.44030253024091109 0 -0.02068503555468329 0.41570907895376041 0 -0.013084171787234851 0.44030253024091109 0 -0.02800050624892263 0.42636926149827142 0 -0.013084171787234851 0.44030253024091109 0 -0.02800050624892263 0.42636926149827142 0 -0.042916840710610048 0.41243599275563142 0 -0.047815184613567242 0.43540711048076519 0 -0.02800050624892263 0.42636926149827142 0 -0.047815184613567242 0.43540711048076519 0 -0.02906573163500686 0.4393399597479592 0 -0.02800050624892263 0.42636926149827142 0 -0.032589563816712602 0.40808782734281462 0 -0.042916840710610048 0.41243599275563142 0 -0.02800050624892263 0.42636926149827142 0 -0.042916840710610048 0.41243599275563142 0 -0.042916840710610048 0.41243599275563142 0 -0.05914122324254989 0.41485407648668587 0 -0.047815184613567242 0.43540711048076519 0 -0.057833175172297129 0.39850272401299103 0 -0.042916840710610048 0.41243599275563142 0 -0.05914122324254989 0.41485407648668587 0 -0.071142359313550924 0.42603667236056109 0 -0.05914122324254989 0.41485407648668587 0 -0.047815184613567242 0.43540711048076519 0 -0.047815184613567242 0.43540711048076519 0 -0.047978676746038708 0.46529187355367829 0 -0.070898718724273974 0.44793781033052021 0 -0.047978676746038708 0.46529187355367829 0 -0.063958981606279372 0.4683183986900612 0 -0.070898718724273974 0.44793781033052021 0 -0.047978676746038708 0.46529187355367829 0 -0.070898718724273974 0.44793781033052021 0 -0.047978676746038708 0.46529187355367829 0 -0.033377420287584891 0.45099123711281419 0 -0.020073151540399861 0.46440485541225102 0 -0.047815184613567242 0.43540711048076519 0 -0.033377420287584891 0.45099123711281419 0 -0.02906573163500686 0.4393399597479592 0 -0.047815184613567242 0.43540711048076519 0 -0.047978676746038708 0.46529187355367829 0 -0.033377420287584891 0.45099123711281419 0 -0.02906573163500686 0.4393399597479592 0 -0.02063901146108264 0.44916203976966018 0 -0.013084171787234851 0.44030253024091109 0 -0.033377420287584891 0.45099123711281419 0 -0.02906573163500686 0.4393399597479592 0 -0.02063901146108264 0.44916203976966018 0 -0.033377420287584891 0.45099123711281419 0 -0.02063901146108264 0.44916203976966018 0 -0.020073151540399861 0.46440485541225102 0 -0.02063901146108264 0.44916203976966018 0 -0.020073151540399861 0.46440485541225102 0 -0.009476121913505265 0.45197678221095339 0 -0.0045810299144977071 0.44824526987134539 0 -0.0053527647761438448 0.47148046520369669 0 -0.0045810299144977071 0.44824526987134539 0 -0.009476121913505265 0.45197678221095339 0 -0.0053527647761438448 0.47148046520369669 0 -0.020073151540399861 0.46440485541225102 0 -0.009476121913505265 0.45197678221095339 0 -0.0053527647761438448 0.47148046520369669 0 -0.0045810299144977071 0.44824526987134539 0 -0.0053527647761438448 0.47148046520369669 0 0.0028725983311871511 0.45520766440075211 0 -0.0045810299144977071 0.44824526987134539 0 0.0028725983311871511 0.45520766440075211 0 -0.0045810299144977071 0.44824526987134539 0 -0.0044093143232180974 0.44307530087898528 0 0.0028725983311871511 0.45520766440075211 0 -0.0045810299144977071 0.44824526987134539 0 -0.0044093143232180974 0.44307530087898528 0 -0.0045810299144977071 0.44824526987134539 0 -0.0044093143232180974 0.44307530087898528 0 -0.013084171787234851 0.44030253024091109 0 -0.0045810299144977071 0.44824526987134539 0 -0.013084171787234851 0.44030253024091109 0 -0.0140681603876158 0.43279673505177918 0 -0.0044093143232180974 0.44307530087898528 0 -0.0140681603876158 0.43279673505177918 0 -0.0044093143232180974 0.44307530087898528 0 -0.013084171787234851 0.44030253024091109 0 -0.0045810299144977071 0.44824526987134539 0 -0.013084171787234851 0.44030253024091109 0 -0.009476121913505265 0.45197678221095339 0 -0.013084171787234851 0.44030253024091109 0 -0.009476121913505265 0.45197678221095339 0 -0.02063901146108264 0.44916203976966018 0 -0.013084171787234851 0.44030253024091109 0 -0.009476121913505265 0.45197678221095339 0 -0.0061244996377895081 0.49471566053604782 0 -0.01415226268053418 0.47831172948220801 0 -0.025058634767803491 0.48264593677683648 0 -0.0021385927895695989 0.49999999999999678 0 -0.025058634767803491 0.48264593677683648 0 -0.0061244996377895081 0.49471566053604782 0 -0.0021385927895695989 0.49999999999999678 0 -0.025058634767803491 0.48264593677683648 0 -0.0061244996377895081 0.49471566053604782 0 -0.0021385927895695989 0.49999999999999678 0 0.0069071423726460891 0.48459725103393397 0 -0.0061244996377895081 0.49471566053604782 0 -0.0053527647761438448 0.47148046520369669 0 0.0069071423726460891 0.48459725103393397 0 -0.0061244996377895081 0.49471566053604782 0 -0.0053527647761438448 0.47148046520369669 0 -0.0061244996377895081 0.49471566053604782 0 -0.0053527647761438448 0.47148046520369669 0 -0.01415226268053418 0.47831172948220801 0 -0.020073151540399861 0.46440485541225102 0 -0.0053527647761438448 0.47148046520369669 0 -0.01415226268053418 0.47831172948220801 0 -0.047978676746038708 0.46529187355367829 0 -0.020073151540399861 0.46440485541225102 0 -0.025058634767803491 0.48264593677683648 0 -0.020073151540399861 0.46440485541225102 0 -0.01415226268053418 0.47831172948220801 0 -0.025058634767803491 0.48264593677683648 0 -0.0021385927895695989 0.49999999999999678 0 -0.025058634767803491 0.48264593677683648 0 -0.026117944667503171 0.5 0 -0.025058634767803491 0.48264593677683648 0 -0.026117944667503171 0.5 0 -0.041230975879321112 0.48599033731685931 0 -0.026117944667503171 0.5 0 -0.041230975879321112 0.48599033731685931 0 -0.050097296545436709 0.5 0 -0.047978676746038708 0.46529187355367829 0 -0.025058634767803491 0.48264593677683648 0 -0.047978676746038708 0.46529187355367829 0 -0.025058634767803491 0.48264593677683648 0 -0.041230975879321112 0.48599033731685931 0 -0.047978676746038708 0.46529187355367829 0 -0.041230975879321112 0.48599033731685931 0 -0.056902326669823457 0.48201387625378139 0 -0.047978676746038708 0.46529187355367829 0 -0.056902326669823457 0.48201387625378139 0 -0.063958981606279372 0.4683183986900612 0 -0.041230975879321112 0.48599033731685931 0 -0.056902326669823457 0.48201387625378139 0 -0.050097296545436709 0.5 0 -0.056902326669823457 0.48201387625378139 0 -0.050097296545436709 0.5 0 -0.067882263989667221 0.48948324077528049 0 -0.07407664842337025 0.5 0 -0.067882263989667221 0.48948324077528049 0 -0.084786078398497153 0.49124903292494398 0 -0.050097296545436709 0.5 0 -0.07407664842337025 0.5 0 -0.067882263989667221 0.48948324077528049 0 -0.067882263989667221 0.48948324077528049 0 -0.084786078398497153 0.49124903292494398 0 -0.090416348625399628 0.47767315141952971 0 -0.07407664842337025 0.5 0 -0.084786078398497153 0.49124903292494398 0 -0.098056000301303681 0.500000000000004 0 -0.084786078398497153 0.49124903292494398 0 -0.090416348625399628 0.47767315141952971 0 -0.095493780249982563 0.4891629618723955 0 -0.084786078398497153 0.49124903292494398 0 -0.098056000301303681 0.500000000000004 0 -0.095493780249982563 0.4891629618723955 0 -0.067882263989667221 0.48948324077528049 0 -0.090416348625399628 0.47767315141952971 0 -0.090416348625399628 0.47767315141952971 0 -0.078258268644195592 0.47099197280995009 0 -0.07146052861131956 0.47849074209150089 0 -0.090416348625399628 0.47767315141952971 0 -0.078258268644195592 0.47099197280995009 0 -0.067882263989667221 0.48948324077528049 0 -0.090416348625399628 0.47767315141952971 0 -0.07146052861131956 0.47849074209150089 0 -0.078258268644195592 0.47099197280995009 0 -0.072554657279941093 0.46785769122082521 0 -0.078258268644195592 0.47099197280995009 0 -0.07146052861131956 0.47849074209150089 0 -0.072554657279941093 0.46785769122082521 0 -0.078258268644195592 0.47099197280995009 0 -0.07146052861131956 0.47849074209150089 0 -0.056902326669823457 0.48201387625378139 0 -0.067882263989667221 0.48948324077528049 0 -0.07146052861131956 0.47849074209150089 0 -0.07146052861131956 0.47849074209150089 0 -0.063958981606279372 0.4683183986900612 0 -0.072554657279941093 0.46785769122082521 0 -0.056902326669823457 0.48201387625378139 0 -0.07146052861131956 0.47849074209150089 0 -0.063958981606279372 0.4683183986900612 0 -0.063958981606279372 0.4683183986900612 0 -0.072554657279941093 0.46785769122082521 0 -0.070898718724273974 0.44793781033052021 0 -0.093818760702509302 0.43058374710736191 0 -0.070898718724273974 0.44793781033052021 0 -0.093050039764976736 0.45467477351080049 0 -0.093818760702509302 0.43058374710736191 0 -0.070898718724273974 0.44793781033052021 0 -0.090416348625399628 0.47767315141952971 0 -0.078258268644195592 0.47099197280995009 0 -0.093050039764976736 0.45467477351080049 0 -0.078258268644195592 0.47099197280995009 0 -0.072554657279941093 0.46785769122082521 0 -0.093050039764976736 0.45467477351080049 0 -0.078258268644195592 0.47099197280995009 0 -0.093050039764976736 0.45467477351080049 0 -0.072554657279941093 0.46785769122082521 0 -0.070898718724273974 0.44793781033052021 0 -0.093050039764976736 0.45467477351080049 0 -0.093050039764976736 0.45467477351080049 0 -0.11645457586906111 0.44976834879686639 0 -0.1152373021199995 0.46466451657126651 0 -0.090416348625399628 0.47767315141952971 0 -0.093050039764976736 0.45467477351080049 0 -0.1152373021199995 0.46466451657126651 0 -0.093050039764976736 0.45467477351080049 0 -0.10784181088575789 0.43835757421165111 0 -0.093050039764976736 0.45467477351080049 0 -0.10784181088575789 0.43835757421165111 0 -0.11645457586906111 0.44976834879686639 0 -0.093818760702509302 0.43058374710736191 0 -0.093050039764976736 0.45467477351080049 0 -0.10784181088575789 0.43835757421165111 0 -0.1260854709599725 0.43948899796761159 0 -0.10784181088575789 0.43835757421165111 0 -0.11645457586906111 0.44976834879686639 0 -0.14005825561459909 0.45165588172300247 0 -0.11645457586906111 0.44976834879686639 0 -0.1152373021199995 0.46466451657126651 0 -0.1152373021199995 0.46466451657126651 0 -0.1243874746446645 0.46969277243405372 0 -0.1087166936747269 0.4877296631451023 0 -0.1243874746446645 0.46969277243405372 0 -0.1087166936747269 0.4877296631451023 0 -0.13104564872830479 0.5 0 -0.1087166936747269 0.4877296631451023 0 -0.13104564872830479 0.5 0 -0.11455082451480431 0.5 0 -0.1087166936747269 0.4877296631451023 0 -0.13104564872830479 0.5 0 -0.1243874746446645 0.46969277243405372 0 -0.1087166936747269 0.4877296631451023 0 -0.090416348625399628 0.47767315141952971 0 -0.1087166936747269 0.4877296631451023 0 -0.095493780249982563 0.4891629618723955 0 -0.11455082451480431 0.5 0 -0.1087166936747269 0.4877296631451023 0 -0.098056000301303681 0.500000000000004 0 -0.1087166936747269 0.4877296631451023 0 -0.098056000301303681 0.500000000000004 0 -0.1087166936747269 0.4877296631451023 0 -0.098056000301303681 0.500000000000004 0 -0.095493780249982563 0.4891629618723955 0 -0.090416348625399628 0.47767315141952971 0 -0.1152373021199995 0.46466451657126651 0 -0.090416348625399628 0.47767315141952971 0 -0.1087166936747269 0.4877296631451023 0 -0.090416348625399628 0.47767315141952971 0 -0.1152373021199995 0.46466451657126651 0 -0.1087166936747269 0.4877296631451023 0 -0.1682989378333688 0.080194457619678999 0 -0.16443237813990039 0.093433427268234906 0 -0.18035854145816799 0.094570611319567358 0 -0.1682989378333688 0.080194457619678999 0 -0.16443237813990039 0.093433427268234906 0 -0.16024571027786699 0.085159794957640284 0 -0.16443237813990039 0.093433427268234906 0 -0.16024571027786699 0.085159794957640284 0 -0.15499007204856111 0.092021983682620961 0 -0.1682989378333688 0.080194457619678999 0 -0.16024571027786699 0.085159794957640284 0 -0.1532614530896379 0.074989311260026281 0 -0.1532614530896379 0.074989311260026281 0 -0.16941060101859701 0.058677838115313657 0 -0.1682989378333688 0.080194457619678999 0 -0.1532614530896379 0.074989311260026281 0 -0.16941060101859701 0.058677838115313657 0 -0.1682989378333688 0.080194457619678999 0 -0.1815259915781855 0.07501332921395637 0 -0.16941060101859701 0.058677838115313657 0 -0.1815259915781855 0.07501332921395637 0 -0.16941060101859701 0.058677838115313657 0 -0.19006736546969591 0.062521472288644284 0 -0.1815259915781855 0.07501332921395637 0 -0.18035854145816799 0.094570611319567358 0 -0.19457498199183049 0.082676579606684231 0 -0.1682989378333688 0.080194457619678999 0 -0.1815259915781855 0.07501332921395637 0 -0.18035854145816799 0.094570611319567358 0 -0.18035854145816799 0.094570611319567358 0 -0.19457498199183049 0.082676579606684231 0 -0.18035854145816799 0.094570611319567358 0 -0.1802796454593473 0.1025709005281906 0 -0.18818496105306651 0.1015777655384747 0 -0.1802796454593473 0.1025709005281906 0 -0.1819967320995754 0.11038514812282151 0 -0.18818496105306651 0.1015777655384747 0 -0.1819967320995754 0.11038514812282151 0 -0.19200548168655951 0.11350530636680189 0 -0.18818496105306651 0.1015777655384747 0 -0.1802796454593473 0.1025709005281906 0 -0.17643103808708199 0.10837092183668889 0 -0.16614210092450421 0.10646464303244881 0 -0.1802796454593473 0.1025709005281906 0 -0.17643103808708199 0.10837092183668889 0 -0.1819967320995754 0.11038514812282151 0 -0.18035854145816799 0.094570611319567358 0 -0.1802796454593473 0.1025709005281906 0 -0.16614210092450421 0.10646464303244881 0 -0.18035854145816799 0.094570611319567358 0 -0.16614210092450421 0.10646464303244881 0 -0.1869640091373303 0.12023823664034659 0 -0.1819967320995754 0.11038514812282151 0 -0.1820847347769497 0.133268115176849 0 -0.1819967320995754 0.11038514812282151 0 -0.1820847347769497 0.133268115176849 0 -0.1819967320995754 0.11038514812282151 0 -0.1686911079805247 0.1186640936184233 0 -0.1674031336578275 0.13347955301294581 0 -0.1819967320995754 0.11038514812282151 0 -0.1674031336578275 0.13347955301294581 0 -0.1869640091373303 0.12023823664034659 0 -0.1819967320995754 0.11038514812282151 0 -0.19200548168655951 0.11350530636680189 0 -0.17643103808708199 0.10837092183668889 0 -0.1819967320995754 0.11038514812282151 0 -0.1728748548555927 0.1111750539269951 0 -0.1819967320995754 0.11038514812282151 0 -0.1728748548555927 0.1111750539269951 0 -0.1686911079805247 0.1186640936184233 0 -0.1728748548555927 0.1111750539269951 0 -0.1686911079805247 0.1186640936184233 0 -0.16614210092450421 0.10646464303244881 0 -0.1686911079805247 0.1186640936184233 0 -0.16614210092450421 0.10646464303244881 0 -0.15559133392618071 0.1132157667596346 0 -0.1686911079805247 0.1186640936184233 0 -0.1569501085897817 0.1244826492706993 0 -0.15559133392618071 0.1132157667596346 0 -0.16443237813990039 0.093433427268234906 0 -0.18035854145816799 0.094570611319567358 0 -0.16614210092450421 0.10646464303244881 0 -0.17643103808708199 0.10837092183668889 0 -0.1728748548555927 0.1111750539269951 0 -0.16614210092450421 0.10646464303244881 0 -0.16614210092450421 0.10646464303244881 0 -0.15536004370988629 0.1011283271810141 0 -0.15559133392618071 0.1132157667596346 0 -0.16443237813990039 0.093433427268234906 0 -0.16614210092450421 0.10646464303244881 0 -0.15536004370988629 0.1011283271810141 0 -0.16443237813990039 0.093433427268234906 0 -0.15536004370988629 0.1011283271810141 0 -0.15499007204856111 0.092021983682620961 0 -0.15536004370988629 0.1011283271810141 0 -0.14608186719274729 0.095387575085442738 0 -0.15499007204856111 0.092021983682620961 0 -0.15536004370988629 0.1011283271810141 0 -0.14492251002742401 0.106246567257703 0 -0.14608186719274729 0.095387575085442738 0 -0.15536004370988629 0.1011283271810141 0 -0.14492251002742401 0.106246567257703 0 -0.15559133392618071 0.1132157667596346 0 -0.14492251002742401 0.106246567257703 0 -0.14608186719274729 0.095387575085442738 0 -0.1365629443242643 0.1026830685698998 0 -0.14492251002742401 0.106246567257703 0 -0.1447937263018193 0.1242524065622866 0 -0.1336000551922287 0.1133782935335596 0 -0.14492251002742401 0.106246567257703 0 -0.15559133392618071 0.1132157667596346 0 -0.1447937263018193 0.1242524065622866 0 -0.1569501085897817 0.1244826492706993 0 -0.15559133392618071 0.1132157667596346 0 -0.1447937263018193 0.1242524065622866 0 -0.1447937263018193 0.1242524065622866 0 -0.1336000551922287 0.1133782935335596 0 -0.13050480037556531 0.12623063389370839 0 -0.1336000551922287 0.1133782935335596 0 -0.1209631572317201 0.1076122575494519 0 -0.1235406269920306 0.1203910755838738 0 -0.1336000551922287 0.1133782935335596 0 -0.13050480037556531 0.12623063389370839 0 -0.1235406269920306 0.1203910755838738 0 -0.13079601220472761 0.089074900642570745 0 -0.1209631572317201 0.1076122575494519 0 -0.1365629443242643 0.1026830685698998 0 -0.13711230516067879 0.091300784404738905 0 -0.1209631572317201 0.1076122575494519 0 -0.13711230516067879 0.091300784404738905 0 -0.1209631572317201 0.1076122575494519 0 -0.13079601220472761 0.089074900642570745 0 -0.13711230516067879 0.091300784404738905 0 -0.1209631572317201 0.1076122575494519 0 -0.14608186719274729 0.095387575085442738 0 -0.1365629443242643 0.1026830685698998 0 -0.13711230516067879 0.091300784404738905 0 -0.14492251002742401 0.106246567257703 0 -0.1336000551922287 0.1133782935335596 0 -0.1365629443242643 0.1026830685698998 0 -0.1336000551922287 0.1133782935335596 0 -0.1365629443242643 0.1026830685698998 0 -0.1209631572317201 0.1076122575494519 0 -0.13079601220472761 0.089074900642570745 0 -0.12847956461223781 0.079150370737465739 0 -0.14062886717773451 0.070537543735689268 0 -0.13079601220472761 0.089074900642570745 0 -0.14062886717773451 0.070537543735689268 0 -0.13079601220472761 0.089074900642570745 0 -0.13711230516067879 0.091300784404738905 0 -0.14062886717773451 0.070537543735689268 0 -0.13079601220472761 0.089074900642570745 0 -0.12847956461223781 0.079150370737465739 0 -0.1197464416665952 0.084445934747717097 0 -0.13711230516067879 0.091300784404738905 0 -0.1532614530896379 0.074989311260026281 0 -0.14608186719274729 0.095387575085442738 0 -0.13711230516067879 0.091300784404738905 0 -0.1532614530896379 0.074989311260026281 0 -0.13711230516067879 0.091300784404738905 0 -0.1532614530896379 0.074989311260026281 0 -0.14062886717773451 0.070537543735689268 0 -0.16024571027786699 0.085159794957640284 0 -0.15499007204856111 0.092021983682620961 0 -0.1532614530896379 0.074989311260026281 0 -0.14608186719274729 0.095387575085442738 0 -0.15499007204856111 0.092021983682620961 0 -0.1532614530896379 0.074989311260026281 0 -0.1532614530896379 0.074989311260026281 0 -0.14062886717773451 0.070537543735689268 0 -0.15046172215074141 0.052000186828807797 0 -0.14062886717773451 0.070537543735689268 0 -0.12847122931144669 0.068308987111290964 0 -0.1329756956254857 0.056096376974921668 0 -0.12847956461223781 0.079150370737465739 0 -0.12847122931144669 0.068308987111290964 0 -0.1219127181441811 0.074779163056888004 0 -0.12847956461223781 0.079150370737465739 0 -0.14062886717773451 0.070537543735689268 0 -0.12847122931144669 0.068308987111290964 0 -0.1329756956254857 0.056096376974921668 0 -0.13664649887273689 0.041521217093713383 0 -0.15046172215074141 0.052000186828807797 0 -0.12847122931144669 0.068308987111290964 0 -0.1329756956254857 0.056096376974921668 0 -0.1183593009975942 0.060981481051490129 0 -0.13664649887273689 0.041521217093713383 0 -0.1324933743925166 0.02607277243610517 0 -0.1208897171862591 0.03836638118014879 0 -0.1329756956254857 0.056096376974921668 0 -0.13664649887273689 0.041521217093713383 0 -0.1208897171862591 0.03836638118014879 0 -0.13664649887273689 0.041521217093713383 0 -0.14779767989566961 0.032292833822106237 0 -0.1324933743925166 0.02607277243610517 0 -0.13664649887273689 0.041521217093713383 0 -0.14779767989566961 0.032292833822106237 0 -0.15046172215074141 0.052000186828807797 0 -0.14779767989566961 0.032292833822106237 0 -0.15046172215074141 0.052000186828807797 0 -0.16369651529144161 0.035302249551950229 0 -0.14062886717773451 0.070537543735689268 0 -0.15046172215074141 0.052000186828807797 0 -0.14062886717773451 0.070537543735689268 0 -0.1329756956254857 0.056096376974921668 0 -0.15046172215074141 0.052000186828807797 0 -0.13389714270702699 -0.0020157165474106232 0 -0.14210098773347191 0.014361627796686221 0 -0.12099574399755469 0.013799954163340169 0 -0.1324933743925166 0.02607277243610517 0 -0.14210098773347191 0.014361627796686221 0 -0.12099574399755469 0.013799954163340169 0 -0.14779767989566961 0.032292833822106237 0 -0.14210098773347191 0.014361627796686221 0 -0.16351518128711989 0.018349769644278639 0 -0.14779767989566961 0.032292833822106237 0 -0.1324933743925166 0.02607277243610517 0 -0.14210098773347191 0.014361627796686221 0 -0.15576748062744969 -0.00031078042690116522 0 -0.14210098773347191 0.014361627796686221 0 -0.16351518128711989 0.018349769644278639 0 -0.15576748062744969 -0.00031078042690116522 0 -0.13389714270702699 -0.0020157165474106232 0 -0.14210098773347191 0.014361627796686221 0 -0.15576748062744969 -0.00031078042690116522 0 -0.17597156425881641 -0.00050571397354614092 0 -0.16351518128711989 0.018349769644278639 0 -0.14779767989566961 0.032292833822106237 0 -0.16351518128711989 0.018349769644278639 0 -0.16369651529144161 0.035302249551950229 0 -0.16351518128711989 0.018349769644278639 0 -0.1710732358963456 0.02605610586898785 0 -0.16369651529144161 0.035302249551950229 0 -0.16351518128711989 0.018349769644278639 0 -0.1710732358963456 0.02605610586898785 0 -0.18076565660318941 0.020930325498528971 0 -0.1710732358963456 0.02605610586898785 0 -0.18076565660318941 0.020930325498528971 0 -0.17445457316847929 0.033923368584637632 0 -0.18076565660318941 0.020930325498528971 0 -0.18534240204492811 0.034499686414637333 0 -0.1919227442331399 0.020318172529676451 0 -0.18076565660318941 0.020930325498528971 0 -0.18739604495587611 0.0086851125491220552 0 -0.1919227442331399 0.020318172529676451 0 -0.17597156425881641 -0.00050571397354614092 0 -0.18076565660318941 0.020930325498528971 0 -0.18739604495587611 0.0086851125491220552 0 -0.17597156425881641 -0.00050571397354614092 0 -0.16351518128711989 0.018349769644278639 0 -0.18076565660318941 0.020930325498528971 0 -0.17597156425881641 -0.00050571397354614092 0 -0.18076565660318941 0.020930325498528971 0 -0.17597156425881641 -0.00050571397354614092 0 -0.18981717326288339 -0.0034538799537645599 0 -0.18739604495587611 0.0086851125491220552 0 -0.1532614530896379 0.074989311260026281 0 -0.15046172215074141 0.052000186828807797 0 -0.16941060101859701 0.058677838115313657 0 -0.15046172215074141 0.052000186828807797 0 -0.16941060101859701 0.058677838115313657 0 -0.17101397940622959 0.045338458931645793 0 -0.15046172215074141 0.052000186828807797 0 -0.16369651529144161 0.035302249551950229 0 -0.17101397940622959 0.045338458931645793 0 -0.16369651529144161 0.035302249551950229 0 -0.17101397940622959 0.045338458931645793 0 -0.17445457316847929 0.033923368584637632 0 -0.1710732358963456 0.02605610586898785 0 -0.16369651529144161 0.035302249551950229 0 -0.17445457316847929 0.033923368584637632 0 -0.18076565660318941 0.020930325498528971 0 -0.17445457316847929 0.033923368584637632 0 -0.18555974894755969 0.04236636497060467 0 -0.18076565660318941 0.020930325498528971 0 -0.18534240204492811 0.034499686414637333 0 -0.18555974894755969 0.04236636497060467 0 -0.18076565660318941 0.020930325498528971 0 -0.18555974894755969 0.04236636497060467 0 -0.17101397940622959 0.045338458931645793 0 -0.17445457316847929 0.033923368584637632 0 -0.18555974894755969 0.04236636497060467 0 -0.18534240204492811 0.034499686414637333 0 -0.18555974894755969 0.04236636497060467 0 -0.19059759389712011 0.037277881481346392 0 -0.16941060101859701 0.058677838115313657 0 -0.18555974894755969 0.04236636497060467 0 -0.16941060101859701 0.058677838115313657 0 -0.18555974894755969 0.04236636497060467 0 -0.19006736546969591 0.062521472288644284 0 -0.16941060101859701 0.058677838115313657 0 -0.17101397940622959 0.045338458931645793 0 -0.18555974894755969 0.04236636497060467 0 -0.18555974894755969 0.04236636497060467 0 -0.19604158064407301 0.048907387424662448 0 -0.19006736546969591 0.062521472288644284 0 -0.18555974894755969 0.04236636497060467 0 -0.19006736546969591 0.062521472288644284 0 -0.19604158064407301 0.048907387424662448 0 -0.20379992795839619 0.058274575403303192 0 -0.19006736546969591 0.062521472288644284 0 -0.19604158064407301 0.048907387424662448 0 -0.2083921085722511 0.046034540721437638 0 -0.20379992795839619 0.058274575403303192 0 -0.18555974894755969 0.04236636497060467 0 -0.19604158064407301 0.048907387424662448 0 -0.1925229493907433 0.042124336430112798 0 -0.18555974894755969 0.04236636497060467 0 -0.19059759389712011 0.037277881481346392 0 -0.18555974894755969 0.04236636497060467 0 -0.1925229493907433 0.042124336430112798 0 -0.19059759389712011 0.037277881481346392 0 -0.1925229493907433 0.042124336430112798 0 -0.19059759389712011 0.037277881481346392 0 -0.19789287407422049 0.03994571184383771 0 -0.18534240204492811 0.034499686414637333 0 -0.19059759389712011 0.037277881481346392 0 -0.19564142271857879 0.029140357157968561 0 -0.19059759389712011 0.037277881481346392 0 -0.19789287407422049 0.03994571184383771 0 -0.19564142271857879 0.029140357157968561 0 -0.19789287407422049 0.03994571184383771 0 -0.2049694611548285 0.034525802679389588 0 -0.19564142271857879 0.029140357157968561 0 -0.19604158064407301 0.048907387424662448 0 -0.19789287407422049 0.03994571184383771 0 -0.2083921085722511 0.046034540721437638 0 -0.19604158064407301 0.048907387424662448 0 -0.1925229493907433 0.042124336430112798 0 -0.19789287407422049 0.03994571184383771 0 -0.2083921085722511 0.046034540721437638 0 -0.2049694611548285 0.034525802679389588 0 -0.21336400282094001 0.037910040567184132 0 -0.19789287407422049 0.03994571184383771 0 -0.2083921085722511 0.046034540721437638 0 -0.2049694611548285 0.034525802679389588 0 -0.2049694611548285 0.034525802679389588 0 -0.21336400282094001 0.037910040567184132 0 -0.21676253786728961 0.029535583667062559 0 -0.21336400282094001 0.037910040567184132 0 -0.21676253786728961 0.029535583667062559 0 -0.22333190368939099 0.041544235200846741 0 -0.2083921085722511 0.046034540721437638 0 -0.21336400282094001 0.037910040567184132 0 -0.22333190368939099 0.041544235200846741 0 -0.20379992795839619 0.058274575403303192 0 -0.2248465943386363 0.057350161478297128 0 -0.20971078816523411 0.070013370542491543 0 -0.2083921085722511 0.046034540721437638 0 -0.20379992795839619 0.058274575403303192 0 -0.2248465943386363 0.057350161478297128 0 -0.18981717326288339 -0.0034538799537645599 0 -0.18739604495587611 0.0086851125491220552 0 -0.1985030864213515 0.0061366586447154734 0 -0.18739604495587611 0.0086851125491220552 0 -0.1985030864213515 0.0061366586447154734 0 -0.1919227442331399 0.020318172529676451 0 -0.1985030864213515 0.0061366586447154734 0 -0.1919227442331399 0.020318172529676451 0 -0.1985030864213515 0.0061366586447154734 0 -0.1987832105483934 0.010137829027570509 0 -0.20647506456528619 0.010982569177898161 0 -0.1987832105483934 0.010137829027570509 0 -0.19992263932462301 0.018815572093567198 0 -0.20647506456528619 0.010982569177898161 0 -0.1985030864213515 0.0061366586447154734 0 -0.1987832105483934 0.010137829027570509 0 -0.1919227442331399 0.020318172529676451 0 -0.1985030864213515 0.0061366586447154734 0 -0.1987832105483934 0.010137829027570509 0 -0.19992263932462301 0.018815572093567198 0 -0.1919227442331399 0.020318172529676451 0 -0.19564142271857879 0.029140357157968561 0 -0.1987832105483934 0.010137829027570509 0 -0.19992263932462301 0.018815572093567198 0 -0.1919227442331399 0.020318172529676451 0 -0.18534240204492811 0.034499686414637333 0 -0.1919227442331399 0.020318172529676451 0 -0.19564142271857879 0.029140357157968561 0 -0.18534240204492811 0.034499686414637333 0 -0.1919227442331399 0.020318172529676451 0 -0.2049694611548285 0.034525802679389588 0 -0.19564142271857879 0.029140357157968561 0 -0.20679075455771681 0.023498932574722319 0 -0.19992263932462301 0.018815572093567198 0 -0.19564142271857879 0.029140357157968561 0 -0.20679075455771681 0.023498932574722319 0 -0.2049694611548285 0.034525802679389588 0 -0.20679075455771681 0.023498932574722319 0 -0.21676253786728961 0.029535583667062559 0 -0.20679075455771681 0.023498932574722319 0 -0.21676253786728961 0.029535583667062559 0 -0.21836701631510741 0.01701279523640379 0 -0.19992263932462301 0.018815572093567198 0 -0.20679075455771681 0.023498932574722319 0 -0.20647506456528619 0.010982569177898161 0 -0.20679075455771681 0.023498932574722319 0 -0.21836701631510741 0.01701279523640379 0 -0.20647506456528619 0.010982569177898161 0 -0.21836701631510741 0.01701279523640379 0 -0.20647506456528619 0.010982569177898161 0 -0.21690278361190021 0.0038105162234524769 0 -0.20779613328301311 -0.0019964439540379399 0 -0.20647506456528619 0.010982569177898161 0 -0.21690278361190021 0.0038105162234524769 0 -0.20779613328301311 -0.0019964439540379399 0 -0.1985030864213515 0.0061366586447154734 0 -0.20647506456528619 0.010982569177898161 0 -0.23116781587639321 -0.0031280525547601541 0 -0.21836701631510741 0.01701279523640379 0 -0.21690278361190021 0.0038105162234524769 0 -0.23116781587639321 -0.0031280525547601541 0 -0.21836701631510741 0.01701279523640379 0 -0.2392635797082471 0.022716245374815921 0 -0.21676253786728961 0.029535583667062559 0 -0.21836701631510741 0.01701279523640379 0 -0.2392635797082471 0.022716245374815921 0 -0.2538421426984831 0.032030530267164042 0 -0.25553597653539439 0.0095935892600428532 0 -0.2392635797082471 0.022716245374815921 0 -0.23116781587639321 -0.0031280525547601541 0 -0.25553597653539439 0.0095935892600428532 0 -0.2392635797082471 0.022716245374815921 0 -0.23116781587639321 -0.0031280525547601541 0 -0.2392635797082471 0.022716245374815921 0 -0.2248465943386363 0.057350161478297128 0 -0.22333190368939099 0.041544235200846741 0 -0.24735934354010111 0.048560543304392148 0 -0.2083921085722511 0.046034540721437638 0 -0.2248465943386363 0.057350161478297128 0 -0.22333190368939099 0.041544235200846741 0 -0.21676253786728961 0.029535583667062559 0 -0.2392635797082471 0.022716245374815921 0 -0.22333190368939099 0.041544235200846741 0 -0.2392635797082471 0.022716245374815921 0 -0.22333190368939099 0.041544235200846741 0 -0.24735934354010111 0.048560543304392148 0 -0.2538421426984831 0.032030530267164042 0 -0.2392635797082471 0.022716245374815921 0 -0.24735934354010111 0.048560543304392148 0 -0.2392635797082471 0.022716245374815921 0 -0.24735934354010111 0.048560543304392148 0 -0.2248465943386363 0.057350161478297128 0 -0.24735934354010111 0.048560543304392148 0 -0.23854219861663639 0.068660305987096659 0 -0.25545510737195509 0.074404841233968427 0 -0.23854219861663639 0.068660305987096659 0 -0.24449910376866571 0.079759326066660169 0 -0.25545510737195509 0.074404841233968427 0 -0.24735934354010111 0.048560543304392148 0 -0.23854219861663639 0.068660305987096659 0 -0.23854219861663639 0.068660305987096659 0 -0.24449910376866571 0.079759326066660169 0 -0.23428953648111539 0.0814679626771736 0 -0.25375978814058769 0.086747229721519409 0 -0.24243974648783961 0.088841572076774109 0 -0.24936280118073731 0.095837282057005563 0 -0.25375978814058769 0.086747229721519409 0 -0.24243974648783961 0.088841572076774109 0 -0.24449910376866571 0.079759326066660169 0 -0.24243974648783961 0.088841572076774109 0 -0.24449910376866571 0.079759326066660169 0 -0.23428953648111539 0.0814679626771736 0 -0.24243974648783961 0.088841572076774109 0 -0.23428953648111539 0.0814679626771736 0 -0.23430104973628799 0.093880367422695982 0 -0.23428953648111539 0.0814679626771736 0 -0.22127150518761909 0.08585493002072378 0 -0.23430104973628799 0.093880367422695982 0 -0.22127150518761909 0.08585493002072378 0 -0.22598694649177259 0.1008965244652356 0 -0.23430104973628799 0.093880367422695982 0 -0.23428953648111539 0.0814679626771736 0 -0.22127150518761909 0.08585493002072378 0 -0.22468361508964391 0.071811274489091026 0 -0.2248465943386363 0.057350161478297128 0 -0.23854219861663639 0.068660305987096659 0 -0.22468361508964391 0.071811274489091026 0 -0.23854219861663639 0.068660305987096659 0 -0.23428953648111539 0.0814679626771736 0 -0.22468361508964391 0.071811274489091026 0 -0.2248465943386363 0.057350161478297128 0 -0.22468361508964391 0.071811274489091026 0 -0.20971078816523411 0.070013370542491543 0 -0.2248465943386363 0.057350161478297128 0 -0.20971078816523411 0.070013370542491543 0 -0.22127150518761909 0.08585493002072378 0 -0.22468361508964391 0.071811274489091026 0 -0.20971078816523411 0.070013370542491543 0 -0.20971078816523411 0.070013370542491543 0 -0.20792832221886279 0.087188326249159051 0 -0.19457498199183049 0.082676579606684231 0 -0.22127150518761909 0.08585493002072378 0 -0.20971078816523411 0.070013370542491543 0 -0.20792832221886279 0.087188326249159051 0 -0.22127150518761909 0.08585493002072378 0 -0.20792832221886279 0.087188326249159051 0 -0.21442091236770469 0.097644461511890795 0 -0.19457498199183049 0.082676579606684231 0 -0.1993420959996762 0.10399198963628591 0 -0.20792832221886279 0.087188326249159051 0 -0.19457498199183049 0.082676579606684231 0 -0.1993420959996762 0.10399198963628591 0 -0.18035854145816799 0.094570611319567358 0 -0.19457498199183049 0.082676579606684231 0 -0.18818496105306651 0.1015777655384747 0 -0.20971078816523411 0.070013370542491543 0 -0.19457498199183049 0.082676579606684231 0 -0.19006736546969591 0.062521472288644284 0 -0.1815259915781855 0.07501332921395637 0 -0.19457498199183049 0.082676579606684231 0 -0.19006736546969591 0.062521472288644284 0 -0.20379992795839619 0.058274575403303192 0 -0.20971078816523411 0.070013370542491543 0 -0.19006736546969591 0.062521472288644284 0 -0.19457498199183049 0.082676579606684231 0 -0.19006736546969591 0.062521472288644284 0 -0.20971078816523411 0.070013370542491543 0 -0.19457498199183049 0.082676579606684231 0 -0.1993420959996762 0.10399198963628591 0 -0.20410921000752291 0.12530739966588739 0 -0.19200548168655951 0.11350530636680189 0 -0.1993420959996762 0.10399198963628591 0 -0.20410921000752291 0.12530739966588739 0 -0.1917690879862366 0.123794376894914 0 -0.19200548168655951 0.11350530636680189 0 -0.20410921000752291 0.12530739966588739 0 -0.1869640091373303 0.12023823664034659 0 -0.1917690879862366 0.123794376894914 0 -0.19200548168655951 0.11350530636680189 0 -0.19200548168655951 0.11350530636680189 0 -0.18818496105306651 0.1015777655384747 0 -0.1993420959996762 0.10399198963628591 0 -0.19457498199183049 0.082676579606684231 0 -0.18818496105306651 0.1015777655384747 0 -0.1993420959996762 0.10399198963628591 0 -0.20792832221886279 0.087188326249159051 0 -0.1993420959996762 0.10399198963628591 0 -0.21442091236770469 0.097644461511890795 0 -0.1993420959996762 0.10399198963628591 0 -0.21442091236770469 0.097644461511890795 0 -0.21741502824946829 0.1124103872241901 0 -0.1993420959996762 0.10399198963628591 0 -0.21741502824946829 0.1124103872241901 0 -0.20410921000752291 0.12530739966588739 0 -0.21741502824946829 0.1124103872241901 0 -0.22010475119527839 0.13014220766088039 0 -0.20410921000752291 0.12530739966588739 0 -0.21741502824946829 0.1124103872241901 0 -0.22757098727178149 0.11960027627850579 0 -0.22010475119527839 0.13014220766088039 0 -0.21741502824946829 0.1124103872241901 0 -0.23302128334047431 0.1109348600100744 0 -0.22757098727178149 0.11960027627850579 0 -0.23302128334047431 0.1109348600100744 0 -0.22757098727178149 0.11960027627850579 0 -0.23594257077932901 0.1193131357128831 0 -0.22757098727178149 0.11960027627850579 0 -0.23594257077932901 0.1193131357128831 0 -0.2328685580004401 0.1275194787081638 0 -0.22127150518761909 0.08585493002072378 0 -0.21442091236770469 0.097644461511890795 0 -0.22598694649177259 0.1008965244652356 0 -0.21741502824946829 0.1124103872241901 0 -0.23302128334047431 0.1109348600100744 0 -0.22598694649177259 0.1008965244652356 0 -0.21442091236770469 0.097644461511890795 0 -0.21741502824946829 0.1124103872241901 0 -0.22598694649177259 0.1008965244652356 0 -0.23302128334047431 0.1109348600100744 0 -0.22598694649177259 0.1008965244652356 0 -0.23810116439412321 0.10348765756560151 0 -0.22598694649177259 0.1008965244652356 0 -0.23430104973628799 0.093880367422695982 0 -0.23810116439412321 0.10348765756560151 0 -0.23430104973628799 0.093880367422695982 0 -0.23810116439412321 0.10348765756560151 0 -0.24423140924156961 0.098576033655728174 0 -0.24243974648783961 0.088841572076774109 0 -0.23430104973628799 0.093880367422695982 0 -0.24423140924156961 0.098576033655728174 0 -0.23302128334047431 0.1109348600100744 0 -0.23810116439412321 0.10348765756560151 0 -0.24104736185530759 0.1122335427200144 0 -0.23810116439412321 0.10348765756560151 0 -0.24671611800426321 0.1059645128826938 0 -0.24104736185530759 0.1122335427200144 0 -0.23810116439412321 0.10348765756560151 0 -0.24671611800426321 0.1059645128826938 0 -0.24423140924156961 0.098576033655728174 0 -0.24243974648783961 0.088841572076774109 0 -0.24936280118073731 0.095837282057005563 0 -0.24423140924156961 0.098576033655728174 0 -0.24671611800426321 0.1059645128826938 0 -0.24936280118073731 0.095837282057005563 0 -0.24423140924156961 0.098576033655728174 0 -0.25595073737572299 0.10097814733788971 0 -0.2437612768425127 0.1264934834278312 0 -0.25595073737572299 0.10097814733788971 0 -0.24671611800426321 0.1059645128826938 0 -0.2437612768425127 0.1264934834278312 0 -0.24671611800426321 0.1059645128826938 0 -0.24104736185530759 0.1122335427200144 0 -0.2437612768425127 0.1264934834278312 0 -0.23594257077932901 0.1193131357128831 0 -0.24104736185530759 0.1122335427200144 0 -0.2437612768425127 0.1264934834278312 0 -0.23594257077932901 0.1193131357128831 0 -0.2437612768425127 0.1264934834278312 0 -0.2328685580004401 0.1275194787081638 0 -0.23302128334047431 0.1109348600100744 0 -0.23594257077932901 0.1193131357128831 0 -0.24104736185530759 0.1122335427200144 0 -0.25273500344119731 0.1236041196145701 0 -0.24663566944123119 0.13788522906596781 0 -0.25273500344119731 0.1236041196145701 0 -0.2437612768425127 0.1264934834278312 0 -0.24663566944123119 0.13788522906596781 0 -0.2437612768425127 0.1264934834278312 0 -0.24663566944123119 0.13788522906596781 0 -0.23853621283610199 0.134076805212448 0 -0.23853621283610199 0.134076805212448 0 -0.23022074204536341 0.1359685733025606 0 -0.2370452037864155 0.14347248024996939 0 -0.24663566944123119 0.13788522906596781 0 -0.23853621283610199 0.134076805212448 0 -0.2370452037864155 0.14347248024996939 0 -0.2437612768425127 0.1264934834278312 0 -0.23853621283610199 0.134076805212448 0 -0.2328685580004401 0.1275194787081638 0 -0.23853621283610199 0.134076805212448 0 -0.2328685580004401 0.1275194787081638 0 -0.23022074204536341 0.1359685733025606 0 -0.22757098727178149 0.11960027627850579 0 -0.2328685580004401 0.1275194787081638 0 -0.22010475119527839 0.13014220766088039 0 -0.2328685580004401 0.1275194787081638 0 -0.23022074204536341 0.1359685733025606 0 -0.22010475119527839 0.13014220766088039 0 -0.23022074204536341 0.1359685733025606 0 -0.22010475119527839 0.13014220766088039 0 -0.22417238895003519 0.14799812914614729 0 -0.23022074204536341 0.1359685733025606 0 -0.22417238895003519 0.14799812914614729 0 -0.2370452037864155 0.14347248024996939 0 -0.22417238895003519 0.14799812914614729 0 -0.23555246932949089 0.15527385559955559 0 -0.2370452037864155 0.14347248024996939 0 -0.22417238895003519 0.14799812914614729 0 -0.23555246932949089 0.15527385559955559 0 -0.22316730487649239 0.16116779999878031 0 -0.23555246932949089 0.15527385559955559 0 -0.2370452037864155 0.14347248024996939 0 -0.24607893308399709 0.15010989851926379 0 -0.24663566944123119 0.13788522906596781 0 -0.2370452037864155 0.14347248024996939 0 -0.24607893308399709 0.15010989851926379 0 -0.25706893222783389 0.14503385368758079 0 -0.24663566944123119 0.13788522906596781 0 -0.24607893308399709 0.15010989851926379 0 -0.23555246932949089 0.15527385559955559 0 -0.2441293386392642 0.1635056093470775 0 -0.2346017039960922 0.17183765773200671 0 -0.25540322622398609 0.15989595989159269 0 -0.24607893308399709 0.15010989851926379 0 -0.2441293386392642 0.1635056093470775 0 -0.25540322622398609 0.15989595989159269 0 -0.2441293386392642 0.1635056093470775 0 -0.2497056474311469 0.1755171798261628 0 -0.2441293386392642 0.1635056093470775 0 -0.2346017039960922 0.17183765773200671 0 -0.2497056474311469 0.1755171798261628 0 -0.23555246932949089 0.15527385559955559 0 -0.24607893308399709 0.15010989851926379 0 -0.2441293386392642 0.1635056093470775 0 -0.2497056474311469 0.1755171798261628 0 -0.2353657148325054 0.18433946854472341 0 -0.24626160846194331 0.1908969395737985 0 -0.2346017039960922 0.17183765773200671 0 -0.2497056474311469 0.1755171798261628 0 -0.2353657148325054 0.18433946854472341 0 -0.2353657148325054 0.18433946854472341 0 -0.22262085989192801 0.1761936559352752 0 -0.22237723811323831 0.18893705315347209 0 -0.2346017039960922 0.17183765773200671 0 -0.2353657148325054 0.18433946854472341 0 -0.22262085989192801 0.1761936559352752 0 -0.23555246932949089 0.15527385559955559 0 -0.2346017039960922 0.17183765773200671 0 -0.22316730487649239 0.16116779999878031 0 -0.2346017039960922 0.17183765773200671 0 -0.22262085989192801 0.1761936559352752 0 -0.22316730487649239 0.16116779999878031 0 -0.21039688105326729 0.1683752291344657 0 -0.19868693423171721 0.15906833658164279 0 -0.2088763240153696 0.14662280969548869 0 -0.22316730487649239 0.16116779999878031 0 -0.21039688105326729 0.1683752291344657 0 -0.2088763240153696 0.14662280969548869 0 -0.22262085989192801 0.1761936559352752 0 -0.22316730487649239 0.16116779999878031 0 -0.21039688105326729 0.1683752291344657 0 -0.22262085989192801 0.1761936559352752 0 -0.21039688105326729 0.1683752291344657 0 -0.20634102106335439 0.18867346817243411 0 -0.22262085989192801 0.1761936559352752 0 -0.22237723811323831 0.18893705315347209 0 -0.20634102106335439 0.18867346817243411 0 -0.21039688105326729 0.1683752291344657 0 -0.19765696335375871 0.17578814756153391 0 -0.20634102106335439 0.18867346817243411 0 -0.19765696335375871 0.17578814756153391 0 -0.20634102106335439 0.18867346817243411 0 -0.19365216364091381 0.1875887006821568 0 -0.19765696335375871 0.17578814756153391 0 -0.19365216364091381 0.1875887006821568 0 -0.18226074013169821 0.17903404928490399 0 -0.1881723762582832 0.1919360431439133 0 -0.19365216364091381 0.1875887006821568 0 -0.18226074013169821 0.17903404928490399 0 -0.21039688105326729 0.1683752291344657 0 -0.19765696335375871 0.17578814756153391 0 -0.19868693423171721 0.15906833658164279 0 -0.19765696335375871 0.17578814756153391 0 -0.19868693423171721 0.15906833658164279 0 -0.18217273745432391 0.15615108223087651 0 -0.19868693423171721 0.15906833658164279 0 -0.19311969741400289 0.14561988416964439 0 -0.18217273745432391 0.15615108223087651 0 -0.19868693423171721 0.15906833658164279 0 -0.19311969741400289 0.14561988416964439 0 -0.2088763240153696 0.14662280969548869 0 -0.19311969741400289 0.14561988416964439 0 -0.19377775659165411 0.13298907716336519 0 -0.2088763240153696 0.14662280969548869 0 -0.19311969741400289 0.14561988416964439 0 -0.19377775659165411 0.13298907716336519 0 -0.1820847347769497 0.133268115176849 0 -0.19377775659165411 0.13298907716336519 0 -0.20410921000752291 0.12530739966588739 0 -0.2088763240153696 0.14662280969548869 0 -0.1917690879862366 0.123794376894914 0 -0.19377775659165411 0.13298907716336519 0 -0.1820847347769497 0.133268115176849 0 -0.1917690879862366 0.123794376894914 0 -0.19377775659165411 0.13298907716336519 0 -0.20410921000752291 0.12530739966588739 0 -0.22010475119527839 0.13014220766088039 0 -0.20410921000752291 0.12530739966588739 0 -0.2088763240153696 0.14662280969548869 0 -0.20410921000752291 0.12530739966588739 0 -0.2088763240153696 0.14662280969548869 0 -0.22010475119527839 0.13014220766088039 0 -0.22417238895003519 0.14799812914614729 0 -0.2088763240153696 0.14662280969548869 0 -0.22417238895003519 0.14799812914614729 0 -0.22316730487649239 0.16116779999878031 0 -0.2088763240153696 0.14662280969548869 0 -0.2287590834630335 0.24537160089975871 0 -0.23493865180616491 0.23031597285440139 0 -0.2149870320691433 0.23276804712241031 0 -0.25045711032761642 0.24363572039220641 0 -0.2287590834630335 0.24537160089975871 0 -0.23493865180616491 0.23031597285440139 0 -0.25045711032761642 0.24363572039220641 0 -0.2339197671070874 0.25813995666386391 0 -0.2287590834630335 0.24537160089975871 0 -0.25045711032761642 0.24363572039220641 0 -0.23493865180616491 0.23031597285440139 0 -0.24819095057616741 0.2250764122596095 0 -0.23493865180616491 0.23031597285440139 0 -0.24819095057616741 0.2250764122596095 0 -0.2382135416322135 0.21700824958324841 0 -0.23493865180616491 0.23031597285440139 0 -0.22369627729096681 0.22195464052079211 0 -0.2382135416322135 0.21700824958324841 0 -0.23493865180616491 0.23031597285440139 0 -0.22369627729096681 0.22195464052079211 0 -0.2149870320691433 0.23276804712241031 0 -0.22369627729096681 0.22195464052079211 0 -0.22764582906115699 0.20843703937865479 0 -0.213301954687111 0.21430052253874199 0 -0.22764582906115699 0.20843703937865479 0 -0.2167469006195078 0.20025343536750681 0 -0.213301954687111 0.21430052253874199 0 -0.22369627729096681 0.22195464052079211 0 -0.22764582906115699 0.20843703937865479 0 -0.2382135416322135 0.21700824958324841 0 -0.25051188917443029 0.21282450007166201 0 -0.2382135416322135 0.21700824958324841 0 -0.24201273405948251 0.20433468491977189 0 -0.25051188917443029 0.21282450007166201 0 -0.24819095057616741 0.2250764122596095 0 -0.2382135416322135 0.21700824958324841 0 -0.25526582845676382 0.20120504055455479 0 -0.25051188917443029 0.21282450007166201 0 -0.24201273405948251 0.20433468491977189 0 -0.22764582906115699 0.20843703937865479 0 -0.2382135416322135 0.21700824958324841 0 -0.24201273405948251 0.20433468491977189 0 -0.24201273405948251 0.20433468491977189 0 -0.24626160846194331 0.1908969395737985 0 -0.23268241711903201 0.19607835564590129 0 -0.25526582845676382 0.20120504055455479 0 -0.24201273405948251 0.20433468491977189 0 -0.24626160846194331 0.1908969395737985 0 -0.2353657148325054 0.18433946854472341 0 -0.24626160846194331 0.1908969395737985 0 -0.23268241711903201 0.19607835564590129 0 -0.2353657148325054 0.18433946854472341 0 -0.23268241711903201 0.19607835564590129 0 -0.22237723811323831 0.18893705315347209 0 -0.23268241711903201 0.19607835564590129 0 -0.22237723811323831 0.18893705315347209 0 -0.2167469006195078 0.20025343536750681 0 -0.22764582906115699 0.20843703937865479 0 -0.23268241711903201 0.19607835564590129 0 -0.2167469006195078 0.20025343536750681 0 -0.22764582906115699 0.20843703937865479 0 -0.24201273405948251 0.20433468491977189 0 -0.23268241711903201 0.19607835564590129 0 -0.22237723811323831 0.18893705315347209 0 -0.2167469006195078 0.20025343536750681 0 -0.20634102106335439 0.18867346817243411 0 -0.2167469006195078 0.20025343536750681 0 -0.20634102106335439 0.18867346817243411 0 -0.20450132050368969 0.20616845517100049 0 -0.20634102106335439 0.18867346817243411 0 -0.19365216364091381 0.1875887006821568 0 -0.19442785845144861 0.19920440626966079 0 -0.20634102106335439 0.18867346817243411 0 -0.19442785845144861 0.19920440626966079 0 -0.20450132050368969 0.20616845517100049 0 -0.1881723762582832 0.1919360431439133 0 -0.19365216364091381 0.1875887006821568 0 -0.19442785845144861 0.19920440626966079 0 -0.1881723762582832 0.1919360431439133 0 -0.19442785845144861 0.19920440626966079 0 -0.18234874280907251 0.20191701633893161 0 -0.1933188050805294 0.21222748695147789 0 -0.20450132050368969 0.20616845517100049 0 -0.20287138312018729 0.2223514117261812 0 -0.19442785845144861 0.19920440626966079 0 -0.1933188050805294 0.21222748695147789 0 -0.20450132050368969 0.20616845517100049 0 -0.19442785845144861 0.19920440626966079 0 -0.1933188050805294 0.21222748695147789 0 -0.18234874280907251 0.20191701633893161 0 -0.1933188050805294 0.21222748695147789 0 -0.19066727688299681 0.22539156730621071 0 -0.18098065945073799 0.21792459043665829 0 -0.20450132050368969 0.20616845517100049 0 -0.213301954687111 0.21430052253874199 0 -0.20287138312018729 0.2223514117261812 0 -0.2167469006195078 0.20025343536750681 0 -0.20450132050368969 0.20616845517100049 0 -0.213301954687111 0.21430052253874199 0 -0.22369627729096681 0.22195464052079211 0 -0.213301954687111 0.21430052253874199 0 -0.2149870320691433 0.23276804712241031 0 -0.213301954687111 0.21430052253874199 0 -0.2149870320691433 0.23276804712241031 0 -0.20287138312018729 0.2223514117261812 0 -0.2149870320691433 0.23276804712241031 0 -0.20287138312018729 0.2223514117261812 0 -0.2030948177853211 0.23717234899245809 0 -0.1933188050805294 0.21222748695147789 0 -0.20287138312018729 0.2223514117261812 0 -0.19066727688299681 0.22539156730621071 0 -0.19066727688299681 0.22539156730621071 0 -0.2030948177853211 0.23717234899245809 0 -0.19041453693178001 0.23699037918679269 0 -0.20287138312018729 0.2223514117261812 0 -0.19066727688299681 0.22539156730621071 0 -0.2030948177853211 0.23717234899245809 0 -0.1866657845812828 0.25087375523518007 0 -0.2030948177853211 0.23717234899245809 0 -0.19041453693178001 0.23699037918679269 0 -0.20835417389391381 0.2511079513895409 0 -0.1866657845812828 0.25087375523518007 0 -0.2030948177853211 0.23717234899245809 0 -0.20835417389391381 0.2511079513895409 0 -0.2149870320691433 0.23276804712241031 0 -0.2030948177853211 0.23717234899245809 0 -0.20835417389391381 0.2511079513895409 0 -0.2287590834630335 0.24537160089975871 0 -0.2149870320691433 0.23276804712241031 0 -0.17278085437684851 0.25461674707384091 0 -0.16547814738087399 0.2267084548198901 0 -0.17278085437684851 0.25461674707384091 0 -0.15408748128800351 0.2507765334929733 0 -0.16547814738087399 0.2267084548198901 0 -0.15408748128800351 0.2507765334929733 0 -0.16547814738087399 0.2267084548198901 0 -0.1866657845812828 0.25087375523518007 0 -0.19041453693178001 0.23699037918679269 0 -0.1804631014313505 0.23386929161260819 0 -0.1866657845812828 0.25087375523518007 0 -0.17278085437684851 0.25461674707384091 0 -0.1804631014313505 0.23386929161260819 0 -0.17278085437684851 0.25461674707384091 0 -0.1804631014313505 0.23386929161260819 0 -0.16547814738087399 0.2267084548198901 0 -0.1804631014313505 0.23386929161260819 0 -0.16547814738087399 0.2267084548198901 0 -0.18098065945073799 0.21792459043665829 0 -0.19066727688299681 0.22539156730621071 0 -0.1804631014313505 0.23386929161260819 0 -0.18098065945073799 0.21792459043665829 0 -0.19066727688299681 0.22539156730621071 0 -0.19041453693178001 0.23699037918679269 0 -0.1804631014313505 0.23386929161260819 0 -0.16547814738087399 0.2267084548198901 0 -0.16396506734616009 0.22092601279726939 0 -0.1476498649984401 0.23985593460618951 0 -0.16547814738087399 0.2267084548198901 0 -0.16396506734616009 0.22092601279726939 0 -0.17399854538486501 0.2087051521320456 0 -0.16547814738087399 0.2267084548198901 0 -0.16396506734616009 0.22092601279726939 0 -0.16547814738087399 0.2267084548198901 0 -0.17399854538486501 0.2087051521320456 0 -0.16396506734616009 0.22092601279726939 0 -0.16010443389900841 0.20617207475924559 0 -0.16396506734616009 0.22092601279726939 0 -0.16010443389900841 0.20617207475924559 0 -0.15040230590868289 0.2205490601908629 0 -0.16010443389900841 0.20617207475924559 0 -0.17399854538486501 0.2087051521320456 0 -0.16851429975522941 0.1989184489104914 0 -0.16010443389900841 0.20617207475924559 0 -0.17399854538486501 0.2087051521320456 0 -0.16396506734616009 0.22092601279726939 0 -0.16010443389900841 0.20617207475924559 0 -0.17399854538486501 0.2087051521320456 0 -0.16396506734616009 0.22092601279726939 0 -0.17399854538486501 0.2087051521320456 0 -0.1933188050805294 0.21222748695147789 0 -0.17399854538486501 0.2087051521320456 0 -0.1933188050805294 0.21222748695147789 0 -0.1778275548731543 0.20484188467122541 0 -0.17399854538486501 0.2087051521320456 0 -0.16547814738087399 0.2267084548198901 0 -0.18098065945073799 0.21792459043665829 0 -0.17399854538486501 0.2087051521320456 0 -0.1933188050805294 0.21222748695147789 0 -0.18098065945073799 0.21792459043665829 0 -0.17399854538486501 0.2087051521320456 0 -0.1933188050805294 0.21222748695147789 0 -0.1778275548731543 0.20484188467122541 0 -0.18234874280907251 0.20191701633893161 0 -0.1778275548731543 0.20484188467122541 0 -0.17399854538486501 0.2087051521320456 0 -0.17940010657884931 0.1972918424349292 0 -0.1778275548731543 0.20484188467122541 0 -0.17399854538486501 0.2087051521320456 0 -0.18234874280907251 0.20191701633893161 0 -0.18226074013169821 0.17903404928490399 0 -0.17940010657884931 0.1972918424349292 0 -0.1709158154545922 0.18904232115252859 0 -0.18226074013169821 0.17903404928490399 0 -0.17399854538486501 0.2087051521320456 0 -0.17940010657884931 0.1972918424349292 0 -0.16851429975522941 0.1989184489104914 0 -0.17940010657884931 0.1972918424349292 0 -0.18234874280907251 0.20191701633893161 0 -0.18226074013169821 0.17903404928490399 0 -0.17399854538486501 0.2087051521320456 0 -0.17940010657884931 0.1972918424349292 0 -0.1881723762582832 0.1919360431439133 0 -0.18234874280907251 0.20191701633893161 0 -0.18226074013169821 0.17903404928490399 0 -0.1778275548731543 0.20484188467122541 0 -0.17940010657884931 0.1972918424349292 0 -0.18234874280907251 0.20191701633893161 0 -0.17940010657884931 0.1972918424349292 0 -0.1709158154545922 0.18904232115252859 0 -0.16851429975522941 0.1989184489104914 0 -0.1709158154545922 0.18904232115252859 0 -0.16851429975522941 0.1989184489104914 0 -0.15608406143766529 0.190807672259903 0 -0.16010443389900841 0.20617207475924559 0 -0.15608406143766529 0.190807672259903 0 -0.16010443389900841 0.20617207475924559 0 -0.16851429975522941 0.1989184489104914 0 -0.15608406143766529 0.190807672259903 0 -0.16010443389900841 0.20617207475924559 0 -0.15608406143766529 0.190807672259903 0 -0.14259872221628239 0.18834911939159091 0 -0.16010443389900841 0.20617207475924559 0 -0.14259872221628239 0.18834911939159091 0 -0.13313375545624251 0.20125496902262041 0 -0.14259872221628239 0.18834911939159091 0 -0.1270269633421395 0.2001416213328174 0 -0.14048568678070139 0.1779209318928599 0 -0.14259872221628239 0.18834911939159091 0 -0.13313375545624251 0.20125496902262041 0 -0.1270269633421395 0.2001416213328174 0 -0.14048568678070139 0.1779209318928599 0 -0.12936416288634101 0.18782549871049389 0 -0.1270269633421395 0.2001416213328174 0 -0.1338724830245957 0.1829498644473396 0 -0.12936416288634101 0.18782549871049389 0 -0.12692190699818939 0.19186493092436699 0 -0.1270269633421395 0.2001416213328174 0 -0.12692190699818939 0.19186493092436699 0 -0.1251590247121013 0.19627399988664609 0 -0.1243519374489804 0.1930451155231741 0 -0.12692190699818939 0.19186493092436699 0 -0.123840192590372 0.1894468383904632 0 -0.1243519374489804 0.1930451155231741 0 -0.12936416288634101 0.18782549871049389 0 -0.12692190699818939 0.19186493092436699 0 -0.12600373707011239 0.18708271139657059 0 -0.12692190699818939 0.19186493092436699 0 -0.12600373707011239 0.18708271139657059 0 -0.123840192590372 0.1894468383904632 0 -0.12692190699818939 0.19186493092436699 0 -0.1270269633421395 0.2001416213328174 0 -0.1251590247121013 0.19627399988664609 0 -0.1270269633421395 0.2001416213328174 0 -0.12561387228043139 0.2024746700633191 0 -0.13313375545624251 0.20125496902262041 0 -0.1270269633421395 0.2001416213328174 0 -0.12561387228043139 0.2024746700633191 0 -0.1270269633421395 0.2001416213328174 0 -0.1239027950853671 0.1995720447947209 0 -0.1270269633421395 0.2001416213328174 0 -0.12561387228043139 0.2024746700633191 0 -0.1239027950853671 0.1995720447947209 0 -0.1270269633421395 0.2001416213328174 0 -0.1251590247121013 0.19627399988664609 0 -0.1239027950853671 0.1995720447947209 0 -0.1270269633421395 0.2001416213328174 0 -0.13313375545624251 0.20125496902262041 0 -0.14259872221628239 0.18834911939159091 0 -0.1270269633421395 0.2001416213328174 0 -0.13313375545624251 0.20125496902262041 0 -0.12856622905984061 0.20748296858694121 0 -0.13810804702914159 0.22366945159656471 0 -0.12518995005972039 0.22037892014718141 0 -0.13313375545624251 0.20125496902262041 0 -0.12856622905984061 0.20748296858694121 0 -0.14218411627066391 0.21212182719504541 0 -0.12856622905984061 0.20748296858694121 0 -0.13810804702914159 0.22366945159656471 0 -0.12856622905984061 0.20748296858694121 0 -0.14218411627066391 0.21212182719504541 0 -0.13810804702914159 0.22366945159656471 0 -0.13313375545624251 0.20125496902262041 0 -0.12856622905984061 0.20748296858694121 0 -0.12561387228043139 0.2024746700633191 0 -0.13313375545624251 0.20125496902262041 0 -0.12856622905984061 0.20748296858694121 0 -0.12561387228043139 0.2024746700633191 0 -0.12856622905984061 0.20748296858694121 0 -0.16010443389900841 0.20617207475924559 0 -0.13313375545624251 0.20125496902262041 0 -0.14218411627066391 0.21212182719504541 0 -0.16010443389900841 0.20617207475924559 0 -0.14218411627066391 0.21212182719504541 0 -0.15040230590868289 0.2205490601908629 0 -0.16010443389900841 0.20617207475924559 0 -0.13313375545624251 0.20125496902262041 0 -0.16396506734616009 0.22092601279726939 0 -0.1476498649984401 0.23985593460618951 0 -0.13810804702914159 0.22366945159656471 0 -0.1476498649984401 0.23985593460618951 0 -0.16396506734616009 0.22092601279726939 0 -0.15040230590868289 0.2205490601908629 0 -0.1476498649984401 0.23985593460618951 0 -0.15040230590868289 0.2205490601908629 0 -0.13810804702914159 0.22366945159656471 0 -0.1476498649984401 0.23985593460618951 0 -0.14218411627066391 0.21212182719504541 0 -0.15040230590868289 0.2205490601908629 0 -0.13810804702914159 0.22366945159656471 0 -0.13810804702914159 0.22366945159656471 0 -0.1314526947224903 0.23765190874794209 0 -0.1476498649984401 0.23985593460618951 0 -0.13810804702914159 0.22366945159656471 0 -0.12518995005972039 0.22037892014718141 0 -0.12824951634124579 0.22803506515374999 0 -0.12518995005972039 0.22037892014718141 0 -0.12824951634124579 0.22803506515374999 0 -0.12199879257866771 0.22712784523642279 0 -0.12824951634124579 0.22803506515374999 0 -0.1314526947224903 0.23765190874794209 0 -0.1201526822390046 0.2327880954575566 0 -0.13810804702914159 0.22366945159656471 0 -0.12824951634124579 0.22803506515374999 0 -0.1314526947224903 0.23765190874794209 0 -0.1331286652934861 0.25670434194603348 0 -0.1476498649984401 0.23985593460618951 0 -0.1331286652934861 0.25670434194603348 0 -0.1314526947224903 0.23765190874794209 0 -0.1213138599820428 0.24451737080076011 0 -0.1331286652934861 0.25670434194603348 0 -0.1314526947224903 0.23765190874794209 0 -0.1476498649984401 0.23985593460618951 0 -0.1331286652934861 0.25670434194603348 0 -0.15408748128800351 0.2507765334929733 0 -0.1476498649984401 0.23985593460618951 0 -0.15408748128800351 0.2507765334929733 0 -0.16547814738087399 0.2267084548198901 0 -0.1476498649984401 0.23985593460618951 0 -0.15408748128800351 0.2507765334929733 0 -0.1476498649984401 0.23985593460618951 0 -0.1674031336578275 0.13347955301294581 0 -0.1539444102192645 0.1557002424529029 0 -0.1674031336578275 0.13347955301294581 0 -0.1539444102192645 0.1557002424529029 0 -0.15540289111030861 0.13608864338082949 0 -0.1685978354030743 0.15321406747772789 0 -0.1674031336578275 0.13347955301294581 0 -0.1539444102192645 0.1557002424529029 0 -0.1685978354030743 0.15321406747772789 0 -0.1674031336578275 0.13347955301294581 0 -0.17506461032304391 0.1440282044745998 0 -0.1569501085897817 0.1244826492706993 0 -0.1674031336578275 0.13347955301294581 0 -0.15540289111030861 0.13608864338082949 0 -0.1686911079805247 0.1186640936184233 0 -0.1569501085897817 0.1244826492706993 0 -0.1674031336578275 0.13347955301294581 0 -0.1674031336578275 0.13347955301294581 0 -0.1820847347769497 0.133268115176849 0 -0.17506461032304391 0.1440282044745998 0 -0.1819967320995754 0.11038514812282151 0 -0.1674031336578275 0.13347955301294581 0 -0.1820847347769497 0.133268115176849 0 -0.1869640091373303 0.12023823664034659 0 -0.1917690879862366 0.123794376894914 0 -0.1820847347769497 0.133268115176849 0 -0.1820847347769497 0.133268115176849 0 -0.18217273745432391 0.15615108223087651 0 -0.1820847347769497 0.133268115176849 0 -0.17506461032304391 0.1440282044745998 0 -0.18217273745432391 0.15615108223087651 0 -0.19311969741400289 0.14561988416964439 0 -0.1820847347769497 0.133268115176849 0 -0.18217273745432391 0.15615108223087651 0 -0.1685978354030743 0.15321406747772789 0 -0.17506461032304391 0.1440282044745998 0 -0.18217273745432391 0.15615108223087651 0 -0.18217273745432391 0.15615108223087651 0 -0.18226074013169821 0.17903404928490399 0 -0.17024582286716511 0.16758829973174419 0 -0.18217273745432391 0.15615108223087651 0 -0.18226074013169821 0.17903404928490399 0 -0.19765696335375871 0.17578814756153391 0 -0.18217273745432391 0.15615108223087651 0 -0.18226074013169821 0.17903404928490399 0 -0.1685978354030743 0.15321406747772789 0 -0.18217273745432391 0.15615108223087651 0 -0.17024582286716511 0.16758829973174419 0 -0.18226074013169821 0.17903404928490399 0 -0.1683198693695187 0.1791595928724157 0 -0.17024582286716511 0.16758829973174419 0 -0.1709158154545922 0.18904232115252859 0 -0.18226074013169821 0.17903404928490399 0 -0.1683198693695187 0.1791595928724157 0 -0.15608406143766529 0.190807672259903 0 -0.1607845809699798 0.17440578863512279 0 -0.15206368897632119 0.17544326976056071 0 -0.15608406143766529 0.190807672259903 0 -0.1683198693695187 0.1791595928724157 0 -0.1607845809699798 0.17440578863512279 0 -0.1709158154545922 0.18904232115252859 0 -0.15608406143766529 0.190807672259903 0 -0.1683198693695187 0.1791595928724157 0 -0.1683198693695187 0.1791595928724157 0 -0.1607845809699798 0.17440578863512279 0 -0.17024582286716511 0.16758829973174419 0 -0.1685978354030743 0.15321406747772789 0 -0.17024582286716511 0.16758829973174419 0 -0.1598996243152298 0.16475866771532061 0 -0.1607845809699798 0.17440578863512279 0 -0.17024582286716511 0.16758829973174419 0 -0.1598996243152298 0.16475866771532061 0 -0.1607845809699798 0.17440578863512279 0 -0.1598996243152298 0.16475866771532061 0 -0.15206368897632119 0.17544326976056071 0 -0.1685978354030743 0.15321406747772789 0 -0.1598996243152298 0.16475866771532061 0 -0.1539444102192645 0.1557002424529029 0 -0.15206368897632119 0.17544326976056071 0 -0.1482194432245853 0.17452628582703289 0 -0.1539444102192645 0.1557002424529029 0 -0.14048568678070139 0.1779209318928599 0 -0.1539444102192645 0.1557002424529029 0 -0.1598996243152298 0.16475866771532061 0 -0.15206368897632119 0.17544326976056071 0 -0.1539444102192645 0.1557002424529029 0 -0.1482194432245853 0.17452628582703289 0 -0.14048568678070139 0.1779209318928599 0 -0.1539444102192645 0.1557002424529029 0 -0.14214462210900219 0.16307976938290111 0 -0.14048568678070139 0.1779209318928599 0 -0.1539444102192645 0.1557002424529029 0 -0.1598996243152298 0.16475866771532061 0 -0.15206368897632119 0.17544326976056071 0 -0.14214462210900219 0.16307976938290111 0 -0.1402796036576143 0.15217742208779639 0 -0.1539444102192645 0.1557002424529029 0 -0.15608406143766529 0.190807672259903 0 -0.14259872221628239 0.18834911939159091 0 -0.15206368897632119 0.17544326976056071 0 -0.15608406143766529 0.190807672259903 0 -0.15206368897632119 0.17544326976056071 0 -0.14259872221628239 0.18834911939159091 0 -0.15206368897632119 0.17544326976056071 0 -0.1482194432245853 0.17452628582703289 0 -0.14259872221628239 0.18834911939159091 0 -0.15206368897632119 0.17544326976056071 0 -0.14259872221628239 0.18834911939159091 0 -0.1482194432245853 0.17452628582703289 0 -0.14048568678070139 0.1779209318928599 0 -0.1270269633421395 0.2001416213328174 0 -0.1338724830245957 0.1829498644473396 0 -0.14048568678070139 0.1779209318928599 0 -0.1338724830245957 0.1829498644473396 0 -0.14048568678070139 0.1779209318928599 0 -0.13086870046124 0.17520377402252801 0 -0.14048568678070139 0.1779209318928599 0 -0.13086870046124 0.17520377402252801 0 -0.13671624394517901 0.16953861688038729 0 -0.13086870046124 0.17520377402252801 0 -0.1267501796501396 0.1828879690102484 0 -0.1230167272583078 0.17900160798849959 0 -0.1338724830245957 0.1829498644473396 0 -0.13086870046124 0.17520377402252801 0 -0.1267501796501396 0.1828879690102484 0 -0.12936416288634101 0.18782549871049389 0 -0.1267501796501396 0.1828879690102484 0 -0.12600373707011239 0.18708271139657059 0 -0.1267501796501396 0.1828879690102484 0 -0.12600373707011239 0.18708271139657059 0 -0.1228778617929292 0.18587332667333609 0 -0.12936416288634101 0.18782549871049389 0 -0.1338724830245957 0.1829498644473396 0 -0.1267501796501396 0.1828879690102484 0 -0.14214462210900219 0.16307976938290111 0 -0.13336596642977239 0.16194999222326051 0 -0.1402796036576143 0.15217742208779639 0 -0.14214462210900219 0.16307976938290111 0 -0.14048568678070139 0.1779209318928599 0 -0.13671624394517901 0.16953861688038729 0 -0.13086870046124 0.17520377402252801 0 -0.13336596642977239 0.16194999222326051 0 -0.13671624394517901 0.16953861688038729 0 -0.14214462210900219 0.16307976938290111 0 -0.13336596642977239 0.16194999222326051 0 -0.13671624394517901 0.16953861688038729 0 -0.13086870046124 0.17520377402252801 0 -0.13336596642977239 0.16194999222326051 0 -0.124081763520107 0.1651523067938768 0 -0.13086870046124 0.17520377402252801 0 -0.124081763520107 0.1651523067938768 0 -0.1211087466850098 0.17342034547743099 0 -0.13336596642977239 0.16194999222326051 0 -0.1267515211068779 0.15439672591925779 0 -0.124081763520107 0.1651523067938768 0 -0.1267515211068779 0.15439672591925779 0 -0.1297487392633789 0.1448421870036504 0 -0.1402796036576143 0.15217742208779639 0 -0.1297487392633789 0.1448421870036504 0 -0.12617564297698569 0.1365997478618666 0 -0.1214554418768818 0.1450781152601201 0 -0.1267515211068779 0.15439672591925779 0 -0.1297487392633789 0.1448421870036504 0 -0.1214554418768818 0.1450781152601201 0 -0.1297487392633789 0.1448421870036504 0 -0.13991226887734709 0.1435085405354915 0 -0.13594406540471479 0.1357637664891144 0 -0.1297487392633789 0.1448421870036504 0 -0.13991226887734709 0.1435085405354915 0 -0.1402796036576143 0.15217742208779639 0 -0.13336596642977239 0.16194999222326051 0 -0.1267515211068779 0.15439672591925779 0 -0.1402796036576143 0.15217742208779639 0 -0.1475025132308812 0.1460546642178554 0 -0.1539444102192645 0.1557002424529029 0 -0.15540289111030861 0.13608864338082949 0 -0.1402796036576143 0.15217742208779639 0 -0.1475025132308812 0.1460546642178554 0 -0.1539444102192645 0.1557002424529029 0 -0.13991226887734709 0.1435085405354915 0 -0.1402796036576143 0.15217742208779639 0 -0.1475025132308812 0.1460546642178554 0 -0.13991226887734709 0.1435085405354915 0 -0.1475025132308812 0.1460546642178554 0 -0.1460864228301465 0.1387046628790411 0 -0.1569501085897817 0.1244826492706993 0 -0.1447937263018193 0.1242524065622866 0 -0.15540289111030861 0.13608864338082949 0 -0.1447937263018193 0.1242524065622866 0 -0.15540289111030861 0.13608864338082949 0 -0.1460864228301465 0.1387046628790411 0 -0.1475025132308812 0.1460546642178554 0 -0.15540289111030861 0.13608864338082949 0 -0.1460864228301465 0.1387046628790411 0 -0.1447937263018193 0.1242524065622866 0 -0.1460864228301465 0.1387046628790411 0 -0.13594406540471479 0.1357637664891144 0 -0.13991226887734709 0.1435085405354915 0 -0.1460864228301465 0.1387046628790411 0 -0.13594406540471479 0.1357637664891144 0 -0.1447937263018193 0.1242524065622866 0 -0.13594406540471479 0.1357637664891144 0 -0.13050480037556531 0.12623063389370839 0 -0.13594406540471479 0.1357637664891144 0 -0.12617564297698569 0.1365997478618666 0 -0.13050480037556531 0.12623063389370839 0 -0.1297487392633789 0.1448421870036504 0 -0.13594406540471479 0.1357637664891144 0 -0.12617564297698569 0.1365997478618666 0 -0.13050480037556531 0.12623063389370839 0 -0.12129233307128361 0.12898516857214831 0 -0.1235406269920306 0.1203910755838738 0 -0.12617564297698569 0.1365997478618666 0 -0.13050480037556531 0.12623063389370839 0 -0.12129233307128361 0.12898516857214831 0 -0.1155726570637604 0.13758058431439771 0 -0.1113427890893554 0.12574902437050101 0 -0.1017224209469902 0.14388579119154971 0 -0.12129233307128361 0.12898516857214831 0 -0.1113427890893554 0.12574902437050101 0 -0.1235406269920306 0.1203910755838738 0 -0.12617564297698569 0.1365997478618666 0 -0.1155726570637604 0.13758058431439771 0 -0.1214554418768818 0.1450781152601201 0 -0.12617564297698569 0.1365997478618666 0 -0.12129233307128361 0.12898516857214831 0 -0.1155726570637604 0.13758058431439771 0 -0.12129233307128361 0.12898516857214831 0 -0.1155726570637604 0.13758058431439771 0 -0.1113427890893554 0.12574902437050101 0 -0.1113427890893554 0.12574902437050101 0 -0.10197270748872241 0.1267935922150063 0 -0.1017224209469902 0.14388579119154971 0 -0.1113427890893554 0.12574902437050101 0 -0.1017224209469902 0.14388579119154971 0 -0.10197270748872241 0.1267935922150063 0 -0.1017224209469902 0.14388579119154971 0 -0.082982257745725124 0.14597492688056099 0 -0.1017224209469902 0.14388579119154971 0 -0.10804651373498921 0.15735254866846679 0 -0.0927420974220593 0.1558240872789306 0 -0.1017224209469902 0.14388579119154971 0 -0.11285517243999479 0.14650349649666669 0 -0.10804651373498921 0.15735254866846679 0 -0.11285517243999479 0.14650349649666669 0 -0.1173135292385357 0.15216373164618269 0 -0.10804651373498921 0.15735254866846679 0 -0.1155726570637604 0.13758058431439771 0 -0.11285517243999479 0.14650349649666669 0 -0.1214554418768818 0.1450781152601201 0 -0.1155726570637604 0.13758058431439771 0 -0.1017224209469902 0.14388579119154971 0 -0.11285517243999479 0.14650349649666669 0 -0.11285517243999479 0.14650349649666669 0 -0.1214554418768818 0.1450781152601201 0 -0.1173135292385357 0.15216373164618269 0 -0.1267515211068779 0.15439672591925779 0 -0.1173135292385357 0.15216373164618269 0 -0.1181085276120834 0.15975420793306749 0 -0.1267515211068779 0.15439672591925779 0 -0.1214554418768818 0.1450781152601201 0 -0.1173135292385357 0.15216373164618269 0 -0.1181085276120834 0.15975420793306749 0 -0.124081763520107 0.1651523067938768 0 -0.11405693358998301 0.16622196941257381 0 -0.1267515211068779 0.15439672591925779 0 -0.1181085276120834 0.15975420793306749 0 -0.124081763520107 0.1651523067938768 0 -0.124081763520107 0.1651523067938768 0 -0.11405693358998301 0.16622196941257381 0 -0.1211087466850098 0.17342034547743099 0 -0.11405693358998301 0.16622196941257381 0 -0.1108848048673601 0.17748867680749009 0 -0.10734265805017509 0.1691862844460246 0 -0.11405693358998301 0.16622196941257381 0 -0.1108848048673601 0.17748867680749009 0 -0.11405693358998301 0.16622196941257381 0 -0.10804651373498921 0.15735254866846679 0 -0.10734265805017509 0.1691862844460246 0 -0.1181085276120834 0.15975420793306749 0 -0.11405693358998301 0.16622196941257381 0 -0.10804651373498921 0.15735254866846679 0 -0.1173135292385357 0.15216373164618269 0 -0.1181085276120834 0.15975420793306749 0 -0.10804651373498921 0.15735254866846679 0 -0.1108848048673601 0.17748867680749009 0 -0.1167045709858628 0.1848355968010037 0 -0.1239027950853671 0.1995720447947209 0 -0.1195587479266705 0.1848976632759631 0 -0.1167045709858628 0.1848355968010037 0 -0.1207822719795054 0.18769057480619419 0 -0.1195587479266705 0.1848976632759631 0 -0.1187560554533206 0.1833976479175872 0 -0.1167045709858628 0.1848355968010037 0 -0.1195587479266705 0.1848976632759631 0 -0.1228778617929292 0.18587332667333609 0 -0.1207822719795054 0.18769057480619419 0 -0.1267501796501396 0.1828879690102484 0 -0.1228778617929292 0.18587332667333609 0 -0.1209992282849756 0.1823223373716984 0 -0.12600373707011239 0.18708271139657059 0 -0.1228778617929292 0.18587332667333609 0 -0.123840192590372 0.1894468383904632 0 -0.1195587479266705 0.1848976632759631 0 -0.1228778617929292 0.18587332667333609 0 -0.1209992282849756 0.1823223373716984 0 -0.1267501796501396 0.1828879690102484 0 -0.1209992282849756 0.1823223373716984 0 -0.1230167272583078 0.17900160798849959 0 -0.1209992282849756 0.1823223373716984 0 -0.1192701459307937 0.1786885181559921 0 -0.1230167272583078 0.17900160798849959 0 -0.1209992282849756 0.1823223373716984 0 -0.1177616746157735 0.18153499422168359 0 -0.1192701459307937 0.1786885181559921 0 -0.1209992282849756 0.1823223373716984 0 -0.1187560554533206 0.1833976479175872 0 -0.1177616746157735 0.18153499422168359 0 -0.1195587479266705 0.1848976632759631 0 -0.1209992282849756 0.1823223373716984 0 -0.1187560554533206 0.1833976479175872 0 -0.1187560554533206 0.1833976479175872 0 -0.1177616746157735 0.18153499422168359 0 -0.1167045709858628 0.1848355968010037 0 -0.1177616746157735 0.18153499422168359 0 -0.1192701459307937 0.1786885181559921 0 -0.11667613337938799 0.17958856031214929 0 -0.13086870046124 0.17520377402252801 0 -0.1230167272583078 0.17900160798849959 0 -0.1211087466850098 0.17342034547743099 0 -0.1192701459307937 0.1786885181559921 0 -0.1211087466850098 0.17342034547743099 0 -0.1161420841558156 0.1765975421218379 0 -0.1192701459307937 0.1786885181559921 0 -0.1161420841558156 0.1765975421218379 0 -0.11667613337938799 0.17958856031214929 0 -0.1192701459307937 0.1786885181559921 0 -0.1230167272583078 0.17900160798849959 0 -0.1211087466850098 0.17342034547743099 0 -0.11405693358998301 0.16622196941257381 0 -0.1211087466850098 0.17342034547743099 0 -0.1161420841558156 0.1765975421218379 0 -0.11405693358998301 0.16622196941257381 0 -0.1108848048673601 0.17748867680749009 0 -0.1161420841558156 0.1765975421218379 0 -0.1108848048673601 0.17748867680749009 0 -0.1161420841558156 0.1765975421218379 0 -0.1144151772013447 0.1799687298133309 0 -0.1161420841558156 0.1765975421218379 0 -0.11667613337938799 0.17958856031214929 0 -0.1144151772013447 0.1799687298133309 0 -0.1108848048673601 0.17748867680749009 0 -0.1144151772013447 0.1799687298133309 0 -0.1167045709858628 0.1848355968010037 0 -0.116221146035672 0.18135663160175219 0 -0.1144151772013447 0.1799687298133309 0 -0.1167045709858628 0.1848355968010037 0 -0.11667613337938799 0.17958856031214929 0 -0.116221146035672 0.18135663160175219 0 -0.1144151772013447 0.1799687298133309 0 -0.1177616746157735 0.18153499422168359 0 -0.11667613337938799 0.17958856031214929 0 -0.116221146035672 0.18135663160175219 0 -0.1177616746157735 0.18153499422168359 0 -0.116221146035672 0.18135663160175219 0 -0.1167045709858628 0.1848355968010037 0 -0.1108848048673601 0.17748867680749009 0 -0.1054895976094383 0.18090212746949461 0 -0.1034564582772723 0.2038725391210349 0 -0.099168415932375575 0.18581099564308379 0 -0.090150027434366883 0.1750239765376117 0 -0.094518140767726938 0.19279314946391901 0 -0.1054895976094383 0.18090212746949461 0 -0.1019817694781608 0.17536602464222681 0 -0.099168415932375575 0.18581099564308379 0 -0.1108848048673601 0.17748867680749009 0 -0.1019817694781608 0.17536602464222681 0 -0.10734265805017509 0.1691862844460246 0 -0.1108848048673601 0.17748867680749009 0 -0.1054895976094383 0.18090212746949461 0 -0.1019817694781608 0.17536602464222681 0 -0.1019817694781608 0.17536602464222681 0 -0.09986056552667838 0.1665978541994533 0 -0.090150027434366883 0.1750239765376117 0 -0.1019817694781608 0.17536602464222681 0 -0.099168415932375575 0.18581099564308379 0 -0.090150027434366883 0.1750239765376117 0 -0.09986056552667838 0.1665978541994533 0 -0.090150027434366883 0.1750239765376117 0 -0.0927420974220593 0.1558240872789306 0 -0.1019817694781608 0.17536602464222681 0 -0.10734265805017509 0.1691862844460246 0 -0.09986056552667838 0.1665978541994533 0 -0.10804651373498921 0.15735254866846679 0 -0.10734265805017509 0.1691862844460246 0 -0.09986056552667838 0.1665978541994533 0 -0.10804651373498921 0.15735254866846679 0 -0.09986056552667838 0.1665978541994533 0 -0.0927420974220593 0.1558240872789306 0 -0.081431609793769621 0.16335238386071441 0 -0.090150027434366883 0.1750239765376117 0 -0.0927420974220593 0.1558240872789306 0 -0.081431609793769621 0.16335238386071441 0 -0.090150027434366883 0.1750239765376117 0 -0.074706236364089795 0.17658115859678139 0 -0.090150027434366883 0.1750239765376117 0 -0.074706236364089795 0.17658115859678139 0 -0.085094972607406671 0.20308165422200419 0 -0.074706236364089795 0.17658115859678139 0 -0.066170890249611938 0.1629552759766916 0 -0.066953595966483981 0.1900285399572241 0 -0.066170890249611938 0.1629552759766916 0 -0.066953595966483981 0.1900285399572241 0 -0.063991808002728995 0.16515626154611701 0 -0.066170890249611938 0.1629552759766916 0 -0.066953595966483981 0.1900285399572241 0 -0.063991808002728995 0.16515626154611701 0 -0.066170890249611938 0.1629552759766916 0 -0.065554331043303285 0.1458319713178135 0 -0.081431609793769621 0.16335238386071441 0 -0.066170890249611938 0.1629552759766916 0 -0.082982257745725124 0.14597492688056099 0 -0.081431609793769621 0.16335238386071441 0 -0.074706236364089795 0.17658115859678139 0 -0.066170890249611938 0.1629552759766916 0 -0.063991808002728995 0.16515626154611701 0 -0.066170890249611938 0.1629552759766916 0 -0.066170890249611938 0.1629552759766916 0 -0.082982257745725124 0.14597492688056099 0 -0.065554331043303285 0.1458319713178135 0 -0.071847205005935361 0.13053975978135721 0 -0.082982257745725124 0.14597492688056099 0 -0.066170890249611938 0.1629552759766916 0 -0.065554331043303285 0.1458319713178135 0 -0.082982257745725124 0.14597492688056099 0 -0.071847205005935361 0.13053975978135721 0 -0.054302089386236277 0.1353531800048921 0 -0.071938873559342614 0.1170975000773026 0 -0.071847205005935361 0.13053975978135721 0 -0.054302089386236277 0.1353531800048921 0 -0.065554331043303285 0.1458319713178135 0 -0.071847205005935361 0.13053975978135721 0 -0.054302089386236277 0.1353531800048921 0 -0.071847205005935361 0.13053975978135721 0 -0.085657834793980578 0.12803155850605749 0 -0.071938873559342614 0.1170975000773026 0 -0.10197270748872241 0.1267935922150063 0 -0.082982257745725124 0.14597492688056099 0 -0.10197270748872241 0.1267935922150063 0 -0.085657834793980578 0.12803155850605749 0 -0.082982257745725124 0.14597492688056099 0 -0.071847205005935361 0.13053975978135721 0 -0.085657834793980578 0.12803155850605749 0 -0.082982257745725124 0.14597492688056099 0 -0.081431609793769621 0.16335238386071441 0 -0.082982257745725124 0.14597492688056099 0 -0.0927420974220593 0.1558240872789306 0 -0.1017224209469902 0.14388579119154971 0 -0.082982257745725124 0.14597492688056099 0 -0.0927420974220593 0.1558240872789306 0 -0.088599765097097563 0.25664026374812482 0 -0.1009895371934106 0.24472517822418449 0 -0.096028111687184919 0.23025640143457979 0 -0.1009895371934106 0.24472517822418449 0 -0.1036280606980358 0.2348366269786831 0 -0.096028111687184919 0.23025640143457979 0 -0.1009895371934106 0.24472517822418449 0 -0.1036280606980358 0.2348366269786831 0 -0.11139208869542259 0.23891948961980189 0 -0.1036280606980358 0.2348366269786831 0 -0.11139208869542259 0.23891948961980189 0 -0.1075187367910871 0.23139736287199 0 -0.1122901847943558 0.25409213874332842 0 -0.1009895371934106 0.24472517822418449 0 -0.11139208869542259 0.23891948961980189 0 -0.1122901847943558 0.25409213874332842 0 -0.1213138599820428 0.24451737080076011 0 -0.11139208869542259 0.23891948961980189 0 -0.1213138599820428 0.24451737080076011 0 -0.11139208869542259 0.23891948961980189 0 -0.1201526822390046 0.2327880954575566 0 -0.1314526947224903 0.23765190874794209 0 -0.1213138599820428 0.24451737080076011 0 -0.1201526822390046 0.2327880954575566 0 -0.11139208869542259 0.23891948961980189 0 -0.11230258386948359 0.23222683189733959 0 -0.1201526822390046 0.2327880954575566 0 -0.11139208869542259 0.23891948961980189 0 -0.11230258386948359 0.23222683189733959 0 -0.1075187367910871 0.23139736287199 0 -0.11230258386948359 0.23222683189733959 0 -0.1139046942575894 0.2274745404873082 0 -0.1201526822390046 0.2327880954575566 0 -0.12561387228043139 0.2024746700633191 0 -0.1105759612244477 0.22730263780677709 0 -0.1139046942575894 0.2274745404873082 0 -0.11230258386948359 0.23222683189733959 0 -0.1105759612244477 0.22730263780677709 0 -0.1139046942575894 0.2274745404873082 0 -0.11230258386948359 0.23222683189733959 0 -0.1105759612244477 0.22730263780677709 0 -0.1075187367910871 0.23139736287199 0 -0.12824951634124579 0.22803506515374999 0 -0.1201526822390046 0.2327880954575566 0 -0.12199879257866771 0.22712784523642279 0 -0.1139046942575894 0.2274745404873082 0 -0.1201526822390046 0.2327880954575566 0 -0.12199879257866771 0.22712784523642279 0 -0.12518995005972039 0.22037892014718141 0 -0.1139046942575894 0.2274745404873082 0 -0.12199879257866771 0.22712784523642279 0 -0.1105759612244477 0.22730263780677709 0 -0.109193919624043 0.22083027704760669 0 -0.1142200306669838 0.21558464192252691 0 -0.104685783132222 0.22752357684318969 0 -0.096028111687184919 0.23025640143457979 0 -0.1058301039265928 0.2180444533446412 0 -0.109193919624043 0.22083027704760669 0 -0.104685783132222 0.22752357684318969 0 -0.1058301039265928 0.2180444533446412 0 -0.1105759612244477 0.22730263780677709 0 -0.109193919624043 0.22083027704760669 0 -0.104685783132222 0.22752357684318969 0 -0.1105759612244477 0.22730263780677709 0 -0.1075187367910871 0.23139736287199 0 -0.104685783132222 0.22752357684318969 0 -0.1036280606980358 0.2348366269786831 0 -0.1075187367910871 0.23139736287199 0 -0.104685783132222 0.22752357684318969 0 -0.1036280606980358 0.2348366269786831 0 -0.104685783132222 0.22752357684318969 0 -0.096028111687184919 0.23025640143457979 0 -0.096028111687184919 0.23025640143457979 0 -0.1034564582772723 0.2038725391210349 0 -0.091154865088077575 0.21708748167100389 0 -0.096028111687184919 0.23025640143457979 0 -0.1034564582772723 0.2038725391210349 0 -0.096028111687184919 0.23025640143457979 0 -0.1034564582772723 0.2038725391210349 0 -0.1058301039265928 0.2180444533446412 0 -0.1034564582772723 0.2038725391210349 0 -0.1058301039265928 0.2180444533446412 0 -0.1117168832440989 0.20834676864459251 0 -0.109193919624043 0.22083027704760669 0 -0.1058301039265928 0.2180444533446412 0 -0.1111561869161312 0.21486810847417889 0 -0.12561387228043139 0.2024746700633191 0 -0.1105759612244477 0.22730263780677709 0 -0.1142200306669838 0.21558464192252691 0 -0.12561387228043139 0.2024746700633191 0 -0.1105759612244477 0.22730263780677709 0 -0.109193919624043 0.22083027704760669 0 -0.1111561869161312 0.21486810847417889 0 -0.1142200306669838 0.21558464192252691 0 -0.12561387228043139 0.2024746700633191 0 -0.12856622905984061 0.20748296858694121 0 -0.1139046942575894 0.2274745404873082 0 -0.12856622905984061 0.20748296858694121 0 -0.12518995005972039 0.22037892014718141 0 -0.1139046942575894 0.2274745404873082 0 -0.12856622905984061 0.20748296858694121 0 -0.1139046942575894 0.2274745404873082 0 -0.1058301039265928 0.2180444533446412 0 -0.1111561869161312 0.21486810847417889 0 -0.1117168832440989 0.20834676864459251 0 -0.1111561869161312 0.21486810847417889 0 -0.1158169326112624 0.20987846771808741 0 -0.1117168832440989 0.20834676864459251 0 -0.1111561869161312 0.21486810847417889 0 -0.1142200306669838 0.21558464192252691 0 -0.1158169326112624 0.20987846771808741 0 -0.12561387228043139 0.2024746700633191 0 -0.1187251011390088 0.20457990560974559 0 -0.1158169326112624 0.20987846771808741 0 -0.12561387228043139 0.2024746700633191 0 -0.1142200306669838 0.21558464192252691 0 -0.1158169326112624 0.20987846771808741 0 -0.1034564582772723 0.2038725391210349 0 -0.1117168832440989 0.20834676864459251 0 -0.1156477839684736 0.19806704881900111 0 -0.1187251011390088 0.20457990560974559 0 -0.1117168832440989 0.20834676864459251 0 -0.1156477839684736 0.19806704881900111 0 -0.1187251011390088 0.20457990560974559 0 -0.1158169326112624 0.20987846771808741 0 -0.1117168832440989 0.20834676864459251 0 -0.1108848048673601 0.17748867680749009 0 -0.1156477839684736 0.19806704881900111 0 -0.1239027950853671 0.1995720447947209 0 -0.1108848048673601 0.17748867680749009 0 -0.1239027950853671 0.1995720447947209 0 -0.1108848048673601 0.17748867680749009 0 -0.1034564582772723 0.2038725391210349 0 -0.1156477839684736 0.19806704881900111 0 -0.1156477839684736 0.19806704881900111 0 -0.1239027950853671 0.1995720447947209 0 -0.1187251011390088 0.20457990560974559 0 -0.1156477839684736 0.19806704881900111 0 -0.12143470068175979 0.20192050939251741 0 -0.1156477839684736 0.19806704881900111 0 -0.1239027950853671 0.1995720447947209 0 -0.12143470068175979 0.20192050939251741 0 -0.1251590247121013 0.19627399988664609 0 -0.1239027950853671 0.1995720447947209 0 -0.1225633501356287 0.19376238021602041 0 -0.12561387228043139 0.2024746700633191 0 -0.1239027950853671 0.1995720447947209 0 -0.12561387228043139 0.2024746700633191 0 -0.1239027950853671 0.1995720447947209 0 -0.12143470068175979 0.20192050939251741 0 -0.12561387228043139 0.2024746700633191 0 -0.1187251011390088 0.20457990560974559 0 -0.12143470068175979 0.20192050939251741 0 -0.1167045709858628 0.1848355968010037 0 -0.1239027950853671 0.1995720447947209 0 -0.1225633501356287 0.19376238021602041 0 -0.1167045709858628 0.1848355968010037 0 -0.1217120552874158 0.1903014579675949 0 -0.1225633501356287 0.19376238021602041 0 -0.1217120552874158 0.1903014579675949 0 -0.123840192590372 0.1894468383904632 0 -0.1207822719795054 0.18769057480619419 0 -0.1228778617929292 0.18587332667333609 0 -0.123840192590372 0.1894468383904632 0 -0.1207822719795054 0.18769057480619419 0 -0.1217120552874158 0.1903014579675949 0 -0.123840192590372 0.1894468383904632 0 -0.1243519374489804 0.1930451155231741 0 -0.1251590247121013 0.19627399988664609 0 -0.1243519374489804 0.1930451155231741 0 -0.1225633501356287 0.19376238021602041 0 -0.1217120552874158 0.1903014579675949 0 -0.1243519374489804 0.1930451155231741 0 -0.1225633501356287 0.19376238021602041 0 -0.1167045709858628 0.1848355968010037 0 -0.1217120552874158 0.1903014579675949 0 -0.1207822719795054 0.18769057480619419 0 -0.099168415932375575 0.18581099564308379 0 -0.1034564582772723 0.2038725391210349 0 -0.094518140767726938 0.19279314946391901 0 -0.1108848048673601 0.17748867680749009 0 -0.1034564582772723 0.2038725391210349 0 -0.1034564582772723 0.2038725391210349 0 -0.094518140767726938 0.19279314946391901 0 -0.085094972607406671 0.20308165422200419 0 -0.1054895976094383 0.18090212746949461 0 -0.099168415932375575 0.18581099564308379 0 -0.1034564582772723 0.2038725391210349 0 -0.090150027434366883 0.1750239765376117 0 -0.094518140767726938 0.19279314946391901 0 -0.085094972607406671 0.20308165422200419 0 -0.090150027434366883 0.1750239765376117 0 -0.085094972607406671 0.20308165422200419 0 -0.066953595966483981 0.1900285399572241 0 -0.067329761930360998 0.21669930990476069 0 -0.055606290277018168 0.19857517545272471 0 -0.074706236364089795 0.17658115859678139 0 -0.085094972607406671 0.20308165422200419 0 -0.066953595966483981 0.1900285399572241 0 -0.066953595966483981 0.1900285399572241 0 -0.067329761930360998 0.21669930990476069 0 -0.085094972607406671 0.20308165422200419 0 -0.066953595966483981 0.1900285399572241 0 -0.067329761930360998 0.21669930990476069 0 -0.085094972607406671 0.20308165422200419 0 -0.067329761930360998 0.21669930990476069 0 -0.080039917780446473 0.23113933190639671 0 -0.085094972607406671 0.20308165422200419 0 -0.080039917780446473 0.23113933190639671 0 -0.1034564582772723 0.2038725391210349 0 -0.085094972607406671 0.20308165422200419 0 -0.091154865088077575 0.21708748167100389 0 -0.085094972607406671 0.20308165422200419 0 -0.091154865088077575 0.21708748167100389 0 -0.080039917780446473 0.23113933190639671 0 -0.096028111687184919 0.23025640143457979 0 -0.091154865088077575 0.21708748167100389 0 -0.080039917780446473 0.23113933190639671 0 -0.067329761930360998 0.21669930990476069 0 -0.067705927894238002 0.24337007985229739 0 -0.056334419687719711 0.22664689205727331 0 -0.067329761930360998 0.21669930990476069 0 -0.080039917780446473 0.23113933190639671 0 -0.067705927894238002 0.24337007985229739 0 -0.067329761930360998 0.21669930990476069 0 -0.067705927894238002 0.24337007985229739 0 -0.074984862953486289 0.25919700959078901 0 -0.080039917780446473 0.23113933190639671 0 -0.067705927894238002 0.24337007985229739 0 -0.074984862953486289 0.25919700959078901 0 -0.080039917780446473 0.23113933190639671 0 -0.088599765097097563 0.25664026374812482 0 -0.096028111687184919 0.23025640143457979 0 -0.088599765097097563 0.25664026374812482 0 -0.074984862953486289 0.25919700959078901 0 -0.080039917780446473 0.23113933190639671 0 -0.088599765097097563 0.25664026374812482 0 -0.096028111687184919 0.23025640143457979 0 -0.080039917780446473 0.23113933190639671 0 -0.031272499591258017 0.25477444414791872 0 -0.047198255610383807 0.23921874466869039 0 -0.02730234660756364 0.23781323143320901 0 -0.058467767652961238 0.25597873255923048 0 -0.067705927894238002 0.24337007985229739 0 -0.047198255610383807 0.23921874466869039 0 -0.067705927894238002 0.24337007985229739 0 -0.047198255610383807 0.23921874466869039 0 -0.056334419687719711 0.22664689205727331 0 -0.047198255610383807 0.23921874466869039 0 -0.056334419687719711 0.22664689205727331 0 -0.045431592455719413 0.2200062932294222 0 -0.067329761930360998 0.21669930990476069 0 -0.056334419687719711 0.22664689205727331 0 -0.054006560547896328 0.21394003263119571 0 -0.056334419687719711 0.22664689205727331 0 -0.045431592455719413 0.2200062932294222 0 -0.054006560547896328 0.21394003263119571 0 -0.047198255610383807 0.23921874466869039 0 -0.033521002676867917 0.22515321668946309 0 -0.02730234660756364 0.23781323143320901 0 -0.047198255610383807 0.23921874466869039 0 -0.045431592455719413 0.2200062932294222 0 -0.033521002676867917 0.22515321668946309 0 -0.045431592455719413 0.2200062932294222 0 -0.033521002676867917 0.22515321668946309 0 -0.034322883146298437 0.21242064690538279 0 -0.034322883146298437 0.21242064690538279 0 -0.038146669974014037 0.20444278746410649 0 -0.032524277814271467 0.1999014896790158 0 -0.034322883146298437 0.21242064690538279 0 -0.038146669974014037 0.20444278746410649 0 -0.044780637682864853 0.20741487717943499 0 -0.038146669974014037 0.20444278746410649 0 -0.044780637682864853 0.20741487717943499 0 -0.040958881252621378 0.19803413609259249 0 -0.045431592455719413 0.2200062932294222 0 -0.034322883146298437 0.21242064690538279 0 -0.044780637682864853 0.20741487717943499 0 -0.067329761930360998 0.21669930990476069 0 -0.054006560547896328 0.21394003263119571 0 -0.055606290277018168 0.19857517545272471 0 -0.045431592455719413 0.2200062932294222 0 -0.044780637682864853 0.20741487717943499 0 -0.054006560547896328 0.21394003263119571 0 -0.044780637682864853 0.20741487717943499 0 -0.054006560547896328 0.21394003263119571 0 -0.055606290277018168 0.19857517545272471 0 -0.044780637682864853 0.20741487717943499 0 -0.055606290277018168 0.19857517545272471 0 -0.040958881252621378 0.19803413609259249 0 -0.066953595966483981 0.1900285399572241 0 -0.055606290277018168 0.19857517545272471 0 -0.055102122334055439 0.17413530302169811 0 -0.032023837568338452 0.19744556210397551 0 -0.043562979951197907 0.1857904325628377 0 -0.0284707319470308 0.18000857508442469 0 -0.055606290277018168 0.19857517545272471 0 -0.040958881252621378 0.19803413609259249 0 -0.043562979951197907 0.1857904325628377 0 -0.040958881252621378 0.19803413609259249 0 -0.032524277814271467 0.1999014896790158 0 -0.032023837568338452 0.19744556210397551 0 -0.038146669974014037 0.20444278746410649 0 -0.040958881252621378 0.19803413609259249 0 -0.032524277814271467 0.1999014896790158 0 -0.032524277814271467 0.1999014896790158 0 -0.032023837568338452 0.19744556210397551 0 -0.032023837568338452 0.19744556210397551 0 -0.043562979951197907 0.1857904325628377 0 -0.040958881252621378 0.19803413609259249 0 -0.032023837568338452 0.19744556210397551 0 -0.043562979951197907 0.1857904325628377 0 -0.032023837568338452 0.19744556210397551 0 -0.0059898305664214668 0.18940844223386299 0 -0.013349935564374259 0.21630716721061111 0 -0.032023837568338452 0.19744556210397551 0 -0.0284707319470308 0.18000857508442469 0 -0.032023837568338452 0.19744556210397551 0 -0.0059898305664214668 0.18940844223386299 0 -0.0284707319470308 0.18000857508442469 0 -0.0059898305664214668 0.18940844223386299 0 -0.013349935564374259 0.21630716721061111 0 0.0057826877994054679 0.2114542682360398 0 -0.034322883146298437 0.21242064690538279 0 -0.032524277814271467 0.1999014896790158 0 -0.013349935564374259 0.21630716721061111 0 -0.032524277814271467 0.1999014896790158 0 -0.032023837568338452 0.19744556210397551 0 -0.013349935564374259 0.21630716721061111 0 -0.033521002676867917 0.22515321668946309 0 -0.034322883146298437 0.21242064690538279 0 -0.013349935564374259 0.21630716721061111 0 -0.032023837568338452 0.19744556210397551 0 -0.013349935564374259 0.21630716721061111 0 -0.033521002676867917 0.22515321668946309 0 -0.013349935564374259 0.21630716721061111 0 -0.02730234660756364 0.23781323143320901 0 -0.013349935564374259 0.21630716721061111 0 -0.02730234660756364 0.23781323143320901 0 0.001483186948090515 0.24423222142217099 0 -0.013349935564374259 0.21630716721061111 0 0.001483186948090515 0.24423222142217099 0 0.01109054375473368 0.22754028581011931 0 -0.01212371819299778 0.26143575943564978 0 -0.02730234660756364 0.23781323143320901 0 0.001483186948090515 0.24423222142217099 0 -0.01212371819299778 0.26143575943564978 0 -0.02730234660756364 0.23781323143320901 0 -0.037761405121112493 0.13989103919479681 0 -0.040976952509121242 0.16081259838819351 0 -0.03120120122193288 0.15183781817556349 0 -0.037761405121112493 0.13989103919479681 0 -0.054648295075891452 0.1521357283761415 0 -0.040976952509121242 0.16081259838819351 0 -0.037761405121112493 0.13989103919479681 0 -0.054302089386236277 0.1353531800048921 0 -0.037761405121112493 0.13989103919479681 0 -0.040230464812550167 0.1270787392722682 0 -0.027131757492301439 0.13356020276235669 0 -0.037761405121112493 0.13989103919479681 0 -0.040230464812550167 0.1270787392722682 0 -0.054302089386236277 0.1353531800048921 0 -0.040230464812550167 0.1270787392722682 0 -0.027131757492301439 0.13356020276235669 0 -0.029204813257736491 0.1239577148281069 0 -0.065554331043303285 0.1458319713178135 0 -0.054302089386236277 0.1353531800048921 0 -0.054648295075891452 0.1521357283761415 0 -0.037761405121112493 0.13989103919479681 0 -0.054302089386236277 0.1353531800048921 0 -0.054648295075891452 0.1521357283761415 0 -0.063991808002728995 0.16515626154611701 0 -0.065554331043303285 0.1458319713178135 0 -0.054648295075891452 0.1521357283761415 0 -0.054302089386236277 0.1353531800048921 0 -0.054648295075891452 0.1521357283761415 0 -0.054648295075891452 0.1521357283761415 0 -0.054994500765547981 0.16891827674739079 0 -0.063991808002728995 0.16515626154611701 0 -0.054648295075891452 0.1521357283761415 0 -0.054994500765547981 0.16891827674739079 0 -0.054648295075891452 0.1521357283761415 0 -0.054994500765547981 0.16891827674739079 0 -0.040976952509121242 0.16081259838819351 0 -0.063991808002728995 0.16515626154611701 0 -0.054994500765547981 0.16891827674739079 0 -0.063991808002728995 0.16515626154611701 0 -0.055102122334055439 0.17413530302169811 0 -0.063991808002728995 0.16515626154611701 0 -0.054994500765547981 0.16891827674739079 0 -0.055102122334055439 0.17413530302169811 0 -0.054994500765547981 0.16891827674739079 0 -0.055102122334055439 0.17413530302169811 0 -0.054994500765547981 0.16891827674739079 0 -0.055102122334055439 0.17413530302169811 0 -0.043562979951197907 0.1857904325628377 0 -0.063991808002728995 0.16515626154611701 0 -0.066953595966483981 0.1900285399572241 0 -0.055102122334055439 0.17413530302169811 0 -0.055606290277018168 0.19857517545272471 0 -0.055102122334055439 0.17413530302169811 0 -0.043562979951197907 0.1857904325628377 0 -0.055606290277018168 0.19857517545272471 0 -0.055102122334055439 0.17413530302169811 0 -0.055102122334055439 0.17413530302169811 0 -0.043562979951197907 0.1857904325628377 0 -0.054994500765547981 0.16891827674739079 0 -0.0284707319470308 0.18000857508442469 0 -0.054994500765547981 0.16891827674739079 0 -0.043562979951197907 0.1857904325628377 0 -0.0284707319470308 0.18000857508442469 0 -0.040976952509121242 0.16081259838819351 0 -0.024845726401509421 0.16221873673456291 0 -0.03120120122193288 0.15183781817556349 0 -0.040976952509121242 0.16081259838819351 0 -0.024845726401509421 0.16221873673456291 0 -0.0284707319470308 0.18000857508442469 0 -0.054994500765547981 0.16891827674739079 0 -0.040976952509121242 0.16081259838819351 0 -0.0284707319470308 0.18000857508442469 0 -0.024845726401509421 0.16221873673456291 0 -0.0284707319470308 0.18000857508442469 0 -0.0093312842145069977 0.169866933004161 0 -0.024845726401509421 0.16221873673456291 0 -0.0284707319470308 0.18000857508442469 0 -0.024845726401509421 0.16221873673456291 0 -0.013514057263457689 0.15678332667445671 0 -0.0093312842145069977 0.169866933004161 0 -0.0059898305664214668 0.18940844223386299 0 -0.0284707319470308 0.18000857508442469 0 -0.0059898305664214668 0.18940844223386299 0 -0.0284707319470308 0.18000857508442469 0 -0.0093312842145069977 0.169866933004161 0 -0.0059898305664214668 0.18940844223386299 0 -0.0093312842145069977 0.169866933004161 0 0.0090081296722899044 0.16688860360646721 0 -0.013514057263457689 0.15678332667445671 0 -0.0093312842145069977 0.169866933004161 0 0.001341502418174028 0.150618738574402 0 -0.021220720855988539 0.14442889838470091 0 0.001341502418174028 0.150618738574402 0 -0.019108555674718149 0.14420228498233759 0 -0.0057503417817727212 0.13944114791140641 0 0.001341502418174028 0.150618738574402 0 -0.021220720855988539 0.14442889838470091 0 -0.019108555674718149 0.14420228498233759 0 0.001341502418174028 0.150618738574402 0 -0.013514057263457689 0.15678332667445671 0 -0.021220720855988539 0.14442889838470091 0 0.001341502418174028 0.150618738574402 0 -0.0057503417817727212 0.13944114791140641 0 0.001549945093408776 0.13534065292426151 0 0.001341502418174028 0.150618738574402 0 -0.024845726401509421 0.16221873673456291 0 -0.013514057263457689 0.15678332667445671 0 -0.021220720855988539 0.14442889838470091 0 -0.037761405121112493 0.13989103919479681 0 -0.021220720855988539 0.14442889838470091 0 -0.03120120122193288 0.15183781817556349 0 -0.024845726401509421 0.16221873673456291 0 -0.021220720855988539 0.14442889838470091 0 -0.03120120122193288 0.15183781817556349 0 -0.024845726401509421 0.16221873673456291 0 -0.021220720855988539 0.14442889838470091 0 -0.037761405121112493 0.13989103919479681 0 -0.021220720855988539 0.14442889838470091 0 -0.021220720855988539 0.14442889838470091 0 -0.027131757492301439 0.13356020276235669 0 -0.017439213607891479 0.1258710225917673 0 -0.021220720855988539 0.14442889838470091 0 -0.017439213607891479 0.1258710225917673 0 -0.021220720855988539 0.14442889838470091 0 -0.019108555674718149 0.14420228498233759 0 -0.017439213607891479 0.1258710225917673 0 -0.037761405121112493 0.13989103919479681 0 -0.021220720855988539 0.14442889838470091 0 -0.027131757492301439 0.13356020276235669 0 -0.027131757492301439 0.13356020276235669 0 -0.017439213607891479 0.1258710225917673 0 -0.029204813257736491 0.1239577148281069 0 -0.019108555674718149 0.14420228498233759 0 -0.017439213607891479 0.1258710225917673 0 -0.0090544505547738435 0.12940409907024431 0 -0.019108555674718149 0.14420228498233759 0 -0.0090544505547738435 0.12940409907024431 0 -0.019108555674718149 0.14420228498233759 0 -0.0090544505547738435 0.12940409907024431 0 -0.0057503417817727212 0.13944114791140641 0 -0.0090544505547738435 0.12940409907024431 0 -0.0057503417817727212 0.13944114791140641 0 0.001549945093408776 0.13534065292426151 0 -0.0090544505547738435 0.12940409907024431 0 0.00177563255411836 0.1276579872274072 0 0.001549945093408776 0.13534065292426151 0 -0.0090544505547738435 0.12940409907024431 0 0.00099965456517074505 0.1146059131581513 0 -0.017439213607891479 0.1258710225917673 0 -0.01365770635979458 0.10731314679883359 0 -0.017439213607891479 0.1258710225917673 0 -0.010519290782334651 0.118110452914827 0 -0.01365770635979458 0.10731314679883359 0 -0.0090544505547738435 0.12940409907024431 0 0.00099965456517074505 0.1146059131581513 0 0.00177563255411836 0.1276579872274072 0 -0.0090544505547738435 0.12940409907024431 0 -0.0054734740103342481 0.1163196023870169 0 0.00099965456517074505 0.1146059131581513 0 -0.0090544505547738435 0.12940409907024431 0 -0.010519290782334651 0.118110452914827 0 -0.0054734740103342481 0.1163196023870169 0 -0.017439213607891479 0.1258710225917673 0 -0.0090544505547738435 0.12940409907024431 0 -0.010519290782334651 0.118110452914827 0 -0.010519290782334651 0.118110452914827 0 -0.0081944485932713817 0.1118793942763773 0 -0.01365770635979458 0.10731314679883359 0 -0.010519290782334651 0.118110452914827 0 -0.0081944485932713817 0.1118793942763773 0 -0.0054734740103342481 0.1163196023870169 0 -0.0081944485932713817 0.1118793942763773 0 -0.0049485843888907692 0.112061064340764 0 -0.0048313564210565093 0.1085494105031784 0 -0.0081944485932713817 0.1118793942763773 0 -0.0049485843888907692 0.112061064340764 0 -0.0054734740103342481 0.1163196023870169 0 -0.0054734740103342481 0.1163196023870169 0 -0.001295058530900936 0.1114958501964836 0 0.00099965456517074505 0.1146059131581513 0 -0.0049485843888907692 0.112061064340764 0 -0.0054734740103342481 0.1163196023870169 0 -0.001295058530900936 0.1114958501964836 0 -0.0049485843888907692 0.112061064340764 0 -0.001295058530900936 0.1114958501964836 0 -0.0048313564210565093 0.1085494105031784 0 -0.001295058530900936 0.1114958501964836 0 0.00099965456517074505 0.1146059131581513 0 -0.001295058530900936 0.1114958501964836 0 -0.0048313564210565093 0.1085494105031784 0 0.00078969335507287882 0.10413348976556761 0 -0.0058637234247034924 0.10220731123963819 0 -0.0048313564210565093 0.1085494105031784 0 0.00078969335507287882 0.10413348976556761 0 -0.0058637234247034924 0.10220731123963819 0 -0.0048313564210565093 0.1085494105031784 0 -0.0088215093360076227 0.10650398163671861 0 -0.0081944485932713817 0.1118793942763773 0 -0.0048313564210565093 0.1085494105031784 0 -0.0088215093360076227 0.10650398163671861 0 -0.0012073870594738749 0.094543552819019383 0 -0.0083581936167031745 0.09679644863993761 0 -0.0092928581658782601 0.089931110555192928 0 -0.0058637234247034924 0.10220731123963819 0 -0.0012073870594738749 0.094543552819019383 0 0.00078969335507287882 0.10413348976556761 0 -0.0058637234247034924 0.10220731123963819 0 -0.0012073870594738749 0.094543552819019383 0 -0.0083581936167031745 0.09679644863993761 0 -0.0083581936167031745 0.09679644863993761 0 -0.01353809319171829 0.096515344126283723 0 -0.0092928581658782601 0.089931110555192928 0 -0.0083581936167031745 0.09679644863993761 0 -0.01353809319171829 0.096515344126283723 0 -0.011560311881212161 0.1025706453655654 0 -0.0058637234247034924 0.10220731123963819 0 -0.0083581936167031745 0.09679644863993761 0 -0.011560311881212161 0.1025706453655654 0 -0.01353809319171829 0.096515344126283723 0 -0.011560311881212161 0.1025706453655654 0 -0.018506665070699691 0.1091025774109026 0 -0.0081944485932713817 0.1118793942763773 0 -0.0088215093360076227 0.10650398163671861 0 -0.01365770635979458 0.10731314679883359 0 -0.0088215093360076227 0.10650398163671861 0 -0.011560311881212161 0.1025706453655654 0 -0.01365770635979458 0.10731314679883359 0 -0.0058637234247034924 0.10220731123963819 0 -0.0088215093360076227 0.10650398163671861 0 -0.011560311881212161 0.1025706453655654 0 -0.011560311881212161 0.1025706453655654 0 -0.01365770635979458 0.10731314679883359 0 -0.018506665070699691 0.1091025774109026 0 -0.018506665070699691 0.1091025774109026 0 -0.01641620471277646 0.091598869646576875 0 -0.02227270596860802 0.083487227864690733 0 -0.018506665070699691 0.1091025774109026 0 -0.025677010923277899 0.1163168116196263 0 -0.035812138847282349 0.1009621039146522 0 -0.01353809319171829 0.096515344126283723 0 -0.018506665070699691 0.1091025774109026 0 -0.01641620471277646 0.091598869646576875 0 -0.018506665070699691 0.1091025774109026 0 -0.02227270596860802 0.083487227864690733 0 -0.018506665070699691 0.1091025774109026 0 -0.02227270596860802 0.083487227864690733 0 -0.035812138847282349 0.1009621039146522 0 -0.017439213607891479 0.1258710225917673 0 -0.018506665070699691 0.1091025774109026 0 -0.025677010923277899 0.1163168116196263 0 -0.017439213607891479 0.1258710225917673 0 -0.01365770635979458 0.10731314679883359 0 -0.018506665070699691 0.1091025774109026 0 -0.017439213607891479 0.1258710225917673 0 -0.025677010923277899 0.1163168116196263 0 -0.029204813257736491 0.1239577148281069 0 -0.025677010923277899 0.1163168116196263 0 -0.029204813257736491 0.1239577148281069 0 -0.035545619452661471 0.1169617978945157 0 -0.0056904494366420864 0.071398209655099118 0 -0.01459982833487624 0.083378209188659486 0 -0.01378881873778989 0.058521944981033372 0 -0.01459982833487624 0.083378209188659486 0 -0.01378881873778989 0.058521944981033372 0 -0.0056904494366420864 0.071398209655099118 0 -0.00076854274001728236 0.060520223081313267 0 0.003679002994223014 0.072796849914509645 0 -0.0056904494366420864 0.071398209655099118 0 -0.00076854274001728236 0.060520223081313267 0 -0.01378881873778989 0.058521944981033372 0 -0.0056904494366420864 0.071398209655099118 0 -0.002487200554776445 0.083254376011519304 0 0.003679002994223014 0.072796849914509645 0 -0.01459982833487624 0.083378209188659486 0 -0.002487200554776445 0.083254376011519304 0 -0.0092928581658782601 0.089931110555192928 0 -0.0056904494366420864 0.071398209655099118 0 -0.01459982833487624 0.083378209188659486 0 -0.002487200554776445 0.083254376011519304 0 -0.0012073870594738749 0.094543552819019383 0 -0.002487200554776445 0.083254376011519304 0 -0.0092928581658782601 0.089931110555192928 0 -0.01459982833487624 0.083378209188659486 0 -0.0092928581658782601 0.089931110555192928 0 -0.01641620471277646 0.091598869646576875 0 -0.01353809319171829 0.096515344126283723 0 -0.0092928581658782601 0.089931110555192928 0 -0.01641620471277646 0.091598869646576875 0 -0.02227270596860802 0.083487227864690733 0 -0.035653420348495182 0.073811195158406506 0 -0.035812138847282349 0.1009621039146522 0 -0.01459982833487624 0.083378209188659486 0 -0.01641620471277646 0.091598869646576875 0 -0.02227270596860802 0.083487227864690733 0 -0.01459982833487624 0.083378209188659486 0 -0.02227270596860802 0.083487227864690733 0 -0.018901057231554951 0.070810408038540607 0 -0.02227270596860802 0.083487227864690733 0 -0.018901057231554951 0.070810408038540607 0 -0.026038746866516371 0.057871878318478863 0 -0.02227270596860802 0.083487227864690733 0 -0.035653420348495182 0.073811195158406506 0 -0.026038746866516371 0.057871878318478863 0 -0.02227270596860802 0.083487227864690733 0 -0.026038746866516371 0.057871878318478863 0 -0.01459982833487624 0.083378209188659486 0 -0.018901057231554951 0.070810408038540607 0 -0.01378881873778989 0.058521944981033372 0 -0.035653420348495182 0.073811195158406506 0 -0.043937562344425772 0.060139634332166007 0 -0.026038746866516371 0.057871878318478863 0 -0.035653420348495182 0.073811195158406506 0 -0.051974126211656847 0.079668401332968167 0 -0.043937562344425772 0.060139634332166007 0 -0.035653420348495182 0.073811195158406506 0 -0.051974126211656847 0.079668401332968167 0 -0.035812138847282349 0.1009621039146522 0 -0.051974126211656847 0.079668401332968167 0 -0.035812138847282349 0.1009621039146522 0 -0.051974126211656847 0.079668401332968167 0 -0.057823601974180461 0.094462520291455687 0 -0.073758814297506414 0.080158947574001216 0 -0.051974126211656847 0.079668401332968167 0 -0.035812138847282349 0.1009621039146522 0 -0.057823601974180461 0.094462520291455687 0 -0.051974126211656847 0.079668401332968167 0 -0.068136113576031374 0.058374698751284079 0 -0.043937562344425772 0.060139634332166007 0 -0.051974126211656847 0.079668401332968167 0 -0.068136113576031374 0.058374698751284079 0 -0.040230464812550167 0.1270787392722682 0 -0.035545619452661471 0.1169617978945157 0 -0.053772663555373981 0.1096889148557465 0 -0.025677010923277899 0.1163168116196263 0 -0.035545619452661471 0.1169617978945157 0 -0.035812138847282349 0.1009621039146522 0 -0.040230464812550167 0.1270787392722682 0 -0.029204813257736491 0.1239577148281069 0 -0.035545619452661471 0.1169617978945157 0 -0.035545619452661471 0.1169617978945157 0 -0.035812138847282349 0.1009621039146522 0 -0.053772663555373981 0.1096889148557465 0 -0.035812138847282349 0.1009621039146522 0 -0.057823601974180461 0.094462520291455687 0 -0.053772663555373981 0.1096889148557465 0 -0.057823601974180461 0.094462520291455687 0 -0.053772663555373981 0.1096889148557465 0 -0.073800266959082733 0.1018342337799102 0 -0.054302089386236277 0.1353531800048921 0 -0.053772663555373981 0.1096889148557465 0 -0.071938873559342614 0.1170975000773026 0 -0.054302089386236277 0.1353531800048921 0 -0.053772663555373981 0.1096889148557465 0 -0.040230464812550167 0.1270787392722682 0 -0.054302089386236277 0.1353531800048921 0 -0.053772663555373981 0.1096889148557465 0 -0.053772663555373981 0.1096889148557465 0 -0.071938873559342614 0.1170975000773026 0 -0.073800266959082733 0.1018342337799102 0 -0.071938873559342614 0.1170975000773026 0 -0.08399906800761256 0.1151431591143479 0 -0.073800266959082733 0.1018342337799102 0 -0.085657834793980578 0.12803155850605749 0 -0.071938873559342614 0.1170975000773026 0 -0.08399906800761256 0.1151431591143479 0 -0.10197270748872241 0.1267935922150063 0 -0.085657834793980578 0.12803155850605749 0 -0.093261474276432513 0.11810962813566279 0 -0.08399906800761256 0.1151431591143479 0 -0.093261474276432513 0.11810962813566279 0 -0.09131011277859985 0.10487563945531039 0 -0.085657834793980578 0.12803155850605749 0 -0.08399906800761256 0.1151431591143479 0 -0.093261474276432513 0.11810962813566279 0 -0.09131011277859985 0.10487563945531039 0 -0.073800266959082733 0.1018342337799102 0 -0.085219276471512062 0.092162758726182181 0 -0.08399906800761256 0.1151431591143479 0 -0.09131011277859985 0.10487563945531039 0 -0.073800266959082733 0.1018342337799102 0 -0.09131011277859985 0.10487563945531039 0 -0.085219276471512062 0.092162758726182181 0 -0.099023780850517149 0.096025270394124576 0 -0.057823601974180461 0.094462520291455687 0 -0.073800266959082733 0.1018342337799102 0 -0.073758814297506414 0.080158947574001216 0 -0.073800266959082733 0.1018342337799102 0 -0.073758814297506414 0.080158947574001216 0 -0.085219276471512062 0.092162758726182181 0 -0.051974126211656847 0.079668401332968167 0 -0.073758814297506414 0.080158947574001216 0 -0.068136113576031374 0.058374698751284079 0 -0.073758814297506414 0.080158947574001216 0 -0.087768522006335919 0.057655565200504487 0 -0.068136113576031374 0.058374698751284079 0 -0.073758814297506414 0.080158947574001216 0 -0.095351984902963816 0.07888848068747191 0 -0.087768522006335919 0.057655565200504487 0 -0.085219276471512062 0.092162758726182181 0 -0.095351984902963816 0.07888848068747191 0 -0.099023780850517149 0.096025270394124576 0 -0.073758814297506414 0.080158947574001216 0 -0.085219276471512062 0.092162758726182181 0 -0.095351984902963816 0.07888848068747191 0 -0.095351984902963816 0.07888848068747191 0 -0.1080389009911166 0.086986372832948286 0 -0.1110984088867065 0.074917254770469566 0 -0.095351984902963816 0.07888848068747191 0 -0.1080389009911166 0.086986372832948286 0 -0.099023780850517149 0.096025270394124576 0 -0.1080389009911166 0.086986372832948286 0 -0.1135081405557791 0.096050027480989744 0 -0.099023780850517149 0.096025270394124576 0 -0.095351984902963816 0.07888848068747191 0 -0.1031811066177879 0.063422096246301962 0 -0.1110984088867065 0.074917254770469566 0 -0.095351984902963816 0.07888848068747191 0 -0.1031811066177879 0.063422096246301962 0 -0.087768522006335919 0.057655565200504487 0 -0.1110984088867065 0.074917254770469566 0 -0.1219127181441811 0.074779163056888004 0 -0.1183593009975942 0.060981481051490129 0 -0.1031811066177879 0.063422096246301962 0 -0.1110984088867065 0.074917254770469566 0 -0.1183593009975942 0.060981481051490129 0 -0.1110984088867065 0.074917254770469566 0 -0.1219127181441811 0.074779163056888004 0 -0.1197464416665952 0.084445934747717097 0 -0.12847122931144669 0.068308987111290964 0 -0.1219127181441811 0.074779163056888004 0 -0.1183593009975942 0.060981481051490129 0 -0.1080389009911166 0.086986372832948286 0 -0.1197464416665952 0.084445934747717097 0 -0.1135081405557791 0.096050027480989744 0 -0.1080389009911166 0.086986372832948286 0 -0.1110984088867065 0.074917254770469566 0 -0.1197464416665952 0.084445934747717097 0 -0.12847956461223781 0.079150370737465739 0 -0.1219127181441811 0.074779163056888004 0 -0.1197464416665952 0.084445934747717097 0 -0.1197464416665952 0.084445934747717097 0 -0.1212534379147055 0.094295780105182372 0 -0.1135081405557791 0.096050027480989744 0 -0.13079601220472761 0.089074900642570745 0 -0.1197464416665952 0.084445934747717097 0 -0.1212534379147055 0.094295780105182372 0 -0.1212534379147055 0.094295780105182372 0 -0.1135081405557791 0.096050027480989744 0 -0.1209631572317201 0.1076122575494519 0 -0.13079601220472761 0.089074900642570745 0 -0.1212534379147055 0.094295780105182372 0 -0.1209631572317201 0.1076122575494519 0 -0.1135081405557791 0.096050027480989744 0 -0.1209631572317201 0.1076122575494519 0 -0.1037527923487807 0.10884876059194069 0 -0.1113427890893554 0.12574902437050101 0 -0.1209631572317201 0.1076122575494519 0 -0.10197270748872241 0.1267935922150063 0 -0.1209631572317201 0.1076122575494519 0 -0.1113427890893554 0.12574902437050101 0 -0.1209631572317201 0.1076122575494519 0 -0.1235406269920306 0.1203910755838738 0 -0.1113427890893554 0.12574902437050101 0 -0.10197270748872241 0.1267935922150063 0 -0.1209631572317201 0.1076122575494519 0 -0.10197270748872241 0.1267935922150063 0 -0.1209631572317201 0.1076122575494519 0 -0.1037527923487807 0.10884876059194069 0 -0.10197270748872241 0.1267935922150063 0 -0.093261474276432513 0.11810962813566279 0 -0.1037527923487807 0.10884876059194069 0 -0.093261474276432513 0.11810962813566279 0 -0.09131011277859985 0.10487563945531039 0 -0.1037527923487807 0.10884876059194069 0 -0.09131011277859985 0.10487563945531039 0 -0.099023780850517149 0.096025270394124576 0 -0.1037527923487807 0.10884876059194069 0 -0.1135081405557791 0.096050027480989744 0 -0.099023780850517149 0.096025270394124576 0 -0.1037527923487807 0.10884876059194069 0 -0.099612891804326184 -4.8910125942748517e-05 0 -0.1037965714104131 0.02642465464082374 0 -0.12099574399755469 0.013799954163340169 0 -0.099612891804326184 -4.8910125942748517e-05 0 -0.1037965714104131 0.02642465464082374 0 -0.087202593105003126 0.01727088738330447 0 -0.116021031496858 -0.0030501413286038019 0 -0.099612891804326184 -4.8910125942748517e-05 0 -0.12099574399755469 0.013799954163340169 0 -0.116021031496858 -0.0030501413286038019 0 -0.13389714270702699 -0.0020157165474106232 0 -0.12099574399755469 0.013799954163340169 0 -0.1037965714104131 0.02642465464082374 0 -0.12099574399755469 0.013799954163340169 0 -0.1208897171862591 0.03836638118014879 0 -0.1324933743925166 0.02607277243610517 0 -0.12099574399755469 0.013799954163340169 0 -0.1208897171862591 0.03836638118014879 0 -0.1329756956254857 0.056096376974921668 0 -0.1208897171862591 0.03836638118014879 0 -0.1183593009975942 0.060981481051490129 0 -0.1208897171862591 0.03836638118014879 0 -0.1183593009975942 0.060981481051490129 0 -0.103048886526466 0.047321862414811497 0 -0.1031811066177879 0.063422096246301962 0 -0.1183593009975942 0.060981481051490129 0 -0.103048886526466 0.047321862414811497 0 -0.1031811066177879 0.063422096246301962 0 -0.103048886526466 0.047321862414811497 0 -0.087768522006335919 0.057655565200504487 0 -0.1037965714104131 0.02642465464082374 0 -0.103048886526466 0.047321862414811497 0 -0.084298100940405962 0.037080996169599888 0 -0.1037965714104131 0.02642465464082374 0 -0.1208897171862591 0.03836638118014879 0 -0.103048886526466 0.047321862414811497 0 -0.103048886526466 0.047321862414811497 0 -0.084298100940405962 0.037080996169599888 0 -0.087768522006335919 0.057655565200504487 0 -0.084298100940405962 0.037080996169599888 0 -0.087768522006335919 0.057655565200504487 0 -0.068136113576031374 0.058374698751284079 0 -0.084298100940405962 0.037080996169599888 0 -0.068136113576031374 0.058374698751284079 0 -0.084298100940405962 0.037080996169599888 0 -0.064663438220894195 0.037178105835412277 0 -0.07070653061287506 0.020716576573984461 0 -0.084298100940405962 0.037080996169599888 0 -0.068136113576031374 0.058374698751284079 0 -0.064663438220894195 0.037178105835412277 0 -0.064663438220894195 0.037178105835412277 0 -0.07070653061287506 0.020716576573984461 0 -0.052338647488189519 0.02588989282658815 0 -0.1037965714104131 0.02642465464082374 0 -0.084298100940405962 0.037080996169599888 0 -0.087202593105003126 0.01727088738330447 0 -0.084298100940405962 0.037080996169599888 0 -0.07070653061287506 0.020716576573984461 0 -0.087202593105003126 0.01727088738330447 0 -0.07070653061287506 0.020716576573984461 0 -0.087202593105003126 0.01727088738330447 0 -0.077598870756995314 0.0021811196580569939 0 -0.099612891804326184 -4.8910125942748517e-05 0 -0.087202593105003126 0.01727088738330447 0 -0.077598870756995314 0.0021811196580569939 0 -0.099612891804326184 -4.8910125942748517e-05 0 -0.077598870756995314 0.0021811196580569939 0 -0.07070653061287506 0.020716576573984461 0 -0.077598870756995314 0.0021811196580569939 0 -0.055584849709664472 0.0044111494420567337 0 -0.077598870756995314 0.0021811196580569939 0 -0.055584849709664472 0.0044111494420567337 0 -0.07070653061287506 0.020716576573984461 0 -0.055584849709664472 0.0044111494420567337 0 -0.052338647488189519 0.02588989282658815 0 -0.055584849709664472 0.0044111494420567337 0 -0.052338647488189519 0.02588989282658815 0 -0.04282477840615305 0.017299687566741679 0 -0.052338647488189519 0.02588989282658815 0 -0.04282477840615305 0.017299687566741679 0 -0.029804787764424731 0.032256528772266847 0 -0.033570828662333463 0.0066411792260549652 0 -0.029804787764424731 0.032256528772266847 0 -0.04282477840615305 0.017299687566741679 0 -0.033570828662333463 0.0066411792260549652 0 -0.029804787764424731 0.032256528772266847 0 -0.055584849709664472 0.0044111494420567337 0 -0.04282477840615305 0.017299687566741679 0 -0.033570828662333463 0.0066411792260549652 0 -0.055584849709664472 0.0044111494420567337 0 -0.033570828662333463 0.0066411792260549652 0 -0.04684685896733061 -0.0071051417149440967 0 -0.055584849709664472 0.0044111494420567337 0 -0.033570828662333463 0.0066411792260549652 0 -0.068136113576031374 0.058374698751284079 0 -0.047837798486969077 0.043828364855604769 0 -0.043937562344425772 0.060139634332166007 0 -0.064663438220894195 0.037178105835412277 0 -0.052338647488189519 0.02588989282658815 0 -0.047837798486969077 0.043828364855604769 0 -0.068136113576031374 0.058374698751284079 0 -0.064663438220894195 0.037178105835412277 0 -0.047837798486969077 0.043828364855604769 0 -0.052338647488189519 0.02588989282658815 0 -0.047837798486969077 0.043828364855604769 0 -0.029804787764424731 0.032256528772266847 0 -0.047837798486969077 0.043828364855604769 0 -0.03690472386558398 0.048524101569629122 0 -0.029804787764424731 0.032256528772266847 0 -0.047837798486969077 0.043828364855604769 0 -0.03690472386558398 0.048524101569629122 0 -0.043937562344425772 0.060139634332166007 0 -0.03690472386558398 0.048524101569629122 0 -0.043937562344425772 0.060139634332166007 0 -0.026038746866516371 0.057871878318478863 0 -0.018901057231554951 0.070810408038540607 0 -0.026038746866516371 0.057871878318478863 0 -0.01378881873778989 0.058521944981033372 0 -0.026038746866516371 0.057871878318478863 0 -0.01997113150309136 0.045737220564081103 0 -0.01378881873778989 0.058521944981033372 0 -0.029804787764424731 0.032256528772266847 0 -0.01997113150309136 0.045737220564081103 0 -0.012977809140703549 0.033665680773407307 0 -0.026038746866516371 0.057871878318478863 0 -0.029804787764424731 0.032256528772266847 0 -0.01997113150309136 0.045737220564081103 0 -0.03690472386558398 0.048524101569629122 0 -0.026038746866516371 0.057871878318478863 0 -0.029804787764424731 0.032256528772266847 0 -0.026038746866516371 0.057871878318478863 0 -0.029804787764424731 0.032256528772266847 0 -0.012977809140703549 0.033665680773407307 0 -0.00067213728674947264 0.045851397773649757 0 -0.001425372148789937 0.02160125050794693 0 -0.01997113150309136 0.045737220564081103 0 -0.012977809140703549 0.033665680773407307 0 -0.01378881873778989 0.058521944981033372 0 -0.012977809140703549 0.033665680773407307 0 -0.00067213728674947264 0.045851397773649757 0 -0.01378881873778989 0.058521944981033372 0 -0.012977809140703549 0.033665680773407307 0 -0.01378881873778989 0.058521944981033372 0 -0.00067213728674947264 0.045851397773649757 0 -0.00076854274001728236 0.060520223081313267 0 -0.01378881873778989 0.058521944981033372 0 -0.033570828662333463 0.0066411792260549652 0 -0.012166799543617291 0.008809416565781221 0 -0.033570828662333463 0.0066411792260549652 0 -0.023192640083551239 0.002120344953082073 0 -0.012166799543617291 0.008809416565781221 0 -0.033570828662333463 0.0066411792260549652 0 -0.022130056277769761 0.02034320133437759 0 -0.012166799543617291 0.008809416565781221 0 -0.023192640083551239 0.002120344953082073 0 -0.012166799543617291 0.008809416565781221 0 -0.01200485669165644 0.0038461037648791219 0 -0.017329178786375941 -0.0021803977902141499 0 -0.023192640083551239 0.002120344953082073 0 -0.01200485669165644 0.0038461037648791219 0 -0.035647182059841263 -0.0074814815470068824 0 -0.033570828662333463 0.0066411792260549652 0 -0.023192640083551239 0.002120344953082073 0 -0.012977809140703549 0.033665680773407307 0 -0.022130056277769761 0.02034320133437759 0 -0.012166799543617291 0.008809416565781221 0 -0.033570828662333463 0.0066411792260549652 0 -0.029804787764424731 0.032256528772266847 0 -0.022130056277769761 0.02034320133437759 0 -0.029804787764424731 0.032256528772266847 0 -0.012977809140703549 0.033665680773407307 0 -0.022130056277769761 0.02034320133437759 0 -0.012977809140703549 0.033665680773407307 0 -0.001425372148789937 0.02160125050794693 0 -0.012166799543617291 0.008809416565781221 0 -0.012977809140703549 0.033665680773407307 0 -0.012166799543617291 0.008809416565781221 0 -0.001425372148789937 0.02160125050794693 0 -0.012166799543617291 0.008809416565781221 0 0.01166315411717637 0.01122340110320991 0 -0.012166799543617291 0.008809416565781221 0 0.01166315411717637 0.01122340110320991 0 -0.0076001321427136091 -0.00024994043009163151 0 -0.012166799543617291 0.008809416565781221 0 -0.01200485669165644 0.0038461037648791219 0 -0.012166799543617291 0.008809416565781221 0 -0.01200485669165644 0.0038461037648791219 0 -0.0076001321427136091 -0.00024994043009163151 0 -0.012166799543617291 0.008809416565781221 0 0.001543159741337678 0.0020358238033578099 0 0.01166315411717637 0.01122340110320991 0 0.001543159741337678 0.0020358238033578099 0 0.010658677065371989 -0.01247212120586009 0 -0.012166799543617291 0.008809416565781221 0 0.01166315411717637 0.01122340110320991 0 0.001543159741337678 0.0020358238033578099 0 0.01166315411717637 0.01122340110320991 0 0.01263328125199792 0.034108611994281599 0 -0.001425372148789937 0.02160125050794693 0 0.01166315411717637 0.01122340110320991 0 0.01263328125199792 0.034108611994281599 0 0.01166315411717637 0.01122340110320991 0 0.026034916777327059 0.027118891542865099 0 0.032157294962166481 0.013299466370141139 0 0.01166315411717637 0.01122340110320991 0 0.026034916777327059 0.027118891542865099 0 0.01263328125199792 0.034108611994281599 0 0.01166315411717637 0.01122340110320991 0 0.032157294962166481 0.013299466370141139 0 0.02299756951747272 -0.0020397452794008362 0 0.01166315411717637 0.01122340110320991 0 0.032157294962166481 0.013299466370141139 0 0.032157294962166481 0.013299466370141139 0 0.02299756951747272 -0.0020397452794008362 0 0.034763315700838397 -0.0035658680787951391 0 -0.00067213728674947264 0.045851397773649757 0 -0.00076854274001728236 0.060520223081313267 0 0.01360340838681919 0.056993822885353367 0 0.01360340838681919 0.056993822885353367 0 0.01263328125199792 0.034108611994281599 0 -0.00067213728674947264 0.045851397773649757 0 0.01360340838681919 0.056993822885353367 0 0.01263328125199792 0.034108611994281599 0 -0.00067213728674947264 0.045851397773649757 0 -0.001425372148789937 0.02160125050794693 0 0.01263328125199792 0.034108611994281599 0 0.026034916777327059 0.027118891542865099 0 0.01263328125199792 0.034108611994281599 0 0.032325773700560723 0.047118595195250988 0 0.01360340838681919 0.056993822885353367 0 0.01263328125199792 0.034108611994281599 0 0.032325773700560723 0.047118595195250988 0 0.01360340838681919 0.056993822885353367 0 0.032325773700560723 0.047118595195250988 0 0.034253944141133599 0.065660417398065551 0 0.041937394510123183 0.055625006371251652 0 0.032325773700560723 0.047118595195250988 0 0.050964937469836241 0.046804611388641393 0 0.041937394510123183 0.055625006371251652 0 0.050204922728962161 0.062916401503048697 0 0.034253944141133599 0.065660417398065551 0 0.041937394510123183 0.055625006371251652 0 0.032325773700560723 0.047118595195250988 0 0.034253944141133599 0.065660417398065551 0 0.032325773700560723 0.047118595195250988 0 0.040516742699314087 0.032309707875899978 0 0.050964937469836241 0.046804611388641393 0 0.026034916777327059 0.027118891542865099 0 0.032325773700560723 0.047118595195250988 0 0.040516742699314087 0.032309707875899978 0 0.040516742699314087 0.032309707875899978 0 0.051088891542343133 0.035897574012583623 0 0.048362409106564953 0.0266129069602399 0 0.040516742699314087 0.032309707875899978 0 0.051088891542343133 0.035897574012583623 0 0.050964937469836241 0.046804611388641393 0 0.051088891542343133 0.035897574012583623 0 0.048362409106564953 0.0266129069602399 0 0.063625273265470489 0.039543884745599993 0 0.050964937469836241 0.046804611388641393 0 0.063625273265470489 0.039543884745599993 0 0.063334383016456608 0.053131381146014803 0 0.051088891542343133 0.035897574012583623 0 0.050964937469836241 0.046804611388641393 0 0.063625273265470489 0.039543884745599993 0 0.050964937469836241 0.046804611388641393 0 0.065207253008567001 0.06884071490450798 0 0.050964937469836241 0.046804611388641393 0 0.064148210606739503 0.062464790595684563 0 0.063334383016456608 0.053131381146014803 0 0.050964937469836241 0.046804611388641393 0 0.064148210606739503 0.062464790595684563 0 0.065207253008567001 0.06884071490450798 0 0.041937394510123183 0.055625006371251652 0 0.050964937469836241 0.046804611388641393 0 0.050204922728962161 0.062916401503048697 0 0.050964937469836241 0.046804611388641393 0 0.065207253008567001 0.06884071490450798 0 0.050204922728962161 0.062916401503048697 0 0.032157294962166481 0.013299466370141139 0 0.045980657854386091 0.00068406954062421969 0 0.052651435807156942 0.01537553163706834 0 0.032157294962166481 0.013299466370141139 0 0.045980657854386091 0.00068406954062421969 0 0.034763315700838397 -0.0035658680787951391 0 0.032157294962166481 0.013299466370141139 0 0.052651435807156942 0.01537553163706834 0 0.032157294962166481 0.013299466370141139 0 0.048362409106564953 0.0266129069602399 0 0.052651435807156942 0.01537553163706834 0 0.040516742699314087 0.032309707875899978 0 0.032157294962166481 0.013299466370141139 0 0.048362409106564953 0.0266129069602399 0 0.026034916777327059 0.027118891542865099 0 0.040516742699314087 0.032309707875899978 0 0.032157294962166481 0.013299466370141139 0 0.055533304171140017 0.021722446515079791 0 0.063625273265470489 0.039543884745599993 0 0.048362409106564953 0.0266129069602399 0 0.055533304171140017 0.021722446515079791 0 0.052651435807156942 0.01537553163706834 0 0.055533304171140017 0.021722446515079791 0 0.066701519248568 0.026120454577297069 0 0.063625273265470489 0.039543884745599993 0 0.048362409106564953 0.0266129069602399 0 0.055533304171140017 0.021722446515079791 0 0.063625273265470489 0.039543884745599993 0 0.055533304171140017 0.021722446515079791 0 0.052651435807156942 0.01537553163706834 0 0.055533304171140017 0.021722446515079791 0 0.058782971729520947 0.015996658858631291 0 0.066701519248568 0.026120454577297069 0 0.055533304171140017 0.021722446515079791 0 0.058782971729520947 0.015996658858631291 0 0.052651435807156942 0.01537553163706834 0 0.055533304171140017 0.021722446515079791 0 0.058782971729520947 0.015996658858631291 0 0.058782971729520947 0.015996658858631291 0 0.052651435807156942 0.01537553163706834 0 0.058782971729520947 0.015996658858631291 0 0.056306301055715817 0.0035062028627736229 0 0.069079275787977124 -0.003283146202666887 0 0.058782971729520947 0.015996658858631291 0 0.052651435807156942 0.01537553163706834 0 0.056306301055715817 0.0035062028627736229 0 0.045980657854386091 0.00068406954062421969 0 0.052651435807156942 0.01537553163706834 0 0.045980657854386091 0.00068406954062421969 0 0.052651435807156942 0.01537553163706834 0 0.056306301055715817 0.0035062028627736229 0 0.058782971729520947 0.015996658858631291 0 0.069079275787977124 -0.003283146202666887 0 0.074233098450692175 0.0076852942779036988 0 0.089088315826384962 -0.0001164478941750312 0 0.069079275787977124 -0.003283146202666887 0 0.058782971729520947 0.015996658858631291 0 0.074233098450692175 0.0076852942779036988 0 0.079981830458885711 0.018144112349825429 0 0.058782971729520947 0.015996658858631291 0 0.074233098450692175 0.0076852942779036988 0 0.069079275787977124 -0.003283146202666887 0 0.079981830458885711 0.018144112349825429 0 0.1011806891882505 0.020291565841018409 0 0.089088315826384962 -0.0001164478941750312 0 0.074233098450692175 0.0076852942779036988 0 0.079981830458885711 0.018144112349825429 0 0.089088315826384962 -0.0001164478941750312 0 0.079981830458885711 0.018144112349825429 0 0.091427816904485773 0.034610490233870167 0 0.1011806891882505 0.020291565841018409 0 0.079981830458885711 0.018144112349825429 0 0.1011806891882505 0.020291565841018409 0 0.079981830458885711 0.018144112349825429 0 0.076792715138573719 0.03281841124190351 0 0.091427816904485773 0.034610490233870167 0 0.058782971729520947 0.015996658858631291 0 0.079981830458885711 0.018144112349825429 0 0.079981830458885711 0.018144112349825429 0 0.066701519248568 0.026120454577297069 0 0.076792715138573719 0.03281841124190351 0 0.058782971729520947 0.015996658858631291 0 0.079981830458885711 0.018144112349825429 0 0.066701519248568 0.026120454577297069 0 0.066701519248568 0.026120454577297069 0 0.063625273265470489 0.039543884745599993 0 0.076792715138573719 0.03281841124190351 0 0.063625273265470489 0.039543884745599993 0 0.076792715138573719 0.03281841124190351 0 0.082227135815458652 0.045673114302924908 0 0.063625273265470489 0.039543884745599993 0 0.063334383016456608 0.053131381146014803 0 0.074599110723780199 0.063712237854133297 0 0.063625273265470489 0.039543884745599993 0 0.082227135815458652 0.045673114302924908 0 0.074599110723780199 0.063712237854133297 0 0.063625273265470489 0.039543884745599993 0 0.074599110723780199 0.063712237854133297 0 0.064148210606739503 0.062464790595684563 0 0.063334383016456608 0.053131381146014803 0 0.074599110723780199 0.063712237854133297 0 0.086526406081584448 0.058941029975357162 0 0.082227135815458652 0.045673114302924908 0 0.074599110723780199 0.063712237854133297 0 0.086526406081584448 0.058941029975357162 0 0.082227135815458652 0.045673114302924908 0 0.098822249601708462 0.051286384171377972 0 0.086526406081584448 0.058941029975357162 0 0.098822249601708462 0.051286384171377972 0 0.094249705421110511 0.06597961500537379 0 0.082227135815458652 0.045673114302924908 0 0.091427816904485773 0.034610490233870167 0 0.098822249601708462 0.051286384171377972 0 0.076792715138573719 0.03281841124190351 0 0.082227135815458652 0.045673114302924908 0 0.091427816904485773 0.034610490233870167 0 0.091427816904485773 0.034610490233870167 0 0.098822249601708462 0.051286384171377972 0 0.1110240208457503 0.036957608137461732 0 0.098822249601708462 0.051286384171377972 0 0.1180804158282508 0.056076322607598462 0 0.1110240208457503 0.036957608137461732 0 0.098822249601708462 0.051286384171377972 0 0.1180804158282508 0.056076322607598462 0 0.1068393901716716 0.063953975194648224 0 0.098822249601708462 0.051286384171377972 0 0.1068393901716716 0.063953975194648224 0 0.094249705421110511 0.06597961500537379 0 0.1110240208457503 0.036957608137461732 0 0.122967671738255 0.01559134823131011 0 0.13029296252697861 0.043205597248887992 0 0.1180804158282508 0.056076322607598462 0 0.1110240208457503 0.036957608137461732 0 0.13029296252697861 0.043205597248887992 0 0.1110240208457503 0.036957608137461732 0 0.122967671738255 0.01559134823131011 0 0.1011806891882505 0.020291565841018409 0 0.122967671738255 0.01559134823131011 0 0.1093599609677776 0.0044223724459045207 0 0.1011806891882505 0.020291565841018409 0 0.122967671738255 0.01559134823131011 0 0.1156423809495314 -0.0120229007862678 0 0.122967671738255 0.01559134823131011 0 0.1156423809495314 -0.0120229007862678 0 0.12584066592506621 -0.001195642335175832 0 0.122967671738255 0.01559134823131011 0 0.1093599609677776 0.0044223724459045207 0 0.1156423809495314 -0.0120229007862678 0 0.1093599609677776 0.0044223724459045207 0 0.1011806891882505 0.020291565841018409 0 0.089088315826384962 -0.0001164478941750312 0 0.091427816904485773 0.034610490233870167 0 0.1110240208457503 0.036957608137461732 0 0.1011806891882505 0.020291565841018409 0 0.1026819214920982 0.10795127553325989 0 0.085444730215538556 0.088337327322254355 0 0.1026819214920982 0.10795127553325989 0 0.099045917019683113 0.1129652527171625 0 0.082516785207260093 0.095622500654469617 0 0.1026819214920982 0.10795127553325989 0 0.1048714024004402 0.10331989515915919 0 0.085444730215538556 0.088337327322254355 0 0.1048714024004402 0.10331989515915919 0 0.1004752194075227 0.091433901100385948 0 0.088603504795819354 0.08699930169901042 0 0.1048714024004402 0.10331989515915919 0 0.088603504795819354 0.08699930169901042 0 0.1048714024004402 0.10331989515915919 0 0.1064239133573143 0.096565608308767426 0 0.11168061335836291 0.099138411701422444 0 0.1048714024004402 0.10331989515915919 0 0.1064239133573143 0.096565608308767426 0 0.1004752194075227 0.091433901100385948 0 0.1064239133573143 0.096565608308767426 0 0.11168061335836291 0.099138411701422444 0 0.1086684182629316 0.092370225274102102 0 0.099045917019683113 0.1129652527171625 0 0.09864012580487877 0.1205689780348151 0 0.10301650600168299 0.1215061591484069 0 0.09864012580487877 0.1205689780348151 0 0.090379367823409384 0.12214074150738941 0 0.1011866453508712 0.1290542695631525 0 0.09864012580487877 0.1205689780348151 0 0.10301650600168299 0.1215061591484069 0 0.1011866453508712 0.1290542695631525 0 0.099045917019683113 0.1129652527171625 0 0.10301650600168299 0.1215061591484069 0 0.10712333745689399 0.1192974758359636 0 0.10301650600168299 0.1215061591484069 0 0.10712333745689399 0.1192974758359636 0 0.10908650437608761 0.1256448195909409 0 0.1026819214920982 0.10795127553325989 0 0.099045917019683113 0.1129652527171625 0 0.10712333745689399 0.1192974758359636 0 0.1026819214920982 0.10795127553325989 0 0.1048714024004402 0.10331989515915919 0 0.12113930000506069 0.1196404886193083 0 0.1048714024004402 0.10331989515915919 0 0.12113930000506069 0.1196404886193083 0 0.11863902757435391 0.1058647055054453 0 0.1026819214920982 0.10795127553325989 0 0.12113930000506069 0.1196404886193083 0 0.1199191127686572 0.1275652237442661 0 0.1026819214920982 0.10795127553325989 0 0.1199191127686572 0.1275652237442661 0 0.1026819214920982 0.10795127553325989 0 0.10712333745689399 0.1192974758359636 0 0.1199191127686572 0.1275652237442661 0 0.1048714024004402 0.10331989515915919 0 0.12113930000506069 0.1196404886193083 0 0.10712333745689399 0.1192974758359636 0 0.10908650437608761 0.1256448195909409 0 0.1199191127686572 0.1275652237442661 0 0.12113930000506069 0.1196404886193083 0 0.1199191127686572 0.1275652237442661 0 0.1306743595836756 0.1243473194073275 0 0.12113930000506069 0.1196404886193083 0 0.11863902757435391 0.1058647055054453 0 0.1256749017357158 0.11187538445314139 0 0.11863902757435391 0.1058647055054453 0 0.1285210133506525 0.1002637800825901 0 0.1256749017357158 0.11187538445314139 0 0.1048714024004402 0.10331989515915919 0 0.11863902757435391 0.1058647055054453 0 0.11168061335836291 0.099138411701422444 0 0.11168061335836291 0.099138411701422444 0 0.1207090505022362 0.092017735883683657 0 0.1086684182629316 0.092370225274102102 0 0.11863902757435391 0.1058647055054453 0 0.11168061335836291 0.099138411701422444 0 0.1207090505022362 0.092017735883683657 0 0.11863902757435391 0.1058647055054453 0 0.1207090505022362 0.092017735883683657 0 0.1285210133506525 0.1002637800825901 0 0.1207090505022362 0.092017735883683657 0 0.12249538261183079 0.072643037969167101 0 0.1055494437038253 0.079821169834089337 0 0.1207090505022362 0.092017735883683657 0 0.12249538261183079 0.072643037969167101 0 0.1308574487769695 0.086835699097190133 0 0.1207090505022362 0.092017735883683657 0 0.1086684182629316 0.092370225274102102 0 0.1055494437038253 0.079821169834089337 0 0.12249538261183079 0.072643037969167101 0 0.1068393901716716 0.063953975194648224 0 0.1055494437038253 0.079821169834089337 0 0.12249538261183079 0.072643037969167101 0 0.1055494437038253 0.079821169834089337 0 0.1180804158282508 0.056076322607598462 0 0.12249538261183079 0.072643037969167101 0 0.1068393901716716 0.063953975194648224 0 0.1068393901716716 0.063953975194648224 0 0.094249705421110511 0.06597961500537379 0 0.1055494437038253 0.079821169834089337 0 0.094249705421110511 0.06597961500537379 0 0.1055494437038253 0.079821169834089337 0 0.088430949201018016 0.075577087228356502 0 0.1055494437038253 0.079821169834089337 0 0.088603504795819354 0.08699930169901042 0 0.088430949201018016 0.075577087228356502 0 0.1055494437038253 0.079821169834089337 0 0.088603504795819354 0.08699930169901042 0 0.1055494437038253 0.079821169834089337 0 0.1004752194075227 0.091433901100385948 0 0.088603504795819354 0.08699930169901042 0 0.1086684182629316 0.092370225274102102 0 0.1055494437038253 0.079821169834089337 0 0.1004752194075227 0.091433901100385948 0 0.1064239133573143 0.096565608308767426 0 0.1086684182629316 0.092370225274102102 0 0.1004752194075227 0.091433901100385948 0 0.1048714024004402 0.10331989515915919 0 0.088603504795819354 0.08699930169901042 0 0.085444730215538556 0.088337327322254355 0 0.088603504795819354 0.08699930169901042 0 0.085444730215538556 0.088337327322254355 0 0.088603504795819354 0.08699930169901042 0 0.076375857701279595 0.074732046147347339 0 0.088603504795819354 0.08699930169901042 0 0.085444730215538556 0.088337327322254355 0 0.076375857701279595 0.074732046147347339 0 0.088603504795819354 0.08699930169901042 0 0.088430949201018016 0.075577087228356502 0 0.076375857701279595 0.074732046147347339 0 0.080421607577397303 0.088556066159495933 0 0.080924466729814806 0.090252066159734301 0 0.07944956854729826 0.090876818420374234 0 0.080924466729814806 0.090252066159734301 0 0.082516785207260093 0.095622500654469617 0 0.07944956854729826 0.090876818420374234 0 0.082516785207260093 0.095622500654469617 0 0.080924466729814806 0.090252066159734301 0 0.082516785207260093 0.095622500654469617 0 0.080421607577397303 0.088556066159495933 0 0.07944956854729826 0.090876818420374234 0 0.080924466729814806 0.090252066159734301 0 0.07944956854729826 0.090876818420374234 0 0.080924466729814806 0.090252066159734301 0 0.080924466729814806 0.090252066159734301 0 0.085444730215538556 0.088337327322254355 0 0.087891975911178019 0.095540792417429521 0 0.080924466729814806 0.090252066159734301 0 0.085444730215538556 0.088337327322254355 0 0.080421607577397303 0.088556066159495933 0 0.080924466729814806 0.090252066159734301 0 0.085444730215538556 0.088337327322254355 0 0.094249705421110511 0.06597961500537379 0 0.088430949201018016 0.075577087228356502 0 0.083208528911422011 0.067957080138871501 0 0.086526406081584448 0.058941029975357162 0 0.094249705421110511 0.06597961500537379 0 0.083208528911422011 0.067957080138871501 0 0.088430949201018016 0.075577087228356502 0 0.083208528911422011 0.067957080138871501 0 0.076375857701279595 0.074732046147347339 0 0.086526406081584448 0.058941029975357162 0 0.083208528911422011 0.067957080138871501 0 0.074599110723780199 0.063712237854133297 0 0.085444730215538556 0.088337327322254355 0 0.076375857701279595 0.074732046147347339 0 0.067807744848998652 0.068268459255097336 0 0.080421607577397303 0.088556066159495933 0 0.067807744848998652 0.068268459255097336 0 0.065207253008567001 0.06884071490450798 0 0.064148210606739503 0.062464790595684563 0 0.074599110723780199 0.063712237854133297 0 0.076375857701279595 0.074732046147347339 0 0.083208528911422011 0.067957080138871501 0 0.074599110723780199 0.063712237854133297 0 0.076375857701279595 0.074732046147347339 0 0.068131490013218846 0.078077805124987437 0 0.065207253008567001 0.06884071490450798 0 0.061720501140114237 0.072771070506121402 0 0.068131490013218846 0.078077805124987437 0 0.06614863735689594 0.079822616668946272 0 0.061720501140114237 0.072771070506121402 0 0.064148210606739503 0.062464790595684563 0 0.076375857701279595 0.074732046147347339 0 0.067807744848998652 0.068268459255097336 0 0.064148210606739503 0.062464790595684563 0 0.076375857701279595 0.074732046147347339 0 0.064148210606739503 0.062464790595684563 0 0.067807744848998652 0.068268459255097336 0 0.065207253008567001 0.06884071490450798 0 0.07944956854729826 0.090876818420374234 0 0.068131490013218846 0.078077805124987437 0 0.065207253008567001 0.06884071490450798 0 0.080421607577397303 0.088556066159495933 0 0.07944956854729826 0.090876818420374234 0 0.065207253008567001 0.06884071490450798 0 0.080421607577397303 0.088556066159495933 0 0.085444730215538556 0.088337327322254355 0 0.067807744848998652 0.068268459255097336 0 0.07944956854729826 0.090876818420374234 0 0.065207253008567001 0.06884071490450798 0 0.085444730215538556 0.088337327322254355 0 0.067807744848998652 0.068268459255097336 0 0.07944956854729826 0.090876818420374234 0 0.065431097882009195 0.085866695801909532 0 0.06614863735689594 0.079822616668946272 0 0.07944956854729826 0.090876818420374234 0 0.068131490013218846 0.078077805124987437 0 0.06614863735689594 0.079822616668946272 0 0.065431097882009195 0.085866695801909532 0 0.06614863735689594 0.079822616668946272 0 0.058853738683968031 0.077174115675924151 0 0.07944956854729826 0.090876818420374234 0 0.065431097882009195 0.085866695801909532 0 0.065151709717127054 0.096933249794650289 0 0.065151709717127054 0.096933249794650289 0 0.066427596233574943 0.1079185040037082 0 0.073948843778703893 0.097796070908301669 0 0.074163362265230931 0.1066938405387091 0 0.073948843778703893 0.097796070908301669 0 0.078433106573203792 0.1039275755112877 0 0.066427596233574943 0.1079185040037082 0 0.074163362265230931 0.1066938405387091 0 0.073948843778703893 0.097796070908301669 0 0.074163362265230931 0.1066938405387091 0 0.078433106573203792 0.1039275755112877 0 0.077969413179032318 0.1109007847048883 0 0.07944956854729826 0.090876818420374234 0 0.065151709717127054 0.096933249794650289 0 0.073948843778703893 0.097796070908301669 0 0.07944956854729826 0.090876818420374234 0 0.065151709717127054 0.096933249794650289 0 0.073948843778703893 0.097796070908301669 0 0.078381116322768091 0.096543873745503772 0 0.078433106573203792 0.1039275755112877 0 0.07944956854729826 0.090876818420374234 0 0.073948843778703893 0.097796070908301669 0 0.078381116322768091 0.096543873745503772 0 0.082516785207260093 0.095622500654469617 0 0.090379367823409384 0.12214074150738941 0 0.07944956854729826 0.090876818420374234 0 0.078381116322768091 0.096543873745503772 0 0.082516785207260093 0.095622500654469617 0 0.1026819214920982 0.10795127553325989 0 0.085444730215538556 0.088337327322254355 0 0.087891975911178019 0.095540792417429521 0 0.1026819214920982 0.10795127553325989 0 0.082516785207260093 0.095622500654469617 0 0.087891975911178019 0.095540792417429521 0 0.09864012580487877 0.1205689780348151 0 0.082516785207260093 0.095622500654469617 0 0.082516785207260093 0.095622500654469617 0 0.078433106573203792 0.1039275755112877 0 0.081364184061542957 0.1135084703973181 0 0.078381116322768091 0.096543873745503772 0 0.082516785207260093 0.095622500654469617 0 0.078433106573203792 0.1039275755112877 0 0.080924466729814806 0.090252066159734301 0 0.082516785207260093 0.095622500654469617 0 0.087891975911178019 0.095540792417429521 0 0.082516785207260093 0.095622500654469617 0 0.090379367823409384 0.12214074150738941 0 0.081364184061542957 0.1135084703973181 0 0.099045917019683113 0.1129652527171625 0 0.09864012580487877 0.1205689780348151 0 0.082516785207260093 0.095622500654469617 0 0.09864012580487877 0.1205689780348151 0 0.082516785207260093 0.095622500654469617 0 0.090379367823409384 0.12214074150738941 0 0.078433106573203792 0.1039275755112877 0 0.081364184061542957 0.1135084703973181 0 0.077969413179032318 0.1109007847048883 0 0.090379367823409384 0.12214074150738941 0 0.081364184061542957 0.1135084703973181 0 0.078507352399907721 0.1228462553786467 0 0.078507352399907721 0.1228462553786467 0 0.074214906669936714 0.1137202640238175 0 0.066857531880331542 0.12045372911963489 0 0.078507352399907721 0.1228462553786467 0 0.066857531880331542 0.12045372911963489 0 0.070428491062381665 0.13098240468354369 0 0.081364184061542957 0.1135084703973181 0 0.078507352399907721 0.1228462553786467 0 0.074214906669936714 0.1137202640238175 0 0.081364184061542957 0.1135084703973181 0 0.077969413179032318 0.1109007847048883 0 0.074214906669936714 0.1137202640238175 0 0.074163362265230931 0.1066938405387091 0 0.077969413179032318 0.1109007847048883 0 0.074214906669936714 0.1137202640238175 0 0.066427596233574943 0.1079185040037082 0 0.074163362265230931 0.1066938405387091 0 0.074214906669936714 0.1137202640238175 0 0.066427596233574943 0.1079185040037082 0 0.066857531880331542 0.12045372911963489 0 0.059244601019537012 0.1144150508183344 0 0.066427596233574943 0.1079185040037082 0 0.074214906669936714 0.1137202640238175 0 0.066857531880331542 0.12045372911963489 0 0.050784495059554888 0.1162060162705003 0 0.059244601019537012 0.1144150508183344 0 0.056298909166737257 0.12639883119312931 0 0.066857531880331542 0.12045372911963489 0 0.059244601019537012 0.1144150508183344 0 0.056298909166737257 0.12639883119312931 0 0.050784495059554888 0.1162060162705003 0 0.042052383995712039 0.1214858683013305 0 0.056298909166737257 0.12639883119312931 0 0.050784495059554888 0.1162060162705003 0 0.059244601019537012 0.1144150508183344 0 0.050853850886955883 0.1029896811689264 0 0.050853850886955883 0.1029896811689264 0 0.056859818406595819 0.088427301041612713 0 0.040432058056894163 0.092140326463140132 0 0.065151709717127054 0.096933249794650289 0 0.066427596233574943 0.1079185040037082 0 0.050853850886955883 0.1029896811689264 0 0.066427596233574943 0.1079185040037082 0 0.059244601019537012 0.1144150508183344 0 0.050853850886955883 0.1029896811689264 0 0.065151709717127054 0.096933249794650289 0 0.050853850886955883 0.1029896811689264 0 0.065151709717127054 0.096933249794650289 0 0.050853850886955883 0.1029896811689264 0 0.056859818406595819 0.088427301041612713 0 0.050784495059554888 0.1162060162705003 0 0.050853850886955883 0.1029896811689264 0 0.043011698028538332 0.1087235027840556 0 0.050853850886955883 0.1029896811689264 0 0.043011698028538332 0.1087235027840556 0 0.040432058056894163 0.092140326463140132 0 0.043011698028538332 0.1087235027840556 0 0.040432058056894163 0.092140326463140132 0 0.030935702143574689 0.1107956217163806 0 0.042052383995712039 0.1214858683013305 0 0.030935702143574689 0.1107956217163806 0 0.032238277824189893 0.12831128050022669 0 0.043011698028538332 0.1087235027840556 0 0.042052383995712039 0.1214858683013305 0 0.030935702143574689 0.1107956217163806 0 0.050784495059554888 0.1162060162705003 0 0.043011698028538332 0.1087235027840556 0 0.042052383995712039 0.1214858683013305 0 0.050204922728962161 0.062916401503048697 0 0.056982034343250582 0.071516390304276214 0 0.048923756154641507 0.07587964893177887 0 0.065207253008567001 0.06884071490450798 0 0.050204922728962161 0.062916401503048697 0 0.056982034343250582 0.071516390304276214 0 0.056982034343250582 0.071516390304276214 0 0.058853738683968031 0.077174115675924151 0 0.048923756154641507 0.07587964893177887 0 0.065207253008567001 0.06884071490450798 0 0.056982034343250582 0.071516390304276214 0 0.061720501140114237 0.072771070506121402 0 0.056982034343250582 0.071516390304276214 0 0.061720501140114237 0.072771070506121402 0 0.058853738683968031 0.077174115675924151 0 0.06614863735689594 0.079822616668946272 0 0.061720501140114237 0.072771070506121402 0 0.058853738683968031 0.077174115675924151 0 0.048923756154641507 0.07587964893177887 0 0.056859818406595819 0.088427301041612713 0 0.040432058056894163 0.092140326463140132 0 0.058853738683968031 0.077174115675924151 0 0.048923756154641507 0.07587964893177887 0 0.056859818406595819 0.088427301041612713 0 0.065431097882009195 0.085866695801909532 0 0.058853738683968031 0.077174115675924151 0 0.056859818406595819 0.088427301041612713 0 0.065431097882009195 0.085866695801909532 0 0.065151709717127054 0.096933249794650289 0 0.056859818406595819 0.088427301041612713 0 0.050204922728962161 0.062916401503048697 0 0.048923756154641507 0.07587964893177887 0 0.034253944141133599 0.065660417398065551 0 0.048923756154641507 0.07587964893177887 0 0.040432058056894163 0.092140326463140132 0 0.034253944141133599 0.065660417398065551 0 0.01360340838681919 0.056993822885353367 0 0.017626799353152079 0.090133165278108232 0 0.003679002994223014 0.072796849914509645 0 0.01360340838681919 0.056993822885353367 0 0.034253944141133599 0.065660417398065551 0 0.017626799353152079 0.090133165278108232 0 0.034253944141133599 0.065660417398065551 0 0.017626799353152079 0.090133165278108232 0 0.040432058056894163 0.092140326463140132 0 0.034253944141133599 0.065660417398065551 0 0.017626799353152079 0.090133165278108232 0 -0.0012073870594738749 0.094543552819019383 0 -0.002487200554776445 0.083254376011519304 0 0.017626799353152079 0.090133165278108232 0 -0.002487200554776445 0.083254376011519304 0 0.017626799353152079 0.090133165278108232 0 0.003679002994223014 0.072796849914509645 0 -0.00076854274001728236 0.060520223081313267 0 0.01360340838681919 0.056993822885353367 0 0.003679002994223014 0.072796849914509645 0 0.017382472830506469 0.1185412700634743 0 0.030935702143574689 0.1107956217163806 0 0.032238277824189893 0.12831128050022669 0 0.040432058056894163 0.092140326463140132 0 0.017626799353152079 0.090133165278108232 0 0.030935702143574689 0.1107956217163806 0 0.017626799353152079 0.090133165278108232 0 0.017382472830506469 0.1185412700634743 0 0.030935702143574689 0.1107956217163806 0 -0.0012073870594738749 0.094543552819019383 0 0.017626799353152079 0.090133165278108232 0 0.00078969335507287882 0.10413348976556761 0 0.017626799353152079 0.090133165278108232 0 0.017382472830506469 0.1185412700634743 0 0.00099965456517074505 0.1146059131581513 0 0.017626799353152079 0.090133165278108232 0 0.00078969335507287882 0.10413348976556761 0 0.00099965456517074505 0.1146059131581513 0 0.017626799353152079 0.090133165278108232 0 0.00099965456517074505 0.1146059131581513 0 -0.001295058530900936 0.1114958501964836 0 0.00078969335507287882 0.10413348976556761 0 0.00099965456517074505 0.1146059131581513 0 0.017382472830506469 0.1185412700634743 0 0.00099965456517074505 0.1146059131581513 0 0.01704636387798425 0.13635428613594561 0 0.00099965456517074505 0.1146059131581513 0 0.01704636387798425 0.13635428613594561 0 0.00099965456517074505 0.1146059131581513 0 0.00177563255411836 0.1276579872274072 0 0.01704636387798425 0.13635428613594561 0 0.00177563255411836 0.1276579872274072 0 0.001549945093408776 0.13534065292426151 0 0.01704636387798425 0.13635428613594561 0 0.01704636387798425 0.13635428613594561 0 0.032238277824189893 0.12831128050022669 0 0.034077641370818153 0.14224535031166399 0 0.017382472830506469 0.1185412700634743 0 0.01704636387798425 0.13635428613594561 0 0.032238277824189893 0.12831128050022669 0 0.01704636387798425 0.13635428613594561 0 0.033093073190796407 0.1581026591137408 0 0.01704636387798425 0.13635428613594561 0 0.02390372569233715 0.15680857876410079 0 0.030968069140487879 0.1571495738497003 0 0.01704636387798425 0.13635428613594561 0 0.033093073190796407 0.1581026591137408 0 0.034077641370818153 0.14224535031166399 0 0.01704636387798425 0.13635428613594561 0 0.030968069140487879 0.1571495738497003 0 0.033093073190796407 0.1581026591137408 0 0.001549945093408776 0.13534065292426151 0 0.01704636387798425 0.13635428613594561 0 0.001341502418174028 0.150618738574402 0 0.01704636387798425 0.13635428613594561 0 0.001341502418174028 0.150618738574402 0 0.02390372569233715 0.15680857876410079 0 0.001341502418174028 0.150618738574402 0 0.02390372569233715 0.15680857876410079 0 0.001341502418174028 0.150618738574402 0 0.0090081296722899044 0.16688860360646721 0 0.02390372569233715 0.15680857876410079 0 -0.0093312842145069977 0.169866933004161 0 0.001341502418174028 0.150618738574402 0 0.0090081296722899044 0.16688860360646721 0 -0.0059898305664214668 0.18940844223386299 0 0.0090081296722899044 0.16688860360646721 0 0.01612329386101034 0.18205756102269191 0 0.0090081296722899044 0.16688860360646721 0 0.01612329386101034 0.18205756102269191 0 0.018719201478154739 0.17200949223770751 0 0.01612329386101034 0.18205756102269191 0 0.02740387409274158 0.1764058420242052 0 0.03203988619426297 0.1876214763458485 0 0.01612329386101034 0.18205756102269191 0 0.018719201478154739 0.17200949223770751 0 0.02740387409274158 0.1764058420242052 0 0.018719201478154739 0.17200949223770751 0 0.02740387409274158 0.1764058420242052 0 0.02691686587603706 0.16875867412701251 0 0.0090081296722899044 0.16688860360646721 0 0.02199784602713319 0.16489904453656221 0 0.02390372569233715 0.15680857876410079 0 0.0090081296722899044 0.16688860360646721 0 0.018719201478154739 0.17200949223770751 0 0.02199784602713319 0.16489904453656221 0 0.018719201478154739 0.17200949223770751 0 0.02199784602713319 0.16489904453656221 0 0.02691686587603706 0.16875867412701251 0 0.02823044588232201 0.16444524677992359 0 0.03066326422911661 0.16181470696747419 0 0.033787510922404181 0.16969229270234301 0 0.02199784602713319 0.16489904453656221 0 0.02691686587603706 0.16875867412701251 0 0.02823044588232201 0.16444524677992359 0 0.02740387409274158 0.1764058420242052 0 0.02691686587603706 0.16875867412701251 0 0.033787510922404181 0.16969229270234301 0 0.02691686587603706 0.16875867412701251 0 0.02823044588232201 0.16444524677992359 0 0.033787510922404181 0.16969229270234301 0 0.02199784602713319 0.16489904453656221 0 0.026963654505026888 0.16080088293395531 0 0.02390372569233715 0.15680857876410079 0 0.02823044588232201 0.16444524677992359 0 0.03066326422911661 0.16181470696747419 0 0.026963654505026888 0.16080088293395531 0 0.02199784602713319 0.16489904453656221 0 0.02823044588232201 0.16444524677992359 0 0.026963654505026888 0.16080088293395531 0 0.026963654505026888 0.16080088293395531 0 0.02390372569233715 0.15680857876410079 0 0.030968069140487879 0.1571495738497003 0 0.03066326422911661 0.16181470696747419 0 0.026963654505026888 0.16080088293395531 0 0.030968069140487879 0.1571495738497003 0 0.03066326422911661 0.16181470696747419 0 0.030968069140487879 0.1571495738497003 0 0.033093073190796407 0.1581026591137408 0 0.033093073190796407 0.1581026591137408 0 0.050039973779203592 0.18107107635303071 0 0.03066326422911661 0.16181470696747419 0 0.033093073190796407 0.1581026591137408 0 0.033787510922404181 0.16969229270234301 0 0.033093073190796407 0.1581026591137408 0 0.056619774469640338 0.1686546165545314 0 0.033093073190796407 0.1581026591137408 0 0.047180956318383038 0.15704263719615769 0 0.056619774469640338 0.1686546165545314 0 0.033093073190796407 0.1581026591137408 0 0.033787510922404181 0.16969229270234301 0 0.050039973779203592 0.18107107635303071 0 0.030968069140487879 0.1571495738497003 0 0.033093073190796407 0.1581026591137408 0 0.033093073190796407 0.1581026591137408 0 0.050039973779203592 0.18107107635303071 0 0.056619774469640338 0.1686546165545314 0 0.036836486224580231 0.1782955557096283 0 0.050039973779203592 0.18107107635303071 0 0.03203988619426297 0.1876214763458485 0 0.033787510922404181 0.16969229270234301 0 0.036836486224580231 0.1782955557096283 0 0.050039973779203592 0.18107107635303071 0 0.02740387409274158 0.1764058420242052 0 0.036836486224580231 0.1782955557096283 0 0.03203988619426297 0.1876214763458485 0 0.02740387409274158 0.1764058420242052 0 0.033787510922404181 0.16969229270234301 0 0.036836486224580231 0.1782955557096283 0 0.050039973779203592 0.18107107635303071 0 0.066377063458817068 0.18755324663113851 0 0.063295821864036358 0.1791213783835055 0 0.050039973779203592 0.18107107635303071 0 0.056619774469640338 0.1686546165545314 0 0.063295821864036358 0.1791213783835055 0 0.047180956318383038 0.15704263719615769 0 0.056619774469640338 0.1686546165545314 0 0.056103260008518133 0.15771144899931111 0 0.056619774469640338 0.1686546165545314 0 0.056103260008518133 0.15771144899931111 0 0.071366281357369721 0.16727933399796771 0 0.056103260008518133 0.15771144899931111 0 0.058643268839511008 0.14727280108274951 0 0.066177736538663115 0.15340742460652079 0 0.047180956318383038 0.15704263719615769 0 0.056103260008518133 0.15771144899931111 0 0.049126699338008728 0.1499894878355425 0 0.056103260008518133 0.15771144899931111 0 0.049126699338008728 0.1499894878355425 0 0.058643268839511008 0.14727280108274951 0 0.049126699338008728 0.1499894878355425 0 0.052264709827739973 0.13955318173079689 0 0.043725269550746897 0.1417982161091208 0 0.049126699338008728 0.1499894878355425 0 0.058643268839511008 0.14727280108274951 0 0.052264709827739973 0.13955318173079689 0 0.058643268839511008 0.14727280108274951 0 0.061463646706064558 0.13656296426663739 0 0.052264709827739973 0.13955318173079689 0 0.061463646706064558 0.13656296426663739 0 0.056298909166737257 0.12639883119312931 0 0.052264709827739973 0.13955318173079689 0 0.042052383995712039 0.1214858683013305 0 0.056298909166737257 0.12639883119312931 0 0.046253617559549202 0.13192549845097029 0 0.056298909166737257 0.12639883119312931 0 0.052264709827739973 0.13955318173079689 0 0.046253617559549202 0.13192549845097029 0 0.052264709827739973 0.13955318173079689 0 0.046253617559549202 0.13192549845097029 0 0.043725269550746897 0.1417982161091208 0 0.039073701576326031 0.13607008634299539 0 0.046253617559549202 0.13192549845097029 0 0.043725269550746897 0.1417982161091208 0 0.039073701576326031 0.13607008634299539 0 0.046253617559549202 0.13192549845097029 0 0.032238277824189893 0.12831128050022669 0 0.042052383995712039 0.1214858683013305 0 0.046253617559549202 0.13192549845097029 0 0.032238277824189893 0.12831128050022669 0 0.039073701576326031 0.13607008634299539 0 0.032238277824189893 0.12831128050022669 0 0.034077641370818153 0.14224535031166399 0 0.039073701576326031 0.13607008634299539 0 0.034077641370818153 0.14224535031166399 0 0.043725269550746897 0.1417982161091208 0 0.033093073190796407 0.1581026591137408 0 0.034077641370818153 0.14224535031166399 0 0.040961974584951578 0.1507549734776629 0 0.047180956318383038 0.15704263719615769 0 0.049126699338008728 0.1499894878355425 0 0.040961974584951578 0.1507549734776629 0 0.033093073190796407 0.1581026591137408 0 0.047180956318383038 0.15704263719615769 0 0.040961974584951578 0.1507549734776629 0 0.049126699338008728 0.1499894878355425 0 0.040961974584951578 0.1507549734776629 0 0.043725269550746897 0.1417982161091208 0 0.034077641370818153 0.14224535031166399 0 0.040961974584951578 0.1507549734776629 0 0.043725269550746897 0.1417982161091208 0 0.02407674609719862 0.23933922187265291 0 0.01867790475955277 0.25645746460462809 0 0.042353052778460222 0.25196892326875842 0 0.02407674609719862 0.23933922187265291 0 0.001483186948090515 0.24423222142217099 0 0.01109054375473368 0.22754028581011931 0 0.02407674609719862 0.23933922187265291 0 0.001483186948090515 0.24423222142217099 0 0.01867790475955277 0.25645746460462809 0 0.01109054375473368 0.22754028581011931 0 0.027703895183072771 0.2214244585500576 0 0.0057826877994054679 0.2114542682360398 0 0.02407674609719862 0.23933922187265291 0 0.01109054375473368 0.22754028581011931 0 0.027703895183072771 0.2214244585500576 0 0.027703895183072771 0.2214244585500576 0 0.01649107081418856 0.1988083093832996 0 0.038971972194798588 0.20820817653273621 0 0.027703895183072771 0.2214244585500576 0 0.0057826877994054679 0.2114542682360398 0 0.01649107081418856 0.1988083093832996 0 0.01649107081418856 0.1988083093832996 0 0.038971972194798588 0.20820817653273621 0 -0.013349935564374259 0.21630716721061111 0 0.01109054375473368 0.22754028581011931 0 0.0057826877994054679 0.2114542682360398 0 -0.0059898305664214668 0.18940844223386299 0 0.01649107081418856 0.1988083093832996 0 -0.0059898305664214668 0.18940844223386299 0 0.0057826877994054679 0.2114542682360398 0 0.01649107081418856 0.1988083093832996 0 -0.0059898305664214668 0.18940844223386299 0 0.01612329386101034 0.18205756102269191 0 0.01649107081418856 0.1988083093832996 0 0.01649107081418856 0.1988083093832996 0 0.03203988619426297 0.1876214763458485 0 0.038971972194798588 0.20820817653273621 0 0.01612329386101034 0.18205756102269191 0 0.01649107081418856 0.1988083093832996 0 0.03203988619426297 0.1876214763458485 0 0.03203988619426297 0.1876214763458485 0 0.050415257743168178 0.1991002811672791 0 0.038971972194798588 0.20820817653273621 0 0.050039973779203592 0.18107107635303071 0 0.03203988619426297 0.1876214763458485 0 0.050415257743168178 0.1991002811672791 0 0.050039973779203592 0.18107107635303071 0 0.050415257743168178 0.1991002811672791 0 0.066986874367610402 0.2040394935923209 0 0.050039973779203592 0.18107107635303071 0 0.066986874367610402 0.2040394935923209 0 0.066377063458817068 0.18755324663113851 0 0.050039973779203592 0.18107107635303071 0 0.066986874367610402 0.2040394935923209 0 0.050415257743168178 0.1991002811672791 0 0.061452873575408629 0.21760804368217279 0 0.038971972194798588 0.20820817653273621 0 0.061452873575408629 0.21760804368217279 0 0.038971972194798588 0.20820817653273621 0 0.061452873575408629 0.21760804368217279 0 0.038971972194798588 0.20820817653273621 0 0.045329016224916002 0.22197761196216351 0 0.050415257743168178 0.1991002811672791 0 0.061452873575408629 0.21760804368217279 0 0.066986874367610402 0.2040394935923209 0 0.027703895183072771 0.2214244585500576 0 0.038971972194798588 0.20820817653273621 0 0.045329016224916002 0.22197761196216351 0 0.027703895183072771 0.2214244585500576 0 0.045329016224916002 0.22197761196216351 0 0.043151893159281793 0.2344119775801832 0 0.02407674609719862 0.23933922187265291 0 0.027703895183072771 0.2214244585500576 0 0.043151893159281793 0.2344119775801832 0 0.061452873575408629 0.21760804368217279 0 0.045329016224916002 0.22197761196216351 0 0.055892831912938853 0.22955560088106719 0 0.061452873575408629 0.21760804368217279 0 0.055892831912938853 0.22955560088106719 0 0.069954452669655581 0.23241962907745001 0 0.045329016224916002 0.22197761196216351 0 0.055892831912938853 0.22955560088106719 0 0.043151893159281793 0.2344119775801832 0 0.055892831912938853 0.22955560088106719 0 0.059840116385892608 0.24202084081106651 0 0.043151893159281793 0.2344119775801832 0 0.059840116385892608 0.24202084081106651 0 0.043151893159281793 0.2344119775801832 0 0.042353052778460222 0.25196892326875842 0 0.055892831912938853 0.22955560088106719 0 0.059840116385892608 0.24202084081106651 0 0.069954452669655581 0.23241962907745001 0 0.02407674609719862 0.23933922187265291 0 0.043151893159281793 0.2344119775801832 0 0.042353052778460222 0.25196892326875842 0 0.093345662388713099 0.2397639989691242 0 0.082195171979265097 0.23770712517440551 0 0.083933774956018253 0.2270079108316104 0 0.093345662388713099 0.2397639989691242 0 0.082195171979265097 0.23770712517440551 0 0.085368855758972961 0.24869472611585131 0 0.082195171979265097 0.23770712517440551 0 0.085368855758972961 0.24869472611585131 0 0.073799655369753511 0.24211823117192419 0 0.085368855758972961 0.24869472611585131 0 0.073799655369753511 0.24211823117192419 0 0.071687527900019865 0.25324119832716102 0 0.059840116385892608 0.24202084081106651 0 0.073799655369753511 0.24211823117192419 0 0.071687527900019865 0.25324119832716102 0 0.059840116385892608 0.24202084081106651 0 0.073799655369753511 0.24211823117192419 0 0.069954452669655581 0.23241962907745001 0 0.082195171979265097 0.23770712517440551 0 0.073799655369753511 0.24211823117192419 0 0.069954452669655581 0.23241962907745001 0 0.061452873575408629 0.21760804368217279 0 0.069954452669655581 0.23241962907745001 0 0.083933774956018253 0.2270079108316104 0 0.061452873575408629 0.21760804368217279 0 0.083933774956018253 0.2270079108316104 0 0.087902687930808715 0.21619638640709679 0 0.095458279463028789 0.23182661491712861 0 0.083933774956018253 0.2270079108316104 0 0.087902687930808715 0.21619638640709679 0 0.095458279463028789 0.23182661491712861 0 0.082195171979265097 0.23770712517440551 0 0.069954452669655581 0.23241962907745001 0 0.083933774956018253 0.2270079108316104 0 0.083933774956018253 0.2270079108316104 0 0.095458279463028789 0.23182661491712861 0 0.093345662388713099 0.2397639989691242 0 0.083933774956018253 0.2270079108316104 0 0.093345662388713099 0.2397639989691242 0 0.083933774956018253 0.2270079108316104 0 0.095458279463028789 0.23182661491712861 0 0.083933774956018253 0.2270079108316104 0 0.087902687930808715 0.21619638640709679 0 0.081370574164927698 0.20749976182440491 0 0.087902687930808715 0.21619638640709679 0 0.081370574164927698 0.20749976182440491 0 0.095403326865733107 0.20618338317046461 0 0.081370574164927698 0.20749976182440491 0 0.085117678396136487 0.19670131161690499 0 0.095403326865733107 0.20618338317046461 0 0.083933774956018253 0.2270079108316104 0 0.066986874367610402 0.2040394935923209 0 0.083933774956018253 0.2270079108316104 0 0.081370574164927698 0.20749976182440491 0 0.066986874367610402 0.2040394935923209 0 0.061452873575408629 0.21760804368217279 0 0.083933774956018253 0.2270079108316104 0 0.066986874367610402 0.2040394935923209 0 0.081370574164927698 0.20749976182440491 0 0.066986874367610402 0.2040394935923209 0 0.074583015419464521 0.19498322314334091 0 0.066986874367610402 0.2040394935923209 0 0.066377063458817068 0.18755324663113851 0 0.074583015419464521 0.19498322314334091 0 0.074583015419464521 0.19498322314334091 0 0.085117678396136487 0.19670131161690499 0 0.080146475748484464 0.17920657399532161 0 0.085117678396136487 0.19670131161690499 0 0.093837758392211756 0.19442569031135951 0 0.080146475748484464 0.17920657399532161 0 0.093837758392211756 0.19442569031135951 0 0.1036731770273287 0.18975853143611179 0 0.080146475748484464 0.17920657399532161 0 0.081370574164927698 0.20749976182440491 0 0.074583015419464521 0.19498322314334091 0 0.085117678396136487 0.19670131161690499 0 0.085117678396136487 0.19670131161690499 0 0.093837758392211756 0.19442569031135951 0 0.095403326865733107 0.20618338317046461 0 0.093837758392211756 0.19442569031135951 0 0.104848133923376 0.20027865133799441 0 0.1036731770273287 0.18975853143611179 0 0.093837758392211756 0.19442569031135951 0 0.104848133923376 0.20027865133799441 0 0.095403326865733107 0.20618338317046461 0 0.104848133923376 0.20027865133799441 0 0.1036731770273287 0.18975853143611179 0 0.1165609683187207 0.19774066776048241 0 0.1036731770273287 0.18975853143611179 0 0.1165609683187207 0.19774066776048241 0 0.1136069639868605 0.1869018646833456 0 0.1165609683187207 0.19774066776048241 0 0.1136069639868605 0.1869018646833456 0 0.12651131776263999 0.18630387578828961 0 0.1165609683187207 0.19774066776048241 0 0.12651131776263999 0.18630387578828961 0 0.13164878963407869 0.20127882899762389 0 0.104848133923376 0.20027865133799441 0 0.1165609683187207 0.19774066776048241 0 0.1090646453200004 0.2099201294443728 0 0.1165609683187207 0.19774066776048241 0 0.1090646453200004 0.2099201294443728 0 0.12506492781601919 0.21609659969853709 0 0.1165609683187207 0.19774066776048241 0 0.12506492781601919 0.21609659969853709 0 0.13164878963407869 0.20127882899762389 0 0.1090646453200004 0.2099201294443728 0 0.1105471980974381 0.22066306624876639 0 0.12506492781601919 0.21609659969853709 0 0.1090646453200004 0.2099201294443728 0 0.095403326865733107 0.20618338317046461 0 0.10041680756788619 0.21928828455967481 0 0.1090646453200004 0.2099201294443728 0 0.10041680756788619 0.21928828455967481 0 0.1105471980974381 0.22066306624876639 0 0.104848133923376 0.20027865133799441 0 0.1090646453200004 0.2099201294443728 0 0.095403326865733107 0.20618338317046461 0 0.087902687930808715 0.21619638640709679 0 0.095403326865733107 0.20618338317046461 0 0.10041680756788619 0.21928828455967481 0 0.087902687930808715 0.21619638640709679 0 0.10041680756788619 0.21928828455967481 0 0.095458279463028789 0.23182661491712861 0 0.10041680756788619 0.21928828455967481 0 0.095458279463028789 0.23182661491712861 0 0.106892263490142 0.22904668592562369 0 0.10041680756788619 0.21928828455967481 0 0.106892263490142 0.22904668592562369 0 0.1105471980974381 0.22066306624876639 0 0.1105471980974381 0.22066306624876639 0 0.11524604389040261 0.23016475311573731 0 0.12506492781601919 0.21609659969853709 0 0.11524604389040261 0.23016475311573731 0 0.12960159044281999 0.23101456196372469 0 0.12506492781601919 0.21609659969853709 0 0.106892263490142 0.22904668592562369 0 0.11524604389040261 0.23016475311573731 0 0.12090184061168301 0.24246524948772741 0 0.106892263490142 0.22904668592562369 0 0.1105471980974381 0.22066306624876639 0 0.11524604389040261 0.23016475311573731 0 0.11524604389040261 0.23016475311573731 0 0.12090184061168301 0.24246524948772741 0 0.11524604389040261 0.23016475311573731 0 0.12090184061168301 0.24246524948772741 0 0.12960159044281999 0.23101456196372469 0 0.095458279463028789 0.23182661491712861 0 0.12090184061168301 0.24246524948772741 0 0.095458279463028789 0.23182661491712861 0 0.106892263490142 0.22904668592562369 0 0.12090184061168301 0.24246524948772741 0 0.093345662388713099 0.2397639989691242 0 0.085368855758972961 0.24869472611585131 0 0.1071120916355288 0.25593481961457593 0 0.095458279463028789 0.23182661491712861 0 0.12090184061168301 0.24246524948772741 0 0.1071120916355288 0.25593481961457593 0 0.095458279463028789 0.23182661491712861 0 0.1071120916355288 0.25593481961457593 0 0.093345662388713099 0.2397639989691242 0 0.095458279463028789 0.23182661491712861 0 0.1071120916355288 0.25593481961457593 0 0.080609391048002674 0.15019715995911481 0 0.085873859538732084 0.13827755588483151 0 0.09824195043955905 0.14865898236030919 0 0.080609391048002674 0.15019715995911481 0 0.086141134797186131 0.16429232390987469 0 0.09824195043955905 0.14865898236030919 0 0.080609391048002674 0.15019715995911481 0 0.085873859538732084 0.13827755588483151 0 0.078719082717866262 0.1392612162283311 0 0.090379367823409384 0.12214074150738941 0 0.085873859538732084 0.13827755588483151 0 0.09824195043955905 0.14865898236030919 0 0.090379367823409384 0.12214074150738941 0 0.081419505664823033 0.13112967936901301 0 0.085873859538732084 0.13827755588483151 0 0.090379367823409384 0.12214074150738941 0 0.078507352399907721 0.1228462553786467 0 0.081419505664823033 0.13112967936901301 0 0.081419505664823033 0.13112967936901301 0 0.085873859538732084 0.13827755588483151 0 0.078719082717866262 0.1392612162283311 0 0.081419505664823033 0.13112967936901301 0 0.078719082717866262 0.1392612162283311 0 0.070428491062381665 0.13098240468354369 0 0.078719082717866262 0.1392612162283311 0 0.070428491062381665 0.13098240468354369 0 0.069340269485414871 0.14294732847114949 0 0.078507352399907721 0.1228462553786467 0 0.081419505664823033 0.13112967936901301 0 0.070428491062381665 0.13098240468354369 0 0.061463646706064558 0.13656296426663739 0 0.056298909166737257 0.12639883119312931 0 0.070428491062381665 0.13098240468354369 0 0.066857531880331542 0.12045372911963489 0 0.056298909166737257 0.12639883119312931 0 0.070428491062381665 0.13098240468354369 0 0.061463646706064558 0.13656296426663739 0 0.070428491062381665 0.13098240468354369 0 0.069340269485414871 0.14294732847114949 0 0.058643268839511008 0.14727280108274951 0 0.061463646706064558 0.13656296426663739 0 0.069340269485414871 0.14294732847114949 0 0.058643268839511008 0.14727280108274951 0 0.069340269485414871 0.14294732847114949 0 0.066177736538663115 0.15340742460652079 0 0.080609391048002674 0.15019715995911481 0 0.066177736538663115 0.15340742460652079 0 0.086141134797186131 0.16429232390987469 0 0.080609391048002674 0.15019715995911481 0 0.078719082717866262 0.1392612162283311 0 0.069340269485414871 0.14294732847114949 0 0.080609391048002674 0.15019715995911481 0 0.069340269485414871 0.14294732847114949 0 0.066177736538663115 0.15340742460652079 0 0.056103260008518133 0.15771144899931111 0 0.066177736538663115 0.15340742460652079 0 0.071366281357369721 0.16727933399796771 0 0.066177736538663115 0.15340742460652079 0 0.086141134797186131 0.16429232390987469 0 0.056619774469640338 0.1686546165545314 0 0.071366281357369721 0.16727933399796771 0 0.080146475748484464 0.17920657399532161 0 0.066177736538663115 0.15340742460652079 0 0.071366281357369721 0.16727933399796771 0 0.086141134797186131 0.16429232390987469 0 0.056619774469640338 0.1686546165545314 0 0.063295821864036358 0.1791213783835055 0 0.080146475748484464 0.17920657399532161 0 0.066377063458817068 0.18755324663113851 0 0.074583015419464521 0.19498322314334091 0 0.080146475748484464 0.17920657399532161 0 0.056619774469640338 0.1686546165545314 0 0.080146475748484464 0.17920657399532161 0 0.066377063458817068 0.18755324663113851 0 0.063295821864036358 0.1791213783835055 0 0.080146475748484464 0.17920657399532161 0 0.1036731770273287 0.18975853143611179 0 0.080146475748484464 0.17920657399532161 0 0.092888696927075937 0.17566632728030651 0 0.1036731770273287 0.18975853143611179 0 0.080146475748484464 0.17920657399532161 0 0.080146475748484464 0.17920657399532161 0 0.092888696927075937 0.17566632728030651 0 0.086141134797186131 0.16429232390987469 0 0.071366281357369721 0.16727933399796771 0 0.080146475748484464 0.17920657399532161 0 0.086141134797186131 0.16429232390987469 0 0.092888696927075937 0.17566632728030651 0 0.086141134797186131 0.16429232390987469 0 0.1061045330557091 0.17517722321322879 0 0.086141134797186131 0.16429232390987469 0 0.1061045330557091 0.17517722321322879 0 0.09824195043955905 0.14865898236030919 0 0.1061045330557091 0.17517722321322879 0 0.1100763622228854 0.1595748501552427 0 0.09824195043955905 0.14865898236030919 0 0.086141134797186131 0.16429232390987469 0 0.1061045330557091 0.17517722321322879 0 0.1061045330557091 0.17517722321322879 0 0.09824195043955905 0.14865898236030919 0 0.1036731770273287 0.18975853143611179 0 0.092888696927075937 0.17566632728030651 0 0.1002239955324323 0.1786377440158971 0 0.092888696927075937 0.17566632728030651 0 0.1002239955324323 0.1786377440158971 0 0.1061045330557091 0.17517722321322879 0 0.1061045330557091 0.17517722321322879 0 0.1065718058275414 0.1767532005367636 0 0.10413958475892381 0.1785317714096252 0 0.1061045330557091 0.17517722321322879 0 0.1065718058275414 0.1767532005367636 0 0.1065718058275414 0.1767532005367636 0 0.10413958475892381 0.1785317714096252 0 0.10486378957472001 0.18262801032817941 0 0.1002239955324323 0.1786377440158971 0 0.1061045330557091 0.17517722321322879 0 0.10413958475892381 0.1785317714096252 0 0.1065718058275414 0.1767532005367636 0 0.10486378957472001 0.18262801032817941 0 0.1136069639868605 0.1869018646833456 0 0.1036731770273287 0.18975853143611179 0 0.1002239955324323 0.1786377440158971 0 0.10486378957472001 0.18262801032817941 0 0.1036731770273287 0.18975853143611179 0 0.10486378957472001 0.18262801032817941 0 0.1136069639868605 0.1869018646833456 0 0.1002239955324323 0.1786377440158971 0 0.10413958475892381 0.1785317714096252 0 0.10486378957472001 0.18262801032817941 0 0.1061045330557091 0.17517722321322879 0 0.12170511271734601 0.17084186355924769 0 0.12651131776263999 0.18630387578828961 0 0.1065718058275414 0.1767532005367636 0 0.1136069639868605 0.1869018646833456 0 0.12651131776263999 0.18630387578828961 0 0.1061045330557091 0.17517722321322879 0 0.12651131776263999 0.18630387578828961 0 0.1061045330557091 0.17517722321322879 0 0.1065718058275414 0.1767532005367636 0 0.12651131776263999 0.18630387578828961 0 0.1100763622228854 0.1595748501552427 0 0.1178894491055794 0.16112522602220569 0 0.1164607190285761 0.15254214003478331 0 0.1100763622228854 0.1595748501552427 0 0.1142558446268656 0.16685259787233181 0 0.1178894491055794 0.16112522602220569 0 0.1061045330557091 0.17517722321322879 0 0.1142558446268656 0.16685259787233181 0 0.12170511271734601 0.17084186355924769 0 0.1061045330557091 0.17517722321322879 0 0.1100763622228854 0.1595748501552427 0 0.1142558446268656 0.16685259787233181 0 0.1142558446268656 0.16685259787233181 0 0.12170511271734601 0.17084186355924769 0 0.1178894491055794 0.16112522602220569 0 0.1178894491055794 0.16112522602220569 0 0.1164607190285761 0.15254214003478331 0 0.12694920693222361 0.15581467848942279 0 0.12170511271734601 0.17084186355924769 0 0.1178894491055794 0.16112522602220569 0 0.12694920693222361 0.15581467848942279 0 0.1184202869927513 0.14215743930928409 0 0.1164607190285761 0.15254214003478331 0 0.12694920693222361 0.15581467848942279 0 0.1184202869927513 0.14215743930928409 0 0.12908174020039501 0.1446479521338504 0 0.12694920693222361 0.15581467848942279 0 0.1184202869927513 0.14215743930928409 0 0.1100179312840556 0.1453471876583477 0 0.11443188247990831 0.13504262790772739 0 0.1184202869927513 0.14215743930928409 0 0.1100179312840556 0.1453471876583477 0 0.1164607190285761 0.15254214003478331 0 0.1100763622228854 0.1595748501552427 0 0.1100179312840556 0.1453471876583477 0 0.1164607190285761 0.15254214003478331 0 0.1100763622228854 0.1595748501552427 0 0.1100179312840556 0.1453471876583477 0 0.09824195043955905 0.14865898236030919 0 0.1100179312840556 0.1453471876583477 0 0.09824195043955905 0.14865898236030919 0 0.1065045085240086 0.13592606235815599 0 0.090379367823409384 0.12214074150738941 0 0.09824195043955905 0.14865898236030919 0 0.1011866453508712 0.1290542695631525 0 0.09824195043955905 0.14865898236030919 0 0.1011866453508712 0.1290542695631525 0 0.1065045085240086 0.13592606235815599 0 0.090379367823409384 0.12214074150738941 0 0.09824195043955905 0.14865898236030919 0 0.10301650600168299 0.1215061591484069 0 0.1011866453508712 0.1290542695631525 0 0.10908650437608761 0.1256448195909409 0 0.1011866453508712 0.1290542695631525 0 0.1065045085240086 0.13592606235815599 0 0.10908650437608761 0.1256448195909409 0 0.10908650437608761 0.1256448195909409 0 0.11443188247990831 0.13504262790772739 0 0.1199191127686572 0.1275652237442661 0 0.1065045085240086 0.13592606235815599 0 0.10908650437608761 0.1256448195909409 0 0.11443188247990831 0.13504262790772739 0 0.1100179312840556 0.1453471876583477 0 0.1065045085240086 0.13592606235815599 0 0.11443188247990831 0.13504262790772739 0 0.1184202869927513 0.14215743930928409 0 0.11443188247990831 0.13504262790772739 0 0.1246495069913625 0.13506398315019691 0 0.1184202869927513 0.14215743930928409 0 0.1246495069913625 0.13506398315019691 0 0.12908174020039501 0.1446479521338504 0 0.11443188247990831 0.13504262790772739 0 0.1246495069913625 0.13506398315019691 0 0.1199191127686572 0.1275652237442661 0 0.1246495069913625 0.13506398315019691 0 0.13536965992278771 0.1366233363987262 0 0.1306743595836756 0.1243473194073275 0 0.1246495069913625 0.13506398315019691 0 0.1199191127686572 0.1275652237442661 0 0.1306743595836756 0.1243473194073275 0 0.13536965992278771 0.1366233363987262 0 0.1522688348931493 0.12604834430162171 0 0.1306743595836756 0.1243473194073275 0 0.1246495069913625 0.13506398315019691 0 0.13536965992278771 0.1366233363987262 0 0.12908174020039501 0.1446479521338504 0 0.13536965992278771 0.1366233363987262 0 0.1522688348931493 0.12604834430162171 0 0.14106438446788649 0.15185880998906931 0 0.1522688348931493 0.12604834430162171 0 0.15959412568187281 0.15366259331919949 0 0.1522688348931493 0.12604834430162171 0 0.14106438446788649 0.15185880998906931 0 0.15959412568187281 0.15366259331919949 0 0.13536965992278771 0.1366233363987262 0 0.14106438446788649 0.15185880998906931 0 0.12908174020039501 0.1446479521338504 0 0.14106438446788649 0.15185880998906931 0 0.12908174020039501 0.1446479521338504 0 0.12694920693222361 0.15581467848942279 0 0.12170511271734601 0.17084186355924769 0 0.12694920693222361 0.15581467848942279 0 0.14186389223192311 0.17004704083946309 0 0.14106438446788649 0.15185880998906931 0 0.12694920693222361 0.15581467848942279 0 0.14186389223192311 0.17004704083946309 0 0.12651131776263999 0.18630387578828961 0 0.14186389223192311 0.17004704083946309 0 0.14691810246957071 0.19743052836335051 0 0.12170511271734601 0.17084186355924769 0 0.12651131776263999 0.18630387578828961 0 0.14186389223192311 0.17004704083946309 0 0.14186389223192311 0.17004704083946309 0 0.1669194164705963 0.18127684233677721 0 0.14691810246957071 0.19743052836335051 0 0.14106438446788649 0.15185880998906931 0 0.14186389223192311 0.17004704083946309 0 0.15959412568187281 0.15366259331919949 0 0.14186389223192311 0.17004704083946309 0 0.1669194164705963 0.18127684233677721 0 0.15959412568187281 0.15366259331919949 0 0.1669194164705963 0.18127684233677721 0 0.17376887817647241 0.1608435014486532 0 0.15959412568187281 0.15366259331919949 0 0.1669194164705963 0.18127684233677721 0 0.15959412568187281 0.15366259331919949 0 0.1669194164705963 0.18127684233677721 0 0.18555706675682809 0.1693889587368678 0 0.18678344196602681 0.1907861921589058 0 0.17376887817647241 0.1608435014486532 0 0.18555706675682809 0.1693889587368678 0 0.18660189231583121 0.1494613004777294 0 0.1669194164705963 0.18127684233677721 0 0.17376887817647241 0.1608435014486532 0 0.18555706675682809 0.1693889587368678 0 0.17376887817647241 0.1608435014486532 0 0.18660189231583121 0.1494613004777294 0 0.17362526679819651 0.1400788065957011 0 0.18660189231583121 0.1494613004777294 0 0.18540888981888659 0.1342060817797612 0 0.17362526679819651 0.1400788065957011 0 0.18540888981888659 0.1342060817797612 0 0.17362526679819651 0.1400788065957011 0 0.17423463712757861 0.122670274146358 0 0.18540888981888659 0.1342060817797612 0 0.19014494838797699 0.1228628919509089 0 0.17423463712757861 0.122670274146358 0 0.1522688348931493 0.12604834430162171 0 0.17362526679819651 0.1400788065957011 0 0.15959412568187281 0.15366259331919949 0 0.1522688348931493 0.12604834430162171 0 0.17362526679819651 0.1400788065957011 0 0.17423463712757861 0.122670274146358 0 0.17376887817647241 0.1608435014486532 0 0.17362526679819651 0.1400788065957011 0 0.15959412568187281 0.15366259331919949 0 0.14368896693932301 0.22658077213965139 0 0.15854122493303621 0.23014918089317871 0 0.14694682335116249 0.25335535453803693 0 0.12960159044281999 0.23101456196372469 0 0.14368896693932301 0.22658077213965139 0 0.14694682335116249 0.25335535453803693 0 0.12090184061168301 0.24246524948772741 0 0.14694682335116249 0.25335535453803693 0 0.12090184061168301 0.24246524948772741 0 0.12960159044281999 0.23101456196372469 0 0.14694682335116249 0.25335535453803693 0 0.12960159044281999 0.23101456196372469 0 0.14368896693932301 0.22658077213965139 0 0.12506492781601919 0.21609659969853709 0 0.14368896693932301 0.22658077213965139 0 0.1534882649437774 0.2182985998570286 0 0.15854122493303621 0.23014918089317871 0 0.14368896693932301 0.22658077213965139 0 0.1534882649437774 0.2182985998570286 0 0.14277078071438201 0.21090915471099361 0 0.1534882649437774 0.2182985998570286 0 0.15581563248352279 0.20576959920977039 0 0.14277078071438201 0.21090915471099361 0 0.15581563248352279 0.20576959920977039 0 0.14277078071438201 0.21090915471099361 0 0.14691810246957071 0.19743052836335051 0 0.14368896693932301 0.22658077213965139 0 0.14277078071438201 0.21090915471099361 0 0.12506492781601919 0.21609659969853709 0 0.14277078071438201 0.21090915471099361 0 0.12506492781601919 0.21609659969853709 0 0.13164878963407869 0.20127882899762389 0 0.14277078071438201 0.21090915471099361 0 0.13164878963407869 0.20127882899762389 0 0.14691810246957071 0.19743052836335051 0 0.12651131776263999 0.18630387578828961 0 0.13164878963407869 0.20127882899762389 0 0.14691810246957071 0.19743052836335051 0 0.12651131776263999 0.18630387578828961 0 0.14691810246957071 0.19743052836335051 0 0.1669194164705963 0.18127684233677721 0 0.17424470725931629 0.20889109135435591 0 0.16773430872363759 0.20834861057347329 0 0.1669194164705963 0.18127684233677721 0 0.15581563248352279 0.20576959920977039 0 0.16773430872363759 0.20834861057347329 0 0.1669194164705963 0.18127684233677721 0 0.15581563248352279 0.20576959920977039 0 0.14691810246957071 0.19743052836335051 0 0.1669194164705963 0.18127684233677721 0 0.17424470725931629 0.20889109135435591 0 0.1669194164705963 0.18127684233677721 0 0.18678344196602681 0.1907861921589058 0 0.17424470725931629 0.20889109135435591 0 0.17424470725931629 0.20889109135435591 0 0.19939943659816109 0.2109871162197898 0 0.18678344196602681 0.1907861921589058 0 0.17424470725931629 0.20889109135435591 0 0.19939943659816109 0.2109871162197898 0 0.18033341422718441 0.21068867635636801 0 0.17424470725931629 0.20889109135435591 0 0.19939943659816109 0.2109871162197898 0 0.18033341422718441 0.21068867635636801 0 0.17424470725931629 0.20889109135435591 0 0.18141513768092579 0.23592156112495441 0 0.17424470725931629 0.20889109135435591 0 0.16497833624554839 0.216902496350795 0 0.16773430872363759 0.20834861057347329 0 0.17424470725931629 0.20889109135435591 0 0.16497833624554839 0.216902496350795 0 0.16905295535870829 0.22638062487692251 0 0.17424470725931629 0.20889109135435591 0 0.16773430872363759 0.20834861057347329 0 0.15581563248352279 0.20576959920977039 0 0.16497833624554839 0.216902496350795 0 0.16773430872363759 0.20834861057347329 0 0.1534882649437774 0.2182985998570286 0 0.15581563248352279 0.20576959920977039 0 0.16497833624554839 0.216902496350795 0 0.15854122493303621 0.23014918089317871 0 0.16905295535870829 0.22638062487692251 0 0.1675952196471262 0.24366021195892809 0 0.1534882649437774 0.2182985998570286 0 0.16497833624554839 0.216902496350795 0 0.15854122493303621 0.23014918089317871 0 0.16497833624554839 0.216902496350795 0 0.15854122493303621 0.23014918089317871 0 0.16905295535870829 0.22638062487692251 0 0.18033341422718441 0.21068867635636801 0 0.18141513768092579 0.23592156112495441 0 0.18897636246913141 0.23055790885686489 0 0.17424470725931629 0.20889109135435591 0 0.16905295535870829 0.22638062487692251 0 0.18141513768092579 0.23592156112495441 0 0.18033341422718441 0.21068867635636801 0 0.18897636246913141 0.23055790885686489 0 0.18033341422718441 0.21068867635636801 0 0.18897636246913141 0.23055790885686489 0 0.1922660819003586 0.2193536695740472 0 0.17424470725931629 0.20889109135435591 0 0.18141513768092579 0.23592156112495441 0 0.18141513768092579 0.23592156112495441 0 0.1766233704682825 0.25190909073213019 0 0.18160693892536381 0.25851112949721938 0 0.16905295535870829 0.22638062487692251 0 0.18141513768092579 0.23592156112495441 0 0.1675952196471262 0.24366021195892809 0 0.18141513768092579 0.23592156112495441 0 0.18858556810253041 0.26295203089555419 0 0.18141513768092579 0.23592156112495441 0 0.1675952196471262 0.24366021195892809 0 0.1766233704682825 0.25190909073213019 0 0.15854122493303621 0.23014918089317871 0 0.1675952196471262 0.24366021195892809 0 0.14694682335116249 0.25335535453803693 0 0.2110867383240406 0.2317551412212929 0 0.22773538479549671 0.2355751505615804 0 0.21434674024768369 0.25085964475063538 0 0.2110867383240406 0.2317551412212929 0 0.1976193107110755 0.2504271413573631 0 0.21434674024768369 0.25085964475063538 0 0.2110867383240406 0.2317551412212929 0 0.1976193107110755 0.2504271413573631 0 0.2003551143069576 0.2251809768631661 0 0.2110867383240406 0.2317551412212929 0 0.1976193107110755 0.2504271413573631 0 0.18897636246913141 0.23055790885686489 0 0.1976193107110755 0.2504271413573631 0 0.18141513768092579 0.23592156112495441 0 0.18897636246913141 0.23055790885686489 0 0.1976193107110755 0.2504271413573631 0 0.18141513768092579 0.23592156112495441 0 0.18858556810253041 0.26295203089555419 0 0.1976193107110755 0.2504271413573631 0 0.18897636246913141 0.23055790885686489 0 0.2003551143069576 0.2251809768631661 0 0.1976193107110755 0.2504271413573631 0 0.18897636246913141 0.23055790885686489 0 0.1922660819003586 0.2193536695740472 0 0.2003551143069576 0.2251809768631661 0 0.2003551143069576 0.2251809768631661 0 0.2110867383240406 0.2317551412212929 0 0.22455416593700611 0.21308314108522289 0 0.2110867383240406 0.2317551412212929 0 0.22455416593700611 0.21308314108522289 0 0.19939943659816109 0.2109871162197898 0 0.22455416593700611 0.21308314108522289 0 0.19939943659816109 0.2109871162197898 0 0.2085293918919558 0.19704915656711061 0 0.22455416593700611 0.21308314108522289 0 0.2003551143069576 0.2251809768631661 0 0.19939943659816109 0.2109871162197898 0 0.22455416593700611 0.21308314108522289 0 0.1922660819003586 0.2193536695740472 0 0.2003551143069576 0.2251809768631661 0 0.19939943659816109 0.2109871162197898 0 0.18033341422718441 0.21068867635636801 0 0.1922660819003586 0.2193536695740472 0 0.19939943659816109 0.2109871162197898 0 0.19939943659816109 0.2109871162197898 0 0.19970844447448671 0.1901148359122371 0 0.2085293918919558 0.19704915656711061 0 0.18678344196602681 0.1907861921589058 0 0.19939943659816109 0.2109871162197898 0 0.19970844447448671 0.1901148359122371 0 0.20641385809514021 0.1887743169336133 0 0.2085293918919558 0.19704915656711061 0 0.21124011355715841 0.1875815661384386 0 0.19970844447448671 0.1901148359122371 0 0.20641385809514021 0.1887743169336133 0 0.2085293918919558 0.19704915656711061 0 0.2085293918919558 0.19704915656711061 0 0.22222025092146011 0.1967251274744147 0 0.22455416593700611 0.21308314108522289 0 0.2085293918919558 0.19704915656711061 0 0.21124011355715841 0.1875815661384386 0 0.22222025092146011 0.1967251274744147 0 0.22489905657703521 0.1904658066477681 0 0.22222025092146011 0.1967251274744147 0 0.21295884228117939 0.17539817831925861 0 0.24162788945038491 0.18941116920411491 0 0.22617947316679091 0.2108297236035889 0 0.22489905657703521 0.1904658066477681 0 0.22222025092146011 0.1967251274744147 0 0.22617947316679091 0.2108297236035889 0 0.22489905657703521 0.1904658066477681 0 0.22617947316679091 0.2108297236035889 0 0.22489905657703521 0.1904658066477681 0 0.24162788945038491 0.18941116920411491 0 0.22617947316679091 0.2108297236035889 0 0.24162788945038491 0.18941116920411491 0 0.2411992482681494 0.20204219712991869 0 0.22617947316679091 0.2108297236035889 0 0.24162788945038491 0.18941116920411491 0 0.2411992482681494 0.20204219712991869 0 0.25197570488193582 0.19988195687707591 0 0.2411992482681494 0.20204219712991869 0 0.2393390122256458 0.2097620293988591 0 0.22617947316679091 0.2108297236035889 0 0.22633046713374799 0.21323115187980041 0 0.25444422105787551 0.2155737382973239 0 0.22633046713374799 0.21323115187980041 0 0.23961997881466529 0.22361171844671679 0 0.25444422105787551 0.2155737382973239 0 0.2393390122256458 0.2097620293988591 0 0.22633046713374799 0.21323115187980041 0 0.25444422105787551 0.2155737382973239 0 0.2411992482681494 0.20204219712991869 0 0.2393390122256458 0.2097620293988591 0 0.24964234095296531 0.20776630394203441 0 0.2411992482681494 0.20204219712991869 0 0.24964234095296531 0.20776630394203441 0 0.25197570488193582 0.19988195687707591 0 0.2393390122256458 0.2097620293988591 0 0.24964234095296531 0.20776630394203441 0 0.25444422105787551 0.2155737382973239 0 0.2393390122256458 0.2097620293988591 0 0.22617947316679091 0.2108297236035889 0 0.22633046713374799 0.21323115187980041 0 0.22222025092146011 0.1967251274744147 0 0.22617947316679091 0.2108297236035889 0 0.22455416593700611 0.21308314108522289 0 0.22633046713374799 0.21323115187980041 0 0.22455416593700611 0.21308314108522289 0 0.22617947316679091 0.2108297236035889 0 0.22633046713374799 0.21323115187980041 0 0.22617947316679091 0.2108297236035889 0 0.22633046713374799 0.21323115187980041 0 0.22455416593700611 0.21308314108522289 0 0.22617947316679091 0.2108297236035889 0 0.22455416593700611 0.21308314108522289 0 0.22633046713374799 0.21323115187980041 0 0.23961997881466529 0.22361171844671679 0 0.22773538479549671 0.2355751505615804 0 0.22633046713374799 0.21323115187980041 0 0.22455416593700611 0.21308314108522289 0 0.22773538479549671 0.2355751505615804 0 0.22633046713374799 0.21323115187980041 0 0.22773538479549671 0.2355751505615804 0 0.2110867383240406 0.2317551412212929 0 0.22455416593700611 0.21308314108522289 0 0.22773538479549671 0.2355751505615804 0 0.23961997881466529 0.22361171844671679 0 0.2463747692332863 0.23880891629358819 0 0.22773538479549671 0.2355751505615804 0 0.23961997881466529 0.22361171844671679 0 0.2496011013201074 0.22522745507942621 0 0.25444422105787551 0.2155737382973239 0 0.23961997881466529 0.22361171844671679 0 0.2496011013201074 0.22522745507942621 0 0.2463747692332863 0.23880891629358819 0 0.2463747692332863 0.23880891629358819 0 0.22773538479549671 0.2355751505615804 0 0.22914030245724509 0.25791914924336029 0 0.22773538479549671 0.2355751505615804 0 0.22914030245724509 0.25791914924336029 0 0.22773538479549671 0.2355751505615804 0 0.21434674024768369 0.25085964475063538 0 0.22914030245724509 0.25791914924336029 0 0.21191896073794381 0.14492957625200589 0 0.21749512360588641 0.13351905475554371 0 0.2223382233975256 0.1497379727361263 0 0.2036974336408984 0.15407122916410271 0 0.21191896073794381 0.14492957625200589 0 0.20129501699698679 0.12861339864112531 0 0.2036974336408984 0.15407122916410271 0 0.21191896073794381 0.14492957625200589 0 0.2147690060484215 0.15870622596313169 0 0.21191896073794381 0.14492957625200589 0 0.2147690060484215 0.15870622596313169 0 0.2223382233975256 0.1497379727361263 0 0.21191896073794381 0.14492957625200589 0 0.21749512360588641 0.13351905475554371 0 0.20129501699698679 0.12861339864112531 0 0.21749512360588641 0.13351905475554371 0 0.20129501699698679 0.12861339864112531 0 0.2129851130333332 0.12435386576937379 0 0.2036974336408984 0.15407122916410271 0 0.19692119101443781 0.13846706055750571 0 0.20129501699698679 0.12861339864112531 0 0.19692119101443781 0.13846706055750571 0 0.20129501699698679 0.12861339864112531 0 0.19014494838797699 0.1228628919509089 0 0.19692119101443781 0.13846706055750571 0 0.19014494838797699 0.1228628919509089 0 0.18540888981888659 0.1342060817797612 0 0.19692119101443781 0.13846706055750571 0 0.19014494838797699 0.1228628919509089 0 0.2036974336408984 0.15407122916410271 0 0.20129501699698679 0.12861339864112531 0 0.18660189231583121 0.1494613004777294 0 0.2036974336408984 0.15407122916410271 0 0.19692119101443781 0.13846706055750571 0 0.18660189231583121 0.1494613004777294 0 0.18540888981888659 0.1342060817797612 0 0.19692119101443781 0.13846706055750571 0 0.2036974336408984 0.15407122916410271 0 0.19692119101443781 0.13846706055750571 0 0.18555706675682809 0.1693889587368678 0 0.2036974336408984 0.15407122916410271 0 0.19517087976309341 0.17730818137255311 0 0.2036974336408984 0.15407122916410271 0 0.19517087976309341 0.17730818137255311 0 0.20617748245695999 0.18035170911666679 0 0.18555706675682809 0.1693889587368678 0 0.18660189231583121 0.1494613004777294 0 0.2036974336408984 0.15407122916410271 0 0.18555706675682809 0.1693889587368678 0 0.18678344196602681 0.1907861921589058 0 0.19517087976309341 0.17730818137255311 0 0.18678344196602681 0.1907861921589058 0 0.19970844447448671 0.1901148359122371 0 0.19517087976309341 0.17730818137255311 0 0.19970844447448671 0.1901148359122371 0 0.19517087976309341 0.17730818137255311 0 0.20617748245695999 0.18035170911666679 0 0.22222025092146011 0.1967251274744147 0 0.21295884228117939 0.17539817831925861 0 0.21124011355715841 0.1875815661384386 0 0.22222025092146011 0.1967251274744147 0 0.21295884228117939 0.17539817831925861 0 0.19970844447448671 0.1901148359122371 0 0.20641385809514021 0.1887743169336133 0 0.20617748245695999 0.18035170911666679 0 0.20641385809514021 0.1887743169336133 0 0.21124011355715841 0.1875815661384386 0 0.20617748245695999 0.18035170911666679 0 0.21124011355715841 0.1875815661384386 0 0.20617748245695999 0.18035170911666679 0 0.21295884228117939 0.17539817831925861 0 0.2036974336408984 0.15407122916410271 0 0.21295884228117939 0.17539817831925861 0 0.2036974336408984 0.15407122916410271 0 0.21295884228117939 0.17539817831925861 0 0.2147690060484215 0.15870622596313169 0 0.21295884228117939 0.17539817831925861 0 0.2147690060484215 0.15870622596313169 0 0.2236186399872804 0.17010188969194731 0 0.2036974336408984 0.15407122916410271 0 0.20617748245695999 0.18035170911666679 0 0.21295884228117939 0.17539817831925861 0 0.2036974336408984 0.15407122916410271 0 0.20617748245695999 0.18035170911666679 0 0.2236186399872804 0.17010188969194731 0 0.2223382233975256 0.1497379727361263 0 0.2236186399872804 0.17010188969194731 0 0.23777977753291241 0.16621199947812931 0 0.2223382233975256 0.1497379727361263 0 0.2147690060484215 0.15870622596313169 0 0.2236186399872804 0.17010188969194731 0 0.2223382233975256 0.1497379727361263 0 0.2236186399872804 0.17010188969194731 0 0.23205128107775941 0.17891042515342789 0 0.23777977753291241 0.16621199947812931 0 0.22489905657703521 0.1904658066477681 0 0.2236186399872804 0.17010188969194731 0 0.23205128107775941 0.17891042515342789 0 0.22489905657703521 0.1904658066477681 0 0.2236186399872804 0.17010188969194731 0 0.22489905657703521 0.1904658066477681 0 0.21295884228117939 0.17539817831925861 0 0.2236186399872804 0.17010188969194731 0 0.22489905657703521 0.1904658066477681 0 0.24162788945038491 0.18941116920411491 0 0.23205128107775941 0.17891042515342789 0 0.24162788945038491 0.18941116920411491 0 0.23777977753291241 0.16621199947812931 0 0.25707630573397799 0.1679926148046402 0 0.24162788945038491 0.18941116920411491 0 0.25707630573397799 0.1679926148046402 0 0.24162788945038491 0.18941116920411491 0 0.23205128107775941 0.17891042515342789 0 0.23777977753291241 0.16621199947812931 0 0.23777977753291241 0.16621199947812931 0 0.2451965164384606 0.15048095877338469 0 0.25707630573397799 0.1679926148046402 0 0.23777977753291241 0.16621199947812931 0 0.2451965164384606 0.15048095877338469 0 0.2223382233975256 0.1497379727361263 0 0.2451965164384606 0.15048095877338469 0 0.2223382233975256 0.1497379727361263 0 0.23508809614916831 0.1320540411648049 0 0.21749512360588641 0.13351905475554371 0 0.23508809614916831 0.1320540411648049 0 0.22595180706173301 0.11885640080135609 0 0.21749512360588641 0.13351905475554371 0 0.2223382233975256 0.1497379727361263 0 0.23508809614916831 0.1320540411648049 0 0.21749512360588641 0.13351905475554371 0 0.22595180706173301 0.11885640080135609 0 0.2129851130333332 0.12435386576937379 0 0.23508809614916831 0.1320540411648049 0 0.246706878043606 0.1158336995292706 0 0.25661904696673532 0.13318305705874151 0 0.2451965164384606 0.15048095877338469 0 0.23508809614916831 0.1320540411648049 0 0.25661904696673532 0.13318305705874151 0 0.23508809614916831 0.1320540411648049 0 0.246706878043606 0.1158336995292706 0 0.22595180706173301 0.11885640080135609 0 0.23508809614916831 0.1320540411648049 0 0.246706878043606 0.1158336995292706 0 0.246706878043606 0.1158336995292706 0 0.24561788183909869 0.1034330739771103 0 0.22595180706173301 0.11885640080135609 0 0.24561788183909869 0.1034330739771103 0 0.22595180706173301 0.11885640080135609 0 0.2363389438183042 0.093251762561885054 0 0.24561788183909869 0.1034330739771103 0 0.2363389438183042 0.093251762561885054 0 0.24879594332394811 0.090284131888186944 0 0.22595180706173301 0.11885640080135609 0 0.21754279421568409 0.1034116008005944 0 0.2363389438183042 0.093251762561885054 0 0.21754279421568409 0.1034116008005944 0 0.2163889307479826 0.086857992294636727 0 0.2363389438183042 0.093251762561885054 0 0.22595180706173301 0.11885640080135609 0 0.2363389438183042 0.093251762561885054 0 0.22595180706173301 0.11885640080135609 0 0.2129851130333332 0.12435386576937379 0 0.21014168909732561 0.1149362802269461 0 0.20129501699698679 0.12861339864112531 0 0.21014168909732561 0.1149362802269461 0 0.1988926003530756 0.1031555681181478 0 0.22595180706173301 0.11885640080135609 0 0.21014168909732561 0.1149362802269461 0 0.21754279421568409 0.1034116008005944 0 0.20129501699698679 0.12861339864112531 0 0.2129851130333332 0.12435386576937379 0 0.21014168909732561 0.1149362802269461 0 0.21754279421568409 0.1034116008005944 0 0.1988926003530756 0.1031555681181478 0 0.2163889307479826 0.086857992294636727 0 0.21014168909732561 0.1149362802269461 0 0.21754279421568409 0.1034116008005944 0 0.1988926003530756 0.1031555681181478 0 0.20129501699698679 0.12861339864112531 0 0.1988926003530756 0.1031555681181478 0 0.19014494838797699 0.1228628919509089 0 0.1988926003530756 0.1031555681181478 0 0.19014494838797699 0.1228628919509089 0 0.17990269589786301 0.1055144157334309 0 0.20129501699698679 0.12861339864112531 0 0.1988926003530756 0.1031555681181478 0 0.20023880499729771 0.079728109263307353 0 0.21290906138079821 0.067193220230594999 0 0.19382471300677109 0.060796484391006718 0 0.20023880499729771 0.079728109263307353 0 0.19382471300677109 0.060796484391006718 0 0.18233247431024091 0.083784269994485169 0 0.1988926003530756 0.1031555681181478 0 0.20023880499729771 0.079728109263307353 0 0.18233247431024091 0.083784269994485169 0 0.1988926003530756 0.1031555681181478 0 0.20023880499729771 0.079728109263307353 0 0.2163889307479826 0.086857992294636727 0 0.20023880499729771 0.079728109263307353 0 0.2163889307479826 0.086857992294636727 0 0.21290906138079821 0.067193220230594999 0 0.21290906138079821 0.067193220230594999 0 0.22872055129404981 0.074212009351675157 0 0.22680908993099891 0.056175692903657329 0 0.22872055129404981 0.074212009351675157 0 0.24672608057487391 0.06764712432241346 0 0.22680908993099891 0.056175692903657329 0 0.2163889307479826 0.086857992294636727 0 0.21290906138079821 0.067193220230594999 0 0.22872055129404981 0.074212009351675157 0 0.2163889307479826 0.086857992294636727 0 0.22872055129404981 0.074212009351675157 0 0.2363389438183042 0.093251762561885054 0 0.2363389438183042 0.093251762561885054 0 0.24879594332394811 0.090284131888186944 0 0.2487079150527933 0.075535356883333626 0 0.2363389438183042 0.093251762561885054 0 0.2487079150527933 0.075535356883333626 0 0.24672608057487391 0.06764712432241346 0 0.22872055129404981 0.074212009351675157 0 0.2363389438183042 0.093251762561885054 0 0.24672608057487391 0.06764712432241346 0 0.2363389438183042 0.093251762561885054 0 0.24672608057487391 0.06764712432241346 0 0.2487079150527933 0.075535356883333626 0 0.24672608057487391 0.06764712432241346 0 0.25414682040492842 0.079634544976564553 0 0.2487079150527933 0.075535356883333626 0 0.24672608057487391 0.06764712432241346 0 0.24672608057487391 0.06764712432241346 0 0.24996798087181071 0.05965573205939334 0 0.24672608057487391 0.06764712432241346 0 0.24996798087181071 0.05965573205939334 0 0.23943413774961739 0.038623236875015121 0 0.24672608057487391 0.06764712432241346 0 0.23943413774961739 0.038623236875015121 0 0.22680908993099891 0.056175692903657329 0 0.24996798087181071 0.05965573205939334 0 0.2457248214974613 0.039369409350387928 0 0.24672608057487391 0.06764712432241346 0 0.23943413774961739 0.038623236875015121 0 0.24996798087181071 0.05965573205939334 0 0.23943413774961739 0.038623236875015121 0 0.2457248214974613 0.039369409350387928 0 0.23943413774961739 0.038623236875015121 0 0.2457248214974613 0.039369409350387928 0 0.2414816621231094 0.019083086641383119 0 0.23943413774961739 0.038623236875015121 0 0.22325031375773691 0.040116988102423118 0 0.22680908993099891 0.056175692903657329 0 0.23943413774961739 0.038623236875015121 0 0.22325031375773691 0.040116988102423118 0 0.22290911124564511 0.02662932601158579 0 0.22325031375773691 0.040116988102423118 0 0.22680908993099891 0.056175692903657329 0 0.21026165926644891 0.048618104291935249 0 0.2414816621231094 0.019083086641383119 0 0.23723850274875749 -0.001203236067621669 0 0.24363874298098129 0.003121572192933643 0 0.2414816621231094 0.019083086641383119 0 0.23723850274875749 -0.001203236067621669 0 0.24363874298098129 0.003121572192933643 0 0.25338117688950379 0.024921072582378041 0 0.2414816621231094 0.019083086641383119 0 0.23214219492436231 0.0095993494276165742 0 0.23723850274875749 -0.001203236067621669 0 0.24363874298098129 0.003121572192933643 0 0.25390617926384917 0.011057621929408909 0 0.25146702323205578 0.0027030344999698021 0 0.24363874298098129 0.003121572192933643 0 0.25146702323205578 0.0027030344999698021 0 0.25052547948833143 -0.0039930107272881654 0 0.2457248214974613 0.039369409350387928 0 0.2414816621231094 0.019083086641383119 0 0.23943413774961739 0.038623236875015121 0 0.23214219492436231 0.0095993494276165742 0 0.2457248214974613 0.039369409350387928 0 0.2414816621231094 0.019083086641383119 0 0.25050088610033311 0.03074660000432845 0 0.23943413774961739 0.038623236875015121 0 0.2414816621231094 0.019083086641383119 0 0.23214219492436231 0.0095993494276165742 0 0.24363874298098129 0.003121572192933643 0 0.2414816621231094 0.019083086641383119 0 0.25338117688950379 0.024921072582378041 0 0.2414816621231094 0.019083086641383119 0 0.25338117688950379 0.024921072582378041 0 0.25050088610033311 0.03074660000432845 0 0.23943413774961739 0.038623236875015121 0 0.22290911124564511 0.02662932601158579 0 0.23214219492436231 0.0095993494276165742 0 0.22290911124564511 0.02662932601158579 0 0.23214219492436231 0.0095993494276165742 0 0.21010202246917339 0.013975614430860289 0 0.23214219492436231 0.0095993494276165742 0 0.21010202246917339 0.013975614430860289 0 0.2112919316049657 -0.001660364735547086 0 0.21010202246917339 0.013975614430860289 0 0.20039534490427149 0.0036006089196753371 0 0.2112919316049657 -0.001660364735547086 0 0.21010202246917339 0.013975614430860289 0 0.19966748189361519 0.01251374761038203 0 0.20039534490427149 0.0036006089196753371 0 0.22290911124564511 0.02662932601158579 0 0.21010202246917339 0.013975614430860289 0 0.20961688732733541 0.03083144122201386 0 0.21010202246917339 0.013975614430860289 0 0.20961688732733541 0.03083144122201386 0 0.19941018134232119 0.021978225516567119 0 0.19082171570469569 0.022189935803936831 0 0.19515989019505281 0.036594798901915533 0 0.17933062372588501 0.026589977532236651 0 0.20961688732733541 0.03083144122201386 0 0.19941018134232119 0.021978225516567119 0 0.19515989019505281 0.036594798901915533 0 0.19082171570469569 0.022189935803936831 0 0.19941018134232119 0.021978225516567119 0 0.19515989019505281 0.036594798901915533 0 0.19082171570469569 0.022189935803936831 0 0.19941018134232119 0.021978225516567119 0 0.19334625049504681 0.0144072363349366 0 0.19082171570469569 0.022189935803936831 0 0.18706088897193621 0.01450389075464612 0 0.18490688314117451 0.019081712986791809 0 0.19082171570469569 0.022189935803936831 0 0.19334625049504681 0.0144072363349366 0 0.18706088897193621 0.01450389075464612 0 0.19941018134232119 0.021978225516567119 0 0.19966748189361519 0.01251374761038203 0 0.19334625049504681 0.0144072363349366 0 0.21010202246917339 0.013975614430860289 0 0.19941018134232119 0.021978225516567119 0 0.19966748189361519 0.01251374761038203 0 0.19966748189361519 0.01251374761038203 0 0.19427348729868379 0.0078832323044122025 0 0.20039534490427149 0.0036006089196753371 0 0.19966748189361519 0.01251374761038203 0 0.19334625049504681 0.0144072363349366 0 0.19427348729868379 0.0078832323044122025 0 0.19334625049504681 0.0144072363349366 0 0.19037707366836329 0.012375360255088549 0 0.1913079923882611 0.01019789524641797 0 0.19334625049504681 0.0144072363349366 0 0.19037707366836329 0.012375360255088549 0 0.18706088897193621 0.01450389075464612 0 0.18898250002515979 0.010922219476082431 0 0.18707005565173609 0.010290546864291461 0 0.18706088897193621 0.01450389075464612 0 0.19037707366836329 0.012375360255088549 0 0.18898250002515979 0.010922219476082431 0 0.18706088897193621 0.01450389075464612 0 0.1913079923882611 0.01019789524641797 0 0.19427348729868379 0.0078832323044122025 0 0.18707005565173609 0.010290546864291461 0 0.18898250002515979 0.010922219476082431 0 0.1913079923882611 0.01019789524641797 0 0.18707005565173609 0.010290546864291461 0 0.19037707366836329 0.012375360255088549 0 0.18898250002515979 0.010922219476082431 0 0.1913079923882611 0.01019789524641797 0 0.19334625049504681 0.0144072363349366 0 0.1913079923882611 0.01019789524641797 0 0.19427348729868379 0.0078832323044122025 0 0.19427348729868379 0.0078832323044122025 0 0.19057493921054841 0.0002196099024429646 0 0.18707005565173609 0.010290546864291461 0 0.19427348729868379 0.0078832323044122025 0 0.19057493921054841 0.0002196099024429646 0 0.20039534490427149 0.0036006089196753371 0 0.21290906138079821 0.067193220230594999 0 0.21026165926644891 0.048618104291935249 0 0.19382471300677109 0.060796484391006718 0 0.21290906138079821 0.067193220230594999 0 0.22680908993099891 0.056175692903657329 0 0.21026165926644891 0.048618104291935249 0 0.20961688732733541 0.03083144122201386 0 0.21026165926644891 0.048618104291935249 0 0.19515989019505281 0.036594798901915533 0 0.22325031375773691 0.040116988102423118 0 0.20961688732733541 0.03083144122201386 0 0.21026165926644891 0.048618104291935249 0 0.22325031375773691 0.040116988102423118 0 0.22290911124564511 0.02662932601158579 0 0.20961688732733541 0.03083144122201386 0 0.21026165926644891 0.048618104291935249 0 0.19515989019505281 0.036594798901915533 0 0.19382471300677109 0.060796484391006718 0 0.19515989019505281 0.036594798901915533 0 0.19382471300677109 0.060796484391006718 0 0.18212524899848731 0.046995732323122721 0 0.17483388169977199 0.061491178539836863 0 0.18212524899848731 0.046995732323122721 0 0.16733528908930309 0.039198087085188647 0 0.19382471300677109 0.060796484391006718 0 0.17483388169977199 0.061491178539836863 0 0.18212524899848731 0.046995732323122721 0 0.19515989019505281 0.036594798901915533 0 0.18212524899848731 0.046995732323122721 0 0.17933062372588501 0.026589977532236651 0 0.18212524899848731 0.046995732323122721 0 0.16733528908930309 0.039198087085188647 0 0.17933062372588501 0.026589977532236651 0 0.16733528908930309 0.039198087085188647 0 0.15978041476017299 0.052303093747645718 0 0.15244055945503171 0.034579280161514347 0 0.17483388169977199 0.061491178539836863 0 0.16733528908930309 0.039198087085188647 0 0.17483388169977199 0.061491178539836863 0 0.15978041476017299 0.052303093747645718 0 0.1531947271920768 0.065010614136865277 0 0.17483388169977199 0.061491178539836863 0 0.16733528908930309 0.039198087085188647 0 0.15978041476017299 0.052303093747645718 0 0.19057493921054841 0.0002196099024429646 0 0.18291569610778671 0.0061473589033321169 0 0.18707005565173609 0.010290546864291461 0 0.18291569610778671 0.0061473589033321169 0 0.18707005565173609 0.010290546864291461 0 0.18001016742448331 0.01321509658304711 0 0.18291569610778671 0.0061473589033321169 0 0.18707005565173609 0.010290546864291461 0 0.18707005565173609 0.010290546864291461 0 0.18706088897193621 0.01450389075464612 0 0.18001016742448331 0.01321509658304711 0 0.18706088897193621 0.01450389075464612 0 0.18001016742448331 0.01321509658304711 0 0.18490688314117451 0.019081712986791809 0 0.18291569610778671 0.0061473589033321169 0 0.18001016742448331 0.01321509658304711 0 0.16896430511348279 0.0065603890498517944 0 0.18001016742448331 0.01321509658304711 0 0.17933062372588501 0.026589977532236651 0 0.15983669647883431 0.01690499563054056 0 0.18001016742448331 0.01321509658304711 0 0.18490688314117451 0.019081712986791809 0 0.17933062372588501 0.026589977532236651 0 0.19082171570469569 0.022189935803936831 0 0.18490688314117451 0.019081712986791809 0 0.17933062372588501 0.026589977532236651 0 0.16733528908930309 0.039198087085188647 0 0.17933062372588501 0.026589977532236651 0 0.15983669647883431 0.01690499563054056 0 0.16733528908930309 0.039198087085188647 0 0.15983669647883431 0.01690499563054056 0 0.15244055945503171 0.034579280161514347 0 0.16733528908930309 0.039198087085188647 0 0.15983669647883431 0.01690499563054056 0 0.15983669647883431 0.01690499563054056 0 0.15233810386836541 -0.0053880958241075833 0 0.16073378317473089 -0.0052690829226585299 0 0.18291569610778671 0.0061473589033321169 0 0.16896430511348279 0.0065603890498517944 0 0.16073378317473089 -0.0052690829226585299 0 0.18001016742448331 0.01321509658304711 0 0.15983669647883431 0.01690499563054056 0 0.16896430511348279 0.0065603890498517944 0 0.18291569610778671 0.0061473589033321169 0 0.16073378317473089 -0.0052690829226585299 0 0.15983669647883431 0.01690499563054056 0 0.16896430511348279 0.0065603890498517944 0 0.16073378317473089 -0.0052690829226585299 0 0.15983669647883431 0.01690499563054056 0 0.14971036931642459 0.0091700932432187948 0 0.15233810386836541 -0.0053880958241075833 0 0.15983669647883431 0.01690499563054056 0 0.15233810386836541 -0.0053880958241075833 0 0.14623090223015259 0.0023437631495097241 0 0.14971036931642459 0.0091700932432187948 0 0.1409707247105173 0.008598706474284231 0 0.14623090223015259 0.0023437631495097241 0 0.1409707247105173 0.008598706474284231 0 0.14013679933985859 -0.0035161103433017141 0 0.14623090223015259 0.0023437631495097241 0 0.14971036931642459 0.0091700932432187948 0 0.15233810386836541 -0.0053880958241075833 0 0.15983669647883431 0.01690499563054056 0 0.14971036931642459 0.0091700932432187948 0 0.14715299326838041 0.020135165087233339 0 0.14971036931642459 0.0091700932432187948 0 0.1409707247105173 0.008598706474284231 0 0.14715299326838041 0.020135165087233339 0 0.14715299326838041 0.020135165087233339 0 0.13531137454151129 0.025710681904290839 0 0.15244055945503171 0.034579280161514347 0 0.1409707247105173 0.008598706474284231 0 0.14715299326838041 0.020135165087233339 0 0.13531137454151129 0.025710681904290839 0 0.15983669647883431 0.01690499563054056 0 0.14715299326838041 0.020135165087233339 0 0.15244055945503171 0.034579280161514347 0 0.122967671738255 0.01559134823131011 0 0.13029296252697861 0.043205597248887992 0 0.122967671738255 0.01559134823131011 0 0.13531137454151129 0.025710681904290839 0 0.13029296252697861 0.043205597248887992 0 0.122967671738255 0.01559134823131011 0 0.13531137454151129 0.025710681904290839 0 0.12584066592506621 -0.001195642335175832 0 0.13531137454151129 0.025710681904290839 0 0.12584066592506621 -0.001195642335175832 0 0.1409707247105173 0.008598706474284231 0 0.13531137454151129 0.025710681904290839 0 0.12584066592506621 -0.001195642335175832 0 0.1409707247105173 0.008598706474284231 0 0.14013679933985859 -0.0035161103433017141 0 0.12584066592506621 -0.001195642335175832 0 0.15978041476017299 0.052303093747645718 0 0.1447820831579564 0.052617006143757278 0 0.1531947271920768 0.065010614136865277 0 0.13531137454151129 0.025710681904290839 0 0.1447820831579564 0.052617006143757278 0 0.15244055945503171 0.034579280161514347 0 0.15978041476017299 0.052303093747645718 0 0.1447820831579564 0.052617006143757278 0 0.15244055945503171 0.034579280161514347 0 0.13531137454151129 0.025710681904290839 0 0.1447820831579564 0.052617006143757278 0 0.13029296252697861 0.043205597248887992 0 0.13531137454151129 0.025710681904290839 0 0.1447820831579564 0.052617006143757278 0 0.1180804158282508 0.056076322607598462 0 0.13029296252697861 0.043205597248887992 0 0.1376182533157021 0.070819846266465952 0 0.1447820831579564 0.052617006143757278 0 0.13029296252697861 0.043205597248887992 0 0.1376182533157021 0.070819846266465952 0 0.13029296252697861 0.043205597248887992 0 0.1376182533157021 0.070819846266465952 0 0.1180804158282508 0.056076322607598462 0 0.12249538261183079 0.072643037969167101 0 0.1376182533157021 0.070819846266465952 0 0.12249538261183079 0.072643037969167101 0 0.1376182533157021 0.070819846266465952 0 0.1308574487769695 0.086835699097190133 0 0.1376182533157021 0.070819846266465952 0 0.1531947271920768 0.065010614136865277 0 0.15946304329710931 0.079069048568838896 0 0.1447820831579564 0.052617006143757278 0 0.1376182533157021 0.070819846266465952 0 0.1531947271920768 0.065010614136865277 0 0.1376182533157021 0.070819846266465952 0 0.1449435441044257 0.098434095284043899 0 0.1376182533157021 0.070819846266465952 0 0.1449435441044257 0.098434095284043899 0 0.15946304329710931 0.079069048568838896 0 0.1376182533157021 0.070819846266465952 0 0.1308574487769695 0.086835699097190133 0 0.1449435441044257 0.098434095284043899 0 0.1207090505022362 0.092017735883683657 0 0.1308574487769695 0.086835699097190133 0 0.1285210133506525 0.1002637800825901 0 0.1285210133506525 0.1002637800825901 0 0.1347188604010458 0.1107517689776356 0 0.1449435441044257 0.098434095284043899 0 0.1308574487769695 0.086835699097190133 0 0.1285210133506525 0.1002637800825901 0 0.1449435441044257 0.098434095284043899 0 0.1285210133506525 0.1002637800825901 0 0.1256749017357158 0.11187538445314139 0 0.1347188604010458 0.1107517689776356 0 0.1522688348931493 0.12604834430162171 0 0.1306743595836756 0.1243473194073275 0 0.1347188604010458 0.1107517689776356 0 0.12113930000506069 0.1196404886193083 0 0.1306743595836756 0.1243473194073275 0 0.1256749017357158 0.11187538445314139 0 0.1306743595836756 0.1243473194073275 0 0.1256749017357158 0.11187538445314139 0 0.1347188604010458 0.1107517689776356 0 0.1522688348931493 0.12604834430162171 0 0.1347188604010458 0.1107517689776356 0 0.1449435441044257 0.098434095284043899 0 0.1522688348931493 0.12604834430162171 0 0.1449435441044257 0.098434095284043899 0 0.1522688348931493 0.12604834430162171 0 0.1449435441044257 0.098434095284043899 0 0.16494009003894611 0.1093588518861304 0 0.1449435441044257 0.098434095284043899 0 0.16494009003894611 0.1093588518861304 0 0.16756782535321579 0.093283974013142326 0 0.16494009003894611 0.1093588518861304 0 0.17990269589786301 0.1055144157334309 0 0.16756782535321579 0.093283974013142326 0 0.1522688348931493 0.12604834430162171 0 0.16494009003894611 0.1093588518861304 0 0.17423463712757861 0.122670274146358 0 0.19014494838797699 0.1228628919509089 0 0.17423463712757861 0.122670274146358 0 0.17990269589786301 0.1055144157334309 0 0.16494009003894611 0.1093588518861304 0 0.17423463712757861 0.122670274146358 0 0.17990269589786301 0.1055144157334309 0 0.1988926003530756 0.1031555681181478 0 0.17990269589786301 0.1055144157334309 0 0.18233247431024091 0.083784269994485169 0 0.17990269589786301 0.1055144157334309 0 0.18233247431024091 0.083784269994485169 0 0.16756782535321579 0.093283974013142326 0 0.17483388169977199 0.061491178539836863 0 0.18233247431024091 0.083784269994485169 0 0.15946304329710931 0.079069048568838896 0 0.19382471300677109 0.060796484391006718 0 0.17483388169977199 0.061491178539836863 0 0.18233247431024091 0.083784269994485169 0 0.17483388169977199 0.061491178539836863 0 0.18233247431024091 0.083784269994485169 0 0.17483388169977199 0.061491178539836863 0 0.1531947271920768 0.065010614136865277 0 0.15946304329710931 0.079069048568838896 0 0.1449435441044257 0.098434095284043899 0 0.16756782535321579 0.093283974013142326 0 0.15946304329710931 0.079069048568838896 0 0.18233247431024091 0.083784269994485169 0 0.16756782535321579 0.093283974013142326 0 0.15946304329710931 0.079069048568838896 0 0.101920294203677 0.48211649759817948 0 0.1022353545363007 0.46146796835762988 0 0.08444226453070558 0.47626314016015631 0 0.101920294203677 0.48211649759817948 0 0.1108587304220431 0.5 0 0.082300350921915066 0.5 0 0.101920294203677 0.48211649759817948 0 0.1108587304220431 0.5 0 0.1246599389302134 0.47468794510422307 0 0.1108587304220431 0.5 0 0.1246599389302134 0.47468794510422307 0 0.13941710992217099 0.5 0 0.101920294203677 0.48211649759817948 0 0.1246599389302134 0.47468794510422307 0 0.1022353545363007 0.46146796835762988 0 0.1246599389302134 0.47468794510422307 0 0.11962679224525311 0.45384502378945679 0 0.1022353545363007 0.46146796835762988 0 0.11962679224525311 0.45384502378945679 0 0.099065487956592507 0.44100545621435178 0 0.1197464413585656 0.43374428119255332 0 0.11962679224525311 0.45384502378945679 0 0.099065487956592507 0.44100545621435178 0 0.1022353545363007 0.46146796835762988 0 0.078080700957163685 0.4443066708004334 0 0.08444226453070558 0.47626314016015631 0 0.060952432789114518 0.46706694223158718 0 0.1022353545363007 0.46146796835762988 0 0.078080700957163685 0.4443066708004334 0 0.08444226453070558 0.47626314016015631 0 0.099065487956592507 0.44100545621435178 0 0.1022353545363007 0.46146796835762988 0 0.078080700957163685 0.4443066708004334 0 0.099065487956592507 0.44100545621435178 0 0.078080700957163685 0.4443066708004334 0 0.079975287755797264 0.4273297863536476 0 0.078080700957163685 0.4443066708004334 0 0.060952432789114518 0.46706694223158718 0 0.055156874284905691 0.44592071724574062 0 0.078080700957163685 0.4443066708004334 0 0.055156874284905691 0.44592071724574062 0 0.060527848243956628 0.42997616688332269 0 0.08444226453070558 0.47626314016015631 0 0.066632500913428455 0.48907568964095138 0 0.060952432789114518 0.46706694223158718 0 0.101920294203677 0.48211649759817948 0 0.08444226453070558 0.47626314016015631 0 0.082300350921915066 0.5 0 0.08444226453070558 0.47626314016015631 0 0.082300350921915066 0.5 0 0.066632500913428455 0.48907568964095138 0 0.082300350921915066 0.5 0 0.066632500913428455 0.48907568964095138 0 0.053741971421786938 0.5 0 0.066632500913428455 0.48907568964095138 0 0.05113451140379939 0.49092072295909672 0 0.053741971421786938 0.5 0 0.066632500913428455 0.48907568964095138 0 0.05113451140379939 0.49092072295909672 0 0.051711732043918317 0.48104356006906068 0 0.05113451140379939 0.49092072295909672 0 0.053741971421786938 0.5 0 0.048487267495680587 0.49999999999999961 0 0.051711732043918317 0.48104356006906068 0 0.042370668285446673 0.47077864931214081 0 0.060952432789114518 0.46706694223158718 0 0.066632500913428455 0.48907568964095138 0 0.051711732043918317 0.48104356006906068 0 0.060952432789114518 0.46706694223158718 0 0.051711732043918317 0.48104356006906068 0 0.042370668285446673 0.47077864931214081 0 0.035099085144182599 0.48511859279458902 0 0.042370668285446673 0.47077864931214081 0 0.035099085144182599 0.48511859279458902 0 0.021710902792684891 0.47087141329829513 0 0.05113451140379939 0.49092072295909672 0 0.048487267495680587 0.49999999999999961 0 0.035099085144182599 0.48511859279458902 0 0.048487267495680587 0.49999999999999961 0 0.035099085144182599 0.48511859279458902 0 0.02518359192165881 0.49999999999999761 0 0.05113451140379939 0.49092072295909672 0 0.051711732043918317 0.48104356006906068 0 0.035099085144182599 0.48511859279458902 0 0.048487267495680587 0.49999999999999961 0 0.035099085144182599 0.48511859279458902 0 0.02518359192165881 0.49999999999999761 0 0.021710902792684891 0.47087141329829513 0 0.035099085144182599 0.48511859279458902 0 0.02518359192165881 0.49999999999999761 0 0.021710902792684891 0.47087141329829513 0 0.02518359192165881 0.49999999999999761 0 0.021710902792684891 0.47087141329829513 0 0.0069071423726460891 0.48459725103393397 0 0.035099085144182599 0.48511859279458902 0 0.021710902792684891 0.47087141329829513 0 0.021710902792684891 0.47087141329829513 0 0.0069071423726460891 0.48459725103393397 0 0.0069577345910213258 0.46782603020506391 0 -0.0053527647761438448 0.47148046520369669 0 0.0069071423726460891 0.48459725103393397 0 0.0069577345910213258 0.46782603020506391 0 -0.0021385927895695989 0.49999999999999678 0 0.02518359192165881 0.49999999999999761 0 0.0069071423726460891 0.48459725103393397 0 -0.0044093143232180974 0.44307530087898528 0 0.0086507942347326273 0.45697335708864101 0 0.01815080518949716 0.44100965261382019 0 -0.0044093143232180974 0.44307530087898528 0 0.0086507942347326273 0.45697335708864101 0 -0.0044093143232180974 0.44307530087898528 0 0.0028725983311871511 0.45520766440075211 0 0.0086507942347326273 0.45697335708864101 0 -0.0053527647761438448 0.47148046520369669 0 0.0028725983311871511 0.45520766440075211 0 0.0069577345910213258 0.46782603020506391 0 0.0028725983311871511 0.45520766440075211 0 0.0069577345910213258 0.46782603020506391 0 0.0086507942347326273 0.45697335708864101 0 0.021710902792684891 0.47087141329829513 0 0.0069577345910213258 0.46782603020506391 0 0.0086507942347326273 0.45697335708864101 0 0.021710902792684891 0.47087141329829513 0 0.0086507942347326273 0.45697335708864101 0 0.021710902792684891 0.47087141329829513 0 0.01815080518949716 0.44100965261382019 0 0.021710902792684891 0.47087141329829513 0 0.01815080518949716 0.44100965261382019 0 0.032493292260229019 0.4580921469053868 0 0.021710902792684891 0.47087141329829513 0 0.0086507942347326273 0.45697335708864101 0 0.01815080518949716 0.44100965261382019 0 0.01815080518949716 0.44100965261382019 0 0.032493292260229019 0.4580921469053868 0 0.035637764956149239 0.42991536997269858 0 0.045322206515169022 0.45435476513351081 0 0.032493292260229019 0.4580921469053868 0 0.035637764956149239 0.42991536997269858 0 0.032493292260229019 0.4580921469053868 0 0.035637764956149239 0.42991536997269858 0 0.045322206515169022 0.45435476513351081 0 0.055156874284905691 0.44592071724574062 0 0.035637764956149239 0.42991536997269858 0 0.042370668285446673 0.47077864931214081 0 0.045322206515169022 0.45435476513351081 0 0.032493292260229019 0.4580921469053868 0 0.042370668285446673 0.47077864931214081 0 0.021710902792684891 0.47087141329829513 0 0.032493292260229019 0.4580921469053868 0 0.042370668285446673 0.47077864931214081 0 0.045322206515169022 0.45435476513351081 0 0.060952432789114518 0.46706694223158718 0 0.045322206515169022 0.45435476513351081 0 0.060952432789114518 0.46706694223158718 0 0.055156874284905691 0.44592071724574062 0 0.060527848243956628 0.42997616688332269 0 0.049511181701131689 0.41636544751069787 0 0.035637764956149239 0.42991536997269858 0 0.055156874284905691 0.44592071724574062 0 0.060527848243956628 0.42997616688332269 0 0.035637764956149239 0.42991536997269858 0 0.049511181701131689 0.41636544751069787 0 0.054367767424754153 0.40300409071473042 0 0.064805279808592298 0.41601900941671871 0 0.060527848243956628 0.42997616688332269 0 0.049511181701131689 0.41636544751069787 0 0.064805279808592298 0.41601900941671871 0 0.049511181701131689 0.41636544751069787 0 0.038782237652069423 0.40173859304001058 0 0.054367767424754153 0.40300409071473042 0 0.035637764956149239 0.42991536997269858 0 0.033374188108478482 0.40503587987401962 0 0.038782237652069423 0.40173859304001058 0 0.035637764956149239 0.42991536997269858 0 0.038782237652069423 0.40173859304001058 0 0.035637764956149239 0.42991536997269858 0 0.027250642915003991 0.41813572708514513 0 0.033374188108478482 0.40503587987401962 0 0.049511181701131689 0.41636544751069787 0 0.035637764956149239 0.42991536997269858 0 0.038782237652069423 0.40173859304001058 0 0.01815080518949716 0.44100965261382019 0 0.035637764956149239 0.42991536997269858 0 0.027250642915003991 0.41813572708514513 0 0.01815080518949716 0.44100965261382019 0 0.01459070758630898 0.41114789192934581 0 0.01815080518949716 0.44100965261382019 0 0.027250642915003991 0.41813572708514513 0 0.01459070758630898 0.41114789192934581 0 0.027250642915003991 0.41813572708514513 0 0.022839497596422748 0.40117256656145878 0 0.033374188108478482 0.40503587987401962 0 0.027250642915003991 0.41813572708514513 0 0.01459070758630898 0.41114789192934581 0 0.022839497596422748 0.40117256656145878 0 -0.003439229935329113 0.41386824886973522 0 0.01459070758630898 0.41114789192934581 0 0.0066674168791637199 0.42722611310505171 0 0.01815080518949716 0.44100965261382019 0 0.01459070758630898 0.41114789192934581 0 0.0066674168791637199 0.42722611310505171 0 -0.0044093143232180974 0.44307530087898528 0 0.01815080518949716 0.44100965261382019 0 0.0066674168791637199 0.42722611310505171 0 0.011030609983126801 0.38128613124487037 0 0.0099103420692166506 0.37188943034612532 0 -0.0023487211960432209 0.3810354913668384 0 0.011030609983126801 0.38128613124487037 0 0.0007935460593975805 0.37245843519919791 0 0.011030609983126801 0.38128613124487037 0 0.0007935460593975805 0.37245843519919791 0 0.0099103420692166506 0.37188943034612532 0 -0.0024691455474451641 0.38466119686048522 0 -0.0023487211960432209 0.3810354913668384 0 0.011030609983126801 0.38128613124487037 0 -0.0024691455474451641 0.38466119686048522 0 0.011030609983126801 0.38128613124487037 0 0.01459070758630898 0.41114789192934581 0 0.011030609983126801 0.38128613124487037 0 -0.0024691455474451641 0.38466119686048522 0 -0.003439229935329113 0.41386824886973522 0 0.01459070758630898 0.41114789192934581 0 -0.0024691455474451641 0.38466119686048522 0 0.01459070758630898 0.41114789192934581 0 0.011030609983126801 0.38128613124487037 0 0.02749094553009369 0.39305866145042923 0 0.030542525866961549 0.37640796909999907 0 0.033374188108478482 0.40503587987401962 0 0.01459070758630898 0.41114789192934581 0 0.011030609983126801 0.38128613124487037 0 0.022839497596422748 0.40117256656145878 0 0.011030609983126801 0.38128613124487037 0 0.022839497596422748 0.40117256656145878 0 0.023207570548511979 0.38961823026623932 0 0.022839497596422748 0.40117256656145878 0 0.02749094553009369 0.39305866145042923 0 0.033374188108478482 0.40503587987401962 0 0.022839497596422748 0.40117256656145878 0 0.02749094553009369 0.39305866145042923 0 0.023207570548511979 0.38961823026623932 0 0.011030609983126801 0.38128613124487037 0 0.030542525866961549 0.37640796909999907 0 0.02749094553009369 0.39305866145042923 0 0.023207570548511979 0.38961823026623932 0 0.030542525866961549 0.37640796909999907 0 0.011030609983126801 0.38128613124487037 0 0.023207570548511979 0.38961823026623932 0 0.030542525866961549 0.37640796909999907 0 0.038782237652069423 0.40173859304001058 0 0.048124393779518521 0.39144009574279531 0 0.041926710347993022 0.37356181610732292 0 0.038782237652069423 0.40173859304001058 0 0.041926710347993022 0.37356181610732292 0 0.030542525866961549 0.37640796909999907 0 0.038782237652069423 0.40173859304001058 0 0.041926710347993022 0.37356181610732292 0 0.030542525866961549 0.37640796909999907 0 0.033374188108478482 0.40503587987401962 0 0.030542525866961549 0.37640796909999907 0 0.033374188108478482 0.40503587987401962 0 0.038782237652069423 0.40173859304001058 0 0.054367767424754153 0.40300409071473042 0 0.067986817089122673 0.39829862735225369 0 0.064805279808592298 0.41601900941671871 0 0.038782237652069423 0.40173859304001058 0 0.054367767424754153 0.40300409071473042 0 0.048124393779518521 0.39144009574279531 0 0.054367767424754153 0.40300409071473042 0 0.048124393779518521 0.39144009574279531 0 0.060026429420705407 0.38839844339843832 0 0.054367767424754153 0.40300409071473042 0 0.060026429420705407 0.38839844339843832 0 0.067986817089122673 0.39829862735225369 0 0.048124393779518521 0.39144009574279531 0 0.052011618214124831 0.38107794004530993 0 0.041926710347993022 0.37356181610732292 0 0.052011618214124831 0.38107794004530993 0 0.060026429420705407 0.38839844339843832 0 0.065785289988052387 0.36759694721779762 0 0.048124393779518521 0.39144009574279531 0 0.052011618214124831 0.38107794004530993 0 0.060026429420705407 0.38839844339843832 0 0.060026429420705407 0.38839844339843832 0 0.076076587103958843 0.38305021386026572 0 0.067986817089122673 0.39829862735225369 0 0.060026429420705407 0.38839844339843832 0 0.076076587103958843 0.38305021386026572 0 0.065785289988052387 0.36759694721779762 0 0.076076587103958843 0.38305021386026572 0 0.084658021687602697 0.40102137937111543 0 0.095096607244003387 0.37863296782149253 0 0.076076587103958843 0.38305021386026572 0 0.084658021687602697 0.40102137937111543 0 0.067986817089122673 0.39829862735225369 0 0.084658021687602697 0.40102137937111543 0 0.067986817089122673 0.39829862735225369 0 0.064805279808592298 0.41601900941671871 0 0.084658021687602697 0.40102137937111543 0 0.064805279808592298 0.41601900941671871 0 0.079975287755797264 0.4273297863536476 0 0.060527848243956628 0.42997616688332269 0 0.064805279808592298 0.41601900941671871 0 0.079975287755797264 0.4273297863536476 0 0.078080700957163685 0.4443066708004334 0 0.060527848243956628 0.42997616688332269 0 0.079975287755797264 0.4273297863536476 0 0.099065487956592507 0.44100545621435178 0 0.079975287755797264 0.4273297863536476 0 0.097842263743504312 0.42252923840471068 0 0.084658021687602697 0.40102137937111543 0 0.079975287755797264 0.4273297863536476 0 0.097842263743504312 0.42252923840471068 0 0.084658021687602697 0.40102137937111543 0 0.097842263743504312 0.42252923840471068 0 0.1118488876455162 0.40893873260510921 0 0.099065487956592507 0.44100545621435178 0 0.097842263743504312 0.42252923840471068 0 0.1197464413585656 0.43374428119255332 0 0.097842263743504312 0.42252923840471068 0 0.1197464413585656 0.43374428119255332 0 0.1118488876455162 0.40893873260510921 0 0.1197464413585656 0.43374428119255332 0 0.1118488876455162 0.40893873260510921 0 0.1310309034848878 0.41300661924418203 0 0.1118488876455162 0.40893873260510921 0 0.12979135686641691 0.39420319277334859 0 0.1310309034848878 0.41300661924418203 0 0.1118488876455162 0.40893873260510921 0 0.1080243387321199 0.3891276846447454 0 0.12979135686641691 0.39420319277334859 0 0.11943730510539979 0.37531578897086187 0 0.1080243387321199 0.3891276846447454 0 0.12979135686641691 0.39420319277334859 0 0.11943730510539979 0.37531578897086187 0 0.1080243387321199 0.3891276846447454 0 0.095096607244003387 0.37863296782149253 0 0.084658021687602697 0.40102137937111543 0 0.1080243387321199 0.3891276846447454 0 0.095096607244003387 0.37863296782149253 0 0.084658021687602697 0.40102137937111543 0 0.1118488876455162 0.40893873260510921 0 0.1080243387321199 0.3891276846447454 0 0.1135024492681706 0.35566720943874441 0 0.089643869628111494 0.36163207832827099 0 0.1135024492681706 0.35566720943874441 0 0.097744416092015021 0.34202457042732309 0 0.089643869628111494 0.36163207832827099 0 0.1135024492681706 0.35566720943874441 0 0.11165526656472841 0.33570981050556181 0 0.097744416092015021 0.34202457042732309 0 0.095096607244003387 0.37863296782149253 0 0.1135024492681706 0.35566720943874441 0 0.089643869628111494 0.36163207832827099 0 0.11943730510539979 0.37531578897086187 0 0.095096607244003387 0.37863296782149253 0 0.1135024492681706 0.35566720943874441 0 0.11943730510539979 0.37531578897086187 0 0.1135024492681706 0.35566720943874441 0 0.13691094282903871 0.36397439982601781 0 0.1135024492681706 0.35566720943874441 0 0.11165526656472841 0.33570981050556181 0 0.1252163265707798 0.34258049099589832 0 0.11165526656472841 0.33570981050556181 0 0.1280910165808048 0.33029312165233282 0 0.1252163265707798 0.34258049099589832 0 0.11165526656472841 0.33570981050556181 0 0.11129502322887121 0.32729651333872872 0 0.1280910165808048 0.33029312165233282 0 0.11129502322887121 0.32729651333872872 0 0.1066869191045763 0.3165228789004878 0 0.1280910165808048 0.33029312165233282 0 0.1066869191045763 0.3165228789004878 0 0.1280910165808048 0.33029312165233282 0 0.1203983270246315 0.31611358825229419 0 0.1066869191045763 0.3165228789004878 0 0.1280910165808048 0.33029312165233282 0 0.1203983270246315 0.31611358825229419 0 0.1066869191045763 0.3165228789004878 0 0.1061139588410229 0.30880432461043011 0 0.1066869191045763 0.3165228789004878 0 0.081808201701520977 0.31345742021138778 0 0.1061139588410229 0.30880432461043011 0 0.1066869191045763 0.3165228789004878 0 0.098746890665375467 0.32666024229653268 0 0.081808201701520977 0.31345742021138778 0 0.11129502322887121 0.32729651333872872 0 0.1066869191045763 0.3165228789004878 0 0.098746890665375467 0.32666024229653268 0 0.11165526656472841 0.33570981050556181 0 0.098746890665375467 0.32666024229653268 0 0.097744416092015021 0.34202457042732309 0 0.11165526656472841 0.33570981050556181 0 0.11129502322887121 0.32729651333872872 0 0.098746890665375467 0.32666024229653268 0 0.097744416092015021 0.34202457042732309 0 0.084367274380008489 0.33276450220623022 0 0.085026855017322836 0.3477721067261812 0 0.098746890665375467 0.32666024229653268 0 0.097744416092015021 0.34202457042732309 0 0.084367274380008489 0.33276450220623022 0 0.084367274380008489 0.33276450220623022 0 0.072106525281774969 0.34095442997733949 0 0.085026855017322836 0.3477721067261812 0 0.098746890665375467 0.32666024229653268 0 0.084367274380008489 0.33276450220623022 0 0.081808201701520977 0.31345742021138778 0 0.084367274380008489 0.33276450220623022 0 0.081808201701520977 0.31345742021138778 0 0.070770757522041733 0.32571824359861701 0 0.081808201701520977 0.31345742021138778 0 0.057502444562018973 0.31811051581234551 0 0.081808201701520977 0.31345742021138778 0 0.070770757522041733 0.32571824359861701 0 0.057502444562018973 0.31811051581234551 0 0.070770757522041733 0.32571824359861701 0 0.072106525281774969 0.34095442997733949 0 0.056787621935774642 0.34350362284556291 0 0.084367274380008489 0.33276450220623022 0 0.070770757522041733 0.32571824359861701 0 0.072106525281774969 0.34095442997733949 0 0.072106525281774969 0.34095442997733949 0 0.085026855017322836 0.3477721067261812 0 0.065785289988052387 0.36759694721779762 0 0.072106525281774969 0.34095442997733949 0 0.065785289988052387 0.36759694721779762 0 0.056787621935774642 0.34350362284556291 0 0.097744416092015021 0.34202457042732309 0 0.085026855017322836 0.3477721067261812 0 0.089643869628111494 0.36163207832827099 0 0.085026855017322836 0.3477721067261812 0 0.089643869628111494 0.36163207832827099 0 0.065785289988052387 0.36759694721779762 0 0.076076587103958843 0.38305021386026572 0 0.095096607244003387 0.37863296782149253 0 0.089643869628111494 0.36163207832827099 0 0.076076587103958843 0.38305021386026572 0 0.089643869628111494 0.36163207832827099 0 0.065785289988052387 0.36759694721779762 0 0.089643869628111494 0.36163207832827099 0 0.065785289988052387 0.36759694721779762 0 0.065785289988052387 0.36759694721779762 0 0.041926710347993022 0.37356181610732292 0 0.052011618214124831 0.38107794004530993 0 0.065785289988052387 0.36759694721779762 0 0.041926710347993022 0.37356181610732292 0 0.065785289988052387 0.36759694721779762 0 0.044257360560938618 0.35267748429436402 0 0.041926710347993022 0.37356181610732292 0 0.065785289988052387 0.36759694721779762 0 0.044257360560938618 0.35267748429436402 0 0.056787621935774642 0.34350362284556291 0 0.044257360560938618 0.35267748429436402 0 0.036224049605343228 0.36376628442565268 0 0.028169601645479742 0.35241786820092491 0 0.044257360560938618 0.35267748429436402 0 0.028169601645479742 0.35241786820092491 0 0.036396152698440508 0.34122797512333852 0 0.044257360560938618 0.35267748429436402 0 0.041926710347993022 0.37356181610732292 0 0.030542525866961549 0.37640796909999907 0 0.036224049605343228 0.36376628442565268 0 0.028169601645479742 0.35241786820092491 0 0.044257360560938618 0.35267748429436402 0 0.041926710347993022 0.37356181610732292 0 0.036224049605343228 0.36376628442565268 0 0.030542525866961549 0.37640796909999907 0 0.041926710347993022 0.37356181610732292 0 0.036224049605343228 0.36376628442565268 0 0.030542525866961549 0.37640796909999907 0 0.041926710347993022 0.37356181610732292 0 0.030542525866961549 0.37640796909999907 0 0.019516459960243201 0.36638642904124819 0 0.028169601645479742 0.35241786820092491 0 0.030542525866961549 0.37640796909999907 0 0.028169601645479742 0.35241786820092491 0 0.011030609983126801 0.38128613124487037 0 0.030542525866961549 0.37640796909999907 0 0.019516459960243201 0.36638642904124819 0 0.019516459960243201 0.36638642904124819 0 0.017245833494817751 0.35503960551003438 0 0.01212561341306811 0.36339768670401051 0 0.028169601645479742 0.35241786820092491 0 0.017245833494817751 0.35503960551003438 0 0.017951816886624269 0.3431748058505929 0 0.019516459960243201 0.36638642904124819 0 0.028169601645479742 0.35241786820092491 0 0.017245833494817751 0.35503960551003438 0 0.017245833494817751 0.35503960551003438 0 0.006467075751715734 0.34671572535862699 0 0.0074111018915867634 0.35707177666394219 0 0.017245833494817751 0.35503960551003438 0 0.0074111018915867634 0.35707177666394219 0 0.01212561341306811 0.36339768670401051 0 0.017245833494817751 0.35503960551003438 0 0.006467075751715734 0.34671572535862699 0 0.017951816886624269 0.3431748058505929 0 -0.003025884944062029 0.3546009559621377 0 0.006467075751715734 0.34671572535862699 0 0.0074111018915867634 0.35707177666394219 0 -0.003025884944062029 0.3546009559621377 0 0.0074111018915867634 0.35707177666394219 0 0.0032944978264949662 0.36476439149737783 0 0.0074111018915867634 0.35707177666394219 0 0.0032944978264949662 0.36476439149737783 0 0.01212561341306811 0.36339768670401051 0 0.0032944978264949662 0.36476439149737783 0 0.0007935460593975805 0.37245843519919791 0 0.0099103420692166506 0.37188943034612532 0 0.011030609983126801 0.38128613124487037 0 0.019516459960243201 0.36638642904124819 0 0.0099103420692166506 0.37188943034612532 0 0.019516459960243201 0.36638642904124819 0 0.0099103420692166506 0.37188943034612532 0 0.01212561341306811 0.36339768670401051 0 0.0032944978264949662 0.36476439149737783 0 0.0099103420692166506 0.37188943034612532 0 0.01212561341306811 0.36339768670401051 0 0.0043098611574291486 0.32404816019410221 0 0.01207989611711013 0.33327306288152742 0 0.016811490210211159 0.32054729181232011 0 0.0073506735799811406 0.31433435989042091 0 0.0043098611574291486 0.32404816019410221 0 0.016811490210211159 0.32054729181232011 0 0.0073506735799811406 0.31433435989042091 0 0.016811490210211159 0.32054729181232011 0 0.018233538636134021 0.30868081544053172 0 -0.0049081345466132111 0.31401112633659078 0 0.0073506735799811406 0.31433435989042091 0 0.0043098611574291486 0.32404816019410221 0 0.0043098611574291486 0.32404816019410221 0 0.00023272768354288059 0.33553616346343818 0 0.01207989611711013 0.33327306288152742 0 0.006467075751715734 0.34671572535862699 0 0.00023272768354288059 0.33553616346343818 0 0.01207989611711013 0.33327306288152742 0 -0.0066706576769541854 0.3445376449844928 0 0.006467075751715734 0.34671572535862699 0 0.00023272768354288059 0.33553616346343818 0 0.006467075751715734 0.34671572535862699 0 0.01207989611711013 0.33327306288152742 0 0.017951816886624269 0.3431748058505929 0 0.01207989611711013 0.33327306288152742 0 0.017951816886624269 0.3431748058505929 0 0.025796677423998 0.32842776730185069 0 0.028169601645479742 0.35241786820092491 0 0.017951816886624269 0.3431748058505929 0 0.025796677423998 0.32842776730185069 0 0.028169601645479742 0.35241786820092491 0 0.025796677423998 0.32842776730185069 0 0.036396152698440508 0.34122797512333852 0 0.028169601645479742 0.35241786820092491 0 0.025796677423998 0.32842776730185069 0 0.025796677423998 0.32842776730185069 0 0.033606811057490797 0.31260444228107542 0 0.023423753202516249 0.30443766640277647 0 0.025796677423998 0.32842776730185069 0 0.016811490210211159 0.32054729181232011 0 0.023423753202516249 0.30443766640277647 0 0.025796677423998 0.32842776730185069 0 0.023423753202516249 0.30443766640277647 0 0.01207989611711013 0.33327306288152742 0 0.025796677423998 0.32842776730185069 0 0.016811490210211159 0.32054729181232011 0 0.025796677423998 0.32842776730185069 0 0.033606811057490797 0.31260444228107542 0 0.042610938747764449 0.31970473169277369 0 0.025796677423998 0.32842776730185069 0 0.042610938747764449 0.31970473169277369 0 0.046588010773887627 0.3317931524814054 0 0.033606811057490797 0.31260444228107542 0 0.042610938747764449 0.31970473169277369 0 0.042638840550332971 0.30670877427507259 0 0.044257360560938618 0.35267748429436402 0 0.036396152698440508 0.34122797512333852 0 0.046588010773887627 0.3317931524814054 0 0.025796677423998 0.32842776730185069 0 0.036396152698440508 0.34122797512333852 0 0.046588010773887627 0.3317931524814054 0 0.044257360560938618 0.35267748429436402 0 0.046588010773887627 0.3317931524814054 0 0.044257360560938618 0.35267748429436402 0 0.046588010773887627 0.3317931524814054 0 0.056787621935774642 0.34350362284556291 0 0.070770757522041733 0.32571824359861701 0 0.046588010773887627 0.3317931524814054 0 0.056787621935774642 0.34350362284556291 0 0.070770757522041733 0.32571824359861701 0 0.046588010773887627 0.3317931524814054 0 0.057502444562018973 0.31811051581234551 0 0.042610938747764449 0.31970473169277369 0 0.057502444562018973 0.31811051581234551 0 0.042638840550332971 0.30670877427507259 0 0.042610938747764449 0.31970473169277369 0 0.046588010773887627 0.3317931524814054 0 0.057502444562018973 0.31811051581234551 0 0.057502444562018973 0.31811051581234551 0 0.054734776324544973 0.30130739645007948 0 0.042638840550332971 0.30670877427507259 0 0.054734776324544973 0.30130739645007948 0 0.049083965107664551 0.2897871405425051 0 0.042638840550332971 0.30670877427507259 0 0.057502444562018973 0.31811051581234551 0 0.054734776324544973 0.30130739645007948 0 0.069958175644807788 0.30039486296248208 0 0.049083965107664551 0.2897871405425051 0 0.038770429219162572 0.28171601585599998 0 0.057837454840237092 0.27389344431075069 0 0.062402557952375273 0.28808075150610762 0 0.049083965107664551 0.2897871405425051 0 0.057837454840237092 0.27389344431075069 0 0.054734776324544973 0.30130739645007948 0 0.062402557952375273 0.28808075150610762 0 0.049083965107664551 0.2897871405425051 0 0.054734776324544973 0.30130739645007948 0 0.062402557952375273 0.28808075150610762 0 0.069958175644807788 0.30039486296248208 0 0.03539901702802116 0.29338569712796592 0 0.038770429219162572 0.28171601585599998 0 0.021050828981034511 0.28044756550370231 0 0.049083965107664551 0.2897871405425051 0 0.03539901702802116 0.29338569712796592 0 0.042638840550332971 0.30670877427507259 0 0.049083965107664551 0.2897871405425051 0 0.03539901702802116 0.29338569712796592 0 0.038770429219162572 0.28171601585599998 0 0.03539901702802116 0.29338569712796592 0 0.032817323833474098 0.30334495966008418 0 0.028172730761261509 0.29540397217363218 0 0.03539901702802116 0.29338569712796592 0 0.042638840550332971 0.30670877427507259 0 0.032817323833474098 0.30334495966008418 0 0.033606811057490797 0.31260444228107542 0 0.042638840550332971 0.30670877427507259 0 0.032817323833474098 0.30334495966008418 0 0.033606811057490797 0.31260444228107542 0 0.032817323833474098 0.30334495966008418 0 0.023423753202516249 0.30443766640277647 0 0.016811490210211159 0.32054729181232011 0 0.018233538636134021 0.30868081544053172 0 0.023423753202516249 0.30443766640277647 0 0.018233538636134021 0.30868081544053172 0 0.023423753202516249 0.30443766640277647 0 0.015600786578175971 0.29393584469152279 0 0.032817323833474098 0.30334495966008418 0 0.023423753202516249 0.30443766640277647 0 0.028172730761261509 0.29540397217363218 0 0.023423753202516249 0.30443766640277647 0 0.028172730761261509 0.29540397217363218 0 0.021050828981034511 0.28044756550370231 0 0.03539901702802116 0.29338569712796592 0 0.028172730761261509 0.29540397217363218 0 0.021050828981034511 0.28044756550370231 0 0.023423753202516249 0.30443766640277647 0 0.021050828981034511 0.28044756550370231 0 0.023423753202516249 0.30443766640277647 0 0.015600786578175971 0.29393584469152279 0 0.021050828981034511 0.28044756550370231 0 0.0030549102215680578 0.2850582874380907 0 0.015600786578175971 0.29393584469152279 0 0.021050828981034511 0.28044756550370231 0 0.018233538636134021 0.30868081544053172 0 0.0030549102215680578 0.2850582874380907 0 0.018233538636134021 0.30868081544053172 0 0.0030549102215680578 0.2850582874380907 0 0.015600786578175971 0.29393584469152279 0 0.018233538636134021 0.30868081544053172 0 0.0030549102215680578 0.2850582874380907 0 0.00072098176265058557 0.30298662136764021 0 0.0073506735799811406 0.31433435989042091 0 0.018233538636134021 0.30868081544053172 0 0.00072098176265058557 0.30298662136764021 0 -0.0049081345466132111 0.31401112633659078 0 0.0073506735799811406 0.31433435989042091 0 0.00072098176265058557 0.30298662136764021 0 0.001483186948090515 0.24423222142217099 0 0.0075277119225596904 0.26750173539258659 0 0.01867790475955277 0.25645746460462809 0 0.0030549102215680578 0.2850582874380907 0 0.0075277119225596904 0.26750173539258659 0 0.021050828981034511 0.28044756550370231 0 0.021050828981034511 0.28044756550370231 0 0.01867790475955277 0.25645746460462809 0 0.03997560023926644 0.26857619520836612 0 0.0075277119225596904 0.26750173539258659 0 0.021050828981034511 0.28044756550370231 0 0.01867790475955277 0.25645746460462809 0 0.021050828981034511 0.28044756550370231 0 0.01867790475955277 0.25645746460462809 0 0.01867790475955277 0.25645746460462809 0 0.042353052778460222 0.25196892326875842 0 0.03997560023926644 0.26857619520836612 0 0.042353052778460222 0.25196892326875842 0 0.03997560023926644 0.26857619520836612 0 0.05079178406069558 0.26374208281327299 0 0.038770429219162572 0.28171601585599998 0 0.021050828981034511 0.28044756550370231 0 0.03997560023926644 0.26857619520836612 0 0.038770429219162572 0.28171601585599998 0 0.03997560023926644 0.26857619520836612 0 0.057837454840237092 0.27389344431075069 0 0.03997560023926644 0.26857619520836612 0 0.057837454840237092 0.27389344431075069 0 0.05079178406069558 0.26374208281327299 0 0.042353052778460222 0.25196892326875842 0 0.05079178406069558 0.26374208281327299 0 0.058961353366481728 0.25644817158255678 0 0.057837454840237092 0.27389344431075069 0 0.058961353366481728 0.25644817158255678 0 0.070479169783196349 0.26556997526460568 0 0.059840116385892608 0.24202084081106651 0 0.042353052778460222 0.25196892326875842 0 0.058961353366481728 0.25644817158255678 0 0.057837454840237092 0.27389344431075069 0 0.05079178406069558 0.26374208281327299 0 0.058961353366481728 0.25644817158255678 0 0.059840116385892608 0.24202084081106651 0 0.058961353366481728 0.25644817158255678 0 0.071687527900019865 0.25324119832716102 0 0.058961353366481728 0.25644817158255678 0 0.070479169783196349 0.26556997526460568 0 0.071687527900019865 0.25324119832716102 0 0.070479169783196349 0.26556997526460568 0 0.071687527900019865 0.25324119832716102 0 0.085785174241082757 0.26255136802431361 0 0.085368855758972961 0.24869472611585131 0 0.085785174241082757 0.26255136802431361 0 0.1071120916355288 0.25593481961457593 0 0.085368855758972961 0.24869472611585131 0 0.071687527900019865 0.25324119832716102 0 0.085785174241082757 0.26255136802431361 0 0.070479169783196349 0.26556997526460568 0 0.085785174241082757 0.26255136802431361 0 0.079836487528685524 0.28086407866464291 0 0.079836487528685524 0.28086407866464291 0 0.10102841140449061 0.28829732482851778 0 0.09889364564139512 0.27253852165620418 0 0.085785174241082757 0.26255136802431361 0 0.079836487528685524 0.28086407866464291 0 0.09889364564139512 0.27253852165620418 0 0.062402557952375273 0.28808075150610762 0 0.057837454840237092 0.27389344431075069 0 0.079836487528685524 0.28086407866464291 0 0.057837454840237092 0.27389344431075069 0 0.070479169783196349 0.26556997526460568 0 0.079836487528685524 0.28086407866464291 0 0.062402557952375273 0.28808075150610762 0 0.079836487528685524 0.28086407866464291 0 0.069958175644807788 0.30039486296248208 0 0.081808201701520977 0.31345742021138778 0 0.057502444562018973 0.31811051581234551 0 0.069958175644807788 0.30039486296248208 0 0.081808201701520977 0.31345742021138778 0 0.069958175644807788 0.30039486296248208 0 0.091621146432097927 0.30081552555859342 0 0.081808201701520977 0.31345742021138778 0 0.091621146432097927 0.30081552555859342 0 0.1061139588410229 0.30880432461043011 0 0.079836487528685524 0.28086407866464291 0 0.091621146432097927 0.30081552555859342 0 0.10102841140449061 0.28829732482851778 0 0.079836487528685524 0.28086407866464291 0 0.069958175644807788 0.30039486296248208 0 0.091621146432097927 0.30081552555859342 0 0.091621146432097927 0.30081552555859342 0 0.10102841140449061 0.28829732482851778 0 0.1030022292079481 0.29838482512234332 0 0.10102841140449061 0.28829732482851778 0 0.1030022292079481 0.29838482512234332 0 0.113245400154181 0.29562212549183192 0 0.081808201701520977 0.31345742021138778 0 0.1061139588410229 0.30880432461043011 0 0.091621146432097927 0.30081552555859342 0 0.1030022292079481 0.29838482512234332 0 0.1061139588410229 0.30880432461043011 0 0.1030022292079481 0.29838482512234332 0 0.1061139588410229 0.30880432461043011 0 0.113245400154181 0.29562212549183192 0 0.1061139588410229 0.30880432461043011 0 0.113245400154181 0.29562212549183192 0 0.13041971598052479 0.30415122900947239 0 0.1203983270246315 0.31611358825229419 0 0.1061139588410229 0.30880432461043011 0 0.13041971598052479 0.30415122900947239 0 0.1061139588410229 0.30880432461043011 0 0.13041971598052479 0.30415122900947239 0 0.11876590380802669 0.28004302431202421 0 0.13041971598052479 0.30415122900947239 0 0.10102841140449061 0.28829732482851778 0 0.113245400154181 0.29562212549183192 0 0.11876590380802669 0.28004302431202421 0 0.113245400154181 0.29562212549183192 0 0.11876590380802669 0.28004302431202421 0 0.13041971598052479 0.30415122900947239 0 0.11876590380802669 0.28004302431202421 0 0.1071120916355288 0.25593481961457593 0 0.11876590380802669 0.28004302431202421 0 0.1071120916355288 0.25593481961457593 0 0.13010081416602559 0.26247161577127248 0 0.12090184061168301 0.24246524948772741 0 0.1071120916355288 0.25593481961457593 0 0.13010081416602559 0.26247161577127248 0 0.085785174241082757 0.26255136802431361 0 0.1071120916355288 0.25593481961457593 0 0.09889364564139512 0.27253852165620418 0 0.10102841140449061 0.28829732482851778 0 0.11876590380802669 0.28004302431202421 0 0.09889364564139512 0.27253852165620418 0 0.11876590380802669 0.28004302431202421 0 0.1071120916355288 0.25593481961457593 0 0.09889364564139512 0.27253852165620418 0 0.15289540302814589 0.27238655647116061 0 0.13010081416602559 0.26247161577127248 0 0.1392997877203678 0.28247798205481778 0 0.15289540302814589 0.27238655647116061 0 0.14694682335116249 0.25335535453803693 0 0.13010081416602559 0.26247161577127248 0 0.12090184061168301 0.24246524948772741 0 0.14694682335116249 0.25335535453803693 0 0.13010081416602559 0.26247161577127248 0 0.12090184061168301 0.24246524948772741 0 0.13010081416602559 0.26247161577127248 0 0.13010081416602559 0.26247161577127248 0 0.1392997877203678 0.28247798205481778 0 0.11876590380802669 0.28004302431202421 0 0.13010081416602559 0.26247161577127248 0 0.1392997877203678 0.28247798205481778 0 0.1392997877203678 0.28247798205481778 0 0.13041971598052479 0.30415122900947239 0 0.13617586922377109 0.30304927068820448 0 0.11876590380802669 0.28004302431202421 0 0.1392997877203678 0.28247798205481778 0 0.13041971598052479 0.30415122900947239 0 0.13041971598052479 0.30415122900947239 0 0.13617586922377109 0.30304927068820448 0 0.13041971598052479 0.30415122900947239 0 0.13617586922377109 0.30304927068820448 0 0.1424950712668514 0.31018451614932391 0 0.13617586922377109 0.30304927068820448 0 0.1424950712668514 0.31018451614932391 0 0.1484987612747099 0.30248434833836307 0 0.1424950712668514 0.31018451614932391 0 0.1484987612747099 0.30248434833836307 0 0.15738234479294311 0.31727056177310231 0 0.1392997877203678 0.28247798205481778 0 0.1484987612747099 0.30248434833836307 0 0.1514834930088701 0.28899392395911139 0 0.1484987612747099 0.30248434833836307 0 0.1514834930088701 0.28899392395911139 0 0.16518707544179009 0.29075801068072371 0 0.15289540302814589 0.27238655647116061 0 0.1392997877203678 0.28247798205481778 0 0.1514834930088701 0.28899392395911139 0 0.1392997877203678 0.28247798205481778 0 0.13617586922377109 0.30304927068820448 0 0.1484987612747099 0.30248434833836307 0 0.1392997877203678 0.28247798205481778 0 0.1484987612747099 0.30248434833836307 0 0.15289540302814589 0.27238655647116061 0 0.1514834930088701 0.28899392395911139 0 0.16518707544179009 0.29075801068072371 0 0.16518707544179009 0.29075801068072371 0 0.17591648098355331 0.30705837599373692 0 0.15738234479294311 0.31727056177310231 0 0.16518707544179009 0.29075801068072371 0 0.15738234479294311 0.31727056177310231 0 0.1484987612747099 0.30248434833836307 0 0.16518707544179009 0.29075801068072371 0 0.15738234479294311 0.31727056177310231 0 0.17591648098355331 0.30705837599373692 0 0.18284792272970021 0.28844217593483579 0 0.19590121112684891 0.31272145607933788 0 0.16518707544179009 0.29075801068072371 0 0.17591648098355331 0.30705837599373692 0 0.18284792272970021 0.28844217593483579 0 0.16518707544179009 0.29075801068072371 0 0.18284792272970021 0.28844217593483579 0 0.17875780127740809 0.2795439288109936 0 0.18284792272970021 0.28844217593483579 0 0.18732407710435989 0.28028113889699352 0 0.17875780127740809 0.2795439288109936 0 0.17299180609064191 0.26424545958834628 0 0.18858556810253041 0.26295203089555419 0 0.19053233812275339 0.27029079650484672 0 0.16518707544179009 0.29075801068072371 0 0.17875780127740809 0.2795439288109936 0 0.17299180609064191 0.26424545958834628 0 0.18732407710435989 0.28028113889699352 0 0.18269759559479731 0.27403634145214062 0 0.1917166979067792 0.27207483851222969 0 0.17299180609064191 0.26424545958834628 0 0.1917166979067792 0.27207483851222969 0 0.17299180609064191 0.26424545958834628 0 0.1917166979067792 0.27207483851222969 0 0.19053233812275339 0.27029079650484672 0 0.18732407710435989 0.28028113889699352 0 0.18269759559479731 0.27403634145214062 0 0.17875780127740809 0.2795439288109936 0 0.18269759559479731 0.27403634145214062 0 0.17299180609064191 0.26424545958834628 0 0.1917166979067792 0.27207483851222969 0 0.18269759559479731 0.27403634145214062 0 0.17875780127740809 0.2795439288109936 0 0.17299180609064191 0.26424545958834628 0 0.15289540302814589 0.27238655647116061 0 0.16518707544179009 0.29075801068072371 0 0.17299180609064191 0.26424545958834628 0 0.16518707544179009 0.29075801068072371 0 0.17299180609064191 0.26424545958834628 0 0.15289540302814589 0.27238655647116061 0 0.14694682335116249 0.25335535453803693 0 0.17299180609064191 0.26424545958834628 0 0.1675952196471262 0.24366021195892809 0 0.14694682335116249 0.25335535453803693 0 0.17299180609064191 0.26424545958834628 0 0.14694682335116249 0.25335535453803693 0 0.17299180609064191 0.26424545958834628 0 0.1675952196471262 0.24366021195892809 0 0.1766233704682825 0.25190909073213019 0 0.17299180609064191 0.26424545958834628 0 0.18141513768092579 0.23592156112495441 0 0.18160693892536381 0.25851112949721938 0 0.18858556810253041 0.26295203089555419 0 0.1766233704682825 0.25190909073213019 0 0.17299180609064191 0.26424545958834628 0 0.1766233704682825 0.25190909073213019 0 0.17299180609064191 0.26424545958834628 0 0.18160693892536381 0.25851112949721938 0 0.17299180609064191 0.26424545958834628 0 0.18160693892536381 0.25851112949721938 0 0.18858556810253041 0.26295203089555419 0 0.1976193107110755 0.2504271413573631 0 0.19708951297659499 0.26722287703882308 0 0.20403045021699989 0.26516567939673558 0 0.18858556810253041 0.26295203089555419 0 0.1976193107110755 0.2504271413573631 0 0.19708951297659499 0.26722287703882308 0 0.18858556810253041 0.26295203089555419 0 0.1976193107110755 0.2504271413573631 0 0.1976193107110755 0.2504271413573631 0 0.20403045021699989 0.26516567939673558 0 0.1917166979067792 0.27207483851222969 0 0.21044158972291749 0.27990421743611088 0 0.1917166979067792 0.27207483851222969 0 0.19708951297659499 0.26722287703882308 0 0.21044158972291749 0.27990421743611088 0 0.1917166979067792 0.27207483851222969 0 0.19663943992968869 0.27945629120238252 0 0.21044158972291749 0.27990421743611088 0 0.18732407710435989 0.28028113889699352 0 0.1917166979067792 0.27207483851222969 0 0.19663943992968869 0.27945629120238252 0 0.18858556810253041 0.26295203089555419 0 0.19053233812275339 0.27029079650484672 0 0.19708951297659499 0.26722287703882308 0 0.1917166979067792 0.27207483851222969 0 0.19053233812275339 0.27029079650484672 0 0.19708951297659499 0.26722287703882308 0 0.18858556810253041 0.26295203089555419 0 0.19053233812275339 0.27029079650484672 0 0.21044158972291749 0.27990421743611088 0 0.20403045021699989 0.26516567939673558 0 0.2164682549812455 0.26431560672348148 0 0.19708951297659499 0.26722287703882308 0 0.21044158972291749 0.27990421743611088 0 0.20403045021699989 0.26516567939673558 0 0.21044158972291749 0.27990421743611088 0 0.20403045021699989 0.26516567939673558 0 0.21044158972291749 0.27990421743611088 0 0.2164682549812455 0.26431560672348148 0 0.22503552112511321 0.27337229274671621 0 0.1976193107110755 0.2504271413573631 0 0.20403045021699989 0.26516567939673558 0 0.21434674024768369 0.25085964475063538 0 0.20403045021699989 0.26516567939673558 0 0.2164682549812455 0.26431560672348148 0 0.21434674024768369 0.25085964475063538 0 0.2164682549812455 0.26431560672348148 0 0.21434674024768369 0.25085964475063538 0 0.22914030245724509 0.25791914924336029 0 0.2164682549812455 0.26431560672348148 0 0.22914030245724509 0.25791914924336029 0 0.22503552112511321 0.27337229274671621 0 0.22503552112511321 0.27337229274671621 0 0.23925658995795721 0.26887805770147349 0 0.2306364409956255 0.28834822579023722 0 0.21044158972291749 0.27990421743611088 0 0.22503552112511321 0.27337229274671621 0 0.2306364409956255 0.28834822579023722 0 0.22914030245724509 0.25791914924336029 0 0.22503552112511321 0.27337229274671621 0 0.23925658995795721 0.26887805770147349 0 0.23925658995795721 0.26887805770147349 0 0.24980621437202469 0.27942046597057768 0 0.2306364409956255 0.28834822579023722 0 0.23925658995795721 0.26887805770147349 0 0.24980621437202469 0.27942046597057768 0 0.25420607492473801 0.25348040794111598 0 0.2463747692332863 0.23880891629358819 0 0.22914030245724509 0.25791914924336029 0 0.25420607492473801 0.25348040794111598 0 0.22914030245724509 0.25791914924336029 0 0.23925658995795721 0.26887805770147349 0 0.25420607492473801 0.25348040794111598 0 0.24540635381931131 0.30536052400003938 0 0.22904171127272729 0.30733931675670639 0 0.2394572403290029 0.31909528222070682 0 0.24540635381931131 0.30536052400003938 0 0.2306364409956255 0.28834822579023722 0 0.22904171127272729 0.30733931675670639 0 0.24980621437202469 0.27942046597057768 0 0.24540635381931131 0.30536052400003938 0 0.24980621437202469 0.27942046597057768 0 0.24540635381931131 0.30536052400003938 0 0.2306364409956255 0.28834822579023722 0 0.21044158972291749 0.27990421743611088 0 0.2306364409956255 0.28834822579023722 0 0.21044158972291749 0.27990421743611088 0 0.2306364409956255 0.28834822579023722 0 0.21790851340225159 0.29706989267734579 0 0.2306364409956255 0.28834822579023722 0 0.22904171127272729 0.30733931675670639 0 0.21790851340225159 0.29706989267734579 0 0.22904171127272729 0.30733931675670639 0 0.2134728032356539 0.31225162118154293 0 0.21790851340225159 0.29706989267734579 0 0.2134728032356539 0.31225162118154293 0 0.2028996003292414 0.29761231462340498 0 0.19590121112684891 0.31272145607933788 0 0.2134728032356539 0.31225162118154293 0 0.21790851340225159 0.29706989267734579 0 0.2028996003292414 0.29761231462340498 0 0.21044158972291749 0.27990421743611088 0 0.21790851340225159 0.29706989267734579 0 0.21044158972291749 0.27990421743611088 0 0.21790851340225159 0.29706989267734579 0 0.2028996003292414 0.29761231462340498 0 0.21044158972291749 0.27990421743611088 0 0.19707539498469839 0.28556496996419611 0 0.2028996003292414 0.29761231462340498 0 0.18284792272970021 0.28844217593483579 0 0.19707539498469839 0.28556496996419611 0 0.2028996003292414 0.29761231462340498 0 0.19663943992968869 0.27945629120238252 0 0.21044158972291749 0.27990421743611088 0 0.19707539498469839 0.28556496996419611 0 0.18284792272970021 0.28844217593483579 0 0.18732407710435989 0.28028113889699352 0 0.19707539498469839 0.28556496996419611 0 0.18732407710435989 0.28028113889699352 0 0.19663943992968869 0.27945629120238252 0 0.19707539498469839 0.28556496996419611 0 0.18284792272970021 0.28844217593483579 0 0.2028996003292414 0.29761231462340498 0 0.19590121112684891 0.31272145607933788 0 0.18284792272970021 0.28844217593483579 0 0.19590121112684891 0.31272145607933788 0 0.19590121112684891 0.31272145607933788 0 0.20895449952399761 0.33700073622384003 0 0.19590121112684891 0.31272145607933788 0 0.19095555262840139 0.33596571932779312 0 0.1760676095749561 0.32363762017031361 0 0.19590121112684891 0.31272145607933788 0 0.19095555262840139 0.33596571932779312 0 0.20895449952399761 0.33700073622384003 0 0.19095555262840139 0.33596571932779312 0 0.20895449952399761 0.33700073622384003 0 0.2029923085147041 0.35171304229409839 0 0.2134728032356539 0.31225162118154293 0 0.20895449952399761 0.33700073622384003 0 0.2261312837588568 0.3217660107286221 0 0.2134728032356539 0.31225162118154293 0 0.19590121112684891 0.31272145607933788 0 0.20895449952399761 0.33700073622384003 0 0.22904171127272729 0.30733931675670639 0 0.2134728032356539 0.31225162118154293 0 0.2261312837588568 0.3217660107286221 0 0.2261312837588568 0.3217660107286221 0 0.23635231597844189 0.33754573364753893 0 0.2394572403290029 0.31909528222070682 0 0.22904171127272729 0.30733931675670639 0 0.2261312837588568 0.3217660107286221 0 0.2394572403290029 0.31909528222070682 0 0.20895449952399761 0.33700073622384003 0 0.2261312837588568 0.3217660107286221 0 0.23635231597844189 0.33754573364753893 0 0.23635231597844189 0.33754573364753893 0 0.2394572403290029 0.31909528222070682 0 0.25605710312158492 0.32172865957637692 0 0.24540635381931131 0.30536052400003938 0 0.2394572403290029 0.31909528222070682 0 0.25605710312158492 0.32172865957637692 0 0.24073733712394749 0.35607914407238278 0 0.23258695429665141 0.37017322304059719 0 0.25032404894909732 0.36581275603459928 0 0.23258695429665141 0.37017322304059719 0 0.2382325194237967 0.38604152079836362 0 0.25032404894909732 0.36581275603459928 0 0.23635231597844189 0.33754573364753893 0 0.24073733712394749 0.35607914407238278 0 0.26241557847440039 0.34558399127083661 0 0.20895449952399761 0.33700073622384003 0 0.23635231597844189 0.33754573364753893 0 0.2220077879211462 0.36128001636834189 0 0.23635231597844189 0.33754573364753893 0 0.24073733712394749 0.35607914407238278 0 0.2220077879211462 0.36128001636834189 0 0.24073733712394749 0.35607914407238278 0 0.2220077879211462 0.36128001636834189 0 0.23258695429665141 0.37017322304059719 0 0.2220077879211462 0.36128001636834189 0 0.23258695429665141 0.37017322304059719 0 0.21698892648037679 0.37473331789510422 0 0.21698892648037679 0.37473331789510422 0 0.19574533353695689 0.36342511499184471 0 0.21698892648037679 0.37473331789510422 0 0.19574533353695689 0.36342511499184471 0 0.2063116843981293 0.37755886385149662 0 0.21698892648037679 0.37473331789510422 0 0.20943358911329599 0.36278787288734732 0 0.19574533353695689 0.36342511499184471 0 0.2220077879211462 0.36128001636834189 0 0.21698892648037679 0.37473331789510422 0 0.20943358911329599 0.36278787288734732 0 0.20895449952399761 0.33700073622384003 0 0.2220077879211462 0.36128001636834189 0 0.20895449952399761 0.33700073622384003 0 0.2220077879211462 0.36128001636834189 0 0.2029923085147041 0.35171304229409839 0 0.2220077879211462 0.36128001636834189 0 0.20943358911329599 0.36278787288734732 0 0.2029923085147041 0.35171304229409839 0 0.19095555262840139 0.33596571932779312 0 0.2029923085147041 0.35171304229409839 0 0.18934815537816921 0.34983464446824108 0 0.20943358911329599 0.36278787288734732 0 0.2029923085147041 0.35171304229409839 0 0.19574533353695689 0.36342511499184471 0 0.2029923085147041 0.35171304229409839 0 0.18934815537816921 0.34983464446824108 0 0.19574533353695689 0.36342511499184471 0 0.19748595593565399 0.37493808562369912 0 0.19574533353695689 0.36342511499184471 0 0.173648713328 0.35960248842757492 0 0.19748595593565399 0.37493808562369912 0 0.19574533353695689 0.36342511499184471 0 0.2063116843981293 0.37755886385149662 0 0.19748595593565399 0.37493808562369912 0 0.173648713328 0.35960248842757492 0 0.17941136869715851 0.37717540935210059 0 0.19748595593565399 0.37493808562369912 0 0.173648713328 0.35960248842757492 0 0.173648713328 0.35960248842757492 0 0.1623582670040464 0.37022240935954392 0 0.17941136869715851 0.37717540935210059 0 0.173648713328 0.35960248842757492 0 0.14949511405703289 0.34406336440417828 0 0.173648713328 0.35960248842757492 0 0.159567955929001 0.34804088938838262 0 0.14949511405703289 0.34406336440417828 0 0.173648713328 0.35960248842757492 0 0.1623582670040464 0.37022240935954392 0 0.14949511405703289 0.34406336440417828 0 0.16379375978638919 0.34772467619696779 0 0.17004475504617719 0.34423952955704012 0 0.15799931216063001 0.34040980317613728 0 0.16379375978638919 0.34772467619696779 0 0.159567955929001 0.34804088938838262 0 0.16823327512525171 0.35147239010578318 0 0.16379375978638919 0.34772467619696779 0 0.159567955929001 0.34804088938838262 0 0.15799931216063001 0.34040980317613728 0 0.173648713328 0.35960248842757492 0 0.159567955929001 0.34804088938838262 0 0.16823327512525171 0.35147239010578318 0 0.16823327512525171 0.35147239010578318 0 0.16965420598933131 0.34987698442740528 0 0.1745017405935371 0.35211691208858531 0 0.16965420598933131 0.34987698442740528 0 0.17004475504617719 0.34423952955704012 0 0.1745017405935371 0.35211691208858531 0 0.16379375978638919 0.34772467619696779 0 0.16823327512525171 0.35147239010578318 0 0.16965420598933131 0.34987698442740528 0 0.16379375978638919 0.34772467619696779 0 0.16965420598933131 0.34987698442740528 0 0.17004475504617719 0.34423952955704012 0 0.19574533353695689 0.36342511499184471 0 0.1745017405935371 0.35211691208858531 0 0.18934815537816921 0.34983464446824108 0 0.19574533353695689 0.36342511499184471 0 0.1745017405935371 0.35211691208858531 0 0.17004475504617719 0.34423952955704012 0 0.1745017405935371 0.35211691208858531 0 0.17822800298229069 0.33993025986463182 0 0.19574533353695689 0.36342511499184471 0 0.173648713328 0.35960248842757492 0 0.1745017405935371 0.35211691208858531 0 0.173648713328 0.35960248842757492 0 0.16823327512525171 0.35147239010578318 0 0.1745017405935371 0.35211691208858531 0 0.18934815537816921 0.34983464446824108 0 0.1745017405935371 0.35211691208858531 0 0.17822800298229069 0.33993025986463182 0 0.17822800298229069 0.33993025986463182 0 0.1760676095749561 0.32363762017031361 0 0.1684502046725033 0.33378713357581791 0 0.19095555262840139 0.33596571932779312 0 0.17822800298229069 0.33993025986463182 0 0.1760676095749561 0.32363762017031361 0 0.19095555262840139 0.33596571932779312 0 0.18934815537816921 0.34983464446824108 0 0.17822800298229069 0.33993025986463182 0 0.17004475504617719 0.34423952955704012 0 0.17822800298229069 0.33993025986463182 0 0.1684502046725033 0.33378713357581791 0 0.17591648098355331 0.30705837599373692 0 0.19590121112684891 0.31272145607933788 0 0.1760676095749561 0.32363762017031361 0 0.17591648098355331 0.30705837599373692 0 0.1760676095749561 0.32363762017031361 0 0.15738234479294311 0.31727056177310231 0 0.1760676095749561 0.32363762017031361 0 0.15738234479294311 0.31727056177310231 0 0.1684502046725033 0.33378713357581791 0 0.15738234479294311 0.31727056177310231 0 0.1684502046725033 0.33378713357581791 0 0.15799931216063001 0.34040980317613728 0 0.17004475504617719 0.34423952955704012 0 0.1684502046725033 0.33378713357581791 0 0.15799931216063001 0.34040980317613728 0 0.15738234479294311 0.31727056177310231 0 0.15799931216063001 0.34040980317613728 0 0.14949511405703289 0.34406336440417828 0 0.15738234479294311 0.31727056177310231 0 0.13999866506230871 0.32396717093747679 0 0.14949511405703289 0.34406336440417828 0 0.13999866506230871 0.32396717093747679 0 0.14949511405703289 0.34406336440417828 0 0.15738234479294311 0.31727056177310231 0 0.14949511405703289 0.34406336440417828 0 0.1424950712668514 0.31018451614932391 0 0.15738234479294311 0.31727056177310231 0 0.13999866506230871 0.32396717093747679 0 0.13041971598052479 0.30415122900947239 0 0.1424950712668514 0.31018451614932391 0 0.13999866506230871 0.32396717093747679 0 0.13041971598052479 0.30415122900947239 0 0.13999866506230871 0.32396717093747679 0 0.1297269311620674 0.3186312774628941 0 0.13041971598052479 0.30415122900947239 0 0.13999866506230871 0.32396717093747679 0 0.13999866506230871 0.32396717093747679 0 0.1297269311620674 0.3186312774628941 0 0.1280910165808048 0.33029312165233282 0 0.1203983270246315 0.31611358825229419 0 0.1297269311620674 0.3186312774628941 0 0.1280910165808048 0.33029312165233282 0 0.1203983270246315 0.31611358825229419 0 0.13041971598052479 0.30415122900947239 0 0.1297269311620674 0.3186312774628941 0 0.13999866506230871 0.32396717093747679 0 0.1280910165808048 0.33029312165233282 0 0.14949511405703289 0.34406336440417828 0 0.1280910165808048 0.33029312165233282 0 0.14949511405703289 0.34406336440417828 0 0.1354718715319658 0.34152997283363401 0 0.1280910165808048 0.33029312165233282 0 0.14949511405703289 0.34406336440417828 0 0.1354718715319658 0.34152997283363401 0 0.1280910165808048 0.33029312165233282 0 0.1252163265707798 0.34258049099589832 0 0.1354718715319658 0.34152997283363401 0 0.1252163265707798 0.34258049099589832 0 0.1373610289082296 0.34970234054921789 0 0.1135024492681706 0.35566720943874441 0 0.1373610289082296 0.34970234054921789 0 0.13691094282903871 0.36397439982601781 0 0.1135024492681706 0.35566720943874441 0 0.1373610289082296 0.34970234054921789 0 0.1135024492681706 0.35566720943874441 0 0.1252163265707798 0.34258049099589832 0 0.1373610289082296 0.34970234054921789 0 0.1354718715319658 0.34152997283363401 0 0.1373610289082296 0.34970234054921789 0 0.14226143101388869 0.34607505665987481 0 0.1373610289082296 0.34970234054921789 0 0.13691094282903871 0.36397439982601781 0 0.14728287595597411 0.35157830352528952 0 0.11943730510539979 0.37531578897086187 0 0.13691094282903871 0.36397439982601781 0 0.13818388355681871 0.37882247308463979 0 0.13691094282903871 0.36397439982601781 0 0.14835984212448289 0.37287547269552351 0 0.15248742862215231 0.36278690660823909 0 0.13691094282903871 0.36397439982601781 0 0.15248742862215231 0.36278690660823909 0 0.14728287595597411 0.35157830352528952 0 0.13691094282903871 0.36397439982601781 0 0.14835984212448289 0.37287547269552351 0 0.13818388355681871 0.37882247308463979 0 0.1623582670040464 0.37022240935954392 0 0.14835984212448289 0.37287547269552351 0 0.15248742862215231 0.36278690660823909 0 0.1623582670040464 0.37022240935954392 0 0.14949511405703289 0.34406336440417828 0 0.15248742862215231 0.36278690660823909 0 0.14949511405703289 0.34406336440417828 0 0.14728287595597411 0.35157830352528952 0 0.1623582670040464 0.37022240935954392 0 0.15248742862215231 0.36278690660823909 0 0.14949511405703289 0.34406336440417828 0 0.159567955929001 0.34804088938838262 0 0.15799931216063001 0.34040980317613728 0 0.14949511405703289 0.34406336440417828 0 0.14949511405703289 0.34406336440417828 0 0.14728287595597411 0.35157830352528952 0 0.1354718715319658 0.34152997283363401 0 0.14949511405703289 0.34406336440417828 0 0.14226143101388869 0.34607505665987481 0 0.1373610289082296 0.34970234054921789 0 0.14226143101388869 0.34607505665987481 0 0.14728287595597411 0.35157830352528952 0 0.14949511405703289 0.34406336440417828 0 0.14226143101388869 0.34607505665987481 0 0.14728287595597411 0.35157830352528952 0 0.15185868861035839 0.38857117459917662 0 0.12979135686641691 0.39420319277334859 0 0.14859269068344799 0.40696654261386278 0 0.1623582670040464 0.37022240935954392 0 0.14835984212448289 0.37287547269552351 0 0.15185868861035839 0.38857117459917662 0 0.14835984212448289 0.37287547269552351 0 0.15185868861035839 0.38857117459917662 0 0.13818388355681871 0.37882247308463979 0 0.15185868861035839 0.38857117459917662 0 0.13818388355681871 0.37882247308463979 0 0.12979135686641691 0.39420319277334859 0 0.11943730510539979 0.37531578897086187 0 0.13818388355681871 0.37882247308463979 0 0.12979135686641691 0.39420319277334859 0 0.12979135686641691 0.39420319277334859 0 0.1310309034848878 0.41300661924418203 0 0.14859269068344799 0.40696654261386278 0 0.1197464413585656 0.43374428119255332 0 0.14228975508958699 0.42790724311958273 0 0.14066642321035419 0.4499196184157972 0 0.1197464413585656 0.43374428119255332 0 0.1310309034848878 0.41300661924418203 0 0.14228975508958699 0.42790724311958273 0 0.14228975508958699 0.42790724311958273 0 0.16364054524341459 0.42011517590111969 0 0.1580488227766351 0.43855218145510061 0 0.14228975508958699 0.42790724311958273 0 0.14859269068344799 0.40696654261386278 0 0.16364054524341459 0.42011517590111969 0 0.1310309034848878 0.41300661924418203 0 0.14228975508958699 0.42790724311958273 0 0.14859269068344799 0.40696654261386278 0 0.14859269068344799 0.40696654261386278 0 0.16364054524341459 0.42011517590111969 0 0.17490506328774769 0.39617792748763642 0 0.16364054524341459 0.42011517590111969 0 0.17299941244593381 0.43248939606721171 0 0.1580488227766351 0.43855218145510061 0 0.18745185957144889 0.42213344561572902 0 0.17299941244593381 0.43248939606721171 0 0.18338256527828789 0.44038377677771978 0 0.16364054524341459 0.42011517590111969 0 0.18745185957144889 0.42213344561572902 0 0.17299941244593381 0.43248939606721171 0 0.18745185957144889 0.42213344561572902 0 0.17490506328774769 0.39617792748763642 0 0.16364054524341459 0.42011517590111969 0 0.18745185957144889 0.42213344561572902 0 0.17490506328774769 0.39617792748763642 0 0.18745185957144889 0.42213344561572902 0 0.17490506328774769 0.39617792748763642 0 0.19211257830592821 0.40469071415695967 0 0.17490506328774769 0.39617792748763642 0 0.19159715981604911 0.38937345539453388 0 0.19211257830592821 0.40469071415695967 0 0.15185868861035839 0.38857117459917662 0 0.14859269068344799 0.40696654261386278 0 0.17490506328774769 0.39617792748763642 0 0.1623582670040464 0.37022240935954392 0 0.17490506328774769 0.39617792748763642 0 0.1623582670040464 0.37022240935954392 0 0.15185868861035839 0.38857117459917662 0 0.17490506328774769 0.39617792748763642 0 0.1623582670040464 0.37022240935954392 0 0.17490506328774769 0.39617792748763642 0 0.17941136869715851 0.37717540935210059 0 0.17490506328774769 0.39617792748763642 0 0.17941136869715851 0.37717540935210059 0 0.19159715981604911 0.38937345539453388 0 0.19748595593565399 0.37493808562369912 0 0.17941136869715851 0.37717540935210059 0 0.19159715981604911 0.38937345539453388 0 0.19748595593565399 0.37493808562369912 0 0.19159715981604911 0.38937345539453388 0 0.20482495365694531 0.38610475216379547 0 0.19748595593565399 0.37493808562369912 0 0.2063116843981293 0.37755886385149662 0 0.20482495365694531 0.38610475216379547 0 0.19159715981604911 0.38937345539453388 0 0.19211257830592821 0.40469071415695967 0 0.20610028774089439 0.39984964145340041 0 0.19159715981604911 0.38937345539453388 0 0.20610028774089439 0.39984964145340041 0 0.20482495365694531 0.38610475216379547 0 0.19211257830592821 0.40469071415695967 0 0.20610028774089439 0.39984964145340041 0 0.20182444758477691 0.41397741132826948 0 0.20610028774089439 0.39984964145340041 0 0.20482495365694531 0.38610475216379547 0 0.21651325238071339 0.38859304858303911 0 0.20610028774089439 0.39984964145340041 0 0.21651325238071339 0.38859304858303911 0 0.22010855031177931 0.40089007228447388 0 0.20610028774089439 0.39984964145340041 0 0.22010855031177931 0.40089007228447388 0 0.21597219292746439 0.41503821626329013 0 0.2063116843981293 0.37755886385149662 0 0.20482495365694531 0.38610475216379547 0 0.21651325238071339 0.38859304858303911 0 0.21698892648037679 0.37473331789510422 0 0.2063116843981293 0.37755886385149662 0 0.21651325238071339 0.38859304858303911 0 0.21698892648037679 0.37473331789510422 0 0.2322140842350848 0.39039054542490592 0 0.2382325194237967 0.38604152079836362 0 0.21698892648037679 0.37473331789510422 0 0.21651325238071339 0.38859304858303911 0 0.2322140842350848 0.39039054542490592 0 0.23258695429665141 0.37017322304059719 0 0.21698892648037679 0.37473331789510422 0 0.2382325194237967 0.38604152079836362 0 0.21698892648037679 0.37473331789510422 0 0.2382325194237967 0.38604152079836362 0 0.2322140842350848 0.39039054542490592 0 0.22010855031177931 0.40089007228447388 0 0.23128152108518249 0.41192866309376841 0 0.2322140842350848 0.39039054542490592 0 0.23128152108518249 0.41192866309376841 0 0.21651325238071339 0.38859304858303911 0 0.2322140842350848 0.39039054542490592 0 0.22010855031177931 0.40089007228447388 0 0.2322140842350848 0.39039054542490592 0 0.23395678674422199 0.39319469280913222 0 0.23128152108518249 0.41192866309376841 0 0.2450574597718245 0.40174438022000741 0 0.2382325194237967 0.38604152079836362 0 0.25788969548034041 0.39650525619117272 0 0.23395678674422199 0.39319469280913222 0 0.2450574597718245 0.40174438022000741 0 0.23128152108518249 0.41192866309376841 0 0.2382325194237967 0.38604152079836362 0 0.25788969548034041 0.39650525619117272 0 0.23395678674422199 0.39319469280913222 0 0.2450574597718245 0.40174438022000741 0 0.2382325194237967 0.38604152079836362 0 0.2382325194237967 0.38604152079836362 0 0.25865996859128021 0.37998411740755811 0 0.25032404894909732 0.36581275603459928 0 0.2382325194237967 0.38604152079836362 0 0.25032404894909732 0.36581275603459928 0 0.2322140842350848 0.39039054542490592 0 0.23395678674422199 0.39319469280913222 0 0.2382325194237967 0.38604152079836362 0 0.23395678674422199 0.39319469280913222 0 0.2382325194237967 0.38604152079836362 0 0.23034895793528071 0.4334667807626309 0 0.25400010338541068 0.43894078920644858 0 0.23957875664793249 0.42307716702511078 0 0.25400010338541068 0.43894078920644858 0 0.25008526660575142 0.41536106213154228 0 0.23957875664793249 0.42307716702511078 0 0.23034895793528071 0.4334667807626309 0 0.25400010338541068 0.43894078920644858 0 0.2450574597718245 0.40174438022000741 0 0.23128152108518249 0.41192866309376841 0 0.25008526660575142 0.41536106213154228 0 0.23957875664793249 0.42307716702511078 0 0.23128152108518249 0.41192866309376841 0 0.25008526660575142 0.41536106213154228 0 0.23128152108518249 0.41192866309376841 0 0.23034895793528071 0.4334667807626309 0 0.21597219292746439 0.41503821626329013 0 0.22010855031177931 0.40089007228447388 0 0.23128152108518249 0.41192866309376841 0 0.21597219292746439 0.41503821626329013 0 0.23128152108518249 0.41192866309376841 0 0.23034895793528071 0.4334667807626309 0 0.23957875664793249 0.42307716702511078 0 0.23128152108518249 0.41192866309376841 0 0.23034895793528071 0.4334667807626309 0 0.23034895793528071 0.4334667807626309 0 0.20748531937814871 0.42817503915196881 0 0.23034895793528071 0.4334667807626309 0 0.20748531937814871 0.42817503915196881 0 0.21597219292746439 0.41503821626329013 0 0.23034895793528071 0.4334667807626309 0 0.20748531937814871 0.42817503915196881 0 0.2167883288110054 0.44358105213152438 0 0.20748531937814871 0.42817503915196881 0 0.21597219292746439 0.41503821626329013 0 0.20182444758477691 0.41397741132826948 0 0.20610028774089439 0.39984964145340041 0 0.21597219292746439 0.41503821626329013 0 0.20182444758477691 0.41397741132826948 0 0.18745185957144889 0.42213344561572902 0 0.20748531937814871 0.42817503915196881 0 0.20182444758477691 0.41397741132826948 0 0.18745185957144889 0.42213344561572902 0 0.19211257830592821 0.40469071415695967 0 0.20182444758477691 0.41397741132826948 0 0.18745185957144889 0.42213344561572902 0 0.1999986558551502 0.44808896374382162 0 0.18338256527828789 0.44038377677771978 0 0.18745185957144889 0.42213344561572902 0 0.1999986558551502 0.44808896374382162 0 0.18745185957144889 0.42213344561572902 0 0.20748531937814871 0.42817503915196881 0 0.1999986558551502 0.44808896374382162 0 0.1999986558551502 0.44808896374382162 0 0.18498168346984881 0.45546857193898233 0 0.18338256527828789 0.44038377677771978 0 0.1999986558551502 0.44808896374382162 0 0.19420586407629101 0.46613344280229618 0 0.21254545213885151 0.47404448187191411 0 0.1999986558551502 0.44808896374382162 0 0.19420586407629101 0.46613344280229618 0 0.18498168346984881 0.45546857193898233 0 0.1999986558551502 0.44808896374382162 0 0.21740375770461609 0.45828566889924072 0 0.21254545213885151 0.47404448187191411 0 0.1999986558551502 0.44808896374382162 0 0.21254545213885151 0.47404448187191411 0 0.1999986558551502 0.44808896374382162 0 0.21740375770461609 0.45828566889924072 0 0.2167883288110054 0.44358105213152438 0 0.20748531937814871 0.42817503915196881 0 0.1999986558551502 0.44808896374382162 0 0.2167883288110054 0.44358105213152438 0 0.23034895793528071 0.4334667807626309 0 0.2167883288110054 0.44358105213152438 0 0.22947313322497531 0.45369448938463752 0 0.23034895793528071 0.4334667807626309 0 0.22947313322497531 0.45369448938463752 0 0.21740375770461609 0.45828566889924072 0 0.2167883288110054 0.44358105213152438 0 0.22947313322497531 0.45369448938463752 0 0.21740375770461609 0.45828566889924072 0 0.22947313322497531 0.45369448938463752 0 0.2285973085146705 0.47392219800664398 0 0.22947313322497531 0.45369448938463752 0 0.2285973085146705 0.47392219800664398 0 0.22947313322497531 0.45369448938463752 0 0.2461323639930883 0.46887865018334979 0 0.2285973085146705 0.47392219800664398 0 0.22947313322497531 0.45369448938463752 0 0.24559696230969119 0.45273518479692948 0 0.2461323639930883 0.46887865018334979 0 0.23034895793528071 0.4334667807626309 0 0.24559696230969119 0.45273518479692948 0 0.25400010338541068 0.43894078920644858 0 0.23034895793528071 0.4334667807626309 0 0.22947313322497531 0.45369448938463752 0 0.24559696230969119 0.45273518479692948 0 0.2250922484225549 0.50000000000000555 0 0.2277214838043656 0.49414990662865049 0 0.25192174661882089 0.5 0 0.24116109834163901 0.48459900347835028 0 0.2277214838043656 0.49414990662865049 0 0.25192174661882089 0.5 0 0.24116109834163901 0.48459900347835028 0 0.2461323639930883 0.46887865018334979 0 0.2285973085146705 0.47392219800664398 0 0.21740375770461609 0.45828566889924072 0 0.2285973085146705 0.47392219800664398 0 0.21254545213885151 0.47404448187191411 0 0.2285973085146705 0.47392219800664398 0 0.2277214838043656 0.49414990662865049 0 0.24116109834163901 0.48459900347835028 0 0.2285973085146705 0.47392219800664398 0 0.2277214838043656 0.49414990662865049 0 0.2285973085146705 0.47392219800664398 0 0.2277214838043656 0.49414990662865049 0 0.21254545213885151 0.47404448187191411 0 0.2250922484225549 0.50000000000000555 0 0.21254545213885151 0.47404448187191411 0 0.2250922484225549 0.50000000000000555 0 0.2277214838043656 0.49414990662865049 0 0.21254545213885151 0.47404448187191411 0 0.2250922484225549 0.50000000000000555 0 0.21081305867249089 0.49089220939130929 0 0.19653386892242691 0.5 0 0.2250922484225549 0.50000000000000555 0 0.21081305867249089 0.49089220939130929 0 0.21254545213885151 0.47404448187191411 0 0.21081305867249089 0.49089220939130929 0 0.21254545213885151 0.47404448187191411 0 0.1969595494385305 0.48095476925076919 0 0.19420586407629101 0.46613344280229618 0 0.21254545213885151 0.47404448187191411 0 0.1969595494385305 0.48095476925076919 0 0.19420586407629101 0.46613344280229618 0 0.1969595494385305 0.48095476925076919 0 0.17654397947907419 0.47211042720599411 0 0.21081305867249089 0.49089220939130929 0 0.1969595494385305 0.48095476925076919 0 0.19653386892242691 0.5 0 0.1969595494385305 0.48095476925076919 0 0.19653386892242691 0.5 0 0.16797548942229901 0.5 0 0.16797548942229901 0.5 0 0.17654397947907419 0.47211042720599411 0 0.1526220815237852 0.47487872521019459 0 0.1969595494385305 0.48095476925076919 0 0.16797548942229901 0.5 0 0.17654397947907419 0.47211042720599411 0 0.17654397947907419 0.47211042720599411 0 0.18498168346984881 0.45546857193898233 0 0.1597089463952712 0.45664564739965829 0 0.19420586407629101 0.46613344280229618 0 0.17654397947907419 0.47211042720599411 0 0.18498168346984881 0.45546857193898233 0 0.18498168346984881 0.45546857193898233 0 0.17148121504905781 0.44373850652285429 0 0.1597089463952712 0.45664564739965829 0 0.18498168346984881 0.45546857193898233 0 0.18338256527828789 0.44038377677771978 0 0.17148121504905781 0.44373850652285429 0 0.17299941244593381 0.43248939606721171 0 0.18338256527828789 0.44038377677771978 0 0.17148121504905781 0.44373850652285429 0 0.17148121504905781 0.44373850652285429 0 0.1580488227766351 0.43855218145510061 0 0.1597089463952712 0.45664564739965829 0 0.17299941244593381 0.43248939606721171 0 0.17148121504905781 0.44373850652285429 0 0.1580488227766351 0.43855218145510061 0 0.17654397947907419 0.47211042720599411 0 0.1597089463952712 0.45664564739965829 0 0.1526220815237852 0.47487872521019459 0 0.1597089463952712 0.45664564739965829 0 0.14066642321035419 0.4499196184157972 0 0.1526220815237852 0.47487872521019459 0 0.14228975508958699 0.42790724311958273 0 0.1580488227766351 0.43855218145510061 0 0.14066642321035419 0.4499196184157972 0 0.1580488227766351 0.43855218145510061 0 0.1597089463952712 0.45664564739965829 0 0.14066642321035419 0.4499196184157972 0 0.11962679224525311 0.45384502378945679 0 0.1197464413585656 0.43374428119255332 0 0.14066642321035419 0.4499196184157972 0 0.1246599389302134 0.47468794510422307 0 0.14066642321035419 0.4499196184157972 0 0.1526220815237852 0.47487872521019459 0 0.1246599389302134 0.47468794510422307 0 0.11962679224525311 0.45384502378945679 0 0.14066642321035419 0.4499196184157972 0 0.1246599389302134 0.47468794510422307 0 0.13941710992217099 0.5 0 0.1526220815237852 0.47487872521019459 0 0.16797548942229901 0.5 0 0.13941710992217099 0.5 0 0.1526220815237852 0.47487872521019459 0 0.3591796512165864 0.47272869775732018 0 0.35426465445544009 0.48457945832902272 0 0.34077200907161292 0.47338712962427021 0 0.3591796512165864 0.47272869775732018 0 0.35092461259406821 0.4621028496433644 0 0.34077200907161292 0.47338712962427021 0 0.35426465445544009 0.48457945832902272 0 0.34077200907161292 0.47338712962427021 0 0.3369462523002093 0.5 0 0.35426465445544009 0.48457945832902272 0 0.36679942572601659 0.49999999999999972 0 0.3369462523002093 0.5 0 0.36679942572601659 0.49999999999999972 0 0.37274544210855681 0.47810599626458278 0 0.38199149058198728 0.49999999999999739 0 0.36679942572601659 0.49999999999999972 0 0.37274544210855681 0.47810599626458278 0 0.35426465445544009 0.48457945832902272 0 0.36679942572601659 0.49999999999999972 0 0.37274544210855681 0.47810599626458278 0 0.3591796512165864 0.47272869775732018 0 0.35426465445544009 0.48457945832902272 0 0.37274544210855681 0.47810599626458278 0 0.3591796512165864 0.47272869775732018 0 0.37274544210855681 0.47810599626458278 0 0.36488346433378083 0.46095632342250359 0 0.37274544210855681 0.47810599626458278 0 0.36488346433378083 0.46095632342250359 0 0.37869145849109631 0.45621199252916572 0 0.36488346433378083 0.46095632342250359 0 0.36928852254407257 0.44803623291397288 0 0.37869145849109631 0.45621199252916572 0 0.36928852254407257 0.44803623291397288 0 0.36492873463612729 0.43456121339094073 0 0.37739903956485982 0.43906293214467468 0 0.36488346433378083 0.46095632342250359 0 0.36928852254407257 0.44803623291397288 0 0.35792667361509711 0.44833203151715217 0 0.35792667361509711 0.44833203151715217 0 0.36492873463612729 0.43456121339094073 0 0.36928852254407257 0.44803623291397288 0 0.35792667361509711 0.44833203151715217 0 0.36492873463612729 0.43456121339094073 0 0.34565018271555248 0.45637414226062661 0 0.36492873463612729 0.43456121339094073 0 0.35792667361509711 0.44833203151715217 0 0.34565018271555248 0.45637414226062661 0 0.36492873463612729 0.43456121339094073 0 0.34565018271555248 0.45637414226062661 0 0.34602187399912099 0.43050126328040289 0 0.36492873463612729 0.43456121339094073 0 0.34565018271555248 0.45637414226062661 0 0.35092461259406821 0.4621028496433644 0 0.34077200907161292 0.47338712962427021 0 0.3591796512165864 0.47272869775732018 0 0.36488346433378083 0.46095632342250359 0 0.35092461259406821 0.4621028496433644 0 0.35792667361509711 0.44833203151715217 0 0.35092461259406821 0.4621028496433644 0 0.36488346433378083 0.46095632342250359 0 0.35792667361509711 0.44833203151715217 0 0.35092461259406821 0.4621028496433644 0 0.35792667361509711 0.44833203151715217 0 0.34565018271555248 0.45637414226062661 0 0.35092461259406821 0.4621028496433644 0 0.34565018271555248 0.45637414226062661 0 0.32754884634223752 0.44290161999015332 0 0.32637163079497661 0.47818707113031123 0 0.32754884634223752 0.44290161999015332 0 0.32637163079497661 0.47818707113031123 0 0.30486244425431708 0.45071277225800732 0 0.34565018271555248 0.45637414226062661 0 0.32637163079497661 0.47818707113031123 0 0.34565018271555248 0.45637414226062661 0 0.32754884634223752 0.44290161999015332 0 0.34602187399912099 0.43050126328040289 0 0.32754884634223752 0.44290161999015332 0 0.30486244425431708 0.45071277225800732 0 0.31045214425702022 0.42553249363233431 0 0.32637163079497661 0.47818707113031123 0 0.34077200907161292 0.47338712962427021 0 0.3369462523002093 0.5 0 0.34565018271555248 0.45637414226062661 0 0.32637163079497661 0.47818707113031123 0 0.34077200907161292 0.47338712962427021 0 0.32637163079497661 0.47818707113031123 0 0.30709307887440213 0.49999999999999722 0 0.30597941342962809 0.48041124185843631 0 0.32637163079497661 0.47818707113031123 0 0.30709307887440213 0.49999999999999722 0 0.32637163079497661 0.47818707113031123 0 0.3369462523002093 0.5 0 0.30709307887440213 0.49999999999999722 0 0.3055807430113528 0.49999999999999978 0 0.30023422040422992 0.48977527427629552 0 0.28805867324790502 0.48908753169851787 0 0.30709307887440213 0.49999999999999722 0 0.30023422040422992 0.48977527427629552 0 0.30597941342962809 0.48041124185843631 0 0.3055807430113528 0.49999999999999978 0 0.30709307887440213 0.49999999999999722 0 0.30023422040422992 0.48977527427629552 0 0.32637163079497661 0.47818707113031123 0 0.30597941342962809 0.48041124185843631 0 0.30189876349022171 0.46818763843229511 0 0.30023422040422992 0.48977527427629552 0 0.30597941342962809 0.48041124185843631 0 0.2955500127870504 0.47828390507008117 0 0.30597941342962809 0.48041124185843631 0 0.2955500127870504 0.47828390507008117 0 0.30189876349022171 0.46818763843229511 0 0.2955500127870504 0.47828390507008117 0 0.28805867324790502 0.48908753169851787 0 0.28285496104172292 0.46675116467439293 0 0.28576461667193132 0.48962621672778289 0 0.28805867324790502 0.48908753169851787 0 0.28285496104172292 0.46675116467439293 0 0.2955500127870504 0.47828390507008117 0 0.28285496104172292 0.46675116467439293 0 0.30189876349022171 0.46818763843229511 0 0.28805867324790502 0.48908753169851787 0 0.28285496104172292 0.46675116467439293 0 0.3055807430113528 0.49999999999999978 0 0.28576461667193132 0.48962621672778289 0 0.3055807430113528 0.49999999999999978 0 0.28576461667193132 0.48962621672778289 0 0.28805867324790502 0.48908753169851787 0 0.3055807430113528 0.49999999999999978 0 0.28576461667193132 0.48962621672778289 0 0.27875124481508678 0.5 0 0.30023422040422992 0.48977527427629552 0 0.2955500127870504 0.47828390507008117 0 0.28805867324790502 0.48908753169851787 0 0.28576461667193132 0.48962621672778289 0 0.26594849033250978 0.4792524334555664 0 0.28576461667193132 0.48962621672778289 0 0.27875124481508678 0.5 0 0.26594849033250978 0.4792524334555664 0 0.28576461667193132 0.48962621672778289 0 0.26594849033250978 0.4792524334555664 0 0.28285496104172292 0.46675116467439293 0 0.2461323639930883 0.46887865018334979 0 0.26594849033250978 0.4792524334555664 0 0.26203068831632709 0.45849550332782579 0 0.24116109834163901 0.48459900347835028 0 0.2461323639930883 0.46887865018334979 0 0.26594849033250978 0.4792524334555664 0 0.2461323639930883 0.46887865018334979 0 0.26594849033250978 0.4792524334555664 0 0.24116109834163901 0.48459900347835028 0 0.26594849033250978 0.4792524334555664 0 0.25192174661882089 0.5 0 0.27875124481508678 0.5 0 0.26594849033250978 0.4792524334555664 0 0.25192174661882089 0.5 0 0.25400010338541068 0.43894078920644858 0 0.26203068831632709 0.45849550332782579 0 0.27765124883554032 0.44441479765026792 0 0.24559696230969119 0.45273518479692948 0 0.25400010338541068 0.43894078920644858 0 0.26203068831632709 0.45849550332782579 0 0.24559696230969119 0.45273518479692948 0 0.2461323639930883 0.46887865018334979 0 0.26203068831632709 0.45849550332782579 0 0.26594849033250978 0.4792524334555664 0 0.26203068831632709 0.45849550332782579 0 0.28285496104172292 0.46675116467439293 0 0.26203068831632709 0.45849550332782579 0 0.27765124883554032 0.44441479765026792 0 0.28285496104172292 0.46675116467439293 0 0.27765124883554032 0.44441479765026792 0 0.28285496104172292 0.46675116467439293 0 0.25400010338541068 0.43894078920644858 0 0.27765124883554032 0.44441479765026792 0 0.27765124883554032 0.44441479765026792 0 0.30486244425431708 0.45071277225800732 0 0.27765124883554032 0.44441479765026792 0 0.30486244425431708 0.45071277225800732 0 0.29376567828119499 0.43672406029655142 0 0.27765124883554032 0.44441479765026792 0 0.28285496104172292 0.46675116467439293 0 0.30486244425431708 0.45071277225800732 0 0.28285496104172292 0.46675116467439293 0 0.30189876349022171 0.46818763843229511 0 0.30486244425431708 0.45071277225800732 0 0.32637163079497661 0.47818707113031123 0 0.30189876349022171 0.46818763843229511 0 0.30486244425431708 0.45071277225800732 0 0.30486244425431708 0.45071277225800732 0 0.31045214425702022 0.42553249363233431 0 0.29376567828119499 0.43672406029655142 0 0.31045214425702022 0.42553249363233431 0 0.28869791180790227 0.4196027279776286 0 0.29376567828119499 0.43672406029655142 0 0.31045214425702022 0.42553249363233431 0 0.28869791180790227 0.4196027279776286 0 0.29888355967878061 0.40617851210330269 0 0.31045214425702022 0.42553249363233431 0 0.29888355967878061 0.40617851210330269 0 0.31395212981602011 0.40988409656836178 0 0.28869791180790227 0.4196027279776286 0 0.27754687153688401 0.40696899158398181 0 0.29888355967878061 0.40617851210330269 0 0.28869791180790227 0.4196027279776286 0 0.29376567828119499 0.43672406029655142 0 0.27362690824580688 0.42714075464389439 0 0.27765124883554032 0.44441479765026792 0 0.29376567828119499 0.43672406029655142 0 0.27362690824580688 0.42714075464389439 0 0.25400010338541068 0.43894078920644858 0 0.27765124883554032 0.44441479765026792 0 0.27362690824580688 0.42714075464389439 0 0.27765124883554032 0.44441479765026792 0 0.27362690824580688 0.42714075464389439 0 0.27362690824580688 0.42714075464389439 0 0.26960256765607299 0.40986671163752098 0 0.2622562790594386 0.42068397698753213 0 0.27362690824580688 0.42714075464389439 0 0.26960256765607299 0.40986671163752098 0 0.28869791180790227 0.4196027279776286 0 0.27362690824580688 0.42714075464389439 0 0.27720953100433421 0.41629426530775099 0 0.28869791180790227 0.4196027279776286 0 0.27720953100433421 0.41629426530775099 0 0.27754687153688401 0.40696899158398181 0 0.27362690824580688 0.42714075464389439 0 0.27720953100433421 0.41629426530775099 0 0.26960256765607299 0.40986671163752098 0 0.27720953100433421 0.41629426530775099 0 0.27754687153688401 0.40696899158398181 0 0.26960256765607299 0.40986671163752098 0 0.26960256765607299 0.40986671163752098 0 0.2622562790594386 0.42068397698753213 0 0.2575270295938194 0.40843307996570072 0 0.2450574597718245 0.40174438022000741 0 0.2575270295938194 0.40843307996570072 0 0.25008526660575142 0.41536106213154228 0 0.2622562790594386 0.42068397698753213 0 0.2575270295938194 0.40843307996570072 0 0.25008526660575142 0.41536106213154228 0 0.25400010338541068 0.43894078920644858 0 0.2622562790594386 0.42068397698753213 0 0.25008526660575142 0.41536106213154228 0 0.25400010338541068 0.43894078920644858 0 0.27362690824580688 0.42714075464389439 0 0.2622562790594386 0.42068397698753213 0 0.2382325194237967 0.38604152079836362 0 0.25865996859128021 0.37998411740755811 0 0.25788969548034041 0.39650525619117272 0 0.25865996859128021 0.37998411740755811 0 0.25788969548034041 0.39650525619117272 0 0.27510329232671521 0.38666916576195698 0 0.2450574597718245 0.40174438022000741 0 0.2575270295938194 0.40843307996570072 0 0.25788969548034041 0.39650525619117272 0 0.26960256765607299 0.40986671163752098 0 0.2575270295938194 0.40843307996570072 0 0.25788969548034041 0.39650525619117272 0 0.27754687153688401 0.40696899158398181 0 0.26960256765607299 0.40986671163752098 0 0.25788969548034041 0.39650525619117272 0 0.27754687153688401 0.40696899158398181 0 0.25788969548034041 0.39650525619117272 0 0.27510329232671521 0.38666916576195698 0 0.27754687153688401 0.40696899158398181 0 0.25788969548034041 0.39650525619117272 0 0.27754687153688401 0.40696899158398181 0 0.27510329232671521 0.38666916576195698 0 0.28693156494303168 0.39474055759133148 0 0.25865996859128021 0.37998411740755811 0 0.27510329232671521 0.38666916576195698 0 0.27415677749894279 0.36411795475618403 0 0.27510329232671521 0.38666916576195698 0 0.29619253622974712 0.37914556091608459 0 0.27415677749894279 0.36411795475618403 0 0.27510329232671521 0.38666916576195698 0 0.29619253622974712 0.37914556091608459 0 0.28693156494303168 0.39474055759133148 0 0.27754687153688401 0.40696899158398181 0 0.28693156494303168 0.39474055759133148 0 0.29888355967878061 0.40617851210330269 0 0.29619253622974712 0.37914556091608459 0 0.28693156494303168 0.39474055759133148 0 0.29888355967878061 0.40617851210330269 0 0.29619253622974712 0.37914556091608459 0 0.29888355967878061 0.40617851210330269 0 0.29619253622974712 0.37914556091608459 0 0.29888355967878061 0.40617851210330269 0 0.31206926641040111 0.39270803617713151 0 0.29888355967878061 0.40617851210330269 0 0.31206926641040111 0.39270803617713151 0 0.31395212981602011 0.40988409656836178 0 0.29619253622974712 0.37914556091608459 0 0.31206926641040111 0.39270803617713151 0 0.31648933836401411 0.37460781206069599 0 0.31206926641040111 0.39270803617713151 0 0.32599396770805678 0.38724700327510769 0 0.31648933836401411 0.37460781206069599 0 0.32599396770805678 0.38724700327510769 0 0.330583797862191 0.37532357611344058 0 0.31648933836401411 0.37460781206069599 0 0.32599396770805678 0.38724700327510769 0 0.330583797862191 0.37532357611344058 0 0.33849877085005009 0.38424615723176708 0 0.32599396770805678 0.38724700327510769 0 0.33849877085005009 0.38424615723176708 0 0.33566291275063842 0.39677154480930382 0 0.330583797862191 0.37532357611344058 0 0.33849877085005009 0.38424615723176708 0 0.34121252872972813 0.36980163733331639 0 0.33566291275063842 0.39677154480930382 0 0.33110998689565901 0.41571402299006538 0 0.34559180156782271 0.40526660082459781 0 0.33566291275063842 0.39677154480930382 0 0.3229029079430073 0.3999122060553143 0 0.33110998689565901 0.41571402299006538 0 0.33566291275063842 0.39677154480930382 0 0.34713836227842698 0.39450120030013608 0 0.34559180156782271 0.40526660082459781 0 0.33849877085005009 0.38424615723176708 0 0.33566291275063842 0.39677154480930382 0 0.34713836227842698 0.39450120030013608 0 0.32599396770805678 0.38724700327510769 0 0.33566291275063842 0.39677154480930382 0 0.3229029079430073 0.3999122060553143 0 0.31206926641040111 0.39270803617713151 0 0.3229029079430073 0.3999122060553143 0 0.31395212981602011 0.40988409656836178 0 0.31206926641040111 0.39270803617713151 0 0.32599396770805678 0.38724700327510769 0 0.3229029079430073 0.3999122060553143 0 0.31045214425702022 0.42553249363233431 0 0.31395212981602011 0.40988409656836178 0 0.33110998689565901 0.41571402299006538 0 0.3229029079430073 0.3999122060553143 0 0.31395212981602011 0.40988409656836178 0 0.33110998689565901 0.41571402299006538 0 0.32754884634223752 0.44290161999015332 0 0.31045214425702022 0.42553249363233431 0 0.33110998689565901 0.41571402299006538 0 0.32754884634223752 0.44290161999015332 0 0.33110998689565901 0.41571402299006538 0 0.34602187399912099 0.43050126328040289 0 0.33110998689565901 0.41571402299006538 0 0.34486954088895999 0.41670074166052801 0 0.34602187399912099 0.43050126328040289 0 0.33110998689565901 0.41571402299006538 0 0.34486954088895999 0.41670074166052801 0 0.34559180156782271 0.40526660082459781 0 0.34486954088895999 0.41670074166052801 0 0.35727301732834471 0.41452122210846959 0 0.34602187399912099 0.43050126328040289 0 0.34486954088895999 0.41670074166052801 0 0.35727301732834471 0.41452122210846959 0 0.34559180156782271 0.40526660082459781 0 0.35727301732834471 0.41452122210846959 0 0.34559180156782271 0.40526660082459781 0 0.35550856385390028 0.40020384797441289 0 0.35727301732834471 0.41452122210846959 0 0.34602187399912099 0.43050126328040289 0 0.36492873463612729 0.43456121339094073 0 0.36492873463612729 0.43456121339094073 0 0.37549384770261868 0.41378300964712988 0 0.36492873463612729 0.43456121339094073 0 0.37610662063862321 0.42191387176018369 0 0.37739903956485982 0.43906293214467468 0 0.36492873463612729 0.43456121339094073 0 0.37549384770261868 0.41378300964712988 0 0.37610662063862321 0.42191387176018369 0 0.36492873463612729 0.43456121339094073 0 0.37610662063862321 0.42191387176018369 0 0.35727301732834471 0.41452122210846959 0 0.36492873463612729 0.43456121339094073 0 0.37549384770261868 0.41378300964712988 0 0.35727301732834471 0.41452122210846959 0 0.36711416184366119 0.40115707978970178 0 0.37549384770261868 0.41378300964712988 0 0.36711416184366119 0.40115707978970178 0 0.37511966551518272 0.40881799962066689 0 0.37549384770261868 0.41378300964712988 0 0.36711416184366119 0.40115707978970178 0 0.37549384770261868 0.41378300964712988 0 0.36711416184366119 0.40115707978970178 0 0.37876732484206121 0.40734512540243512 0 0.37511966551518272 0.40881799962066689 0 0.35892628829393408 0.38815391636963681 0 0.38590161099866821 0.39331426265675112 0 0.35892628829393408 0.38815391636963681 0 0.37876732484206121 0.40734512540243512 0 0.36711416184366119 0.40115707978970178 0 0.35892628829393408 0.38815391636963681 0 0.37876732484206121 0.40734512540243512 0 0.35892628829393408 0.38815391636963681 0 0.38590161099866821 0.39331426265675112 0 0.37876732484206121 0.40734512540243512 0 0.35727301732834471 0.41452122210846959 0 0.36711416184366119 0.40115707978970178 0 0.35550856385390028 0.40020384797441289 0 0.36711416184366119 0.40115707978970178 0 0.35892628829393408 0.38815391636963681 0 0.36711416184366119 0.40115707978970178 0 0.35892628829393408 0.38815391636963681 0 0.35550856385390028 0.40020384797441289 0 0.3744006448365913 0.3847751519885117 0 0.35892628829393408 0.38815391636963681 0 0.38590161099866821 0.39331426265675112 0 0.3744006448365913 0.3847751519885117 0 0.3630980998970299 0.38044277284850142 0 0.37493267956767989 0.36989734573206662 0 0.3744006448365913 0.3847751519885117 0 0.3630980998970299 0.38044277284850142 0 0.35892628829393408 0.38815391636963681 0 0.3630980998970299 0.38044277284850142 0 0.35892628829393408 0.38815391636963681 0 0.35783204658807222 0.3864161509246794 0 0.33849877085005009 0.38424615723176708 0 0.35892628829393408 0.38815391636963681 0 0.35783204658807222 0.3864161509246794 0 0.33849877085005009 0.38424615723176708 0 0.35892628829393408 0.38815391636963681 0 0.33849877085005009 0.38424615723176708 0 0.35783204658807222 0.3864161509246794 0 0.34121252872972813 0.36980163733331639 0 0.33849877085005009 0.38424615723176708 0 0.35892628829393408 0.38815391636963681 0 0.34713836227842698 0.39450120030013608 0 0.35783204658807222 0.3864161509246794 0 0.35617368059995502 0.38378249960815269 0 0.34121252872972813 0.36980163733331639 0 0.35783204658807222 0.3864161509246794 0 0.34121252872972813 0.36980163733331639 0 0.35892628829393408 0.38815391636963681 0 0.35783204658807222 0.3864161509246794 0 0.3630980998970299 0.38044277284850142 0 0.35783204658807222 0.3864161509246794 0 0.35617368059995502 0.38378249960815269 0 0.35783204658807222 0.3864161509246794 0 0.35617368059995502 0.38378249960815269 0 0.3630980998970299 0.38044277284850142 0 0.35617368059995502 0.38378249960815269 0 0.35552680584251761 0.36947921185680582 0 0.34713836227842698 0.39450120030013608 0 0.34559180156782271 0.40526660082459781 0 0.35550856385390028 0.40020384797441289 0 0.35892628829393408 0.38815391636963681 0 0.34713836227842698 0.39450120030013608 0 0.35550856385390028 0.40020384797441289 0 0.3465859662051336 0.35895880202568348 0 0.35552680584251761 0.36947921185680582 0 0.36273181146415279 0.34890325485952739 0 0.3465859662051336 0.35895880202568348 0 0.36273181146415279 0.34890325485952739 0 0.34273430133016342 0.34589463541245252 0 0.3465859662051336 0.35895880202568348 0 0.35552680584251761 0.36947921185680582 0 0.34121252872972813 0.36980163733331639 0 0.35617368059995502 0.38378249960815269 0 0.35552680584251761 0.36947921185680582 0 0.34121252872972813 0.36980163733331639 0 0.37493267956767989 0.36989734573206662 0 0.36273181146415279 0.34890325485952739 0 0.3630980998970299 0.38044277284850142 0 0.35552680584251761 0.36947921185680582 0 0.37493267956767989 0.36989734573206662 0 0.35552680584251761 0.36947921185680582 0 0.37493267956767989 0.36989734573206662 0 0.36273181146415279 0.34890325485952739 0 0.37493267956767989 0.36989734573206662 0 0.36273181146415279 0.34890325485952739 0 0.37886343041260218 0.35205099200664819 0 0.36273181146415279 0.34890325485952739 0 0.36976328394512781 0.33586151273338571 0 0.37886343041260218 0.35205099200664819 0 0.36273181146415279 0.34890325485952739 0 0.36976328394512781 0.33586151273338571 0 0.35053094336062562 0.32790916398698822 0 0.36976328394512781 0.33586151273338571 0 0.36282844230557681 0.32553693956334617 0 0.35053094336062562 0.32790916398698822 0 0.36282844230557681 0.32553693956334617 0 0.37205394486326238 0.30094819196721401 0 0.36976328394512781 0.33586151273338571 0 0.36282844230557681 0.32553693956334617 0 0.38005627329131042 0.32123435283373097 0 0.36282844230557681 0.32553693956334617 0 0.37205394486326238 0.30094819196721401 0 0.38005627329131042 0.32123435283373097 0 0.36282844230557681 0.32553693956334617 0 0.35355858918148619 0.31289533299862388 0 0.37205394486326238 0.30094819196721401 0 0.36282844230557681 0.32553693956334617 0 0.35355858918148619 0.31289533299862388 0 0.35053094336062562 0.32790916398698822 0 0.35355858918148619 0.31289533299862388 0 0.35053094336062562 0.32790916398698822 0 0.34248684116189632 0.31813253900946181 0 0.36273181146415279 0.34890325485952739 0 0.35053094336062562 0.32790916398698822 0 0.36273181146415279 0.34890325485952739 0 0.35053094336062562 0.32790916398698822 0 0.34273430133016342 0.34589463541245252 0 0.35053094336062562 0.32790916398698822 0 0.33714865940751598 0.33282571778418302 0 0.34273430133016342 0.34589463541245252 0 0.33714865940751598 0.33282571778418302 0 0.32538158375951359 0.344828271402911 0 0.34273430133016342 0.34589463541245252 0 0.33714865940751598 0.33282571778418302 0 0.33080294900851293 0.32300866865118533 0 0.32236635088173232 0.33088730863387361 0 0.33714865940751598 0.33282571778418302 0 0.32236635088173232 0.33088730863387361 0 0.32538158375951359 0.344828271402911 0 0.33714865940751598 0.33282571778418302 0 0.34248684116189632 0.31813253900946181 0 0.33080294900851293 0.32300866865118533 0 0.35053094336062562 0.32790916398698822 0 0.33714865940751598 0.33282571778418302 0 0.34248684116189632 0.31813253900946181 0 0.34248684116189632 0.31813253900946181 0 0.33080294900851293 0.32300866865118533 0 0.32905472024420762 0.31084971507864823 0 0.33080294900851293 0.32300866865118533 0 0.32110576532376028 0.31969271924536519 0 0.32905472024420762 0.31084971507864823 0 0.32110576532376028 0.31969271924536519 0 0.31616371200690818 0.30890542945928129 0 0.32905472024420762 0.31084971507864823 0 0.33080294900851293 0.32300866865118533 0 0.32110576532376028 0.31969271924536519 0 0.32236635088173232 0.33088730863387361 0 0.32110576532376028 0.31969271924536519 0 0.32236635088173232 0.33088730863387361 0 0.31032066357039839 0.3228781675229192 0 0.32110576532376028 0.31969271924536519 0 0.31032066357039839 0.3228781675229192 0 0.31616371200690818 0.30890542945928129 0 0.32236635088173232 0.33088730863387361 0 0.32538158375951359 0.344828271402911 0 0.30899548543986249 0.33974361304152728 0 0.32236635088173232 0.33088730863387361 0 0.30899548543986249 0.33974361304152728 0 0.31032066357039839 0.3228781675229192 0 0.32538158375951359 0.344828271402911 0 0.31156248449861768 0.3580250607890772 0 0.30899548543986249 0.33974361304152728 0 0.32538158375951359 0.344828271402911 0 0.33072438365910611 0.36071527066631559 0 0.31156248449861768 0.3580250607890772 0 0.3465859662051336 0.35895880202568348 0 0.34273430133016342 0.34589463541245252 0 0.33072438365910611 0.36071527066631559 0 0.32538158375951359 0.344828271402911 0 0.34273430133016342 0.34589463541245252 0 0.33072438365910611 0.36071527066631559 0 0.3465859662051336 0.35895880202568348 0 0.34121252872972813 0.36980163733331639 0 0.33072438365910611 0.36071527066631559 0 0.330583797862191 0.37532357611344058 0 0.34121252872972813 0.36980163733331639 0 0.33072438365910611 0.36071527066631559 0 0.330583797862191 0.37532357611344058 0 0.33072438365910611 0.36071527066631559 0 0.31648933836401411 0.37460781206069599 0 0.33072438365910611 0.36071527066631559 0 0.31648933836401411 0.37460781206069599 0 0.31156248449861768 0.3580250607890772 0 0.29619253622974712 0.37914556091608459 0 0.31156248449861768 0.3580250607890772 0 0.29350151278071351 0.35211260972886632 0 0.29619253622974712 0.37914556091608459 0 0.31648933836401411 0.37460781206069599 0 0.31156248449861768 0.3580250607890772 0 0.31156248449861768 0.3580250607890772 0 0.29350151278071351 0.35211260972886632 0 0.30899548543986249 0.33974361304152728 0 0.29350151278071351 0.35211260972886632 0 0.27415677749894279 0.36411795475618403 0 0.27907829321708799 0.3424498881609217 0 0.29619253622974712 0.37914556091608459 0 0.29350151278071351 0.35211260972886632 0 0.27415677749894279 0.36411795475618403 0 0.29619253622974712 0.37914556091608459 0 0.29350151278071351 0.35211260972886632 0 0.27415677749894279 0.36411795475618403 0 0.26241557847440039 0.34558399127083661 0 0.27907829321708799 0.3424498881609217 0 0.24073733712394749 0.35607914407238278 0 0.26241557847440039 0.34558399127083661 0 0.25032404894909732 0.36581275603459928 0 0.27415677749894279 0.36411795475618403 0 0.26241557847440039 0.34558399127083661 0 0.25032404894909732 0.36581275603459928 0 0.26241557847440039 0.34558399127083661 0 0.25032404894909732 0.36581275603459928 0 0.25865996859128021 0.37998411740755811 0 0.27415677749894279 0.36411795475618403 0 0.25032404894909732 0.36581275603459928 0 0.25605710312158492 0.32172865957637692 0 0.2718261829867496 0.31016068044047329 0 0.25914235424927712 0.30872745294145482 0 0.23635231597844189 0.33754573364753893 0 0.26241557847440039 0.34558399127083661 0 0.25605710312158492 0.32172865957637692 0 0.26241557847440039 0.34558399127083661 0 0.25605710312158492 0.32172865957637692 0 0.27450710799970351 0.32535522650707388 0 0.26241557847440039 0.34558399127083661 0 0.27907829321708799 0.3424498881609217 0 0.27450710799970351 0.32535522650707388 0 0.26241557847440039 0.34558399127083661 0 0.27450710799970351 0.32535522650707388 0 0.27450710799970351 0.32535522650707388 0 0.28659863752500653 0.30512646174331132 0 0.2718261829867496 0.31016068044047329 0 0.25605710312158492 0.32172865957637692 0 0.27450710799970351 0.32535522650707388 0 0.2718261829867496 0.31016068044047329 0 0.27450710799970351 0.32535522650707388 0 0.28659863752500653 0.30512646174331132 0 0.27450710799970351 0.32535522650707388 0 0.29081048933168002 0.32507965854164772 0 0.28659863752500653 0.30512646174331132 0 0.29350151278071351 0.35211260972886632 0 0.29081048933168002 0.32507965854164772 0 0.29350151278071351 0.35211260972886632 0 0.27907829321708799 0.3424498881609217 0 0.29081048933168002 0.32507965854164772 0 0.27907829321708799 0.3424498881609217 0 0.27450710799970351 0.32535522650707388 0 0.29081048933168002 0.32507965854164772 0 0.29350151278071351 0.35211260972886632 0 0.29081048933168002 0.32507965854164772 0 0.30899548543986249 0.33974361304152728 0 0.29081048933168002 0.32507965854164772 0 0.30899548543986249 0.33974361304152728 0 0.31032066357039839 0.3228781675229192 0 0.29081048933168002 0.32507965854164772 0 0.30404415282593078 0.30997388966030581 0 0.29597389820612408 0.30774084710460731 0 0.29081048933168002 0.32507965854164772 0 0.31032066357039839 0.3228781675229192 0 0.30404415282593078 0.30997388966030581 0 0.31032066357039839 0.3228781675229192 0 0.30404415282593078 0.30997388966030581 0 0.31616371200690818 0.30890542945928129 0 0.31234136826663178 0.29814065153783842 0 0.30404415282593078 0.30997388966030581 0 0.31616371200690818 0.30890542945928129 0 0.31234136826663178 0.29814065153783842 0 0.30092148478423941 0.2978631328620463 0 0.30404415282593078 0.30997388966030581 0 0.30092148478423941 0.2978631328620463 0 0.30404415282593078 0.30997388966030581 0 0.29597389820612408 0.30774084710460731 0 0.31234136826663178 0.29814065153783842 0 0.30092148478423941 0.2978631328620463 0 0.30816666886757882 0.28712838401739049 0 0.30092148478423941 0.2978631328620463 0 0.30816666886757882 0.28712838401739049 0 0.29724789214297143 0.28510810490367627 0 0.30816666886757882 0.28712838401739049 0 0.29724789214297143 0.28510810490367627 0 0.30450024136403792 0.27155756847590989 0 0.28811946588264642 0.29804670735442929 0 0.27466222738947699 0.28322928494501481 0 0.28542844243361287 0.2710137561672108 0 0.28811946588264642 0.29804670735442929 0 0.28542844243361287 0.2710137561672108 0 0.29724789214297143 0.28510810490367627 0 0.28811946588264642 0.29804670735442929 0 0.28542844243361287 0.2710137561672108 0 0.30092148478423941 0.2978631328620463 0 0.29724789214297143 0.28510810490367627 0 0.28811946588264642 0.29804670735442929 0 0.29081048933168002 0.32507965854164772 0 0.28811946588264642 0.29804670735442929 0 0.29081048933168002 0.32507965854164772 0 0.29597389820612408 0.30774084710460731 0 0.28811946588264642 0.29804670735442929 0 0.29081048933168002 0.32507965854164772 0 0.28811946588264642 0.29804670735442929 0 0.28659863752500653 0.30512646174331132 0 0.30092148478423941 0.2978631328620463 0 0.29597389820612408 0.30774084710460731 0 0.28811946588264642 0.29804670735442929 0 0.28811946588264642 0.29804670735442929 0 0.28659863752500653 0.30512646174331132 0 0.27695004815404561 0.29935058780325652 0 0.28659863752500653 0.30512646174331132 0 0.2718261829867496 0.31016068044047329 0 0.27695004815404561 0.29935058780325652 0 0.2718261829867496 0.31016068044047329 0 0.27695004815404561 0.29935058780325652 0 0.26327977706946248 0.29765994774892968 0 0.28811946588264642 0.29804670735442929 0 0.27695004815404561 0.29935058780325652 0 0.27466222738947699 0.28322928494501481 0 0.27695004815404561 0.29935058780325652 0 0.27466222738947699 0.28322928494501481 0 0.26327977706946248 0.29765994774892968 0 0.24980621437202469 0.27942046597057768 0 0.27466222738947699 0.28322928494501481 0 0.26327977706946248 0.29765994774892968 0 0.24980621437202469 0.27942046597057768 0 0.24540635381931131 0.30536052400003938 0 0.26327977706946248 0.29765994774892968 0 0.24540635381931131 0.30536052400003938 0 0.25605710312158492 0.32172865957637692 0 0.25914235424927712 0.30872745294145482 0 0.24540635381931131 0.30536052400003938 0 0.25914235424927712 0.30872745294145482 0 0.26327977706946248 0.29765994774892968 0 0.2718261829867496 0.31016068044047329 0 0.25914235424927712 0.30872745294145482 0 0.26327977706946248 0.29765994774892968 0 0.25420607492473801 0.25348040794111598 0 0.26752446872757818 0.26401853368416661 0 0.26725329585623159 0.24364913921546161 0 0.24980621437202469 0.27942046597057768 0 0.25420607492473801 0.25348040794111598 0 0.24980621437202469 0.27942046597057768 0 0.27466222738947699 0.28322928494501481 0 0.26752446872757818 0.26401853368416661 0 0.24980621437202469 0.27942046597057768 0 0.25420607492473801 0.25348040794111598 0 0.26752446872757818 0.26401853368416661 0 0.27466222738947699 0.28322928494501481 0 0.26752446872757818 0.26401853368416661 0 0.28542844243361287 0.2710137561672108 0 0.26752446872757818 0.26401853368416661 0 0.28542844243361287 0.2710137561672108 0 0.28273741898457933 0.24398080497999239 0 0.26752446872757818 0.26401853368416661 0 0.26725329585623159 0.24364913921546161 0 0.28273741898457933 0.24398080497999239 0 0.28542844243361287 0.2710137561672108 0 0.28273741898457933 0.24398080497999239 0 0.29580154972587919 0.25637627715363309 0 0.28542844243361287 0.2710137561672108 0 0.28273741898457933 0.24398080497999239 0 0.29580154972587919 0.25637627715363309 0 0.28542844243361287 0.2710137561672108 0 0.30450024136403792 0.27155756847590989 0 0.29724789214297143 0.28510810490367627 0 0.28542844243361287 0.2710137561672108 0 0.30450024136403792 0.27155756847590989 0 0.30816666886757882 0.28712838401739049 0 0.30450024136403792 0.27155756847590989 0 0.31851479380910103 0.27851389938329602 0 0.30450024136403792 0.27155756847590989 0 0.31186214198236611 0.2536938461464382 0 0.31810187773483362 0.2659493683234832 0 0.29580154972587919 0.25637627715363309 0 0.30450024136403792 0.27155756847590989 0 0.31186214198236611 0.2536938461464382 0 0.31186214198236611 0.2536938461464382 0 0.32427861637284938 0.25857804536939011 0 0.3232782535735737 0.24896647528838239 0 0.31186214198236611 0.2536938461464382 0 0.32427861637284938 0.25857804536939011 0 0.31810187773483362 0.2659493683234832 0 0.32427861637284938 0.25857804536939011 0 0.32902733002751638 0.26819659690596193 0 0.31810187773483362 0.2659493683234832 0 0.32427861637284938 0.25857804536939011 0 0.33558690921395168 0.25685202786506373 0 0.3232782535735737 0.24896647528838239 0 0.33558690921395168 0.25685202786506373 0 0.33591914727959882 0.24670589276126181 0 0.3232782535735737 0.24896647528838239 0 0.33558690921395168 0.25685202786506373 0 0.34088983399610151 0.27070383088831929 0 0.32902733002751638 0.26819659690596193 0 0.32427861637284938 0.25857804536939011 0 0.33558690921395168 0.25685202786506373 0 0.32902733002751638 0.26819659690596193 0 0.33558690921395168 0.25685202786506373 0 0.34088983399610151 0.27070383088831929 0 0.34528208988793169 0.25931958020131479 0 0.33558690921395168 0.25685202786506373 0 0.34528208988793169 0.25931958020131479 0 0.34651418028497699 0.2496194917996081 0 0.33558690921395168 0.25685202786506373 0 0.33591914727959882 0.24670589276126181 0 0.34651418028497699 0.2496194917996081 0 0.34088983399610151 0.27070383088831929 0 0.3311525834014345 0.28264856252923681 0 0.34289779256528891 0.28150098091288173 0 0.34088983399610151 0.27070383088831929 0 0.32902733002751638 0.26819659690596193 0 0.3311525834014345 0.28264856252923681 0 0.32902733002751638 0.26819659690596193 0 0.31851479380910103 0.27851389938329602 0 0.3311525834014345 0.28264856252923681 0 0.32902733002751638 0.26819659690596193 0 0.31810187773483362 0.2659493683234832 0 0.31851479380910103 0.27851389938329602 0 0.30450024136403792 0.27155756847590989 0 0.31810187773483362 0.2659493683234832 0 0.31851479380910103 0.27851389938329602 0 0.30816666886757882 0.28712838401739049 0 0.31851479380910103 0.27851389938329602 0 0.31944012473975569 0.28892272338885078 0 0.31234136826663178 0.29814065153783842 0 0.30816666886757882 0.28712838401739049 0 0.31944012473975569 0.28892272338885078 0 0.31234136826663178 0.29814065153783842 0 0.31944012473975569 0.28892272338885078 0 0.32702520935403251 0.2981821194764922 0 0.31944012473975569 0.28892272338885078 0 0.32702520935403251 0.2981821194764922 0 0.3311525834014345 0.28264856252923681 0 0.31851479380910103 0.27851389938329602 0 0.31944012473975569 0.28892272338885078 0 0.3311525834014345 0.28264856252923681 0 0.31234136826663178 0.29814065153783842 0 0.31616371200690818 0.30890542945928129 0 0.32702520935403251 0.2981821194764922 0 0.31616371200690818 0.30890542945928129 0 0.32702520935403251 0.2981821194764922 0 0.32905472024420762 0.31084971507864823 0 0.32702520935403251 0.2981821194764922 0 0.32905472024420762 0.31084971507864823 0 0.34074281554907221 0.30517286022041168 0 0.32702520935403251 0.2981821194764922 0 0.34074281554907221 0.30517286022041168 0 0.34062399232186341 0.29191699947066779 0 0.34248684116189632 0.31813253900946181 0 0.32905472024420762 0.31084971507864823 0 0.34074281554907221 0.30517286022041168 0 0.32702520935403251 0.2981821194764922 0 0.3311525834014345 0.28264856252923681 0 0.34062399232186341 0.29191699947066779 0 0.3311525834014345 0.28264856252923681 0 0.34062399232186341 0.29191699947066779 0 0.34289779256528891 0.28150098091288173 0 0.34062399232186341 0.29191699947066779 0 0.34289779256528891 0.28150098091288173 0 0.35270807038446023 0.28638949591209312 0 0.34062399232186341 0.29191699947066779 0 0.35270807038446023 0.28638949591209312 0 0.35423263707591751 0.29776170137039581 0 0.35270807038446023 0.28638949591209312 0 0.35423263707591751 0.29776170137039581 0 0.36320551520436778 0.28817061807303779 0 0.35355858918148619 0.31289533299862388 0 0.34248684116189632 0.31813253900946181 0 0.34074281554907221 0.30517286022041168 0 0.35355858918148619 0.31289533299862388 0 0.34074281554907221 0.30517286022041168 0 0.35423263707591751 0.29776170137039581 0 0.34074281554907221 0.30517286022041168 0 0.34062399232186341 0.29191699947066779 0 0.35423263707591751 0.29776170137039581 0 0.35355858918148619 0.31289533299862388 0 0.35423263707591751 0.29776170137039581 0 0.37205394486326238 0.30094819196721401 0 0.37205394486326238 0.30094819196721401 0 0.36320551520436778 0.28817061807303779 0 0.37033960897567209 0.28288782269818208 0 0.37205394486326238 0.30094819196721401 0 0.37033960897567209 0.28288782269818208 0 0.38127944742094799 0.27635944437108179 0 0.35423263707591751 0.29776170137039581 0 0.37205394486326238 0.30094819196721401 0 0.36320551520436778 0.28817061807303779 0 0.36320551520436778 0.28817061807303779 0 0.37033960897567209 0.28288782269818208 0 0.3639119930172019 0.27707367908985781 0 0.35270807038446023 0.28638949591209312 0 0.36320551520436778 0.28817061807303779 0 0.3639119930172019 0.27707367908985781 0 0.37033960897567209 0.28288782269818208 0 0.3639119930172019 0.27707367908985781 0 0.37124714437258038 0.27188717998971917 0 0.37033960897567209 0.28288782269818208 0 0.37124714437258038 0.27188717998971917 0 0.38127944742094799 0.27635944437108179 0 0.3639119930172019 0.27707367908985781 0 0.36360107331453928 0.26654793729369092 0 0.37124714437258038 0.27188717998971917 0 0.3639119930172019 0.27707367908985781 0 0.36360107331453928 0.26654793729369092 0 0.35259151169156272 0.27445419551709638 0 0.36360107331453928 0.26654793729369092 0 0.37124714437258038 0.27188717998971917 0 0.37432227742921581 0.260774817168337 0 0.37432227742921581 0.260774817168337 0 0.36171243261165309 0.25526644400664028 0 0.37188910604765518 0.2460817336098266 0 0.36360107331453928 0.26654793729369092 0 0.36171243261165309 0.25526644400664028 0 0.35372129753261738 0.2639876765654684 0 0.36360107331453928 0.26654793729369092 0 0.37432227742921581 0.260774817168337 0 0.36171243261165309 0.25526644400664028 0 0.36171243261165309 0.25526644400664028 0 0.35372129753261738 0.2639876765654684 0 0.35263082966029108 0.25622847204125782 0 0.36171243261165309 0.25526644400664028 0 0.35263082966029108 0.25622847204125782 0 0.35833727526436232 0.24397569279688841 0 0.35263082966029108 0.25622847204125782 0 0.34528208988793169 0.25931958020131479 0 0.34651418028497699 0.2496194917996081 0 0.34088983399610151 0.27070383088831929 0 0.35372129753261738 0.2639876765654684 0 0.34528208988793169 0.25931958020131479 0 0.35372129753261738 0.2639876765654684 0 0.35263082966029108 0.25622847204125782 0 0.34528208988793169 0.25931958020131479 0 0.34088983399610151 0.27070383088831929 0 0.35372129753261738 0.2639876765654684 0 0.35259151169156272 0.27445419551709638 0 0.34088983399610151 0.27070383088831929 0 0.34289779256528891 0.28150098091288173 0 0.35259151169156272 0.27445419551709638 0 0.34289779256528891 0.28150098091288173 0 0.35270807038446023 0.28638949591209312 0 0.35259151169156272 0.27445419551709638 0 0.35270807038446023 0.28638949591209312 0 0.3639119930172019 0.27707367908985781 0 0.35259151169156272 0.27445419551709638 0 0.36360107331453928 0.26654793729369092 0 0.35372129753261738 0.2639876765654684 0 0.35259151169156272 0.27445419551709638 0 0.40116984361596858 0.27055664879565577 0 0.38891398126074161 0.26849900157168921 0 0.39649369964128578 0.29502729720780801 0 0.40116984361596858 0.27055664879565577 0 0.40422798521365172 0.25818619039795848 0 0.40936949290532298 0.265533331641291 0 0.40116984361596858 0.27055664879565577 0 0.40422798521365172 0.25818619039795848 0 0.390504949978635 0.25177069677495018 0 0.40422798521365172 0.25818619039795848 0 0.390504949978635 0.25177069677495018 0 0.40747834531972482 0.24441848996967319 0 0.40116984361596858 0.27055664879565577 0 0.390504949978635 0.25177069677495018 0 0.40116984361596858 0.27055664879565577 0 0.390504949978635 0.25177069677495018 0 0.38891398126074161 0.26849900157168921 0 0.390504949978635 0.25177069677495018 0 0.38127944742094799 0.27635944437108179 0 0.390504949978635 0.25177069677495018 0 0.38891398126074161 0.26849900157168921 0 0.38127944742094799 0.27635944437108179 0 0.37432227742921581 0.260774817168337 0 0.390504949978635 0.25177069677495018 0 0.37188910604765518 0.2460817336098266 0 0.37432227742921581 0.260774817168337 0 0.390504949978635 0.25177069677495018 0 0.38127944742094799 0.27635944437108179 0 0.37124714437258038 0.27188717998971917 0 0.37432227742921581 0.260774817168337 0 0.38127944742094799 0.27635944437108179 0 0.38891398126074161 0.26849900157168921 0 0.38127944742094799 0.27635944437108179 0 0.39649369964128578 0.29502729720780801 0 0.38127944742094799 0.27635944437108179 0 0.38592457052393891 0.30480155982981771 0 0.39649369964128578 0.29502729720780801 0 0.37205394486326238 0.30094819196721401 0 0.38127944742094799 0.27635944437108179 0 0.38592457052393891 0.30480155982981771 0 0.37205394486326238 0.30094819196721401 0 0.38127944742094799 0.27635944437108179 0 0.37205394486326238 0.30094819196721401 0 0.38592457052393891 0.30480155982981771 0 0.38005627329131042 0.32123435283373097 0 0.38592457052393891 0.30480155982981771 0 0.39649369964128578 0.29502729720780801 0 0.40407341802183011 0.32155559284392671 0 0.40617188934455378 0.30028860595672258 0 0.39649369964128578 0.29502729720780801 0 0.40407341802183011 0.32155559284392671 0 0.39649369964128578 0.29502729720780801 0 0.40407341802183011 0.32155559284392671 0 0.40116984361596858 0.27055664879565577 0 0.39649369964128578 0.29502729720780801 0 0.40626887839649473 0.28927319317246258 0 0.38891398126074161 0.26849900157168921 0 0.39649369964128578 0.29502729720780801 0 0.40617188934455378 0.30028860595672258 0 0.39649369964128578 0.29502729720780801 0 0.40626887839649473 0.28927319317246258 0 0.41183473725330089 0.28934260081636209 0 0.41531686538239299 0.28424485540911809 0 0.41226959676578528 0.27982775343171379 0 0.40116984361596858 0.27055664879565577 0 0.40626887839649473 0.28927319317246258 0 0.41183473725330089 0.28934260081636209 0 0.41183473725330089 0.28934260081636209 0 0.42798183113105681 0.28954395909200309 0 0.41183473725330089 0.28934260081636209 0 0.41923878261920222 0.28577107107826077 0 0.42798183113105681 0.28954395909200309 0 0.41183473725330089 0.28934260081636209 0 0.41938764963242092 0.29457868015512462 0 0.42798183113105681 0.28954395909200309 0 0.40626887839649473 0.28927319317246258 0 0.41183473725330089 0.28934260081636209 0 0.40617188934455378 0.30028860595672258 0 0.40626887839649473 0.28927319317246258 0 0.40987909078101442 0.29341508534314997 0 0.40626887839649473 0.28927319317246258 0 0.40987909078101442 0.29341508534314997 0 0.41183473725330089 0.28934260081636209 0 0.40617188934455378 0.30028860595672258 0 0.40987909078101442 0.29341508534314997 0 0.41219663382025662 0.29608802420956221 0 0.41219663382025662 0.29608802420956221 0 0.41326316988456341 0.29185875032410791 0 0.41498681926242309 0.29554961473308428 0 0.40987909078101442 0.29341508534314997 0 0.41219663382025662 0.29608802420956221 0 0.41326316988456341 0.29185875032410791 0 0.40987909078101442 0.29341508534314997 0 0.41183473725330089 0.28934260081636209 0 0.41326316988456341 0.29185875032410791 0 0.41183473725330089 0.28934260081636209 0 0.41326316988456341 0.29185875032410791 0 0.41183473725330089 0.28934260081636209 0 0.41326316988456341 0.29185875032410791 0 0.41938764963242092 0.29457868015512462 0 0.41498681926242309 0.29554961473308428 0 0.41938764963242092 0.29457868015512462 0 0.41509982371245158 0.2996730042435426 0 0.41326316988456341 0.29185875032410791 0 0.41498681926242309 0.29554961473308428 0 0.41938764963242092 0.29457868015512462 0 0.41923878261920222 0.28577107107826077 0 0.41771855494992832 0.28136111184568008 0 0.42205735957391288 0.28237091594851449 0 0.41923878261920222 0.28577107107826077 0 0.41771855494992832 0.28136111184568008 0 0.41531686538239299 0.28424485540911809 0 0.41771855494992832 0.28136111184568008 0 0.41531686538239299 0.28424485540911809 0 0.41226959676578528 0.27982775343171379 0 0.41183473725330089 0.28934260081636209 0 0.41923878261920222 0.28577107107826077 0 0.41531686538239299 0.28424485540911809 0 0.40617188934455378 0.30028860595672258 0 0.41502569067085382 0.31159154907935571 0 0.40407341802183011 0.32155559284392671 0 0.40617188934455378 0.30028860595672258 0 0.41509982371245158 0.2996730042435426 0 0.41502569067085382 0.31159154907935571 0 0.40617188934455378 0.30028860595672258 0 0.41219663382025662 0.29608802420956221 0 0.41509982371245158 0.2996730042435426 0 0.41938764963242092 0.29457868015512462 0 0.4210469567984288 0.30245258676857067 0 0.41509982371245158 0.2996730042435426 0 0.4210469567984288 0.30245258676857067 0 0.41509982371245158 0.2996730042435426 0 0.41502569067085382 0.31159154907935571 0 0.41219663382025662 0.29608802420956221 0 0.41498681926242309 0.29554961473308428 0 0.41509982371245158 0.2996730042435426 0 0.4210469567984288 0.30245258676857067 0 0.41502569067085382 0.31159154907935571 0 0.42656519136297222 0.31644476560172702 0 0.43308284904094208 0.30304309706715837 0 0.42798183113105681 0.28954395909200309 0 0.42656519136297222 0.31644476560172702 0 0.4210469567984288 0.30245258676857067 0 0.42798183113105681 0.28954395909200309 0 0.42656519136297222 0.31644476560172702 0 0.43308284904094208 0.30304309706715837 0 0.43699596177667333 0.28965636754252377 0 0.44201128337506068 0.31618018343980131 0 0.42798183113105681 0.28954395909200309 0 0.42656519136297222 0.31644476560172702 0 0.43308284904094208 0.30304309706715837 0 0.44201128337506068 0.31618018343980131 0 0.42656519136297222 0.31644476560172702 0 0.42205735957391288 0.28237091594851449 0 0.42798183113105681 0.28954395909200309 0 0.42428841758145852 0.27785588976203768 0 0.41923878261920222 0.28577107107826077 0 0.42205735957391288 0.28237091594851449 0 0.42798183113105681 0.28954395909200309 0 0.41938764963242092 0.29457868015512462 0 0.4210469567984288 0.30245258676857067 0 0.42798183113105681 0.28954395909200309 0 0.43308284904094208 0.30304309706715837 0 0.42798183113105681 0.28954395909200309 0 0.43699596177667333 0.28965636754252377 0 0.42798183113105681 0.28954395909200309 0 0.43699596177667333 0.28965636754252377 0 0.43699596177667333 0.28965636754252377 0 0.43406052998587558 0.27413216817251268 0 0.44020681960512509 0.28049271497567208 0 0.42798183113105681 0.28954395909200309 0 0.43699596177667333 0.28965636754252377 0 0.43406052998587558 0.27413216817251268 0 0.43699596177667333 0.28965636754252377 0 0.43406052998587558 0.27413216817251268 0 0.42798183113105681 0.28954395909200309 0 0.43406052998587558 0.27413216817251268 0 0.42916594473736142 0.26705863026927629 0 0.42798183113105681 0.28954395909200309 0 0.42916594473736142 0.26705863026927629 0 0.42428841758145852 0.27785588976203768 0 0.42798183113105681 0.28954395909200309 0 0.42916594473736142 0.26705863026927629 0 0.43406052998587558 0.27413216817251268 0 0.43112509819507899 0.25860796880250148 0 0.43406052998587558 0.27413216817251268 0 0.42916594473736142 0.26705863026927629 0 0.43112509819507899 0.25860796880250148 0 0.43406052998587558 0.27413216817251268 0 0.43112509819507899 0.25860796880250148 0 0.4384743371442939 0.26563940279415033 0 0.42916594473736142 0.26705863026927629 0 0.42201739697773111 0.27252920751433479 0 0.42428841758145852 0.27785588976203768 0 0.42916594473736142 0.26705863026927629 0 0.42201739697773111 0.27252920751433479 0 0.41821384005513518 0.26737495663745819 0 0.42201739697773111 0.27252920751433479 0 0.42428841758145852 0.27785588976203768 0 0.4202195554872305 0.27777673598605951 0 0.42205735957391288 0.28237091594851449 0 0.42428841758145852 0.27785588976203768 0 0.4202195554872305 0.27777673598605951 0 0.40116984361596858 0.27055664879565577 0 0.41183473725330089 0.28934260081636209 0 0.41226959676578528 0.27982775343171379 0 0.41771855494992832 0.28136111184568008 0 0.42205735957391288 0.28237091594851449 0 0.4202195554872305 0.27777673598605951 0 0.40116984361596858 0.27055664879565577 0 0.41183473725330089 0.28934260081636209 0 0.41771855494992832 0.28136111184568008 0 0.41588368551537691 0.27699418102461298 0 0.41226959676578528 0.27982775343171379 0 0.41771855494992832 0.28136111184568008 0 0.4202195554872305 0.27777673598605951 0 0.41588368551537691 0.27699418102461298 0 0.4202195554872305 0.27777673598605951 0 0.41588368551537691 0.27699418102461298 0 0.41750118040114131 0.27328669736608791 0 0.41588368551537691 0.27699418102461298 0 0.41750118040114131 0.27328669736608791 0 0.41185114944715923 0.27297129092130051 0 0.42201739697773111 0.27252920751433479 0 0.4202195554872305 0.27777673598605951 0 0.41750118040114131 0.27328669736608791 0 0.42201739697773111 0.27252920751433479 0 0.41821384005513518 0.26737495663745819 0 0.41750118040114131 0.27328669736608791 0 0.41821384005513518 0.26737495663745819 0 0.41750118040114131 0.27328669736608791 0 0.41185114944715923 0.27297129092130051 0 0.40116984361596858 0.27055664879565577 0 0.41185114944715923 0.27297129092130051 0 0.40936949290532298 0.265533331641291 0 0.41821384005513518 0.26737495663745819 0 0.41185114944715923 0.27297129092130051 0 0.40936949290532298 0.265533331641291 0 0.40116984361596858 0.27055664879565577 0 0.41185114944715923 0.27297129092130051 0 0.41226959676578528 0.27982775343171379 0 0.41588368551537691 0.27699418102461298 0 0.41185114944715923 0.27297129092130051 0 0.41226959676578528 0.27982775343171379 0 0.40422798521365172 0.25818619039795848 0 0.41384994230251382 0.25872599816236291 0 0.40747834531972482 0.24441848996967319 0 0.40422798521365172 0.25818619039795848 0 0.41384994230251382 0.25872599816236291 0 0.40936949290532298 0.265533331641291 0 0.41821384005513518 0.26737495663745819 0 0.41384994230251382 0.25872599816236291 0 0.40936949290532298 0.265533331641291 0 0.41821384005513518 0.26737495663745819 0 0.41384994230251382 0.25872599816236291 0 0.42284699641542428 0.26050247203365368 0 0.41384994230251382 0.25872599816236291 0 0.42188015678703239 0.25074480629666968 0 0.42284699641542428 0.26050247203365368 0 0.41384994230251382 0.25872599816236291 0 0.42188015678703239 0.25074480629666968 0 0.40747834531972482 0.24441848996967319 0 0.42188015678703239 0.25074480629666968 0 0.42284699641542428 0.26050247203365368 0 0.43112509819507899 0.25860796880250148 0 0.42188015678703239 0.25074480629666968 0 0.43112509819507899 0.25860796880250148 0 0.43219191801446211 0.2482497494187377 0 0.42916594473736142 0.26705863026927629 0 0.41821384005513518 0.26737495663745819 0 0.42284699641542428 0.26050247203365368 0 0.42916594473736142 0.26705863026927629 0 0.42284699641542428 0.26050247203365368 0 0.43112509819507899 0.25860796880250148 0 0.43112509819507899 0.25860796880250148 0 0.43981233695070798 0.2572380665256061 0 0.4384743371442939 0.26563940279415033 0 0.43112509819507899 0.25860796880250148 0 0.43981233695070798 0.2572380665256061 0 0.43219191801446211 0.2482497494187377 0 0.43981233695070798 0.2572380665256061 0 0.43219191801446211 0.2482497494187377 0 0.4418452695027405 0.24831385190097491 0 0.43981233695070798 0.2572380665256061 0 0.45115134399032569 0.25526872381297638 0 0.4418452695027405 0.24831385190097491 0 0.43981233695070798 0.2572380665256061 0 0.44499863339015627 0.26451746623584188 0 0.4384743371442939 0.26563940279415033 0 0.43981233695070798 0.2572380665256061 0 0.44499863339015627 0.26451746623584188 0 0.45115134399032569 0.25526872381297638 0 0.44499863339015627 0.26451746623584188 0 0.45115134399032569 0.25526872381297638 0 0.45366724866295222 0.26944083196130542 0 0.43406052998587558 0.27413216817251268 0 0.44020681960512509 0.28049271497567208 0 0.44286630800860238 0.2725639452494763 0 0.44020681960512509 0.28049271497567208 0 0.44286630800860238 0.2725639452494763 0 0.44899270997773372 0.27934830622608209 0 0.44499863339015627 0.26451746623584188 0 0.44286630800860238 0.2725639452494763 0 0.4384743371442939 0.26563940279415033 0 0.43406052998587558 0.27413216817251268 0 0.44286630800860238 0.2725639452494763 0 0.4384743371442939 0.26563940279415033 0 0.44499863339015627 0.26451746623584188 0 0.44286630800860238 0.2725639452494763 0 0.45366724866295222 0.26944083196130542 0 0.44286630800860238 0.2725639452494763 0 0.44899270997773372 0.27934830622608209 0 0.45366724866295222 0.26944083196130542 0 0.44899270997773372 0.27934830622608209 0 0.45366724866295222 0.26944083196130542 0 0.46417920797163809 0.27465768864470769 0 0.45366724866295222 0.26944083196130542 0 0.46417920797163809 0.27465768864470769 0 0.46106938701397598 0.26109702400416412 0 0.45115134399032569 0.25526872381297638 0 0.46106938701397598 0.26109702400416412 0 0.46365561237862069 0.24578339396168231 0 0.45115134399032569 0.25526872381297638 0 0.45366724866295222 0.26944083196130542 0 0.46106938701397598 0.26109702400416412 0 0.46417920797163809 0.27465768864470769 0 0.46106938701397598 0.26109702400416412 0 0.47334224873063052 0.26107524208842647 0 0.46106938701397598 0.26109702400416412 0 0.47334224873063052 0.26107524208842647 0 0.46365561237862069 0.24578339396168231 0 0.47334224873063052 0.26107524208842647 0 0.46365561237862069 0.24578339396168231 0 0.4801462007472278 0.2485654613958129 0 0.47334224873063052 0.26107524208842647 0 0.48694926121072629 0.26189789322125723 0 0.4801462007472278 0.2485654613958129 0 0.46417920797163809 0.27465768864470769 0 0.47334224873063052 0.26107524208842647 0 0.47897825698435958 0.27591518352184069 0 0.46417920797163809 0.27465768864470769 0 0.47897825698435958 0.27591518352184069 0 0.46478281838410718 0.29000287655363888 0 0.47334224873063052 0.26107524208842647 0 0.47897825698435958 0.27591518352184069 0 0.48694926121072629 0.26189789322125723 0 0.5 0.26617128951514812 0 0.49169943863732551 0.27772030635826578 0 0.48694926121072629 0.26189789322125723 0 0.47897825698435958 0.27591518352184069 0 0.49169943863732551 0.27772030635826578 0 0.48694926121072629 0.26189789322125723 0 0.5 0.26617128951514812 0 0.49169943863732551 0.27772030635826578 0 0.5 0.29426777996832892 0 0.5 0.26617128951514812 0 0.48694926121072629 0.26189789322125723 0 0.5 0.23807479906196741 0 0.49026199967823553 0.30372949598974869 0 0.4777695926397873 0.30991133650734531 0 0.5 0.3223642704215095 0 0.49026199967823553 0.30372949598974869 0 0.5 0.29426777996832892 0 0.5 0.3223642704215095 0 0.49169943863732551 0.27772030635826578 0 0.4925696749915412 0.29034938556475431 0 0.5 0.29426777996832892 0 0.49026199967823553 0.30372949598974869 0 0.4925696749915412 0.29034938556475431 0 0.5 0.29426777996832892 0 0.47897825698435958 0.27591518352184069 0 0.49169943863732551 0.27772030635826578 0 0.4925696749915412 0.29034938556475431 0 0.49026199967823553 0.30372949598974869 0 0.4925696749915412 0.29034938556475431 0 0.46478281838410718 0.29000287655363888 0 0.47897825698435958 0.27591518352184069 0 0.4925696749915412 0.29034938556475431 0 0.46478281838410718 0.29000287655363888 0 0.4925696749915412 0.29034938556475431 0 0.46478281838410718 0.29000287655363888 0 0.49026199967823553 0.30372949598974869 0 0.4777695926397873 0.30991133650734531 0 0.46478281838410718 0.29000287655363888 0 0.4777695926397873 0.30991133650734531 0 0.46192604464803438 0.31162932417066619 0 0.46478281838410718 0.29000287655363888 0 0.46192604464803438 0.31162932417066619 0 0.46478281838410718 0.29000287655363888 0 0.4515522479368102 0.30192153583491732 0 0.44899270997773372 0.27934830622608209 0 0.46417920797163809 0.27465768864470769 0 0.46478281838410718 0.29000287655363888 0 0.43699596177667333 0.28965636754252377 0 0.46478281838410718 0.29000287655363888 0 0.4515522479368102 0.30192153583491732 0 0.43699596177667333 0.28965636754252377 0 0.44899270997773372 0.27934830622608209 0 0.46478281838410718 0.29000287655363888 0 0.43699596177667333 0.28965636754252377 0 0.46478281838410718 0.29000287655363888 0 0.43699596177667333 0.28965636754252377 0 0.44020681960512509 0.28049271497567208 0 0.44899270997773372 0.27934830622608209 0 0.43699596177667333 0.28965636754252377 0 0.4515522479368102 0.30192153583491732 0 0.44201128337506068 0.31618018343980131 0 0.46192604464803438 0.31162932417066619 0 0.4515522479368102 0.30192153583491732 0 0.44201128337506068 0.31618018343980131 0 0.43699596177667333 0.28965636754252377 0 0.44201128337506068 0.31618018343980131 0 0.44201128337506068 0.31618018343980131 0 0.44702660497344909 0.34270399933707862 0 0.44201128337506068 0.31618018343980131 0 0.44702660497344909 0.34270399933707862 0 0.4588985750201926 0.32787190287205009 0 0.44201128337506068 0.31618018343980131 0 0.44702660497344909 0.34270399933707862 0 0.43573795688519429 0.33110246617676431 0 0.44702660497344909 0.34270399933707862 0 0.4352491029000265 0.34666751664096862 0 0.43573795688519429 0.33110246617676431 0 0.44702660497344909 0.34270399933707862 0 0.4602025462317777 0.3418653881423091 0 0.4588985750201926 0.32787190287205009 0 0.4588985750201926 0.32787190287205009 0 0.47138421692519378 0.32161332376812413 0 0.47327811786401452 0.33586935708590437 0 0.4602025462317777 0.3418653881423091 0 0.4588985750201926 0.32787190287205009 0 0.47327811786401452 0.33586935708590437 0 0.4602025462317777 0.3418653881423091 0 0.47327811786401452 0.33586935708590437 0 0.46858039468508678 0.34876302862800301 0 0.46192604464803438 0.31162932417066619 0 0.44201128337506068 0.31618018343980131 0 0.4588985750201926 0.32787190287205009 0 0.46192604464803438 0.31162932417066619 0 0.4588985750201926 0.32787190287205009 0 0.47138421692519378 0.32161332376812413 0 0.47138421692519378 0.32161332376812413 0 0.47327811786401452 0.33586935708590437 0 0.5 0.3223642704215095 0 0.4777695926397873 0.30991133650734531 0 0.47138421692519378 0.32161332376812413 0 0.5 0.3223642704215095 0 0.4777695926397873 0.30991133650734531 0 0.46192604464803438 0.31162932417066619 0 0.47138421692519378 0.32161332376812413 0 0.5 0.3223642704215095 0 0.5 0.35046076087469019 0 0.48361906631067392 0.34908604314591579 0 0.47327811786401452 0.33586935708590437 0 0.5 0.3223642704215095 0 0.48361906631067392 0.34908604314591579 0 0.4906967120677676 0.36485203097476959 0 0.474413005854456 0.36555366638358061 0 0.49743677454439938 0.37966664438485759 0 0.4906967120677676 0.36485203097476959 0 0.5 0.35046076087469019 0 0.50000000000000044 0.37855725132787099 0 0.474413005854456 0.36555366638358061 0 0.49743677454439938 0.37966664438485759 0 0.4906967120677676 0.36485203097476959 0 0.49743677454439938 0.37966664438485759 0 0.50000000000000044 0.37855725132787099 0 0.4906967120677676 0.36485203097476959 0 0.5 0.35046076087469019 0 0.48361906631067392 0.34908604314591579 0 0.48361906631067392 0.34908604314591579 0 0.474413005854456 0.36555366638358061 0 0.46858039468508678 0.34876302862800301 0 0.47327811786401452 0.33586935708590437 0 0.48361906631067392 0.34908604314591579 0 0.46858039468508678 0.34876302862800301 0 0.4906967120677676 0.36485203097476959 0 0.48361906631067392 0.34908604314591579 0 0.474413005854456 0.36555366638358061 0 0.474413005854456 0.36555366638358061 0 0.45138923716451168 0.3514406883823048 0 0.45204192657183762 0.36922781523435588 0 0.474413005854456 0.36555366638358061 0 0.45204192657183762 0.36922781523435588 0 0.46021013186521892 0.37955228508398392 0 0.474413005854456 0.36555366638358061 0 0.45138923716451168 0.3514406883823048 0 0.474413005854456 0.36555366638358061 0 0.46858039468508678 0.34876302862800301 0 0.45138923716451168 0.3514406883823048 0 0.4602025462317777 0.3418653881423091 0 0.46858039468508678 0.34876302862800301 0 0.45138923716451168 0.3514406883823048 0 0.44702660497344909 0.34270399933707862 0 0.45204192657183762 0.36922781523435588 0 0.43686863610388982 0.35829482581396399 0 0.44702660497344909 0.34270399933707862 0 0.45138923716451168 0.3514406883823048 0 0.45204192657183762 0.36922781523435588 0 0.44702660497344909 0.34270399933707862 0 0.45204192657183762 0.36922781523435588 0 0.44702660497344909 0.34270399933707862 0 0.4602025462317777 0.3418653881423091 0 0.45138923716451168 0.3514406883823048 0 0.44702660497344909 0.34270399933707862 0 0.43686863610388982 0.35829482581396399 0 0.4352491029000265 0.34666751664096862 0 0.45204192657183762 0.36922781523435588 0 0.43460813759422467 0.37152140102673609 0 0.44751573241372078 0.37980101607893479 0 0.45204192657183762 0.36922781523435588 0 0.43460813759422467 0.37152140102673609 0 0.43686863610388982 0.35829482581396399 0 0.43460813759422467 0.37152140102673609 0 0.41923285478291872 0.37461218411616432 0 0.42690228028564442 0.35707049933985568 0 0.43460813759422467 0.37152140102673609 0 0.42690228028564442 0.35707049933985568 0 0.43686863610388982 0.35829482581396399 0 0.41923285478291872 0.37461218411616432 0 0.41165313640237428 0.34808388848004551 0 0.41923285478291872 0.37461218411616432 0 0.40638823630853399 0.36414326432706479 0 0.41165313640237428 0.34808388848004551 0 0.41923285478291872 0.37461218411616432 0 0.41165313640237428 0.34808388848004551 0 0.42690228028564442 0.35707049933985568 0 0.41923285478291872 0.37461218411616432 0 0.40638823630853399 0.36414326432706479 0 0.40927426388615801 0.37899548996860238 0 0.41165313640237428 0.34808388848004551 0 0.42690228028564442 0.35707049933985568 0 0.42514855159488768 0.34334557211145089 0 0.42690228028564442 0.35707049933985568 0 0.4352491029000265 0.34666751664096862 0 0.42514855159488768 0.34334557211145089 0 0.42690228028564442 0.35707049933985568 0 0.43686863610388982 0.35829482581396399 0 0.4352491029000265 0.34666751664096862 0 0.42514855159488768 0.34334557211145089 0 0.42656519136297222 0.31644476560172702 0 0.42514855159488768 0.34334557211145089 0 0.42656519136297222 0.31644476560172702 0 0.4171968647848866 0.32913473906164492 0 0.4352491029000265 0.34666751664096862 0 0.43573795688519429 0.33110246617676431 0 0.42514855159488768 0.34334557211145089 0 0.43573795688519429 0.33110246617676431 0 0.42514855159488768 0.34334557211145089 0 0.42656519136297222 0.31644476560172702 0 0.44201128337506068 0.31618018343980131 0 0.43573795688519429 0.33110246617676431 0 0.42656519136297222 0.31644476560172702 0 0.41502569067085382 0.31159154907935571 0 0.42656519136297222 0.31644476560172702 0 0.4171968647848866 0.32913473906164492 0 0.41502569067085382 0.31159154907935571 0 0.4171968647848866 0.32913473906164492 0 0.40407341802183011 0.32155559284392671 0 0.41165313640237428 0.34808388848004551 0 0.40407341802183011 0.32155559284392671 0 0.41165313640237428 0.34808388848004551 0 0.42514855159488768 0.34334557211145089 0 0.4171968647848866 0.32913473906164492 0 0.41165313640237428 0.34808388848004551 0 0.4171968647848866 0.32913473906164492 0 0.40407341802183011 0.32155559284392671 0 0.39850399784035623 0.34034723329456368 0 0.40407341802183011 0.32155559284392671 0 0.38477963694628742 0.33731107566230523 0 0.41165313640237428 0.34808388848004551 0 0.39850399784035623 0.34034723329456368 0 0.40407341802183011 0.32155559284392671 0 0.38592457052393891 0.30480155982981771 0 0.40407341802183011 0.32155559284392671 0 0.38005627329131042 0.32123435283373097 0 0.40407341802183011 0.32155559284392671 0 0.38005627329131042 0.32123435283373097 0 0.38477963694628742 0.33731107566230523 0 0.36976328394512781 0.33586151273338571 0 0.38005627329131042 0.32123435283373097 0 0.38477963694628742 0.33731107566230523 0 0.36976328394512781 0.33586151273338571 0 0.38477963694628742 0.33731107566230523 0 0.37886343041260218 0.35205099200664819 0 0.38477963694628742 0.33731107566230523 0 0.37886343041260218 0.35205099200664819 0 0.39350979999093322 0.3544383761919776 0 0.37886343041260218 0.35205099200664819 0 0.3874633705614321 0.36589438686062697 0 0.39350979999093322 0.3544383761919776 0 0.37493267956767989 0.36989734573206662 0 0.3874633705614321 0.36589438686062697 0 0.39173999306824109 0.37879277876952439 0 0.37493267956767989 0.36989734573206662 0 0.37886343041260218 0.35205099200664819 0 0.3874633705614321 0.36589438686062697 0 0.40638823630853399 0.36414326432706479 0 0.39948178387749189 0.37206914411514919 0 0.39350979999093322 0.3544383761919776 0 0.3874633705614321 0.36589438686062697 0 0.39948178387749189 0.37206914411514919 0 0.39350979999093322 0.3544383761919776 0 0.3874633705614321 0.36589438686062697 0 0.39948178387749189 0.37206914411514919 0 0.39173999306824109 0.37879277876952439 0 0.40638823630853399 0.36414326432706479 0 0.39948178387749189 0.37206914411514919 0 0.40927426388615801 0.37899548996860238 0 0.39850399784035623 0.34034723329456368 0 0.38477963694628742 0.33731107566230523 0 0.39350979999093322 0.3544383761919776 0 0.41165313640237428 0.34808388848004551 0 0.39850399784035623 0.34034723329456368 0 0.39350979999093322 0.3544383761919776 0 0.40638823630853399 0.36414326432706479 0 0.41165313640237428 0.34808388848004551 0 0.39350979999093322 0.3544383761919776 0 0.39914434842723412 0.39584758215282267 0 0.38419078634874892 0.4127669538623927 0 0.39279512491855179 0.40063333908269988 0 0.39914434842723412 0.39584758215282267 0 0.38419078634874892 0.4127669538623927 0 0.39279512491855179 0.40063333908269988 0 0.39914434842723412 0.39584758215282267 0 0.38887180043119379 0.39388245626754981 0 0.39337846204286597 0.39126385110540463 0 0.39914434842723412 0.39584758215282267 0 0.38887180043119379 0.39388245626754981 0 0.39914434842723412 0.39584758215282267 0 0.38887180043119379 0.39388245626754981 0 0.39337846204286597 0.39126385110540463 0 0.39914434842723412 0.39584758215282267 0 0.39717477512754767 0.38953470621816699 0 0.39337846204286597 0.39126385110540463 0 0.39011422924898459 0.39035203059108459 0 0.38887180043119379 0.39388245626754981 0 0.39279512491855179 0.40063333908269988 0 0.38887180043119379 0.39388245626754981 0 0.39914434842723412 0.39584758215282267 0 0.40251178941419491 0.39203745413989238 0 0.40807791850084651 0.39292839760420878 0 0.39914434842723412 0.39584758215282267 0 0.40251178941419491 0.39203745413989238 0 0.39717477512754767 0.38953470621816699 0 0.39914434842723412 0.39584758215282267 0 0.40251178941419491 0.39203745413989238 0 0.40251178941419491 0.39203745413989238 0 0.40576870367032369 0.38699729859983611 0 0.40807791850084651 0.39292839760420878 0 0.40251178941419491 0.39203745413989238 0 0.40576870367032369 0.38699729859983611 0 0.40049533568963558 0.38723937223708371 0 0.40576870367032369 0.38699729859983611 0 0.40049533568963558 0.38723937223708371 0 0.40079891965628739 0.38134837925481557 0 0.40049533568963558 0.38723937223708371 0 0.40079891965628739 0.38134837925481557 0 0.39686468350249943 0.38454120574887679 0 0.40251178941419491 0.39203745413989238 0 0.40049533568963558 0.38723937223708371 0 0.39717477512754767 0.38953470621816699 0 0.40576870367032369 0.38699729859983611 0 0.40079891965628739 0.38134837925481557 0 0.40927426388615801 0.37899548996860238 0 0.39948178387749189 0.37206914411514919 0 0.40079891965628739 0.38134837925481557 0 0.40927426388615801 0.37899548996860238 0 0.40079891965628739 0.38134837925481557 0 0.39173999306824109 0.37879277876952439 0 0.39686468350249943 0.38454120574887679 0 0.39948178387749189 0.37206914411514919 0 0.40079891965628739 0.38134837925481557 0 0.39173999306824109 0.37879277876952439 0 0.39173999306824109 0.37879277876952439 0 0.39686468350249943 0.38454120574887679 0 0.39287436362298078 0.38715052435100861 0 0.39173999306824109 0.37879277876952439 0 0.39287436362298078 0.38715052435100861 0 0.38831297247667401 0.38857188462685532 0 0.39717477512754767 0.38953470621816699 0 0.39686468350249943 0.38454120574887679 0 0.39287436362298078 0.38715052435100861 0 0.40049533568963558 0.38723937223708371 0 0.39717477512754767 0.38953470621816699 0 0.39686468350249943 0.38454120574887679 0 0.39337846204286597 0.39126385110540463 0 0.39287436362298078 0.38715052435100861 0 0.39011422924898459 0.39035203059108459 0 0.39337846204286597 0.39126385110540463 0 0.39717477512754767 0.38953470621816699 0 0.39287436362298078 0.38715052435100861 0 0.39287436362298078 0.38715052435100861 0 0.39011422924898459 0.39035203059108459 0 0.38831297247667401 0.38857188462685532 0 0.3744006448365913 0.3847751519885117 0 0.37493267956767989 0.36989734573206662 0 0.38713354767120661 0.39089143660460612 0 0.37493267956767989 0.36989734573206662 0 0.38831297247667401 0.38857188462685532 0 0.38713354767120661 0.39089143660460612 0 0.37493267956767989 0.36989734573206662 0 0.39173999306824109 0.37879277876952439 0 0.38831297247667401 0.38857188462685532 0 0.37493267956767989 0.36989734573206662 0 0.38713354767120661 0.39089143660460612 0 0.39011422924898459 0.39035203059108459 0 0.38831297247667401 0.38857188462685532 0 0.38713354767120661 0.39089143660460612 0 0.38831297247667401 0.38857188462685532 0 0.38713354767120661 0.39089143660460612 0 0.3744006448365913 0.3847751519885117 0 0.38590161099866821 0.39331426265675112 0 0.38713354767120661 0.39089143660460612 0 0.38590161099866821 0.39331426265675112 0 0.38713354767120661 0.39089143660460612 0 0.38590161099866821 0.39331426265675112 0 0.38887180043119379 0.39388245626754981 0 0.38612322226094681 0.40112581726163171 0 0.39011422924898459 0.39035203059108459 0 0.38887180043119379 0.39388245626754981 0 0.38713354767120661 0.39089143660460612 0 0.38887180043119379 0.39388245626754981 0 0.38713354767120661 0.39089143660460612 0 0.38590161099866821 0.39331426265675112 0 0.38887180043119379 0.39388245626754981 0 0.38713354767120661 0.39089143660460612 0 0.38590161099866821 0.39331426265675112 0 0.38887180043119379 0.39388245626754981 0 0.38590161099866821 0.39331426265675112 0 0.38612322226094681 0.40112581726163171 0 0.37876732484206121 0.40734512540243512 0 0.39279512491855179 0.40063333908269988 0 0.38612322226094681 0.40112581726163171 0 0.38419078634874892 0.4127669538623927 0 0.39279512491855179 0.40063333908269988 0 0.38887180043119379 0.39388245626754981 0 0.38612322226094681 0.40112581726163171 0 0.38590161099866821 0.39331426265675112 0 0.37876732484206121 0.40734512540243512 0 0.37876732484206121 0.40734512540243512 0 0.37511966551518272 0.40881799962066689 0 0.37549384770261868 0.41378300964712988 0 0.37848783814332082 0.41921961711558248 0 0.38419078634874892 0.4127669538623927 0 0.40084015252825828 0.42941130678735862 0 0.37876732484206121 0.40734512540243512 0 0.38419078634874892 0.4127669538623927 0 0.37876732484206121 0.40734512540243512 0 0.37849840361041043 0.41353445381346998 0 0.38419078634874892 0.4127669538623927 0 0.37876732484206121 0.40734512540243512 0 0.37849840361041043 0.41353445381346998 0 0.37549384770261868 0.41378300964712988 0 0.37511966551518272 0.40881799962066689 0 0.37549384770261868 0.41378300964712988 0 0.37876732484206121 0.40734512540243512 0 0.37549384770261868 0.41378300964712988 0 0.37549384770261868 0.41378300964712988 0 0.37848783814332082 0.41921961711558248 0 0.37549384770261868 0.41378300964712988 0 0.37610662063862321 0.42191387176018369 0 0.37549384770261868 0.41378300964712988 0 0.37848783814332082 0.41921961711558248 0 0.37610662063862321 0.42191387176018369 0 0.37849840361041043 0.41353445381346998 0 0.37549384770261868 0.41378300964712988 0 0.37848783814332082 0.41921961711558248 0 0.37848783814332082 0.41921961711558248 0 0.37610662063862321 0.42191387176018369 0 0.37848783814332082 0.41921961711558248 0 0.38419078634874892 0.4127669538623927 0 0.37849840361041043 0.41353445381346998 0 0.37848783814332082 0.41921961711558248 0 0.38419078634874892 0.4127669538623927 0 0.38612322226094681 0.40112581726163171 0 0.37876732484206121 0.40734512540243512 0 0.38419078634874892 0.4127669538623927 0 0.37848783814332082 0.41921961711558248 0 0.3812703178228169 0.43464082031259399 0 0.39382504751813902 0.44357664201310631 0 0.3812703178228169 0.43464082031259399 0 0.37610662063862321 0.42191387176018369 0 0.37739903956485982 0.43906293214467468 0 0.37848783814332082 0.41921961711558248 0 0.39382504751813902 0.44357664201310631 0 0.37610662063862321 0.42191387176018369 0 0.37739903956485982 0.43906293214467468 0 0.37848783814332082 0.41921961711558248 0 0.3812703178228169 0.43464082031259399 0 0.37610662063862321 0.42191387176018369 0 0.37848783814332082 0.41921961711558248 0 0.40084015252825828 0.42941130678735862 0 0.39382504751813902 0.44357664201310631 0 0.40084015252825828 0.42941130678735862 0 0.39382504751813902 0.44357664201310631 0 0.38419078634874892 0.4127669538623927 0 0.40084015252825828 0.42941130678735862 0 0.39914434842723412 0.39584758215282267 0 0.38419078634874892 0.4127669538623927 0 0.40835845267189957 0.41422988873177119 0 0.38419078634874892 0.4127669538623927 0 0.40084015252825828 0.42941130678735862 0 0.40835845267189957 0.41422988873177119 0 0.40084015252825828 0.42941130678735862 0 0.40835845267189957 0.41422988873177119 0 0.40835845267189957 0.41422988873177119 0 0.4158767528155411 0.39904847067618399 0 0.40835845267189957 0.41422988873177119 0 0.42133417932684258 0.41767939552667233 0 0.41498727025219262 0.42778014402034281 0 0.40835845267189957 0.41422988873177119 0 0.42133417932684258 0.41767939552667233 0 0.42112614396651388 0.40516233009176728 0 0.40084015252825828 0.42941130678735862 0 0.41498727025219262 0.42778014402034281 0 0.41849264113397883 0.44705848009051907 0 0.41498727025219262 0.42778014402034281 0 0.42591092559998323 0.4305216489653928 0 0.41849264113397883 0.44705848009051907 0 0.40084015252825828 0.42941130678735862 0 0.40835845267189957 0.41422988873177119 0 0.41498727025219262 0.42778014402034281 0 0.42133417932684258 0.41767939552667233 0 0.41498727025219262 0.42778014402034281 0 0.42591092559998323 0.4305216489653928 0 0.42133417932684258 0.41767939552667233 0 0.42591092559998323 0.4305216489653928 0 0.43196498023209479 0.41951524253737371 0 0.42591092559998323 0.4305216489653928 0 0.43600850049901457 0.42938544162359488 0 0.43196498023209479 0.41951524253737371 0 0.43600850049901457 0.42938544162359488 0 0.43196498023209479 0.41951524253737371 0 0.44255926381836519 0.42060293369208179 0 0.42591092559998323 0.4305216489653928 0 0.43600850049901457 0.42938544162359488 0 0.43561037765667832 0.44184008483051551 0 0.42133417932684258 0.41767939552667233 0 0.42765419850653441 0.41234048809971641 0 0.42112614396651388 0.40516233009176728 0 0.42765419850653441 0.41234048809971641 0 0.42930918488167508 0.40752984148456428 0 0.42112614396651388 0.40516233009176728 0 0.42133417932684258 0.41767939552667233 0 0.42765419850653441 0.41234048809971641 0 0.43196498023209479 0.41951524253737371 0 0.43196498023209479 0.41951524253737371 0 0.43354987868780859 0.41122007752921869 0 0.4377985288996562 0.41498142861539161 0 0.43196498023209479 0.41951524253737371 0 0.44255926381836519 0.42060293369208179 0 0.4377985288996562 0.41498142861539161 0 0.42765419850653441 0.41234048809971641 0 0.43196498023209479 0.41951524253737371 0 0.43354987868780859 0.41122007752921869 0 0.43354987868780859 0.41122007752921869 0 0.4377985288996562 0.41498142861539161 0 0.43813061333539022 0.40975731206896499 0 0.42765419850653441 0.41234048809971641 0 0.42930918488167508 0.40752984148456428 0 0.43354987868780859 0.41122007752921869 0 0.42930918488167508 0.40752984148456428 0 0.43354987868780859 0.41122007752921869 0 0.43252268281176859 0.40624573600881098 0 0.43354987868780859 0.41122007752921869 0 0.43252268281176859 0.40624573600881098 0 0.43813061333539022 0.40975731206896499 0 0.43252268281176859 0.40624573600881098 0 0.4380261126269166 0.4062133703814883 0 0.43813061333539022 0.40975731206896499 0 0.43252268281176859 0.40624573600881098 0 0.42681257316346438 0.4011404797522824 0 0.4380261126269166 0.4062133703814883 0 0.42930918488167508 0.40752984148456428 0 0.43252268281176859 0.40624573600881098 0 0.42749205039823501 0.40351858564712889 0 0.43200738508875081 0.39394026884647071 0 0.42681257316346438 0.4011404797522824 0 0.43905484957098262 0.39694941969443392 0 0.43200738508875081 0.39394026884647071 0 0.43429323533350078 0.38951421361019728 0 0.43905484957098262 0.39694941969443392 0 0.43200738508875081 0.39394026884647071 0 0.42681257316346438 0.4011404797522824 0 0.42786888228705527 0.38815696232896918 0 0.42930918488167508 0.40752984148456428 0 0.42749205039823501 0.40351858564712889 0 0.42112614396651388 0.40516233009176728 0 0.43252268281176859 0.40624573600881098 0 0.42749205039823501 0.40351858564712889 0 0.42681257316346438 0.4011404797522824 0 0.42749205039823501 0.40351858564712889 0 0.42681257316346438 0.4011404797522824 0 0.42749205039823501 0.40351858564712889 0 0.42681257316346438 0.4011404797522824 0 0.42112614396651388 0.40516233009176728 0 0.42681257316346438 0.4011404797522824 0 0.4158767528155411 0.39904847067618399 0 0.40835845267189957 0.41422988873177119 0 0.42112614396651388 0.40516233009176728 0 0.4158767528155411 0.39904847067618399 0 0.39914434842723412 0.39584758215282267 0 0.40835845267189957 0.41422988873177119 0 0.4158767528155411 0.39904847067618399 0 0.39914434842723412 0.39584758215282267 0 0.4158767528155411 0.39904847067618399 0 0.42681257316346438 0.4011404797522824 0 0.42112614396651388 0.40516233009176728 0 0.4158767528155411 0.39904847067618399 0 0.39914434842723412 0.39584758215282267 0 0.4158767528155411 0.39904847067618399 0 0.40807791850084651 0.39292839760420878 0 0.4158767528155411 0.39904847067618399 0 0.41249767821636812 0.38909878153707278 0 0.4213782190442828 0.38793956877794428 0 0.4158767528155411 0.39904847067618399 0 0.4213782190442828 0.38793956877794428 0 0.42681257316346438 0.4011404797522824 0 0.4158767528155411 0.39904847067618399 0 0.4213782190442828 0.38793956877794428 0 0.4158767528155411 0.39904847067618399 0 0.40807791850084651 0.39292839760420878 0 0.41249767821636812 0.38909878153707278 0 0.40576870367032369 0.38699729859983611 0 0.40927426388615801 0.37899548996860238 0 0.41249767821636812 0.38909878153707278 0 0.40576870367032369 0.38699729859983611 0 0.40807791850084651 0.39292839760420878 0 0.41249767821636812 0.38909878153707278 0 0.40927426388615801 0.37899548996860238 0 0.41249767821636812 0.38909878153707278 0 0.4213782190442828 0.38793956877794428 0 0.41923285478291872 0.37461218411616432 0 0.40927426388615801 0.37899548996860238 0 0.4213782190442828 0.38793956877794428 0 0.41923285478291872 0.37461218411616432 0 0.42681257316346438 0.4011404797522824 0 0.42786888228705527 0.38815696232896918 0 0.41923285478291872 0.37461218411616432 0 0.42786888228705527 0.38815696232896918 0 0.43082162653342188 0.38145348902050341 0 0.41923285478291872 0.37461218411616432 0 0.42681257316346438 0.4011404797522824 0 0.4213782190442828 0.38793956877794428 0 0.43460813759422467 0.37152140102673609 0 0.41923285478291872 0.37461218411616432 0 0.43082162653342188 0.38145348902050341 0 0.41923285478291872 0.37461218411616432 0 0.42681257316346438 0.4011404797522824 0 0.42786888228705527 0.38815696232896918 0 0.43429323533350078 0.38951421361019728 0 0.43082162653342188 0.38145348902050341 0 0.43429323533350078 0.38951421361019728 0 0.43082162653342188 0.38145348902050341 0 0.43826249675604811 0.38327819148408299 0 0.43200738508875081 0.39394026884647071 0 0.42786888228705527 0.38815696232896918 0 0.43429323533350078 0.38951421361019728 0 0.43460813759422467 0.37152140102673609 0 0.43082162653342188 0.38145348902050341 0 0.43826249675604811 0.38327819148408299 0 0.4999999999999995 0.38123783565915792 0 0.49483970946762551 0.4141539878423407 0 0.5 0.44874894819533878 0 0.43460813759422467 0.37152140102673609 0 0.43826249675604811 0.38327819148408299 0 0.44751573241372078 0.37980101607893479 0 0.43826249675604811 0.38327819148408299 0 0.44589144005120479 0.3886881083128676 0 0.44751573241372078 0.37980101607893479 0 0.43429323533350078 0.38951421361019728 0 0.43826249675604811 0.38327819148408299 0 0.44027349494495382 0.39084816498125641 0 0.43826249675604811 0.38327819148408299 0 0.44589144005120479 0.3886881083128676 0 0.44027349494495382 0.39084816498125641 0 0.44589144005120479 0.3886881083128676 0 0.44751573241372078 0.37980101607893479 0 0.45571056291524531 0.38639157353756942 0 0.44589144005120479 0.3886881083128676 0 0.45237586866758989 0.39348270844836392 0 0.45571056291524531 0.38639157353756942 0 0.42681257316346438 0.4011404797522824 0 0.44948828526485157 0.40547831578230131 0 0.42681257316346438 0.4011404797522824 0 0.43905484957098262 0.39694941969443392 0 0.44948828526485157 0.40547831578230131 0 0.42681257316346438 0.4011404797522824 0 0.4380261126269166 0.4062133703814883 0 0.44948828526485157 0.40547831578230131 0 0.44463262278269078 0.39460298769987068 0 0.43905484957098262 0.39694941969443392 0 0.44768250861258402 0.4012008551425339 0 0.43429323533350078 0.38951421361019728 0 0.43905484957098262 0.39694941969443392 0 0.44027349494495382 0.39084816498125641 0 0.44463262278269078 0.39460298769987068 0 0.43905484957098262 0.39694941969443392 0 0.44027349494495382 0.39084816498125641 0 0.44589144005120479 0.3886881083128676 0 0.44463262278269078 0.39460298769987068 0 0.44027349494495382 0.39084816498125641 0 0.44589144005120479 0.3886881083128676 0 0.44463262278269078 0.39460298769987068 0 0.45237586866758989 0.39348270844836392 0 0.44463262278269078 0.39460298769987068 0 0.45237586866758989 0.39348270844836392 0 0.44768250861258402 0.4012008551425339 0 0.43905484957098262 0.39694941969443392 0 0.44768250861258402 0.4012008551425339 0 0.44948828526485157 0.40547831578230131 0 0.44768250861258402 0.4012008551425339 0 0.44948828526485157 0.40547831578230131 0 0.47255964157849217 0.39043374976369688 0 0.45237586866758989 0.39348270844836392 0 0.44768250861258402 0.4012008551425339 0 0.47255964157849217 0.39043374976369688 0 0.44768250861258402 0.4012008551425339 0 0.47255964157849217 0.39043374976369688 0 0.44948828526485157 0.40547831578230131 0 0.47255964157849217 0.39043374976369688 0 0.4721639973662386 0.40981615181232101 0 0.46021013186521892 0.37955228508398392 0 0.45571056291524531 0.38639157353756942 0 0.47255964157849217 0.39043374976369688 0 0.45237586866758989 0.39348270844836392 0 0.45571056291524531 0.38639157353756942 0 0.47255964157849217 0.39043374976369688 0 0.45204192657183762 0.36922781523435588 0 0.44751573241372078 0.37980101607893479 0 0.46021013186521892 0.37955228508398392 0 0.44751573241372078 0.37980101607893479 0 0.46021013186521892 0.37955228508398392 0 0.45571056291524531 0.38639157353756942 0 0.474413005854456 0.36555366638358061 0 0.47255964157849217 0.39043374976369688 0 0.49743677454439938 0.37966664438485759 0 0.48740002459135118 0.39506167389247471 0 0.4999999999999995 0.38123783565915792 0 0.49483970946762551 0.4141539878423407 0 0.474413005854456 0.36555366638358061 0 0.46021013186521892 0.37955228508398392 0 0.47255964157849217 0.39043374976369688 0 0.47255964157849217 0.39043374976369688 0 0.48740002459135118 0.39506167389247471 0 0.4721639973662386 0.40981615181232101 0 0.47255964157849217 0.39043374976369688 0 0.49743677454439938 0.37966664438485759 0 0.47255964157849217 0.39043374976369688 0 0.48740002459135118 0.39506167389247471 0 0.49743677454439938 0.37966664438485759 0 0.48740002459135118 0.39506167389247471 0 0.4999999999999995 0.38123783565915792 0 0.49743677454439938 0.37966664438485759 0 0.49743677454439938 0.37966664438485759 0 0.50000000000000044 0.37855725132787099 0 0.4999999999999995 0.38123783565915792 0 0.49743677454439938 0.37966664438485759 0 0.50000000000000044 0.37855725132787099 0 0.4999999999999995 0.38123783565915792 0 0.49743677454439938 0.37966664438485759 0 0.49483970946762551 0.4141539878423407 0 0.47979853639885589 0.43138190826329809 0 0.5 0.44874894819533878 0 0.48740002459135118 0.39506167389247471 0 0.49483970946762551 0.4141539878423407 0 0.4721639973662386 0.40981615181232101 0 0.49483970946762551 0.4141539878423407 0 0.4721639973662386 0.40981615181232101 0 0.47979853639885589 0.43138190826329809 0 0.49483970946762551 0.4141539878423407 0 0.4721639973662386 0.40981615181232101 0 0.4721639973662386 0.40981615181232101 0 0.47979853639885589 0.43138190826329809 0 0.4638173780203047 0.43321334262497291 0 0.4638173780203047 0.43321334262497291 0 0.45464883509769172 0.42199657787860317 0 0.44719161325781109 0.43252823112248279 0 0.4721639973662386 0.40981615181232101 0 0.45464883509769172 0.42199657787860317 0 0.4481806704839722 0.41434481080495839 0 0.44948828526485157 0.40547831578230131 0 0.4721639973662386 0.40981615181232101 0 0.4481806704839722 0.41434481080495839 0 0.44948828526485157 0.40547831578230131 0 0.4721639973662386 0.40981615181232101 0 0.4721639973662386 0.40981615181232101 0 0.4638173780203047 0.43321334262497291 0 0.45464883509769172 0.42199657787860317 0 0.44948828526485157 0.40547831578230131 0 0.44588973782786973 0.41025672261055363 0 0.4481806704839722 0.41434481080495839 0 0.44948828526485157 0.40547831578230131 0 0.44588973782786973 0.41025672261055363 0 0.44317640855910811 0.40844500829508151 0 0.44588973782786973 0.41025672261055363 0 0.4481806704839722 0.41434481080495839 0 0.44266713299870658 0.41291485102992348 0 0.45464883509769172 0.42199657787860317 0 0.4481806704839722 0.41434481080495839 0 0.44255926381836519 0.42060293369208179 0 0.44255926381836519 0.42060293369208179 0 0.4377985288996562 0.41498142861539161 0 0.44266713299870658 0.41291485102992348 0 0.4481806704839722 0.41434481080495839 0 0.44255926381836519 0.42060293369208179 0 0.44266713299870658 0.41291485102992348 0 0.4380261126269166 0.4062133703814883 0 0.44948828526485157 0.40547831578230131 0 0.44317640855910811 0.40844500829508151 0 0.44588973782786973 0.41025672261055363 0 0.44266713299870658 0.41291485102992348 0 0.44317640855910811 0.40844500829508151 0 0.4377985288996562 0.41498142861539161 0 0.44266713299870658 0.41291485102992348 0 0.43813061333539022 0.40975731206896499 0 0.44266713299870658 0.41291485102992348 0 0.43813061333539022 0.40975731206896499 0 0.44317640855910811 0.40844500829508151 0 0.4380261126269166 0.4062133703814883 0 0.43813061333539022 0.40975731206896499 0 0.44317640855910811 0.40844500829508151 0 0.45464883509769172 0.42199657787860317 0 0.44255926381836519 0.42060293369208179 0 0.44719161325781109 0.43252823112248279 0 0.43600850049901457 0.42938544162359488 0 0.44255926381836519 0.42060293369208179 0 0.44719161325781109 0.43252823112248279 0 0.43600850049901457 0.42938544162359488 0 0.44719161325781109 0.43252823112248279 0 0.43561037765667832 0.44184008483051551 0 0.44719161325781109 0.43252823112248279 0 0.45050532445481228 0.44813100608512862 0 0.43561037765667832 0.44184008483051551 0 0.45050532445481228 0.44813100608512862 0 0.43614512973969982 0.46470565339367897 0 0.43561037765667832 0.44184008483051551 0 0.45050532445481228 0.44813100608512862 0 0.45500427907384122 0.46441683946054529 0 0.43614512973969982 0.46470565339367897 0 0.45050532445481228 0.44813100608512862 0 0.45500427907384122 0.46441683946054529 0 0.46817159714011097 0.45097711084151698 0 0.45500427907384122 0.46441683946054529 0 0.46817159714011097 0.45097711084151698 0 0.47577397745469902 0.47459567532048519 0 0.4638173780203047 0.43321334262497291 0 0.45050532445481228 0.44813100608512862 0 0.46817159714011097 0.45097711084151698 0 0.4638173780203047 0.43321334262497291 0 0.44719161325781109 0.43252823112248279 0 0.45050532445481228 0.44813100608512862 0 0.46817159714011097 0.45097711084151698 0 0.5 0.44874894819533878 0 0.47577397745469902 0.47459567532048519 0 0.47979853639885589 0.43138190826329809 0 0.46817159714011097 0.45097711084151698 0 0.5 0.44874894819533878 0 0.47979853639885589 0.43138190826329809 0 0.4638173780203047 0.43321334262497291 0 0.46817159714011097 0.45097711084151698 0 0.5 0.44874894819533878 0 0.5 0.5 0 0.47577397745469902 0.47459567532048519 0 0.5 0.5 0 0.47577397745469902 0.47459567532048519 0 0.47145010695114131 0.49999999999999928 0 0.47145010695114131 0.49999999999999928 0 0.45379761834542082 0.48235282669683899 0 0.44163056816142321 0.5 0 0.47577397745469902 0.47459567532048519 0 0.47145010695114131 0.49999999999999928 0 0.45379761834542082 0.48235282669683899 0 0.47145010695114131 0.49999999999999928 0 0.45379761834542082 0.48235282669683899 0 0.45500427907384122 0.46441683946054529 0 0.47577397745469902 0.47459567532048519 0 0.45379761834542082 0.48235282669683899 0 0.45379761834542082 0.48235282669683899 0 0.43248352689356362 0.48334818481094233 0 0.43614512973969982 0.46470565339367897 0 0.45500427907384122 0.46441683946054529 0 0.45379761834542082 0.48235282669683899 0 0.43614512973969982 0.46470565339367897 0 0.45379761834542082 0.48235282669683899 0 0.43614512973969982 0.46470565339367897 0 0.45379761834542082 0.48235282669683899 0 0.44163056816142321 0.5 0 0.43248352689356362 0.48334818481094233 0 0.44163056816142321 0.5 0 0.41181102937170511 0.5 0 0.43248352689356362 0.48334818481094233 0 0.41181102937170511 0.5 0 0.41468459384616269 0.47670369119437489 0 0.40435506239459967 0.48484564328608132 0 0.41181102937170511 0.5 0 0.41468459384616269 0.47670369119437489 0 0.43248352689356362 0.48334818481094233 0 0.41468459384616269 0.47670369119437489 0 0.43248352689356362 0.48334818481094233 0 0.43614512973969982 0.46470565339367897 0 0.43614512973969982 0.46470565339367897 0 0.41849264113397883 0.44705848009051907 0 0.41468459384616269 0.47670369119437489 0 0.43614512973969982 0.46470565339367897 0 0.41839429635049802 0.46215199782057842 0 0.43614512973969982 0.46470565339367897 0 0.41849264113397883 0.44705848009051907 0 0.41839429635049802 0.46215199782057842 0 0.43614512973969982 0.46470565339367897 0 0.43561037765667832 0.44184008483051551 0 0.41849264113397883 0.44705848009051907 0 0.42591092559998323 0.4305216489653928 0 0.43561037765667832 0.44184008483051551 0 0.41849264113397883 0.44705848009051907 0 0.40084015252825828 0.42941130678735862 0 0.41849264113397883 0.44705848009051907 0 0.40084015252825828 0.42941130678735862 0 0.41849264113397883 0.44705848009051907 0 0.40435316546563183 0.44504664887368128 0 0.41849264113397883 0.44705848009051907 0 0.40425482068215052 0.46014016660374091 0 0.40435316546563183 0.44504664887368128 0 0.41468459384616269 0.47670369119437489 0 0.41839429635049802 0.46215199782057842 0 0.40425482068215052 0.46014016660374091 0 0.41468459384616269 0.47670369119437489 0 0.40425482068215052 0.46014016660374091 0 0.41849264113397883 0.44705848009051907 0 0.41839429635049802 0.46215199782057842 0 0.40425482068215052 0.46014016660374091 0 0.40425482068215052 0.46014016660374091 0 0.39350323579772162 0.46400685207625758 0 0.39382504751813902 0.44357664201310631 0 0.40425482068215052 0.46014016660374091 0 0.39350323579772162 0.46400685207625758 0 0.39930106896538597 0.4750332998305562 0 0.40425482068215052 0.46014016660374091 0 0.40435316546563183 0.44504664887368128 0 0.39382504751813902 0.44357664201310631 0 0.40425482068215052 0.46014016660374091 0 0.39382504751813902 0.44357664201310631 0 0.40084015252825828 0.42941130678735862 0 0.40435316546563183 0.44504664887368128 0 0.39382504751813902 0.44357664201310631 0 0.38053304324914161 0.44943103852942351 0 0.37739903956485982 0.43906293214467468 0 0.37869145849109631 0.45621199252916572 0 0.37739903956485982 0.43906293214467468 0 0.37869145849109631 0.45621199252916572 0 0.36928852254407257 0.44803623291397288 0 0.37739903956485982 0.43906293214467468 0 0.37869145849109631 0.45621199252916572 0 0.3812703178228169 0.43464082031259399 0 0.39382504751813902 0.44357664201310631 0 0.38053304324914161 0.44943103852942351 0 0.39382504751813902 0.44357664201310631 0 0.38053304324914161 0.44943103852942351 0 0.37869145849109631 0.45621199252916572 0 0.38053304324914161 0.44943103852942351 0 0.37869145849109631 0.45621199252916572 0 0.3812703178228169 0.43464082031259399 0 0.38053304324914161 0.44943103852942351 0 0.37739903956485982 0.43906293214467468 0 0.39382504751813902 0.44357664201310631 0 0.37869145849109631 0.45621199252916572 0 0.38201244311167581 0.46742938563780417 0 0.39350323579772162 0.46400685207625758 0 0.39382504751813902 0.44357664201310631 0 0.38201244311167581 0.46742938563780417 0 0.37869145849109631 0.45621199252916572 0 0.38201244311167581 0.46742938563780417 0 0.38034147453654149 0.47810599626458161 0 0.37274544210855681 0.47810599626458278 0 0.37869145849109631 0.45621199252916572 0 0.37869145849109631 0.45621199252916572 0 0.38034147453654149 0.47810599626458161 0 0.39382504751813902 0.44357664201310631 0 0.38201244311167581 0.46742938563780417 0 0.39350323579772162 0.46400685207625758 0 0.38201244311167581 0.46742938563780417 0 0.38935635596129398 0.47444422318571872 0 0.37274544210855681 0.47810599626458278 0 0.37869145849109631 0.45621199252916572 0 0.38034147453654149 0.47810599626458161 0 0.38201244311167581 0.46742938563780417 0 0.38935635596129398 0.47444422318571872 0 0.38034147453654149 0.47810599626458161 0 0.38935635596129398 0.47444422318571872 0 0.38034147453654149 0.47810599626458161 0 0.39162355739514532 0.48764558211939418 0 0.37274544210855681 0.47810599626458278 0 0.38034147453654149 0.47810599626458161 0 0.38199149058198728 0.49999999999999739 0 0.38034147453654149 0.47810599626458161 0 0.38199149058198728 0.49999999999999739 0 0.38034147453654149 0.47810599626458161 0 0.38199149058198728 0.49999999999999739 0 0.39162355739514532 0.48764558211939418 0 0.41181102937170511 0.5 0 0.39162355739514532 0.48764558211939418 0 0.40435506239459967 0.48484564328608132 0 0.41181102937170511 0.5 0 0.38199149058198728 0.49999999999999739 0 0.39162355739514532 0.48764558211939418 0 0.41468459384616269 0.47670369119437489 0 0.40435506239459967 0.48484564328608132 0 0.39930106896538597 0.4750332998305562 0 0.41468459384616269 0.47670369119437489 0 0.40425482068215052 0.46014016660374091 0 0.39930106896538597 0.4750332998305562 0 0.39350323579772162 0.46400685207625758 0 0.38935635596129398 0.47444422318571872 0 0.39930106896538597 0.4750332998305562 0 0.38935635596129398 0.47444422318571872 0 0.39162355739514532 0.48764558211939418 0 0.39930106896538597 0.4750332998305562 0 0.39162355739514532 0.48764558211939418 0 0.40435506239459967 0.48484564328608132 0 0.39930106896538597 0.4750332998305562 0 0.33345363100884229 0.070382516617974275 0 0.34799499043071902 0.091151533317938044 0 0.33057577009169831 0.088312617674786376 0 0.33808815344989679 0.097227701146094289 0 0.34799499043071902 0.091151533317938044 0 0.33057577009169831 0.088312617674786376 0 0.33345363100884229 0.070382516617974275 0 0.34799499043071902 0.091151533317938044 0 0.33345363100884229 0.070382516617974275 0 0.31888721647384111 0.078991263223089553 0 0.31074253587993877 0.064771102195184199 0 0.33057577009169831 0.088312617674786376 0 0.31339919211826239 0.090696325231446454 0 0.32215390983062758 0.097567987678693929 0 0.33057577009169831 0.088312617674786376 0 0.31888721647384111 0.078991263223089553 0 0.31339919211826239 0.090696325231446454 0 0.33057577009169831 0.088312617674786376 0 0.33345363100884229 0.070382516617974275 0 0.31888721647384111 0.078991263223089553 0 0.31888721647384111 0.078991263223089553 0 0.31339919211826239 0.090696325231446454 0 0.3057083820702472 0.080763893478998788 0 0.31339919211826239 0.090696325231446454 0 0.31644481174129457 0.1072919783519206 0 0.31339919211826239 0.090696325231446454 0 0.31644481174129457 0.1072919783519206 0 0.32215390983062758 0.097567987678693929 0 0.31644481174129457 0.1072919783519206 0 0.32215390983062758 0.097567987678693929 0 0.32998225996821168 0.1034848386899188 0 0.31644481174129457 0.1072919783519206 0 0.32312434565234038 0.1156683763946364 0 0.32998225996821168 0.1034848386899188 0 0.33057577009169831 0.088312617674786376 0 0.32215390983062758 0.097567987678693929 0 0.32998225996821168 0.1034848386899188 0 0.31644481174129457 0.1072919783519206 0 0.31949043136432709 0.1238876314723948 0 0.32312434565234038 0.1156683763946364 0 0.31644481174129457 0.1072919783519206 0 0.31949043136432709 0.1238876314723948 0 0.30611619295381592 0.1177647686354913 0 0.31644481174129457 0.1072919783519206 0 0.31949043136432709 0.1238876314723948 0 0.31949043136432709 0.1238876314723948 0 0.32312434565234038 0.1156683763946364 0 0.32929578386822977 0.1209196584641849 0 0.31949043136432709 0.1238876314723948 0 0.32929578386822977 0.1209196584641849 0 0.32822026520731951 0.12735179978279559 0 0.31949043136432709 0.1238876314723948 0 0.32312434565234038 0.1156683763946364 0 0.34379959330895821 0.1059618149017339 0 0.33769772984025331 0.12698279333700241 0 0.33395279898586799 0.114391976641168 0 0.34379959330895821 0.1059618149017339 0 0.33769772984025331 0.12698279333700241 0 0.32929578386822977 0.1209196584641849 0 0.33395279898586799 0.114391976641168 0 0.33769772984025331 0.12698279333700241 0 0.32312434565234038 0.1156683763946364 0 0.33395279898586799 0.114391976641168 0 0.32998225996821168 0.1034848386899188 0 0.32312434565234038 0.1156683763946364 0 0.32929578386822977 0.1209196584641849 0 0.33395279898586799 0.114391976641168 0 0.33057577009169831 0.088312617674786376 0 0.32998225996821168 0.1034848386899188 0 0.33808815344989679 0.097227701146094289 0 0.33395279898586799 0.114391976641168 0 0.32998225996821168 0.1034848386899188 0 0.34379959330895821 0.1059618149017339 0 0.32998225996821168 0.1034848386899188 0 0.33808815344989679 0.097227701146094289 0 0.34379959330895821 0.1059618149017339 0 0.33808815344989679 0.097227701146094289 0 0.34379959330895821 0.1059618149017339 0 0.34799499043071902 0.091151533317938044 0 0.34379959330895821 0.1059618149017339 0 0.3625363498525957 0.1119205500179018 0 0.34799499043071902 0.091151533317938044 0 0.3625363498525957 0.1119205500179018 0 0.34799499043071902 0.091151533317938044 0 0.3625363498525957 0.1119205500179018 0 0.3634309530789781 0.093123545039775407 0 0.34799499043071902 0.091151533317938044 0 0.34379959330895821 0.1059618149017339 0 0.35135995381518398 0.1214376127802199 0 0.3625363498525957 0.1119205500179018 0 0.34379959330895821 0.1059618149017339 0 0.35135995381518398 0.1214376127802199 0 0.33769772984025331 0.12698279333700241 0 0.35135995381518398 0.1214376127802199 0 0.3625363498525957 0.1119205500179018 0 0.36107322965026839 0.1284199999412981 0 0.3625363498525957 0.1119205500179018 0 0.37707770927447232 0.13268956671786539 0 0.37927997746357439 0.1181059117798556 0 0.3625363498525957 0.1119205500179018 0 0.36107322965026839 0.1284199999412981 0 0.37707770927447232 0.13268956671786539 0 0.3625363498525957 0.1119205500179018 0 0.37707770927447232 0.13268956671786539 0 0.3625363498525957 0.1119205500179018 0 0.37720102335385691 0.1008606629229624 0 0.37927997746357439 0.1181059117798556 0 0.3625363498525957 0.1119205500179018 0 0.3634309530789781 0.093123545039775407 0 0.37720102335385691 0.1008606629229624 0 0.3634309530789781 0.093123545039775407 0 0.37352333925313441 0.084808695937536677 0 0.35589906250458481 0.076876283002538071 0 0.3634309530789781 0.093123545039775407 0 0.37352333925313441 0.084808695937536677 0 0.37720102335385691 0.1008606629229624 0 0.3634309530789781 0.093123545039775407 0 0.34799499043071902 0.091151533317938044 0 0.35589906250458481 0.076876283002538071 0 0.33345363100884229 0.070382516617974275 0 0.34799499043071902 0.091151533317938044 0 0.35589906250458481 0.076876283002538071 0 0.33345363100884229 0.070382516617974275 0 0.35589906250458481 0.076876283002538071 0 0.35061785799194761 0.059098300493775499 0 0.35589906250458481 0.076876283002538071 0 0.369252472323576 0.06441649915226122 0 0.35061785799194761 0.059098300493775499 0 0.37352333925313441 0.084808695937536677 0 0.35589906250458481 0.076876283002538071 0 0.369252472323576 0.06441649915226122 0 0.369252472323576 0.06441649915226122 0 0.36751254831351871 0.045404451319171243 0 0.35061785799194761 0.059098300493775499 0 0.369252472323576 0.06441649915226122 0 0.36751254831351871 0.045404451319171243 0 0.38185024714220528 0.052317118800220108 0 0.36751254831351871 0.045404451319171243 0 0.36006336784841242 0.031768110016637083 0 0.37555506338628047 0.03084687100178304 0 0.36751254831351871 0.045404451319171243 0 0.36006336784841242 0.031768110016637083 0 0.34793737091459059 0.038640378500242503 0 0.36751254831351871 0.045404451319171243 0 0.34793737091459059 0.038640378500242503 0 0.35061785799194761 0.059098300493775499 0 0.3628075224683236 0.0082751606437266225 0 0.36993317961572553 -0.00190717922909682 0 0.35691828743249421 -0.0059549077285840444 0 0.37324261091497329 0.0076260319725827037 0 0.3628075224683236 0.0082751606437266225 0 0.36993317961572553 -0.00190717922909682 0 0.37324261091497329 0.0076260319725827037 0 0.37985900614731261 -0.00097292557244121891 0 0.36993317961572553 -0.00190717922909682 0 0.37324261091497329 0.0076260319725827037 0 0.3710450539431383 0.01482577376712544 0 0.3628075224683236 0.0082751606437266225 0 0.37324261091497329 0.0076260319725827037 0 0.3710450539431383 0.01482577376712544 0 0.37746498296943659 0.018314405974903861 0 0.3710450539431383 0.01482577376712544 0 0.3628075224683236 0.0082751606437266225 0 0.36734669605997111 0.023529691211061219 0 0.3628075224683236 0.0082751606437266225 0 0.36734669605997111 0.023529691211061219 0 0.35226313636507789 0.018026216489595771 0 0.3710450539431383 0.01482577376712544 0 0.36734669605997111 0.023529691211061219 0 0.37746498296943659 0.018314405974903861 0 0.36006336784841242 0.031768110016637083 0 0.36734669605997111 0.023529691211061219 0 0.37555506338628047 0.03084687100178304 0 0.36734669605997111 0.023529691211061219 0 0.37746498296943659 0.018314405974903861 0 0.37555506338628047 0.03084687100178304 0 0.36006336784841242 0.031768110016637083 0 0.36734669605997111 0.023529691211061219 0 0.35226313636507789 0.018026216489595771 0 0.34793737091459059 0.038640378500242503 0 0.35226313636507789 0.018026216489595771 0 0.33243211578704612 0.027650778160619359 0 0.36006336784841242 0.031768110016637083 0 0.34793737091459059 0.038640378500242503 0 0.35226313636507789 0.018026216489595771 0 0.3628075224683236 0.0082751606437266225 0 0.35226313636507789 0.018026216489595771 0 0.34742912803282622 -0.00054991540311621 0 0.3628075224683236 0.0082751606437266225 0 0.35691828743249421 -0.0059549077285840444 0 0.34742912803282622 -0.00054991540311621 0 0.35226313636507789 0.018026216489595771 0 0.32645434853523192 0.0045026471266838841 0 0.34742912803282622 -0.00054991540311621 0 0.35226313636507789 0.018026216489595771 0 0.33243211578704612 0.027650778160619359 0 0.32645434853523192 0.0045026471266838841 0 0.33243211578704612 0.027650778160619359 0 0.32645434853523192 0.0045026471266838841 0 0.30942217638593478 0.028280324818447 0 0.32645434853523192 0.0045026471266838841 0 0.30942217638593478 0.028280324818447 0 0.32645434853523192 0.0045026471266838841 0 0.30205268838721883 0.0072181113708649986 0 0.30942217638593478 0.028280324818447 0 0.34793737091459059 0.038640378500242503 0 0.35061785799194761 0.059098300493775499 0 0.32608354673439488 0.048804323868127643 0 0.33345363100884229 0.070382516617974275 0 0.35061785799194761 0.059098300493775499 0 0.32608354673439488 0.048804323868127643 0 0.34793737091459059 0.038640378500242503 0 0.33243211578704612 0.027650778160619359 0 0.32608354673439488 0.048804323868127643 0 0.32608354673439488 0.048804323868127643 0 0.30965956580922649 0.048478438347992273 0 0.30942217638593478 0.028280324818447 0 0.33243211578704612 0.027650778160619359 0 0.32608354673439488 0.048804323868127643 0 0.30942217638593478 0.028280324818447 0 0.33345363100884229 0.070382516617974275 0 0.32608354673439488 0.048804323868127643 0 0.31074253587993877 0.064771102195184199 0 0.32608354673439488 0.048804323868127643 0 0.30965956580922649 0.048478438347992273 0 0.31074253587993877 0.064771102195184199 0 0.30965956580922649 0.048478438347992273 0 0.29239000423663758 0.052058002510210213 0 0.31074253587993877 0.064771102195184199 0 0.30965956580922649 0.048478438347992273 0 0.29239000423663758 0.052058002510210213 0 0.30942217638593478 0.028280324818447 0 0.29239000423663758 0.052058002510210213 0 0.30942217638593478 0.028280324818447 0 0.28827221553637061 0.037240747489466541 0 0.29239000423663758 0.052058002510210213 0 0.30942217638593478 0.028280324818447 0 0.28827221553637061 0.037240747489466541 0 0.28771242820969573 0.021302780664625671 0 0.2729037293297647 0.036677842659886793 0 0.28827221553637061 0.037240747489466541 0 0.28248469294472128 0.046915624866208941 0 0.29239000423663758 0.052058002510210213 0 0.28248469294472128 0.046915624866208941 0 0.29239000423663758 0.052058002510210213 0 0.2763728226761123 0.061685906805272223 0 0.30205268838721883 0.0072181113708649986 0 0.30942217638593478 0.028280324818447 0 0.28771242820969573 0.021302780664625671 0 0.28827221553637061 0.037240747489466541 0 0.30942217638593478 0.028280324818447 0 0.28771242820969573 0.021302780664625671 0 0.30205268838721883 0.0072181113708649986 0 0.28771242820969573 0.021302780664625671 0 0.28517836190386781 0.0058141559630328233 0 0.30205268838721883 0.0072181113708649986 0 0.28517836190386781 0.0058141559630328233 0 0.29344583822293752 -0.0060846365994091404 0 0.28771242820969573 0.021302780664625671 0 0.28517836190386781 0.0058141559630328233 0 0.2694346359834166 0.01166977851450139 0 0.2694346359834166 0.01166977851450139 0 0.26634466841625482 -0.01060523671623954 0 0.2694346359834166 0.01166977851450139 0 0.27799456240438453 -0.0094307253588812312 0 0.28517836190386781 0.0058141559630328233 0 0.2694346359834166 0.01166977851450139 0 0.27799456240438453 -0.0094307253588812312 0 0.2694346359834166 0.01166977851450139 0 0.2729037293297647 0.036677842659886793 0 0.2694346359834166 0.01166977851450139 0 0.2729037293297647 0.036677842659886793 0 0.25970130842761241 0.03566275528694679 0 0.28771242820969573 0.021302780664625671 0 0.2694346359834166 0.01166977851450139 0 0.2729037293297647 0.036677842659886793 0 0.2694346359834166 0.01166977851450139 0 0.25338117688950379 0.024921072582378041 0 0.25970130842761241 0.03566275528694679 0 0.2694346359834166 0.01166977851450139 0 0.25338117688950379 0.024921072582378041 0 0.25390617926384917 0.011057621929408909 0 0.2694346359834166 0.01166977851450139 0 0.25970130842761241 0.03566275528694679 0 0.25338117688950379 0.024921072582378041 0 0.25050088610033311 0.03074660000432845 0 0.25970130842761241 0.03566275528694679 0 0.24363874298098129 0.003121572192933643 0 0.25338117688950379 0.024921072582378041 0 0.25390617926384917 0.011057621929408909 0 0.2694346359834166 0.01166977851450139 0 0.25779769119506141 0.00062595460482481498 0 0.26634466841625482 -0.01060523671623954 0 0.25390617926384917 0.011057621929408909 0 0.25146702323205578 0.0027030344999698021 0 0.25779769119506141 0.00062595460482481498 0 0.2694346359834166 0.01166977851450139 0 0.25390617926384917 0.011057621929408909 0 0.25779769119506141 0.00062595460482481498 0 0.28248469294472128 0.046915624866208941 0 0.2763728226761123 0.061685906805272223 0 0.2729037293297647 0.036677842659886793 0 0.2763728226761123 0.061685906805272223 0 0.2729037293297647 0.036677842659886793 0 0.2763728226761123 0.061685906805272223 0 0.26359999615156621 0.050549338239073718 0 0.26067259441968249 0.059394953428357967 0 0.2763728226761123 0.061685906805272223 0 0.2729037293297647 0.036677842659886793 0 0.26359999615156621 0.050549338239073718 0 0.28827221553637061 0.037240747489466541 0 0.28248469294472128 0.046915624866208941 0 0.2729037293297647 0.036677842659886793 0 0.2729037293297647 0.036677842659886793 0 0.25970130842761241 0.03566275528694679 0 0.26359999615156621 0.050549338239073718 0 0.24996798087181071 0.05965573205939334 0 0.2457248214974613 0.039369409350387928 0 0.25970130842761241 0.03566275528694679 0 0.2457248214974613 0.039369409350387928 0 0.25050088610033311 0.03074660000432845 0 0.25970130842761241 0.03566275528694679 0 0.24996798087181071 0.05965573205939334 0 0.25970130842761241 0.03566275528694679 0 0.26359999615156621 0.050549338239073718 0 0.24996798087181071 0.05965573205939334 0 0.25970130842761241 0.03566275528694679 0 0.24996798087181071 0.05965573205939334 0 0.26359999615156621 0.050549338239073718 0 0.26067259441968249 0.059394953428357967 0 0.24996798087181071 0.05965573205939334 0 0.26067259441968249 0.059394953428357967 0 0.26403991983007791 0.06799439794403965 0 0.24996798087181071 0.05965573205939334 0 0.25769972302162308 0.071112602794658544 0 0.25414682040492842 0.079634544976564553 0 0.24996798087181071 0.05965573205939334 0 0.25769972302162308 0.071112602794658544 0 0.26403991983007791 0.06799439794403965 0 0.24996798087181071 0.05965573205939334 0 0.25414682040492842 0.079634544976564553 0 0.24672608057487391 0.06764712432241346 0 0.24996798087181071 0.05965573205939334 0 0.25414682040492842 0.079634544976564553 0 0.25769972302162308 0.071112602794658544 0 0.26264417097967763 0.077165736198637494 0 0.25414682040492842 0.079634544976564553 0 0.25769972302162308 0.071112602794658544 0 0.26264417097967763 0.077165736198637494 0 0.26403991983007791 0.06799439794403965 0 0.25414682040492842 0.079634544976564553 0 0.25832565993804357 0.099613357893736237 0 0.25414682040492842 0.079634544976564553 0 0.26261862085249749 0.08306232981772789 0 0.25832565993804357 0.099613357893736237 0 0.26261862085249749 0.08306232981772789 0 0.27535783208734071 0.07583568020197326 0 0.25832565993804357 0.099613357893736237 0 0.24879594332394811 0.090284131888186944 0 0.25414682040492842 0.079634544976564553 0 0.25832565993804357 0.099613357893736237 0 0.24879594332394811 0.090284131888186944 0 0.2487079150527933 0.075535356883333626 0 0.25414682040492842 0.079634544976564553 0 0.26264417097967763 0.077165736198637494 0 0.25414682040492842 0.079634544976564553 0 0.26261862085249749 0.08306232981772789 0 0.27535783208734071 0.07583568020197326 0 0.26591218664239652 0.095186082323832577 0 0.25832565993804357 0.099613357893736237 0 0.27535783208734071 0.07583568020197326 0 0.25832565993804357 0.099613357893736237 0 0.27194594609684042 0.090568943207593178 0 0.27535783208734071 0.07583568020197326 0 0.26591218664239652 0.095186082323832577 0 0.26264417097967763 0.077165736198637494 0 0.26261862085249749 0.08306232981772789 0 0.27535783208734071 0.07583568020197326 0 0.27621238114349872 0.088799360742766509 0 0.27535783208734071 0.07583568020197326 0 0.28385012958629402 0.085032482985764823 0 0.27194594609684042 0.090568943207593178 0 0.27621238114349872 0.088799360742766509 0 0.27535783208734071 0.07583568020197326 0 0.27621238114349872 0.088799360742766509 0 0.28385012958629402 0.085032482985764823 0 0.27933296678650588 0.094941323764994145 0 0.27194594609684042 0.090568943207593178 0 0.27621238114349872 0.088799360742766509 0 0.27343634664064947 0.095040421042209888 0 0.27621238114349872 0.088799360742766509 0 0.27933296678650588 0.094941323764994145 0 0.27343634664064947 0.095040421042209888 0 0.2763728226761123 0.061685906805272223 0 0.26067259441968249 0.059394953428357967 0 0.26403991983007791 0.06799439794403965 0 0.2763728226761123 0.061685906805272223 0 0.26403991983007791 0.06799439794403965 0 0.27535783208734071 0.07583568020197326 0 0.26264417097967763 0.077165736198637494 0 0.26403991983007791 0.06799439794403965 0 0.27535783208734071 0.07583568020197326 0 0.29239000423663758 0.052058002510210213 0 0.27535783208734071 0.07583568020197326 0 0.29355935836871161 0.073704789221247569 0 0.29239000423663758 0.052058002510210213 0 0.27535783208734071 0.07583568020197326 0 0.29239000423663758 0.052058002510210213 0 0.2763728226761123 0.061685906805272223 0 0.27535783208734071 0.07583568020197326 0 0.27535783208734071 0.07583568020197326 0 0.29355935836871161 0.073704789221247569 0 0.28385012958629402 0.085032482985764823 0 0.28385012958629402 0.085032482985764823 0 0.28869887959450868 0.093695906868232634 0 0.29389646014017617 0.083771330723180076 0 0.28385012958629402 0.085032482985764823 0 0.28869887959450868 0.093695906868232634 0 0.27933296678650588 0.094941323764994145 0 0.28869887959450868 0.093695906868232634 0 0.29389646014017617 0.083771330723180076 0 0.30055967932730687 0.092476551397592921 0 0.29355935836871161 0.073704789221247569 0 0.28385012958629402 0.085032482985764823 0 0.29389646014017617 0.083771330723180076 0 0.29355935836871161 0.073704789221247569 0 0.29389646014017617 0.083771330723180076 0 0.3057083820702472 0.080763893478998788 0 0.29389646014017617 0.083771330723180076 0 0.30055967932730687 0.092476551397592921 0 0.3057083820702472 0.080763893478998788 0 0.31339919211826239 0.090696325231446454 0 0.30055967932730687 0.092476551397592921 0 0.3057083820702472 0.080763893478998788 0 0.29239000423663758 0.052058002510210213 0 0.29355935836871161 0.073704789221247569 0 0.31074253587993877 0.064771102195184199 0 0.29355935836871161 0.073704789221247569 0 0.3057083820702472 0.080763893478998788 0 0.31074253587993877 0.064771102195184199 0 0.31888721647384111 0.078991263223089553 0 0.3057083820702472 0.080763893478998788 0 0.31074253587993877 0.064771102195184199 0 0.29689440689302682 0.1121515175700851 0 0.30611619295381592 0.1177647686354913 0 0.30523763078840521 0.10379667653750881 0 0.29689440689302682 0.1121515175700851 0 0.30611619295381592 0.1177647686354913 0 0.29206451914295628 0.1209927472661685 0 0.30611619295381592 0.1177647686354913 0 0.29206451914295628 0.1209927472661685 0 0.30062214308453938 0.1313950115257298 0 0.31949043136432709 0.1238876314723948 0 0.30611619295381592 0.1177647686354913 0 0.30962282228002758 0.12832081597087139 0 0.31644481174129457 0.1072919783519206 0 0.30611619295381592 0.1177647686354913 0 0.30523763078840521 0.10379667653750881 0 0.31339919211826239 0.090696325231446454 0 0.31644481174129457 0.1072919783519206 0 0.30523763078840521 0.10379667653750881 0 0.31339919211826239 0.090696325231446454 0 0.30055967932730687 0.092476551397592921 0 0.30523763078840521 0.10379667653750881 0 0.30055967932730687 0.092476551397592921 0 0.30523763078840521 0.10379667653750881 0 0.29586096005202572 0.10210531462913321 0 0.29689440689302682 0.1121515175700851 0 0.30523763078840521 0.10379667653750881 0 0.29586096005202572 0.10210531462913321 0 0.29689440689302682 0.1121515175700851 0 0.29586096005202572 0.10210531462913321 0 0.28465788329035391 0.1038564956604177 0 0.28869887959450868 0.093695906868232634 0 0.30055967932730687 0.092476551397592921 0 0.29586096005202572 0.10210531462913321 0 0.28869887959450868 0.093695906868232634 0 0.29586096005202572 0.10210531462913321 0 0.28465788329035391 0.1038564956604177 0 0.28869887959450868 0.093695906868232634 0 0.28465788329035391 0.1038564956604177 0 0.27933296678650588 0.094941323764994145 0 0.28342755113182522 0.11445290367578489 0 0.29206451914295628 0.1209927472661685 0 0.28034732654976269 0.13077385261658961 0 0.29689440689302682 0.1121515175700851 0 0.28465788329035391 0.1038564956604177 0 0.28342755113182522 0.11445290367578489 0 0.29689440689302682 0.1121515175700851 0 0.28342755113182522 0.11445290367578489 0 0.29206451914295628 0.1209927472661685 0 0.28342755113182522 0.11445290367578489 0 0.27017145681593729 0.1193118836028897 0 0.28034732654976269 0.13077385261658961 0 0.28342755113182522 0.11445290367578489 0 0.27017145681593729 0.1193118836028897 0 0.2738264345795936 0.1086610665178198 0 0.27017145681593729 0.1193118836028897 0 0.2738264345795936 0.1086610665178198 0 0.26319564307934012 0.11173865353703159 0 0.28465788329035391 0.1038564956604177 0 0.27933296678650588 0.094941323764994145 0 0.27452021826030859 0.100820666579214 0 0.27933296678650588 0.094941323764994145 0 0.27452021826030859 0.100820666579214 0 0.27343634664064947 0.095040421042209888 0 0.28465788329035391 0.1038564956604177 0 0.28342755113182522 0.11445290367578489 0 0.2738264345795936 0.1086610665178198 0 0.28465788329035391 0.1038564956604177 0 0.27452021826030859 0.100820666579214 0 0.2738264345795936 0.1086610665178198 0 0.2738264345795936 0.1086610665178198 0 0.26747837944480812 0.10355680433987829 0 0.26319564307934012 0.11173865353703159 0 0.27452021826030859 0.100820666579214 0 0.2738264345795936 0.1086610665178198 0 0.26747837944480812 0.10355680433987829 0 0.27452021826030859 0.100820666579214 0 0.26881098397031661 0.097983171727183654 0 0.27343634664064947 0.095040421042209888 0 0.27452021826030859 0.100820666579214 0 0.26747837944480812 0.10355680433987829 0 0.26881098397031661 0.097983171727183654 0 0.26747837944480812 0.10355680433987829 0 0.26881098397031661 0.097983171727183654 0 0.26585784302494692 0.099611380658430712 0 0.26747837944480812 0.10355680433987829 0 0.26585784302494692 0.099611380658430712 0 0.26381508314553997 0.1012722387166375 0 0.27194594609684042 0.090568943207593178 0 0.26881098397031661 0.097983171727183654 0 0.26591218664239652 0.095186082323832577 0 0.26881098397031661 0.097983171727183654 0 0.26585784302494692 0.099611380658430712 0 0.26591218664239652 0.095186082323832577 0 0.27194594609684042 0.090568943207593178 0 0.26881098397031661 0.097983171727183654 0 0.27343634664064947 0.095040421042209888 0 0.246706878043606 0.1158336995292706 0 0.25832565993804357 0.099613357893736237 0 0.26229930549290231 0.1045677847262968 0 0.246706878043606 0.1158336995292706 0 0.25832565993804357 0.099613357893736237 0 0.246706878043606 0.1158336995292706 0 0.24561788183909869 0.1034330739771103 0 0.25832565993804357 0.099613357893736237 0 0.26591218664239652 0.095186082323832577 0 0.2619453836021497 0.098879947962362991 0 0.26385679802940382 0.099089259111004468 0 0.26591218664239652 0.095186082323832577 0 0.2619453836021497 0.098879947962362991 0 0.25832565993804357 0.099613357893736237 0 0.26585784302494692 0.099611380658430712 0 0.26591218664239652 0.095186082323832577 0 0.26385679802940382 0.099089259111004468 0 0.26585784302494692 0.099611380658430712 0 0.26385679802940382 0.099089259111004468 0 0.26381508314553997 0.1012722387166375 0 0.26385679802940382 0.099089259111004468 0 0.26381508314553997 0.1012722387166375 0 0.2611503403857468 0.10093387001393821 0 0.2619453836021497 0.098879947962362991 0 0.26385679802940382 0.099089259111004468 0 0.2611503403857468 0.10093387001393821 0 0.2619453836021497 0.098879947962362991 0 0.2611503403857468 0.10093387001393821 0 0.25832565993804357 0.099613357893736237 0 0.26747837944480812 0.10355680433987829 0 0.26229930549290231 0.1045677847262968 0 0.26319564307934012 0.11173865353703159 0 0.2611503403857468 0.10093387001393821 0 0.25832565993804357 0.099613357893736237 0 0.26229930549290231 0.1045677847262968 0 0.26747837944480812 0.10355680433987829 0 0.26381508314553997 0.1012722387166375 0 0.26229930549290231 0.1045677847262968 0 0.26381508314553997 0.1012722387166375 0 0.2611503403857468 0.10093387001393821 0 0.26229930549290231 0.1045677847262968 0 0.24561788183909869 0.1034330739771103 0 0.24879594332394811 0.090284131888186944 0 0.25832565993804357 0.099613357893736237 0 0.246706878043606 0.1158336995292706 0 0.26229930549290231 0.1045677847262968 0 0.26319564307934012 0.11173865353703159 0 0.246706878043606 0.1158336995292706 0 0.25826466875838272 0.1206753285455365 0 0.25661904696673532 0.13318305705874151 0 0.246706878043606 0.1158336995292706 0 0.25826466875838272 0.1206753285455365 0 0.26319564307934012 0.11173865353703159 0 0.27017145681593729 0.1193118836028897 0 0.25826466875838272 0.1206753285455365 0 0.26319564307934012 0.11173865353703159 0 0.27017145681593729 0.1193118836028897 0 0.25826466875838272 0.1206753285455365 0 0.25661904696673532 0.13318305705874151 0 0.27017145681593729 0.1193118836028897 0 0.25661904696673532 0.13318305705874151 0 0.28034732654976269 0.13077385261658961 0 0.25661904696673532 0.13318305705874151 0 0.28034732654976269 0.13077385261658961 0 0.27252472201757122 0.14657406040516549 0 0.28034732654976269 0.13077385261658961 0 0.27252472201757122 0.14657406040516549 0 0.28984005693327652 0.14180318548151771 0 0.2451965164384606 0.15048095877338469 0 0.27252472201757122 0.14657406040516549 0 0.25707630573397799 0.1679926148046402 0 0.2451965164384606 0.15048095877338469 0 0.25661904696673532 0.13318305705874151 0 0.27252472201757122 0.14657406040516549 0 0.27252472201757122 0.14657406040516549 0 0.25707630573397799 0.1679926148046402 0 0.24162788945038491 0.18941116920411491 0 0.25707630573397799 0.1679926148046402 0 0.25700689480562999 0.18577922585928969 0 0.25707630573397799 0.1679926148046402 0 0.25700689480562999 0.18577922585928969 0 0.26540033649021172 0.1799207071541146 0 0.25700689480562999 0.18577922585928969 0 0.26540033649021172 0.1799207071541146 0 0.26895423747163988 0.1916896812565029 0 0.26540033649021172 0.1799207071541146 0 0.27785927241325681 0.17407451096271509 0 0.26895423747163988 0.1916896812565029 0 0.25707630573397799 0.1679926148046402 0 0.26540033649021172 0.1799207071541146 0 0.27785927241325681 0.17407451096271509 0 0.27785927241325681 0.17407451096271509 0 0.26895423747163988 0.1916896812565029 0 0.29027376250878001 0.18997043772852659 0 0.27252472201757122 0.14657406040516549 0 0.25707630573397799 0.1679926148046402 0 0.27785927241325681 0.17407451096271509 0 0.27252472201757122 0.14657406040516549 0 0.27785927241325681 0.17407451096271509 0 0.28669582754872608 0.15771640080384719 0 0.28669582754872608 0.15771640080384719 0 0.29765418728965448 0.17327725537793559 0 0.29527736266008209 0.15228085842597811 0 0.27785927241325681 0.17407451096271509 0 0.28669582754872608 0.15771640080384719 0 0.29765418728965448 0.17327725537793559 0 0.29765418728965448 0.17327725537793559 0 0.29027376250878001 0.18997043772852659 0 0.27785927241325681 0.17407451096271509 0 0.29765418728965448 0.17327725537793559 0 0.29027376250878001 0.18997043772852659 0 0.29765418728965448 0.17327725537793559 0 0.30732109030019872 0.18551863145532899 0 0.31446633779692001 0.16957593309153399 0 0.29765418728965448 0.17327725537793559 0 0.30732109030019872 0.18551863145532899 0 0.29027376250878001 0.18997043772852659 0 0.29765418728965448 0.17327725537793559 0 0.30503461207053001 0.15658407302734509 0 0.31446633779692001 0.16957593309153399 0 0.29765418728965448 0.17327725537793559 0 0.30503461207053001 0.15658407302734509 0 0.29527736266008209 0.15228085842597811 0 0.29765418728965448 0.17327725537793559 0 0.30503461207053001 0.15658407302734509 0 0.30503461207053001 0.15658407302734509 0 0.30231154701415802 0.14537083923106381 0 0.3122625217174283 0.14023585224986981 0 0.30503461207053001 0.15658407302734509 0 0.3122625217174283 0.14023585224986981 0 0.30503461207053001 0.15658407302734509 0 0.3122625217174283 0.14023585224986981 0 0.31601141690607631 0.15078902689532719 0 0.30503461207053001 0.15658407302734509 0 0.3017146853114675 0.1526594762699745 0 0.29527736266008209 0.15228085842597811 0 0.30503461207053001 0.15658407302734509 0 0.3017146853114675 0.1526594762699745 0 0.30231154701415802 0.14537083923106381 0 0.3017146853114675 0.1526594762699745 0 0.30231154701415802 0.14537083923106381 0 0.29527736266008209 0.15228085842597811 0 0.3122625217174283 0.14023585224986981 0 0.30962282228002758 0.12832081597087139 0 0.30062214308453938 0.1313950115257298 0 0.30231154701415802 0.14537083923106381 0 0.3122625217174283 0.14023585224986981 0 0.30062214308453938 0.1313950115257298 0 0.30611619295381592 0.1177647686354913 0 0.30962282228002758 0.12832081597087139 0 0.30062214308453938 0.1313950115257298 0 0.30231154701415802 0.14537083923106381 0 0.30062214308453938 0.1313950115257298 0 0.28984005693327652 0.14180318548151771 0 0.30062214308453938 0.1313950115257298 0 0.29071851142763372 0.13124119922250141 0 0.28984005693327652 0.14180318548151771 0 0.29206451914295628 0.1209927472661685 0 0.30062214308453938 0.1313950115257298 0 0.29071851142763372 0.13124119922250141 0 0.29206451914295628 0.1209927472661685 0 0.28034732654976269 0.13077385261658961 0 0.29071851142763372 0.13124119922250141 0 0.28034732654976269 0.13077385261658961 0 0.29071851142763372 0.13124119922250141 0 0.28984005693327652 0.14180318548151771 0 0.28669582754872608 0.15771640080384719 0 0.29527736266008209 0.15228085842597811 0 0.28984005693327652 0.14180318548151771 0 0.27252472201757122 0.14657406040516549 0 0.28669582754872608 0.15771640080384719 0 0.28984005693327652 0.14180318548151771 0 0.30231154701415802 0.14537083923106381 0 0.29527736266008209 0.15228085842597811 0 0.28984005693327652 0.14180318548151771 0 0.26725329585623159 0.24364913921546161 0 0.273192581166811 0.22922559956037861 0 0.28273741898457933 0.24398080497999239 0 0.25420607492473801 0.25348040794111598 0 0.25860593547745142 0.22754034991165439 0 0.2463747692332863 0.23880891629358819 0 0.25420607492473801 0.25348040794111598 0 0.25860593547745142 0.22754034991165439 0 0.25420607492473801 0.25348040794111598 0 0.26725329585623159 0.24364913921546161 0 0.25860593547745142 0.22754034991165439 0 0.25860593547745142 0.22754034991165439 0 0.273192581166811 0.22922559956037861 0 0.25444422105787551 0.2155737382973239 0 0.2496011013201074 0.22522745507942621 0 0.2463747692332863 0.23880891629358819 0 0.25860593547745142 0.22754034991165439 0 0.2496011013201074 0.22522745507942621 0 0.25860593547745142 0.22754034991165439 0 0.25444422105787551 0.2155737382973239 0 0.26725329585623159 0.24364913921546161 0 0.25860593547745142 0.22754034991165439 0 0.273192581166811 0.22922559956037861 0 0.273192581166811 0.22922559956037861 0 0.25444422105787551 0.2155737382973239 0 0.28255797498200319 0.21791632471484609 0 0.25444422105787551 0.2155737382973239 0 0.28255797498200319 0.21791632471484609 0 0.25444422105787551 0.2155737382973239 0 0.26443052468397432 0.2060112380205949 0 0.28255797498200319 0.21791632471484609 0 0.26443052468397432 0.2060112380205949 0 0.28065559774123 0.20176983481026689 0 0.28255797498200319 0.21791632471484609 0 0.24964234095296531 0.20776630394203441 0 0.25444422105787551 0.2155737382973239 0 0.26443052468397432 0.2060112380205949 0 0.24964234095296531 0.20776630394203441 0 0.26443052468397432 0.2060112380205949 0 0.25197570488193582 0.19988195687707591 0 0.26443052468397432 0.2060112380205949 0 0.25197570488193582 0.19988195687707591 0 0.26895423747163988 0.1916896812565029 0 0.25700689480562999 0.18577922585928969 0 0.25197570488193582 0.19988195687707591 0 0.26895423747163988 0.1916896812565029 0 0.24162788945038491 0.18941116920411491 0 0.25700689480562999 0.18577922585928969 0 0.25197570488193582 0.19988195687707591 0 0.28065559774123 0.20176983481026689 0 0.26895423747163988 0.1916896812565029 0 0.29027376250878001 0.18997043772852659 0 0.26443052468397432 0.2060112380205949 0 0.28065559774123 0.20176983481026689 0 0.26895423747163988 0.1916896812565029 0 0.28065559774123 0.20176983481026689 0 0.29027376250878001 0.18997043772852659 0 0.2990315943803793 0.20263913254082569 0 0.30732109030019872 0.18551863145532899 0 0.29027376250878001 0.18997043772852659 0 0.2990315943803793 0.20263913254082569 0 0.30732109030019872 0.18551863145532899 0 0.2990315943803793 0.20263913254082569 0 0.31770696577947571 0.1958511681181469 0 0.2990315943803793 0.20263913254082569 0 0.31067172890613087 0.22025891113236831 0 0.31770696577947571 0.1958511681181469 0 0.2990315943803793 0.20263913254082569 0 0.28255797498200319 0.21791632471484609 0 0.31067172890613087 0.22025891113236831 0 0.28065559774123 0.20176983481026689 0 0.2990315943803793 0.20263913254082569 0 0.28255797498200319 0.21791632471484609 0 0.28255797498200319 0.21791632471484609 0 0.31067172890613087 0.22025891113236831 0 0.273192581166811 0.22922559956037861 0 0.28255797498200319 0.21791632471484609 0 0.296384284834393 0.23739851842522741 0 0.28255797498200319 0.21791632471484609 0 0.31067172890613087 0.22025891113236831 0 0.296384284834393 0.23739851842522741 0 0.31067172890613087 0.22025891113236831 0 0.296384284834393 0.23739851842522741 0 0.31881898857777807 0.2382194195022421 0 0.31186214198236611 0.2536938461464382 0 0.296384284834393 0.23739851842522741 0 0.31881898857777807 0.2382194195022421 0 0.29580154972587919 0.25637627715363309 0 0.31186214198236611 0.2536938461464382 0 0.296384284834393 0.23739851842522741 0 0.273192581166811 0.22922559956037861 0 0.296384284834393 0.23739851842522741 0 0.28273741898457933 0.24398080497999239 0 0.29580154972587919 0.25637627715363309 0 0.296384284834393 0.23739851842522741 0 0.28273741898457933 0.24398080497999239 0 0.34294022687783848 0.24363326716062511 0 0.340354113217326 0.23757432571019799 0 0.33591914727959882 0.24670589276126181 0 0.34294022687783848 0.24363326716062511 0 0.33591914727959882 0.24670589276126181 0 0.34651418028497699 0.2496194917996081 0 0.340354113217326 0.23757432571019799 0 0.33209107291147388 0.23730375011668439 0 0.33591914727959882 0.24670589276126181 0 0.33591914727959882 0.24670589276126181 0 0.32821201295712388 0.24342288990414879 0 0.3232782535735737 0.24896647528838239 0 0.33209107291147388 0.23730375011668439 0 0.33591914727959882 0.24670589276126181 0 0.32821201295712388 0.24342288990414879 0 0.32821201295712388 0.24342288990414879 0 0.3232782535735737 0.24896647528838239 0 0.31881898857777807 0.2382194195022421 0 0.31186214198236611 0.2536938461464382 0 0.3232782535735737 0.24896647528838239 0 0.31881898857777807 0.2382194195022421 0 0.33209107291147388 0.23730375011668439 0 0.32821201295712388 0.24342288990414879 0 0.31881898857777807 0.2382194195022421 0 0.31067172890613087 0.22025891113236831 0 0.31881898857777807 0.2382194195022421 0 0.32592550222316602 0.2264312107733889 0 0.33209107291147388 0.23730375011668439 0 0.31881898857777807 0.2382194195022421 0 0.32592550222316602 0.2264312107733889 0 0.33841198691050067 0.22699163368245251 0 0.34828279867844802 0.21088811443394681 0 0.32592550222316602 0.2264312107733889 0 0.33841198691050067 0.22699163368245251 0 0.33457160462095081 0.206065300057131 0 0.33209107291147388 0.23730375011668439 0 0.33841198691050067 0.22699163368245251 0 0.33209107291147388 0.23730375011668439 0 0.32592550222316602 0.2264312107733889 0 0.33841198691050067 0.22699163368245251 0 0.340354113217326 0.23757432571019799 0 0.33209107291147388 0.23730375011668439 0 0.33841198691050067 0.22699163368245251 0 0.340354113217326 0.23757432571019799 0 0.33841198691050067 0.22699163368245251 0 0.340354113217326 0.23757432571019799 0 0.33841198691050067 0.22699163368245251 0 0.34650174836615549 0.2286618435171523 0 0.33841198691050067 0.22699163368245251 0 0.33457160462095081 0.206065300057131 0 0.34828279867844802 0.21088811443394681 0 0.33841198691050067 0.22699163368245251 0 0.33457160462095081 0.206065300057131 0 0.33457160462095081 0.206065300057131 0 0.34313520781925011 0.19367815655350731 0 0.34828279867844802 0.21088811443394681 0 0.31067172890613087 0.22025891113236831 0 0.33457160462095081 0.206065300057131 0 0.31770696577947571 0.1958511681181469 0 0.31067172890613087 0.22025891113236831 0 0.32592550222316602 0.2264312107733889 0 0.33457160462095081 0.206065300057131 0 0.31770696577947571 0.1958511681181469 0 0.32229890291066182 0.18003190046231771 0 0.33457160462095081 0.206065300057131 0 0.31770696577947571 0.1958511681181469 0 0.33073122233140012 0.1851389664318098 0 0.33457160462095081 0.206065300057131 0 0.33073122233140012 0.1851389664318098 0 0.33457160462095081 0.206065300057131 0 0.34313520781925011 0.19367815655350731 0 0.33073122233140012 0.1851389664318098 0 0.35815361044639621 0.19478459518544169 0 0.34828279867844802 0.21088811443394681 0 0.34313520781925011 0.19367815655350731 0 0.35815361044639621 0.19478459518544169 0 0.34828279867844802 0.21088811443394681 0 0.34313520781925011 0.19367815655350731 0 0.35815361044639621 0.19478459518544169 0 0.34964223719091442 0.17979201719590279 0 0.35815361044639621 0.19478459518544169 0 0.37979534499101619 0.20515801997698191 0 0.37695993960155427 0.19158622763437411 0 0.35815361044639621 0.19478459518544169 0 0.36893739029047712 0.2137799623819438 0 0.35815361044639621 0.19478459518544169 0 0.36893739029047712 0.2137799623819438 0 0.37979534499101619 0.20515801997698191 0 0.36893739029047712 0.2137799623819438 0 0.34828279867844802 0.21088811443394681 0 0.35643806224108188 0.22854204004964179 0 0.35815361044639621 0.19478459518544169 0 0.36893739029047712 0.2137799623819438 0 0.34828279867844802 0.21088811443394681 0 0.33841198691050067 0.22699163368245251 0 0.34828279867844802 0.21088811443394681 0 0.34650174836615549 0.2286618435171523 0 0.34828279867844802 0.21088811443394681 0 0.34650174836615549 0.2286618435171523 0 0.35643806224108188 0.22854204004964179 0 0.34650174836615549 0.2286618435171523 0 0.35643806224108188 0.22854204004964179 0 0.34902178078342161 0.2393131037095228 0 0.36893739029047712 0.2137799623819438 0 0.36706460079562669 0.23303095168334939 0 0.37972117013455708 0.2327753295784464 0 0.36893739029047712 0.2137799623819438 0 0.37972117013455708 0.2327753295784464 0 0.36893739029047712 0.2137799623819438 0 0.35643806224108188 0.22854204004964179 0 0.36706460079562669 0.23303095168334939 0 0.35643806224108188 0.22854204004964179 0 0.36706460079562669 0.23303095168334939 0 0.35833727526436232 0.24397569279688841 0 0.36706460079562669 0.23303095168334939 0 0.37188910604765518 0.2460817336098266 0 0.35833727526436232 0.24397569279688841 0 0.36706460079562669 0.23303095168334939 0 0.37188910604765518 0.2460817336098266 0 0.37972117013455708 0.2327753295784464 0 0.36171243261165309 0.25526644400664028 0 0.37188910604765518 0.2460817336098266 0 0.35833727526436232 0.24397569279688841 0 0.35263082966029108 0.25622847204125782 0 0.35833727526436232 0.24397569279688841 0 0.34651418028497699 0.2496194917996081 0 0.35643806224108188 0.22854204004964179 0 0.35833727526436232 0.24397569279688841 0 0.34902178078342161 0.2393131037095228 0 0.34294022687783848 0.24363326716062511 0 0.340354113217326 0.23757432571019799 0 0.34902178078342161 0.2393131037095228 0 0.340354113217326 0.23757432571019799 0 0.34650174836615549 0.2286618435171523 0 0.34902178078342161 0.2393131037095228 0 0.34294022687783848 0.24363326716062511 0 0.34902178078342161 0.2393131037095228 0 0.34651418028497699 0.2496194917996081 0 0.35833727526436232 0.24397569279688841 0 0.34902178078342161 0.2393131037095228 0 0.34651418028497699 0.2496194917996081 0 0.3315958663715507 0.1480037717722715 0 0.34113086393543163 0.16479943920636439 0 0.34567620271298111 0.15052091907582679 0 0.3315958663715507 0.1480037717722715 0 0.32593916297079822 0.13803962564052141 0 0.3315958663715507 0.1480037717722715 0 0.32638251783912892 0.1614427731411586 0 0.3315958663715507 0.1480037717722715 0 0.34351760644346779 0.1404533247104931 0 0.34567620271298111 0.15052091907582679 0 0.3315958663715507 0.1480037717722715 0 0.34351760644346779 0.1404533247104931 0 0.33769772984025331 0.12698279333700241 0 0.34351760644346779 0.1404533247104931 0 0.33769772984025331 0.12698279333700241 0 0.34984630762437963 0.1322683190407741 0 0.3315958663715507 0.1480037717722715 0 0.33769772984025331 0.12698279333700241 0 0.32593916297079822 0.13803962564052141 0 0.3315958663715507 0.1480037717722715 0 0.33769772984025331 0.12698279333700241 0 0.33769772984025331 0.12698279333700241 0 0.32822026520731951 0.12735179978279559 0 0.32593916297079822 0.13803962564052141 0 0.32929578386822977 0.1209196584641849 0 0.33769772984025331 0.12698279333700241 0 0.32822026520731951 0.12735179978279559 0 0.31949043136432709 0.1238876314723948 0 0.3122625217174283 0.14023585224986981 0 0.30962282228002758 0.12832081597087139 0 0.31949043136432709 0.1238876314723948 0 0.3122625217174283 0.14023585224986981 0 0.31949043136432709 0.1238876314723948 0 0.3122625217174283 0.14023585224986981 0 0.32293647460172809 0.1426652023067766 0 0.31949043136432709 0.1238876314723948 0 0.32293647460172809 0.1426652023067766 0 0.31949043136432709 0.1238876314723948 0 0.32593916297079822 0.13803962564052141 0 0.32293647460172809 0.1426652023067766 0 0.31949043136432709 0.1238876314723948 0 0.32822026520731951 0.12735179978279559 0 0.32593916297079822 0.13803962564052141 0 0.3315958663715507 0.1480037717722715 0 0.32293647460172809 0.1426652023067766 0 0.32638251783912892 0.1614427731411586 0 0.3122625217174283 0.14023585224986981 0 0.32293647460172809 0.1426652023067766 0 0.31601141690607631 0.15078902689532719 0 0.32293647460172809 0.1426652023067766 0 0.32638251783912892 0.1614427731411586 0 0.32293647460172809 0.1426652023067766 0 0.31601141690607631 0.15078902689532719 0 0.32638251783912892 0.1614427731411586 0 0.3315958663715507 0.1480037717722715 0 0.32593916297079822 0.13803962564052141 0 0.32293647460172809 0.1426652023067766 0 0.31446633779692001 0.16957593309153399 0 0.3268908400418486 0.1642126328064886 0 0.32229890291066182 0.18003190046231771 0 0.30503461207053001 0.15658407302734509 0 0.31601141690607631 0.15078902689532719 0 0.32638251783912892 0.1614427731411586 0 0.30503461207053001 0.15658407302734509 0 0.31446633779692001 0.16957593309153399 0 0.32638251783912892 0.1614427731411586 0 0.30503461207053001 0.15658407302734509 0 0.32638251783912892 0.1614427731411586 0 0.31446633779692001 0.16957593309153399 0 0.3268908400418486 0.1642126328064886 0 0.32638251783912892 0.1614427731411586 0 0.3268908400418486 0.1642126328064886 0 0.32638251783912892 0.1614427731411586 0 0.3268908400418486 0.1642126328064886 0 0.32229890291066182 0.18003190046231771 0 0.30732109030019872 0.18551863145532899 0 0.31770696577947571 0.1958511681181469 0 0.32229890291066182 0.18003190046231771 0 0.3268908400418486 0.1642126328064886 0 0.32229890291066182 0.18003190046231771 0 0.33073122233140012 0.1851389664318098 0 0.31770696577947571 0.1958511681181469 0 0.32229890291066182 0.18003190046231771 0 0.33073122233140012 0.1851389664318098 0 0.30732109030019872 0.18551863145532899 0 0.31446633779692001 0.16957593309153399 0 0.32229890291066182 0.18003190046231771 0 0.33073122233140012 0.1851389664318098 0 0.34113086393543163 0.16479943920636439 0 0.34964223719091442 0.17979201719590279 0 0.34313520781925011 0.19367815655350731 0 0.33073122233140012 0.1851389664318098 0 0.34964223719091442 0.17979201719590279 0 0.3268908400418486 0.1642126328064886 0 0.33073122233140012 0.1851389664318098 0 0.3268908400418486 0.1642126328064886 0 0.33073122233140012 0.1851389664318098 0 0.34113086393543163 0.16479943920636439 0 0.3315958663715507 0.1480037717722715 0 0.32638251783912892 0.1614427731411586 0 0.34113086393543163 0.16479943920636439 0 0.3315958663715507 0.1480037717722715 0 0.34113086393543163 0.16479943920636439 0 0.32638251783912892 0.1614427731411586 0 0.34113086393543163 0.16479943920636439 0 0.3268908400418486 0.1642126328064886 0 0.32638251783912892 0.1614427731411586 0 0.34113086393543163 0.16479943920636439 0 0.34113086393543163 0.16479943920636439 0 0.35666496606704662 0.16833494028141099 0 0.35655365844172981 0.15530019525514871 0 0.34113086393543163 0.16479943920636439 0 0.35655365844172981 0.15530019525514871 0 0.34567620271298111 0.15052091907582679 0 0.34113086393543163 0.16479943920636439 0 0.35666496606704662 0.16833494028141099 0 0.34113086393543163 0.16479943920636439 0 0.35666496606704662 0.16833494028141099 0 0.34964223719091442 0.17979201719590279 0 0.35666496606704662 0.16833494028141099 0 0.36472306996262033 0.15908578624797451 0 0.35655365844172981 0.15530019525514871 0 0.34113086393543163 0.16479943920636439 0 0.34964223719091442 0.17979201719590279 0 0.35815361044639621 0.19478459518544169 0 0.34964223719091442 0.17979201719590279 0 0.35666496606704662 0.16833494028141099 0 0.34964223719091442 0.17979201719590279 0 0.37219906819866139 0.17187044135645879 0 0.35815361044639621 0.19478459518544169 0 0.37219906819866139 0.17187044135645879 0 0.35815361044639621 0.19478459518544169 0 0.34964223719091442 0.17979201719590279 0 0.37219906819866139 0.17187044135645879 0 0.35815361044639621 0.19478459518544169 0 0.37219906819866139 0.17187044135645879 0 0.37695993960155427 0.19158622763437411 0 0.36472306996262033 0.15908578624797451 0 0.37219906819866139 0.17187044135645879 0 0.37290379576773491 0.1521864871156868 0 0.35666496606704662 0.16833494028141099 0 0.36472306996262033 0.15908578624797451 0 0.37219906819866139 0.17187044135645879 0 0.35666496606704662 0.16833494028141099 0 0.37219906819866139 0.17187044135645879 0 0.37290379576773491 0.1521864871156868 0 0.36852206967284928 0.14194541699379659 0 0.36338121931097261 0.15001939478950521 0 0.37290379576773491 0.1521864871156868 0 0.36852206967284928 0.14194541699379659 0 0.37872104731869788 0.1418522796968967 0 0.36852206967284928 0.14194541699379659 0 0.36338121931097261 0.15001939478950521 0 0.35558301837272399 0.14404786443485709 0 0.36472306996262033 0.15908578624797451 0 0.37290379576773491 0.1521864871156868 0 0.36338121931097261 0.15001939478950521 0 0.36472306996262033 0.15908578624797451 0 0.36338121931097261 0.15001939478950521 0 0.35655365844172981 0.15530019525514871 0 0.36338121931097261 0.15001939478950521 0 0.35655365844172981 0.15530019525514871 0 0.35558301837272399 0.14404786443485709 0 0.35655365844172981 0.15530019525514871 0 0.35558301837272399 0.14404786443485709 0 0.34567620271298111 0.15052091907582679 0 0.34351760644346779 0.1404533247104931 0 0.35558301837272399 0.14404786443485709 0 0.34567620271298111 0.15052091907582679 0 0.35558301837272399 0.14404786443485709 0 0.34984630762437963 0.1322683190407741 0 0.36107322965026839 0.1284199999412981 0 0.35135995381518398 0.1214376127802199 0 0.33769772984025331 0.12698279333700241 0 0.34984630762437963 0.1322683190407741 0 0.34351760644346779 0.1404533247104931 0 0.35558301837272399 0.14404786443485709 0 0.34984630762437963 0.1322683190407741 0 0.35135995381518398 0.1214376127802199 0 0.34984630762437963 0.1322683190407741 0 0.36107322965026839 0.1284199999412981 0 0.36852206967284928 0.14194541699379659 0 0.36107322965026839 0.1284199999412981 0 0.37707770927447232 0.13268956671786539 0 0.36852206967284928 0.14194541699379659 0 0.35558301837272399 0.14404786443485709 0 0.36107322965026839 0.1284199999412981 0 0.36852206967284928 0.14194541699379659 0 0.37707770927447232 0.13268956671786539 0 0.37872104731869788 0.1418522796968967 0 0.37707770927447232 0.13268956671786539 0 0.38817896370612281 0.13139254068596021 0 0.37927997746357439 0.1181059117798556 0 0.37707770927447232 0.13268956671786539 0 0.38817896370612281 0.13139254068596021 0 0.37872104731869788 0.1418522796968967 0 0.38817896370612281 0.13139254068596021 0 0.39669756700471259 0.13454881291836479 0 0.40228408567852159 0.1270005553712821 0 0.38817896370612281 0.13139254068596021 0 0.39669756700471259 0.13454881291836479 0 0.39341519864631602 0.14186580789281111 0 0.39669756700471259 0.13454881291836479 0 0.40222779632130118 0.14115972463547849 0 0.39341519864631602 0.14186580789281111 0 0.39669756700471259 0.13454881291836479 0 0.40228408567852159 0.1270005553712821 0 0.40222779632130118 0.14115972463547849 0 0.39522621748863851 0.15252150548033819 0 0.40270411629291702 0.1629992409792895 0 0.41000089790148708 0.15152135255462079 0 0.40222779632130118 0.14115972463547849 0 0.39522621748863851 0.15252150548033819 0 0.41000089790148708 0.15152135255462079 0 0.40222779632130118 0.14115972463547849 0 0.39341519864631602 0.14186580789281111 0 0.39522621748863851 0.15252150548033819 0 0.39341519864631602 0.14186580789281111 0 0.39522621748863851 0.15252150548033819 0 0.38432029831395681 0.15209552647954341 0 0.38817896370612281 0.13139254068596021 0 0.38432029831395681 0.15209552647954341 0 0.37872104731869788 0.1418522796968967 0 0.38817896370612281 0.13139254068596021 0 0.39341519864631602 0.14186580789281111 0 0.38432029831395681 0.15209552647954341 0 0.38817896370612281 0.13139254068596021 0 0.38432029831395681 0.15209552647954341 0 0.39522621748863851 0.15252150548033819 0 0.38432029831395681 0.15209552647954341 0 0.39130523273465673 0.16394741493061829 0 0.37290379576773491 0.1521864871156868 0 0.38432029831395681 0.15209552647954341 0 0.37872104731869788 0.1418522796968967 0 0.37219906819866139 0.17187044135645879 0 0.38432029831395681 0.15209552647954341 0 0.37219906819866139 0.17187044135645879 0 0.38432029831395681 0.15209552647954341 0 0.38029133605231141 0.1737122099668178 0 0.38432029831395681 0.15209552647954341 0 0.38029133605231141 0.1737122099668178 0 0.38432029831395681 0.15209552647954341 0 0.38029133605231141 0.1737122099668178 0 0.39130523273465673 0.16394741493061829 0 0.37219906819866139 0.17187044135645879 0 0.37290379576773491 0.1521864871156868 0 0.38432029831395681 0.15209552647954341 0 0.38029133605231141 0.1737122099668178 0 0.37695993960155427 0.19158622763437411 0 0.38029133605231141 0.1737122099668178 0 0.37695993960155427 0.19158622763437411 0 0.38909160271910931 0.1883564408899551 0 0.38029133605231141 0.1737122099668178 0 0.4015635160256073 0.1785536751848881 0 0.38909160271910931 0.1883564408899551 0 0.37219906819866139 0.17187044135645879 0 0.38029133605231141 0.1737122099668178 0 0.37695993960155427 0.19158622763437411 0 0.37219906819866139 0.17187044135645879 0 0.38029133605231141 0.1737122099668178 0 0.38029133605231141 0.1737122099668178 0 0.4015635160256073 0.1785536751848881 0 0.39130523273465673 0.16394741493061829 0 0.38029133605231141 0.1737122099668178 0 0.4015635160256073 0.1785536751848881 0 0.4015635160256073 0.1785536751848881 0 0.38909160271910931 0.1883564408899551 0 0.40354903541591008 0.19406812954721889 0 0.39522621748863851 0.15252150548033819 0 0.39130523273465673 0.16394741493061829 0 0.40270411629291702 0.1629992409792895 0 0.4015635160256073 0.1785536751848881 0 0.39130523273465673 0.16394741493061829 0 0.40270411629291702 0.1629992409792895 0 0.40270411629291702 0.1629992409792895 0 0.4177437715338389 0.16821007968575741 0 0.41000089790148708 0.15152135255462079 0 0.4015635160256073 0.1785536751848881 0 0.40270411629291702 0.1629992409792895 0 0.4177437715338389 0.16821007968575741 0 0.4177437715338389 0.16821007968575741 0 0.43029860508858297 0.1809794947546757 0 0.41631657785414061 0.1887812312361096 0 0.4015635160256073 0.1785536751848881 0 0.4177437715338389 0.16821007968575741 0 0.41631657785414061 0.1887812312361096 0 0.4015635160256073 0.1785536751848881 0 0.40354903541591008 0.19406812954721889 0 0.41631657785414061 0.1887812312361096 0 0.4177437715338389 0.16821007968575741 0 0.43029860508858297 0.1809794947546757 0 0.43792434340163988 0.1664875527001618 0 0.4177437715338389 0.16821007968575741 0 0.42745512967027283 0.14738958630404009 0 0.43792434340163988 0.1664875527001618 0 0.42745512967027283 0.14738958630404009 0 0.44472617544579152 0.1511570599865599 0 0.43792434340163988 0.1664875527001618 0 0.42745512967027283 0.14738958630404009 0 0.42629118755660278 0.12947563669780021 0 0.41464835610195422 0.13684797824282099 0 0.42745512967027283 0.14738958630404009 0 0.42629118755660278 0.12947563669780021 0 0.44227229213007191 0.1299009872950618 0 0.42629118755660278 0.12947563669780021 0 0.41464835610195422 0.13684797824282099 0 0.4171673206850906 0.1206151538350197 0 0.40228408567852159 0.1270005553712821 0 0.41464835610195422 0.13684797824282099 0 0.4171673206850906 0.1206151538350197 0 0.40228408567852159 0.1270005553712821 0 0.40222779632130118 0.14115972463547849 0 0.41464835610195422 0.13684797824282099 0 0.4177437715338389 0.16821007968575741 0 0.42745512967027283 0.14738958630404009 0 0.41000089790148708 0.15152135255462079 0 0.40222779632130118 0.14115972463547849 0 0.41464835610195422 0.13684797824282099 0 0.41000089790148708 0.15152135255462079 0 0.42745512967027283 0.14738958630404009 0 0.41464835610195422 0.13684797824282099 0 0.41000089790148708 0.15152135255462079 0 0.390504949978635 0.25177069677495018 0 0.39842034259403891 0.23067378742746389 0 0.40747834531972482 0.24441848996967319 0 0.390504949978635 0.25177069677495018 0 0.39842034259403891 0.23067378742746389 0 0.390504949978635 0.25177069677495018 0 0.37188910604765518 0.2460817336098266 0 0.37972117013455708 0.2327753295784464 0 0.390504949978635 0.25177069677495018 0 0.37972117013455708 0.2327753295784464 0 0.390504949978635 0.25177069677495018 0 0.37972117013455708 0.2327753295784464 0 0.39842034259403891 0.23067378742746389 0 0.36893739029047712 0.2137799623819438 0 0.37972117013455708 0.2327753295784464 0 0.384375484431349 0.21817109522557041 0 0.37972117013455708 0.2327753295784464 0 0.39842034259403891 0.23067378742746389 0 0.384375484431349 0.21817109522557041 0 0.39842034259403891 0.23067378742746389 0 0.41274117886603062 0.22268364419554679 0 0.40747834531972482 0.24441848996967319 0 0.39842034259403891 0.23067378742746389 0 0.39500317414665559 0.20846837676301591 0 0.41274117886603062 0.22268364419554679 0 0.39842034259403891 0.23067378742746389 0 0.39500317414665559 0.20846837676301591 0 0.384375484431349 0.21817109522557041 0 0.36893739029047712 0.2137799623819438 0 0.384375484431349 0.21817109522557041 0 0.37979534499101619 0.20515801997698191 0 0.39500317414665559 0.20846837676301591 0 0.384375484431349 0.21817109522557041 0 0.37979534499101619 0.20515801997698191 0 0.39500317414665559 0.20846837676301591 0 0.37979534499101619 0.20515801997698191 0 0.38909160271910931 0.1883564408899551 0 0.37979534499101619 0.20515801997698191 0 0.37695993960155427 0.19158622763437411 0 0.38909160271910931 0.1883564408899551 0 0.39500317414665559 0.20846837676301591 0 0.40354903541591008 0.19406812954721889 0 0.41577030633403772 0.20618092366212601 0 0.39500317414665559 0.20846837676301591 0 0.38909160271910931 0.1883564408899551 0 0.40354903541591008 0.19406812954721889 0 0.40354903541591008 0.19406812954721889 0 0.41631657785414061 0.1887812312361096 0 0.41577030633403772 0.20618092366212601 0 0.41631657785414061 0.1887812312361096 0 0.4319490094058499 0.1987085740994228 0 0.41577030633403772 0.20618092366212601 0 0.43029860508858297 0.1809794947546757 0 0.41631657785414061 0.1887812312361096 0 0.4319490094058499 0.1987085740994228 0 0.43029860508858297 0.1809794947546757 0 0.4319490094058499 0.1987085740994228 0 0.44819660686259971 0.1867759689400616 0 0.4319490094058499 0.1987085740994228 0 0.41577030633403772 0.20618092366212601 0 0.43454959308010671 0.222111601836882 0 0.41577030633403772 0.20618092366212601 0 0.41274117886603062 0.22268364419554679 0 0.43454959308010671 0.222111601836882 0 0.39500317414665559 0.20846837676301591 0 0.41577030633403772 0.20618092366212601 0 0.41274117886603062 0.22268364419554679 0 0.41274117886603062 0.22268364419554679 0 0.43454959308010671 0.222111601836882 0 0.42244553952945763 0.2364956779862189 0 0.43454959308010671 0.222111601836882 0 0.42244553952945763 0.2364956779862189 0 0.43484596648482909 0.23574122193248981 0 0.42244553952945763 0.2364956779862189 0 0.43484596648482909 0.23574122193248981 0 0.43219191801446211 0.2482497494187377 0 0.43484596648482909 0.23574122193248981 0 0.43219191801446211 0.2482497494187377 0 0.4418452695027405 0.24831385190097491 0 0.42188015678703239 0.25074480629666968 0 0.42244553952945763 0.2364956779862189 0 0.43219191801446211 0.2482497494187377 0 0.41274117886603062 0.22268364419554679 0 0.42244553952945763 0.2364956779862189 0 0.40747834531972482 0.24441848996967319 0 0.42188015678703239 0.25074480629666968 0 0.42244553952945763 0.2364956779862189 0 0.40747834531972482 0.24441848996967319 0 0.46365561237862069 0.24578339396168231 0 0.4586050423365044 0.22495849416091601 0 0.47638404770237941 0.23525861174718829 0 0.46365561237862069 0.24578339396168231 0 0.44719990275137689 0.2379327771201733 0 0.4586050423365044 0.22495849416091601 0 0.45115134399032569 0.25526872381297638 0 0.46365561237862069 0.24578339396168231 0 0.44719990275137689 0.2379327771201733 0 0.45115134399032569 0.25526872381297638 0 0.4418452695027405 0.24831385190097491 0 0.44719990275137689 0.2379327771201733 0 0.43484596648482909 0.23574122193248981 0 0.4418452695027405 0.24831385190097491 0 0.44719990275137689 0.2379327771201733 0 0.43454959308010671 0.222111601836882 0 0.44719990275137689 0.2379327771201733 0 0.4586050423365044 0.22495849416091601 0 0.43454959308010671 0.222111601836882 0 0.43484596648482909 0.23574122193248981 0 0.44719990275137689 0.2379327771201733 0 0.4586050423365044 0.22495849416091601 0 0.46473825906127642 0.20503189440345301 0 0.44656236721563208 0.20742222416668199 0 0.4586050423365044 0.22495849416091601 0 0.46473825906127642 0.20503189440345301 0 0.47956828466005508 0.21947809385778511 0 0.4319490094058499 0.1987085740994228 0 0.43454959308010671 0.222111601836882 0 0.44656236721563208 0.20742222416668199 0 0.43454959308010671 0.222111601836882 0 0.4586050423365044 0.22495849416091601 0 0.44656236721563208 0.20742222416668199 0 0.4319490094058499 0.1987085740994228 0 0.44656236721563208 0.20742222416668199 0 0.44819660686259971 0.1867759689400616 0 0.46473825906127642 0.20503189440345301 0 0.44656236721563208 0.20742222416668199 0 0.44819660686259971 0.1867759689400616 0 0.46473825906127642 0.20503189440345301 0 0.44819660686259971 0.1867759689400616 0 0.47281688590802912 0.1859069369406558 0 0.46473825906127642 0.20503189440345301 0 0.48321202348557668 0.20193947838221751 0 0.47281688590802912 0.1859069369406558 0 0.48321202348557668 0.20193947838221751 0 0.5 0.20997830860878661 0 0.5 0.18188181815560589 0 0.48321202348557668 0.20193947838221751 0 0.47281688590802912 0.1859069369406558 0 0.5 0.18188181815560589 0 0.48321202348557668 0.20193947838221751 0 0.5 0.20997830860878661 0 0.47956828466005508 0.21947809385778511 0 0.46473825906127642 0.20503189440345301 0 0.48321202348557668 0.20193947838221751 0 0.47956828466005508 0.21947809385778511 0 0.4586050423365044 0.22495849416091601 0 0.47956828466005508 0.21947809385778511 0 0.47638404770237941 0.23525861174718829 0 0.47956828466005508 0.21947809385778511 0 0.5 0.23807479906196741 0 0.47638404770237941 0.23525861174718829 0 0.5 0.20997830860878661 0 0.47956828466005508 0.21947809385778511 0 0.5 0.23807479906196741 0 0.5 0.23807479906196741 0 0.47638404770237941 0.23525861174718829 0 0.4801462007472278 0.2485654613958129 0 0.48694926121072629 0.26189789322125723 0 0.5 0.23807479906196741 0 0.4801462007472278 0.2485654613958129 0 0.46365561237862069 0.24578339396168231 0 0.47638404770237941 0.23525861174718829 0 0.4801462007472278 0.2485654613958129 0 0.45759817535113179 0.14121310161784539 0 0.44472617544579152 0.1511570599865599 0 0.45912577180875419 0.16441312652987641 0 0.45759817535113179 0.14121310161784539 0 0.45912577180875419 0.16441312652987641 0 0.47818953654661978 0.14234748965390079 0 0.45759817535113179 0.14121310161784539 0 0.44227229213007191 0.1299009872950618 0 0.46656450732477728 0.1243433344545182 0 0.45759817535113179 0.14121310161784539 0 0.47818953654661978 0.14234748965390079 0 0.46656450732477728 0.1243433344545182 0 0.45759817535113179 0.14121310161784539 0 0.44227229213007191 0.1299009872950618 0 0.44472617544579152 0.1511570599865599 0 0.42745512967027283 0.14738958630404009 0 0.44227229213007191 0.1299009872950618 0 0.44472617544579152 0.1511570599865599 0 0.44472617544579152 0.1511570599865599 0 0.43792434340163988 0.1664875527001618 0 0.45912577180875419 0.16441312652987641 0 0.43029860508858297 0.1809794947546757 0 0.43792434340163988 0.1664875527001618 0 0.44819660686259971 0.1867759689400616 0 0.43792434340163988 0.1664875527001618 0 0.44819660686259971 0.1867759689400616 0 0.45912577180875419 0.16441312652987641 0 0.44819660686259971 0.1867759689400616 0 0.45912577180875419 0.16441312652987641 0 0.47281688590802912 0.1859069369406558 0 0.45912577180875419 0.16441312652987641 0 0.48203096752405322 0.1666003151511162 0 0.47818953654661978 0.14234748965390079 0 0.45912577180875419 0.16441312652987641 0 0.48203096752405322 0.1666003151511162 0 0.47281688590802912 0.1859069369406558 0 0.48203096752405322 0.1666003151511162 0 0.47281688590802912 0.1859069369406558 0 0.5 0.18188181815560589 0 0.48203096752405322 0.1666003151511162 0 0.5 0.18188181815560589 0 0.5 0.15378532770242531 0 0.48203096752405322 0.1666003151511162 0 0.5 0.15378532770242531 0 0.47818953654661978 0.14234748965390079 0 0.47818953654661978 0.14234748965390079 0 0.48002143727365992 0.1202560228070431 0 0.46656450732477728 0.1243433344545182 0 0.47818953654661978 0.14234748965390079 0 0.49999999999999911 0.12568883724924451 0 0.48002143727365992 0.1202560228070431 0 0.5 0.15378532770242531 0 0.47818953654661978 0.14234748965390079 0 0.49999999999999911 0.12568883724924451 0 0.49999999999999911 0.12568883724924451 0 0.48261716630154872 0.1039394334434343 0 0.48002143727365992 0.1202560228070431 0 0.49999999999999911 0.12568883724924451 0 0.48261716630154872 0.1039394334434343 0 0.5 0.097902670463185126 0 0.48261716630154872 0.1039394334434343 0 0.48543551855616168 0.08400958707015542 0 0.49999999999999911 0.12568883724924451 0 0.5 0.097902670463185126 0 0.48261716630154872 0.1039394334434343 0 0.48261716630154872 0.1039394334434343 0 0.48002143727365992 0.1202560228070431 0 0.46589941996393808 0.1032666820460709 0 0.48261716630154872 0.1039394334434343 0 0.46523433260309882 0.082190029637623563 0 0.46589941996393808 0.1032666820460709 0 0.48002143727365992 0.1202560228070431 0 0.46656450732477728 0.1243433344545182 0 0.46589941996393808 0.1032666820460709 0 0.5 0.070116503677125741 0 0.48543551855616168 0.08400958707015542 0 0.47914732313150071 0.069139772129982416 0 0.5 0.070116503677125741 0 0.47914732313150071 0.069139772129982416 0 0.48049810047675628 0.04828778195179171 0 0.5 0.097902670463185126 0 0.5 0.070116503677125741 0 0.48543551855616168 0.08400958707015542 0 0.48261716630154872 0.1039394334434343 0 0.48543551855616168 0.08400958707015542 0 0.46523433260309882 0.082190029637623563 0 0.48261716630154872 0.1039394334434343 0 0.46523433260309882 0.082190029637623563 0 0.48543551855616168 0.08400958707015542 0 0.47914732313150071 0.069139772129982416 0 0.46523433260309882 0.082190029637623563 0 0.47914732313150071 0.069139772129982416 0 0.46523433260309882 0.082190029637623563 0 0.46456866402148672 0.061094958313215722 0 0.46523433260309882 0.082190029637623563 0 0.45231342785721929 0.06602339192310594 0 0.46456866402148672 0.061094958313215722 0 0.46523433260309882 0.082190029637623563 0 0.45231342785721929 0.06602339192310594 0 0.46523433260309882 0.082190029637623563 0 0.44478254840631609 0.079738631603462631 0 0.45231342785721929 0.06602339192310594 0 0.46523433260309882 0.082190029637623563 0 0.46456866402148672 0.061094958313215722 0 0.46523433260309882 0.082190029637623563 0 0.46589941996393808 0.1032666820460709 0 0.46523433260309882 0.082190029637623563 0 0.44478254840631609 0.079738631603462631 0 0.45151451406100129 0.09403847295631812 0 0.46523433260309882 0.082190029637623563 0 0.46589941996393808 0.1032666820460709 0 0.45151451406100129 0.09403847295631812 0 0.44478254840631609 0.079738631603462631 0 0.45151451406100129 0.09403847295631812 0 0.43258295405430158 0.093813563723455159 0 0.44478254840631609 0.079738631603462631 0 0.45231342785721929 0.06602339192310594 0 0.43863867068539758 0.063453259488905622 0 0.46656450732477728 0.1243433344545182 0 0.46589941996393808 0.1032666820460709 0 0.46656450732477728 0.1243433344545182 0 0.46589941996393808 0.1032666820460709 0 0.44669434550797182 0.109225539628187 0 0.46589941996393808 0.1032666820460709 0 0.44669434550797182 0.109225539628187 0 0.45151451406100129 0.09403847295631812 0 0.44669434550797182 0.109225539628187 0 0.45151451406100129 0.09403847295631812 0 0.43258295405430158 0.093813563723455159 0 0.44227229213007191 0.1299009872950618 0 0.46656450732477728 0.1243433344545182 0 0.44669434550797182 0.109225539628187 0 0.44227229213007191 0.1299009872950618 0 0.44669434550797182 0.109225539628187 0 0.42991283919562462 0.1126244778120582 0 0.42629118755660278 0.12947563669780021 0 0.42991283919562462 0.1126244778120582 0 0.4171673206850906 0.1206151538350197 0 0.42629118755660278 0.12947563669780021 0 0.44227229213007191 0.1299009872950618 0 0.42991283919562462 0.1126244778120582 0 0.4171673206850906 0.1206151538350197 0 0.41248130093025792 0.1018523811238933 0 0.40599258409803968 0.1150394113056431 0 0.42991283919562462 0.1126244778120582 0 0.4171673206850906 0.1206151538350197 0 0.41248130093025792 0.1018523811238933 0 0.40228408567852159 0.1270005553712821 0 0.4171673206850906 0.1206151538350197 0 0.40599258409803968 0.1150394113056431 0 0.42991283919562462 0.1126244778120582 0 0.41248130093025792 0.1018523811238933 0 0.43258295405430158 0.093813563723455159 0 0.44669434550797182 0.109225539628187 0 0.42991283919562462 0.1126244778120582 0 0.43258295405430158 0.093813563723455159 0 0.44478254840631609 0.079738631603462631 0 0.43258295405430158 0.093813563723455159 0 0.4280685094900325 0.072780409122795625 0 0.43258295405430158 0.093813563723455159 0 0.4280685094900325 0.072780409122795625 0 0.41508446310484032 0.085137368690881177 0 0.44478254840631609 0.079738631603462631 0 0.43863867068539758 0.063453259488905622 0 0.4280685094900325 0.072780409122795625 0 0.43863867068539758 0.063453259488905622 0 0.4280685094900325 0.072780409122795625 0 0.42075292107700579 0.052964068232891889 0 0.4280685094900325 0.072780409122795625 0 0.40639325655915381 0.067253920385467486 0 0.41508446310484032 0.085137368690881177 0 0.4280685094900325 0.072780409122795625 0 0.40639325655915381 0.067253920385467486 0 0.42075292107700579 0.052964068232891889 0 0.41248130093025792 0.1018523811238933 0 0.41508446310484032 0.085137368690881177 0 0.39589629449045571 0.089986569098794184 0 0.41248130093025792 0.1018523811238933 0 0.43258295405430158 0.093813563723455159 0 0.41508446310484032 0.085137368690881177 0 0.40639325655915381 0.067253920385467486 0 0.41508446310484032 0.085137368690881177 0 0.39589629449045571 0.089986569098794184 0 0.40639325655915381 0.067253920385467486 0 0.38488308073721839 0.074795888727149845 0 0.39258355851211651 0.062312961185877112 0 0.40639325655915381 0.067253920385467486 0 0.39589629449045571 0.089986569098794184 0 0.38488308073721839 0.074795888727149845 0 0.37352333925313441 0.084808695937536677 0 0.369252472323576 0.06441649915226122 0 0.38488308073721839 0.074795888727149845 0 0.369252472323576 0.06441649915226122 0 0.38488308073721839 0.074795888727149845 0 0.38185024714220528 0.052317118800220108 0 0.38488308073721839 0.074795888727149845 0 0.38185024714220528 0.052317118800220108 0 0.39258355851211651 0.062312961185877112 0 0.37352333925313441 0.084808695937536677 0 0.39589629449045571 0.089986569098794184 0 0.37720102335385691 0.1008606629229624 0 0.37352333925313441 0.084808695937536677 0 0.39589629449045571 0.089986569098794184 0 0.38488308073721839 0.074795888727149845 0 0.39589629449045571 0.089986569098794184 0 0.37720102335385691 0.1008606629229624 0 0.39203762909828921 0.1106895548923772 0 0.37720102335385691 0.1008606629229624 0 0.37927997746357439 0.1181059117798556 0 0.39203762909828921 0.1106895548923772 0 0.38817896370612281 0.13139254068596021 0 0.37927997746357439 0.1181059117798556 0 0.39203762909828921 0.1106895548923772 0 0.38817896370612281 0.13139254068596021 0 0.39203762909828921 0.1106895548923772 0 0.40228408567852159 0.1270005553712821 0 0.39203762909828921 0.1106895548923772 0 0.40599258409803968 0.1150394113056431 0 0.38817896370612281 0.13139254068596021 0 0.40228408567852159 0.1270005553712821 0 0.39203762909828921 0.1106895548923772 0 0.39589629449045571 0.089986569098794184 0 0.39203762909828921 0.1106895548923772 0 0.41248130093025792 0.1018523811238933 0 0.39589629449045571 0.089986569098794184 0 0.39203762909828921 0.1106895548923772 0 0.41248130093025792 0.1018523811238933 0 0.39203762909828921 0.1106895548923772 0 0.40599258409803968 0.1150394113056431 0 0.39409225457611508 0.0082978540942026616 0 0.39021428520596818 0.025653341166594821 0 0.41303580803730527 0.017568037514949141 0 0.39021428520596818 0.025653341166594821 0 0.41303580803730527 0.017568037514949141 0 0.39021428520596818 0.025653341166594821 0 0.41027044116757672 0.034663189836226932 0 0.41303580803730527 0.017568037514949141 0 0.39409225457611508 0.0082978540942026616 0 0.41303580803730527 0.017568037514949141 0 0.40125351635378032 -0.0026630609931838668 0 0.39409225457611508 0.0082978540942026616 0 0.40125351635378032 -0.0026630609931838668 0 0.3901836820299589 -0.001391597430177464 0 0.39409225457611508 0.0082978540942026616 0 0.39021428520596818 0.025653341166594821 0 0.37985900614731261 -0.00097292557244121891 0 0.37746498296943659 0.018314405974903861 0 0.39021428520596818 0.025653341166594821 0 0.37985900614731261 -0.00097292557244121891 0 0.37324261091497329 0.0076260319725827037 0 0.37746498296943659 0.018314405974903861 0 0.37985900614731261 -0.00097292557244121891 0 0.39021428520596818 0.025653341166594821 0 0.37985900614731261 -0.00097292557244121891 0 0.39409225457611508 0.0082978540942026616 0 0.3901836820299589 -0.001391597430177464 0 0.37985900614731261 -0.00097292557244121891 0 0.39021428520596818 0.025653341166594821 0 0.37555506338628047 0.03084687100178304 0 0.37746498296943659 0.018314405974903861 0 0.39021428520596818 0.025653341166594821 0 0.37555506338628047 0.03084687100178304 0 0.38383139485676798 0.03980975174764164 0 0.38185024714220528 0.052317118800220108 0 0.39830377088256103 0.046453630776031173 0 0.36751254831351871 0.045404451319171243 0 0.37555506338628047 0.03084687100178304 0 0.38383139485676798 0.03980975174764164 0 0.36751254831351871 0.045404451319171243 0 0.38383139485676798 0.03980975174764164 0 0.38185024714220528 0.052317118800220108 0 0.39021428520596818 0.025653341166594821 0 0.37555506338628047 0.03084687100178304 0 0.38383139485676798 0.03980975174764164 0 0.40639325655915381 0.067253920385467486 0 0.39830377088256103 0.046453630776031173 0 0.40639325655915381 0.067253920385467486 0 0.39258355851211651 0.062312961185877112 0 0.39830377088256103 0.046453630776031173 0 0.38185024714220528 0.052317118800220108 0 0.39258355851211651 0.062312961185877112 0 0.39830377088256103 0.046453630776031173 0 0.39021428520596818 0.025653341166594821 0 0.39830377088256103 0.046453630776031173 0 0.39021428520596818 0.025653341166594821 0 0.39830377088256103 0.046453630776031173 0 0.41027044116757672 0.034663189836226932 0 0.39021428520596818 0.025653341166594821 0 0.38383139485676798 0.03980975174764164 0 0.39830377088256103 0.046453630776031173 0 0.41027044116757672 0.034663189836226932 0 0.42075292107700579 0.052964068232891889 0 0.42904542063504297 0.03067687149066764 0 0.39830377088256103 0.046453630776031173 0 0.41027044116757672 0.034663189836226932 0 0.42075292107700579 0.052964068232891889 0 0.40639325655915381 0.067253920385467486 0 0.39830377088256103 0.046453630776031173 0 0.42075292107700579 0.052964068232891889 0 0.43863867068539758 0.063453259488905622 0 0.42075292107700579 0.052964068232891889 0 0.43939252311133981 0.049856754208588268 0 0.42075292107700579 0.052964068232891889 0 0.42904542063504297 0.03067687149066764 0 0.43939252311133981 0.049856754208588268 0 0.42904542063504297 0.03067687149066764 0 0.43585733086864259 0.0094827338633040915 0 0.44142794575318761 0.021932937449594989 0 0.42904542063504297 0.03067687149066764 0 0.41303580803730527 0.017568037514949141 0 0.43585733086864259 0.0094827338633040915 0 0.41027044116757672 0.034663189836226932 0 0.42904542063504297 0.03067687149066764 0 0.41303580803730527 0.017568037514949141 0 0.41303580803730527 0.017568037514949141 0 0.41901291837906252 -0.0039963955795881941 0 0.40125351635378032 -0.0026630609931838668 0 0.41303580803730527 0.017568037514949141 0 0.43585733086864259 0.0094827338633040915 0 0.41303580803730527 0.017568037514949141 0 0.43585733086864259 0.0094827338633040915 0 0.41901291837906252 -0.0039963955795881941 0 0.43585733086864259 0.0094827338633040915 0 0.45316262840301502 0.01632319155202256 0 0.45867885369998013 0.0013974302116594229 0 0.43585733086864259 0.0094827338633040915 0 0.45867885369998013 0.0013974302116594229 0 0.44440555433389922 -0.0050493997744566598 0 0.43585733086864259 0.0094827338633040915 0 0.45867885369998013 0.0013974302116594229 0 0.43585733086864259 0.0094827338633040915 0 0.44142794575318761 0.021932937449594989 0 0.45316262840301502 0.01632319155202256 0 0.42904542063504297 0.03067687149066764 0 0.44142794575318761 0.021932937449594989 0 0.4476464031060497 0.031248952892385679 0 0.4476464031060497 0.031248952892385679 0 0.45316262840301502 0.01632319155202256 0 0.4476464031060497 0.031248952892385679 0 0.45316262840301502 0.01632319155202256 0 0.45608082847912862 0.025883909587472369 0 0.44142794575318761 0.021932937449594989 0 0.4476464031060497 0.031248952892385679 0 0.45316262840301502 0.01632319155202256 0 0.46323732685826208 0.018904815664400051 0 0.46390299543987429 0.039999886988807902 0 0.45316262840301502 0.01632319155202256 0 0.45608082847912862 0.025883909587472369 0 0.46323732685826208 0.018904815664400051 0 0.45608082847912862 0.025883909587472369 0 0.46323732685826208 0.018904815664400051 0 0.46390299543987429 0.039999886988807902 0 0.46323732685826208 0.018904815664400051 0 0.46390299543987429 0.039999886988807902 0 0.47164510317319241 0.030114934546274438 0 0.46323732685826208 0.018904815664400051 0 0.46821583375480069 0.010287780455996289 0 0.47323024502425759 0.019670089211352038 0 0.45316262840301502 0.01632319155202256 0 0.46323732685826208 0.018904815664400051 0 0.46821583375480069 0.010287780455996289 0 0.46821583375480069 0.010287780455996289 0 0.45867885369998013 0.0013974302116594229 0 0.47933942684999009 -0.0059222832346968023 0 0.45316262840301502 0.01632319155202256 0 0.46821583375480069 0.010287780455996289 0 0.45867885369998013 0.0013974302116594229 0 0.45316262840301502 0.01632319155202256 0 0.45867885369998013 0.0013974302116594229 0 0.45231342785721929 0.06602339192310594 0 0.43939252311133981 0.049856754208588268 0 0.45231342785721929 0.06602339192310594 0 0.43939252311133981 0.049856754208588268 0 0.45356480270719401 0.049644788865220703 0 0.45231342785721929 0.06602339192310594 0 0.43863867068539758 0.063453259488905622 0 0.43939252311133981 0.049856754208588268 0 0.4476464031060497 0.031248952892385679 0 0.43939252311133981 0.049856754208588268 0 0.45356480270719401 0.049644788865220703 0 0.42904542063504297 0.03067687149066764 0 0.4476464031060497 0.031248952892385679 0 0.43939252311133981 0.049856754208588268 0 0.4476464031060497 0.031248952892385679 0 0.46390299543987429 0.039999886988807902 0 0.45356480270719401 0.049644788865220703 0 0.4476464031060497 0.031248952892385679 0 0.45608082847912862 0.025883909587472369 0 0.46390299543987429 0.039999886988807902 0 0.46390299543987429 0.039999886988807902 0 0.46456866402148672 0.061094958313215722 0 0.46390299543987429 0.039999886988807902 0 0.46456866402148672 0.061094958313215722 0 0.45356480270719401 0.049644788865220703 0 0.45231342785721929 0.06602339192310594 0 0.46456866402148672 0.061094958313215722 0 0.45356480270719401 0.049644788865220703 0 0.46390299543987429 0.039999886988807902 0 0.46456866402148672 0.061094958313215722 0 0.48049810047675628 0.04828778195179171 0 0.47914732313150071 0.069139772129982416 0 0.46456866402148672 0.061094958313215722 0 0.48049810047675628 0.04828778195179171 0 0.48049810047675628 0.04828778195179171 0 0.47164510317319241 0.030114934546274438 0 0.48401604712305712 0.027905451066265029 0 0.46390299543987429 0.039999886988807902 0 0.48049810047675628 0.04828778195179171 0 0.47164510317319241 0.030114934546274438 0 0.48049810047675628 0.04828778195179171 0 0.5 0.042330336891066238 0 0.48401604712305712 0.027905451066265029 0 0.5 0.070116503677125741 0 0.48049810047675628 0.04828778195179171 0 0.5 0.042330336891066238 0 0.46821583375480069 0.010287780455996289 0 0.48164652169329908 0.01135343933124045 0 0.47933942684999009 -0.0059222832346968023 0 0.48164652169329908 0.01135343933124045 0 0.49024648713582231 0.0016833323801244669 0 0.47933942684999009 -0.0059222832346968023 0 0.46821583375480069 0.010287780455996289 0 0.48164652169329908 0.01135343933124045 0 0.47323024502425759 0.019670089211352038 0 0.48164652169329908 0.01135343933124045 0 0.47323024502425759 0.019670089211352038 0 0.48401604712305712 0.027905451066265029 0 0.46323732685826208 0.018904815664400051 0 0.47323024502425759 0.019670089211352038 0 0.47164510317319241 0.030114934546274438 0 0.47323024502425759 0.019670089211352038 0 0.47164510317319241 0.030114934546274438 0 0.48401604712305712 0.027905451066265029 0 0.48164652169329908 0.01135343933124045 0 0.48401604712305712 0.027905451066265029 0 0.5 0.014544170105006859 0 0.5 0.042330336891066238 0 0.48401604712305712 0.027905451066265029 0 0.5 0.014544170105006859 0 0.48164652169329908 0.01135343933124045 0 0.5 0.014544170105006859 0 0.49024648713582231 0.0016833323801244669 0 0.5 0.014544170105006859 0 0.49024648713582231 0.0016833323801244669 0 0.50000000000000022 -0.01324199668105264 0 0.49024648713582231 0.0016833323801244669 0 0.50000000000000022 -0.01324199668105264 0 0.47933942684999009 -0.0059222832346968023 0 0.50000000000000022 -0.01324199668105264 0 0.48941720726211713 -0.013746212523558151 0 0.47933942684999009 -0.0059222832346968023 0 0.50000000000000022 -0.01324199668105264 0 0.47933942684999009 -0.0059222832346968023 0 0.45867885369998013 0.0013974302116594229 0 0.47933942684999009 -0.0059222832346968023 0 0.47754628945406918 -0.017235480323767319 0 0.45867885369998013 0.0013974302116594229 0 0.47933942684999009 -0.0059222832346968023 0 0.48941720726211713 -0.013746212523558151 0 0.47933942684999009 -0.0059222832346968023 0 0.47754628945406918 -0.017235480323767319 0 0.48941720726211713 -0.013746212523558151 0 0.47754628945406918 -0.017235480323767319 0 0.48390873607536022 -0.032855414940318829 0 0.47754628945406918 -0.017235480323767319 0 0.48390873607536022 -0.032855414940318829 0 0.46853955929429159 -0.02528359357271007 0 0.50000000000000022 -0.01324199668105264 0 0.5 -0.040417539611154241 0 0.48390873607536022 -0.032855414940318829 0 0.48941720726211713 -0.013746212523558151 0 0.48390873607536022 -0.032855414940318829 0 0.50000000000000022 -0.01324199668105264 0 0.48941720726211713 -0.013746212523558151 0 0.48390873607536022 -0.032855414940318829 0 0.5 -0.040417539611154241 0 0.48493700802115558 -0.049868064617218377 0 0.48390873607536022 -0.032855414940318829 0 0.5 -0.040417539611154241 0 0.49087070780646908 -0.053319984522108503 0 0.5 -0.0675930825412559 0 0.5 -0.040417539611154241 0 0.48493700802115558 -0.049868064617218377 0 0.49087070780646908 -0.053319984522108503 0 0.48493700802115558 -0.049868064617218377 0 0.49087070780646908 -0.053319984522108503 0 0.48456675464900728 -0.054815119041161167 0 0.49087070780646908 -0.053319984522108503 0 0.48456675464900728 -0.054815119041161167 0 0.4838514008635183 -0.063545986975430457 0 0.47840026488860299 -0.051964617357079523 0 0.4838514008635183 -0.063545986975430457 0 0.47317021310807572 -0.070107966888345946 0 0.47840026488860299 -0.051964617357079523 0 0.47317021310807572 -0.070107966888345946 0 0.47840026488860299 -0.051964617357079523 0 0.47359589923730722 -0.055561346179287818 0 0.47317021310807572 -0.070107966888345946 0 0.48456675464900728 -0.054815119041161167 0 0.47840026488860299 -0.051964617357079523 0 0.4838514008635183 -0.063545986975430457 0 0.48493700802115558 -0.049868064617218377 0 0.48456675464900728 -0.054815119041161167 0 0.47840026488860299 -0.051964617357079523 0 0.47840026488860299 -0.051964617357079523 0 0.4724169453300614 -0.05075077212186644 0 0.46839681413007977 -0.04349943251423817 0 0.4724169453300614 -0.05075077212186644 0 0.46839681413007977 -0.04349943251423817 0 0.46809783122977472 -0.051958770013130137 0 0.4724169453300614 -0.05075077212186644 0 0.47359589923730722 -0.055561346179287818 0 0.46809783122977472 -0.051958770013130137 0 0.47840026488860299 -0.051964617357079523 0 0.4724169453300614 -0.05075077212186644 0 0.47359589923730722 -0.055561346179287818 0 0.47103651724679341 -0.060989785306560497 0 0.47359589923730722 -0.055561346179287818 0 0.47317021310807572 -0.070107966888345946 0 0.47103651724679341 -0.060989785306560497 0 0.47359589923730722 -0.055561346179287818 0 0.46809783122977472 -0.051958770013130137 0 0.47840026488860299 -0.051964617357079523 0 0.48390873607536022 -0.032855414940318829 0 0.46853955929429159 -0.02528359357271007 0 0.47840026488860299 -0.051964617357079523 0 0.46839681413007977 -0.04349943251423817 0 0.46853955929429159 -0.02528359357271007 0 0.48493700802115558 -0.049868064617218377 0 0.47840026488860299 -0.051964617357079523 0 0.48390873607536022 -0.032855414940318829 0 0.47840026488860299 -0.051964617357079523 0 0.46853955929429159 -0.02528359357271007 0 0.47840026488860299 -0.051964617357079523 0 0.48390873607536022 -0.032855414940318829 0 0.46839681413007977 -0.04349943251423817 0 0.46017518960031262 -0.034791968508373593 0 0.46853955929429159 -0.02528359357271007 0 0.46839681413007977 -0.04349943251423817 0 0.46015476631020019 -0.046281390666641532 0 0.46017518960031262 -0.034791968508373593 0 0.46015476631020019 -0.046281390666641532 0 0.45168253866799057 -0.052964209171224311 0 0.44818735792338638 -0.038872369506317832 0 0.46015476631020019 -0.046281390666641532 0 0.46017518960031262 -0.034791968508373593 0 0.44818735792338638 -0.038872369506317832 0 0.47103651724679341 -0.060989785306560497 0 0.46052844073733801 -0.054711682146857399 0 0.46038155357030192 -0.063627956011860359 0 0.47103651724679341 -0.060989785306560497 0 0.46809783122977472 -0.051958770013130137 0 0.46052844073733801 -0.054711682146857399 0 0.46839681413007977 -0.04349943251423817 0 0.46015476631020019 -0.046281390666641532 0 0.46809783122977472 -0.051958770013130137 0 0.46015476631020019 -0.046281390666641532 0 0.46809783122977472 -0.051958770013130137 0 0.46052844073733801 -0.054711682146857399 0 0.46015476631020019 -0.046281390666641532 0 0.46052844073733801 -0.054711682146857399 0 0.45168253866799057 -0.052964209171224311 0 0.46052844073733801 -0.054711682146857399 0 0.45168253866799057 -0.052964209171224311 0 0.46038155357030192 -0.063627956011860359 0 0.43984196016729998 -0.059443845268524809 0 0.46038155357030192 -0.063627956011860359 0 0.44288292133432777 -0.047958471152965601 0 0.43984196016729998 -0.059443845268524809 0 0.43181982857863449 -0.040553460665795432 0 0.45168253866799057 -0.052964209171224311 0 0.43984196016729998 -0.059443845268524809 0 0.46038155357030192 -0.063627956011860359 0 0.45168253866799057 -0.052964209171224311 0 0.44288292133432777 -0.047958471152965601 0 0.43984196016729998 -0.059443845268524809 0 0.44818735792338638 -0.038872369506317832 0 0.43769561211367553 -0.027143272010356718 0 0.43181982857863449 -0.040553460665795432 0 0.44288292133432777 -0.047958471152965601 0 0.44818735792338638 -0.038872369506317832 0 0.43181982857863449 -0.040553460665795432 0 0.46017518960031262 -0.034791968508373593 0 0.44818735792338638 -0.038872369506317832 0 0.45040479408913259 -0.0200920905907047 0 0.45168253866799057 -0.052964209171224311 0 0.44288292133432777 -0.047958471152965601 0 0.44818735792338638 -0.038872369506317832 0 0.44818735792338638 -0.038872369506317832 0 0.43769561211367553 -0.027143272010356718 0 0.45040479408913259 -0.0200920905907047 0 0.43769561211367553 -0.027143272010356718 0 0.45040479408913259 -0.0200920905907047 0 0.43268123867784142 -0.010985672582085449 0 0.43585733086864259 0.0094827338633040915 0 0.44440555433389922 -0.0050493997744566598 0 0.43268123867784142 -0.010985672582085449 0 0.45867885369998013 0.0013974302116594229 0 0.45040479408913259 -0.0200920905907047 0 0.44440555433389922 -0.0050493997744566598 0 0.45040479408913259 -0.0200920905907047 0 0.44440555433389922 -0.0050493997744566598 0 0.43268123867784142 -0.010985672582085449 0 0.45867885369998013 0.0013974302116594229 0 0.47754628945406918 -0.017235480323767319 0 0.46853955929429159 -0.02528359357271007 0 0.45867885369998013 0.0013974302116594229 0 0.46853955929429159 -0.02528359357271007 0 0.45867885369998013 0.0013974302116594229 0 0.45040479408913259 -0.0200920905907047 0 0.46853955929429159 -0.02528359357271007 0 0.46017518960031262 -0.034791968508373593 0 0.45040479408913259 -0.0200920905907047 0 0.46853955929429159 -0.02528359357271007 0 0.4733030589782089 -0.1187832607225522 0 0.47458773834686319 -0.1039361440352503 0 0.46243870761916361 -0.11265429755524339 0 0.4733030589782089 -0.1187832607225522 0 0.48580076918275122 -0.11507821934676569 0 0.47458773834686319 -0.1039361440352503 0 0.4733030589782089 -0.1187832607225522 0 0.48213704298207638 -0.1243029659217532 0 0.47631849118330938 -0.13023969572585831 0 0.4733030589782089 -0.1187832607225522 0 0.48213704298207638 -0.1243029659217532 0 0.48580076918275122 -0.11507821934676569 0 0.48213704298207638 -0.1243029659217532 0 0.48580076918275122 -0.11507821934676569 0 0.48857120038041679 -0.1256125201515082 0 0.4994656503768431 -0.12256640148951591 0 0.48580076918275122 -0.11507821934676569 0 0.48857120038041679 -0.1256125201515082 0 0.4994656503768431 -0.12256640148951591 0 0.48580076918275122 -0.11507821934676569 0 0.49645975130186532 -0.098348934182008574 0 0.4994656503768431 -0.12256640148951591 0 0.49645975130186532 -0.098348934182008574 0 0.48580076918275122 -0.11507821934676569 0 0.49645975130186532 -0.098348934182008574 0 0.47458773834686319 -0.1039361440352503 0 0.4994656503768431 -0.12256640148951591 0 0.5 -0.094768625471357504 0 0.49645975130186532 -0.098348934182008574 0 0.49645975130186532 -0.098348934182008574 0 0.47458773834686319 -0.1039361440352503 0 0.47480358927309069 -0.085992525538032494 0 0.47480358927309069 -0.085992525538032494 0 0.4934538522268862 -0.074131466874501312 0 0.47317021310807572 -0.070107966888345946 0 0.46794016132754812 -0.088251316419612341 0 0.4744490178283004 -0.079675632353870221 0 0.47317021310807572 -0.070107966888345946 0 0.46794016132754812 -0.088251316419612341 0 0.47480358927309069 -0.085992525538032494 0 0.4934538522268862 -0.074131466874501312 0 0.48188210760448741 -0.074350720569490131 0 0.47480358927309069 -0.085992525538032494 0 0.4744490178283004 -0.079675632353870221 0 0.46794016132754812 -0.088251316419612341 0 0.47480358927309069 -0.085992525538032494 0 0.4744490178283004 -0.079675632353870221 0 0.48188210760448741 -0.074350720569490131 0 0.5 -0.094768625471357504 0 0.4934538522268862 -0.074131466874501312 0 0.49711584619883797 -0.071802538567464019 0 0.49645975130186532 -0.098348934182008574 0 0.4934538522268862 -0.074131466874501312 0 0.49645975130186532 -0.098348934182008574 0 0.47480358927309069 -0.085992525538032494 0 0.4934538522268862 -0.074131466874501312 0 0.5 -0.094768625471357504 0 0.49645975130186532 -0.098348934182008574 0 0.4934538522268862 -0.074131466874501312 0 0.49087070780646908 -0.053319984522108503 0 0.5 -0.0675930825412559 0 0.49711584619883797 -0.071802538567464019 0 0.4934538522268862 -0.074131466874501312 0 0.4838514008635183 -0.063545986975430457 0 0.48188210760448741 -0.074350720569490131 0 0.49087070780646908 -0.053319984522108503 0 0.4934538522268862 -0.074131466874501312 0 0.49087070780646908 -0.053319984522108503 0 0.4934538522268862 -0.074131466874501312 0 0.49711584619883797 -0.071802538567464019 0 0.49087070780646908 -0.053319984522108503 0 0.4934538522268862 -0.074131466874501312 0 0.4838514008635183 -0.063545986975430457 0 0.5 -0.094768625471357504 0 0.5 -0.0675930825412559 0 0.49711584619883797 -0.071802538567464019 0 0.4934538522268862 -0.074131466874501312 0 0.49711584619883797 -0.071802538567464019 0 0.4838514008635183 -0.063545986975430457 0 0.48188210760448741 -0.074350720569490131 0 0.47317021310807572 -0.070107966888345946 0 0.4744490178283004 -0.079675632353870221 0 0.48188210760448741 -0.074350720569490131 0 0.47317021310807572 -0.070107966888345946 0 0.47103651724679341 -0.060989785306560497 0 0.44447434432713973 -0.070352107921633975 0 0.47103651724679341 -0.060989785306560497 0 0.46038155357030192 -0.063627956011860359 0 0.44447434432713973 -0.070352107921633975 0 0.47103651724679341 -0.060989785306560497 0 0.45982903713938161 -0.076253636477673747 0 0.44447434432713973 -0.070352107921633975 0 0.47103651724679341 -0.060989785306560497 0 0.47317021310807572 -0.070107966888345946 0 0.45982903713938161 -0.076253636477673747 0 0.43984196016729998 -0.059443845268524809 0 0.46038155357030192 -0.063627956011860359 0 0.44447434432713973 -0.070352107921633975 0 0.43984196016729998 -0.059443845268524809 0 0.44447434432713973 -0.070352107921633975 0 0.43984196016729998 -0.059443845268524809 0 0.43790108091684732 -0.067744406092390907 0 0.44447434432713973 -0.070352107921633975 0 0.43984196016729998 -0.059443845268524809 0 0.43838469756901682 -0.060689335885435992 0 0.43790108091684732 -0.067744406092390907 0 0.44447434432713973 -0.070352107921633975 0 0.43286371076570229 -0.074444487618741451 0 0.43790108091684732 -0.067744406092390907 0 0.44447434432713973 -0.070352107921633975 0 0.43286371076570229 -0.074444487618741451 0 0.44447434432713973 -0.070352107921633975 0 0.45615332631929351 -0.097853584201561011 0 0.44447434432713973 -0.070352107921633975 0 0.43835228183280089 -0.090064234582748204 0 0.45615332631929351 -0.097853584201561011 0 0.44447434432713973 -0.070352107921633975 0 0.43835228183280089 -0.090064234582748204 0 0.43286371076570229 -0.074444487618741451 0 0.47317021310807572 -0.070107966888345946 0 0.45982903713938161 -0.076253636477673747 0 0.46794016132754812 -0.088251316419612341 0 0.45982903713938161 -0.076253636477673747 0 0.46794016132754812 -0.088251316419612341 0 0.45615332631929351 -0.097853584201561011 0 0.47480358927309069 -0.085992525538032494 0 0.45615332631929351 -0.097853584201561011 0 0.45982903713938161 -0.076253636477673747 0 0.44447434432713973 -0.070352107921633975 0 0.45615332631929351 -0.097853584201561011 0 0.47480358927309069 -0.085992525538032494 0 0.46794016132754812 -0.088251316419612341 0 0.45615332631929351 -0.097853584201561011 0 0.47458773834686319 -0.1039361440352503 0 0.45615332631929351 -0.097853584201561011 0 0.46243870761916361 -0.11265429755524339 0 0.47458773834686319 -0.1039361440352503 0 0.47480358927309069 -0.085992525538032494 0 0.45615332631929351 -0.097853584201561011 0 0.45615332631929351 -0.097853584201561011 0 0.4438408528999 -0.1056839815467548 0 0.46243870761916361 -0.11265429755524339 0 0.45615332631929351 -0.097853584201561011 0 0.46243870761916361 -0.11265429755524339 0 0.43835228183280089 -0.090064234582748204 0 0.45615332631929351 -0.097853584201561011 0 0.4438408528999 -0.1056839815467548 0 0.43835228183280089 -0.090064234582748204 0 0.4438408528999 -0.1056839815467548 0 0.45615332631929351 -0.097853584201561011 0 0.4438408528999 -0.1056839815467548 0 0.4438408528999 -0.1056839815467548 0 0.45048228885265051 -0.12458462941874569 0 0.4438408528999 -0.1056839815467548 0 0.45048228885265051 -0.12458462941874569 0 0.46243870761916361 -0.11265429755524339 0 0.4438408528999 -0.1056839815467548 0 0.44136735393435877 -0.11895436276238559 0 0.45048228885265051 -0.12458462941874569 0 0.4438408528999 -0.1056839815467548 0 0.44136735393435877 -0.11895436276238559 0 0.43114112419736178 -0.1177507858843513 0 0.45048228885265051 -0.12458462941874569 0 0.46243870761916361 -0.11265429755524339 0 0.46356397266065752 -0.12615414689882651 0 0.4733030589782089 -0.1187832607225522 0 0.46243870761916361 -0.11265429755524339 0 0.46356397266065752 -0.12615414689882651 0 0.41498985902531488 -0.1188348376497252 0 0.42612493601805213 -0.11695082158726471 0 0.40840901913620309 -0.12821766162777271 0 0.42612493601805213 -0.11695082158726471 0 0.40840901913620309 -0.12821766162777271 0 0.42612493601805213 -0.11695082158726471 0 0.42771930857921958 -0.1266543669445046 0 0.40840901913620309 -0.12821766162777271 0 0.41831234741283191 -0.1093998292143126 0 0.41498985902531488 -0.1188348376497252 0 0.40450274146398318 -0.1138592079906881 0 0.41831234741283191 -0.1093998292143126 0 0.41498985902531488 -0.1188348376497252 0 0.42612493601805213 -0.11695082158726471 0 0.4438408528999 -0.1056839815467548 0 0.43114112419736178 -0.1177507858843513 0 0.42612493601805213 -0.11695082158726471 0 0.43114112419736178 -0.1177507858843513 0 0.42771930857921958 -0.1266543669445046 0 0.43114112419736178 -0.1177507858843513 0 0.42612493601805213 -0.11695082158726471 0 0.42771930857921958 -0.1266543669445046 0 0.4438408528999 -0.1056839815467548 0 0.42612493601805213 -0.11695082158726471 0 0.43114112419736178 -0.1177507858843513 0 0.43470664847631307 -0.12766672423060421 0 0.42771930857921958 -0.1266543669445046 0 0.44136735393435877 -0.11895436276238559 0 0.43114112419736178 -0.1177507858843513 0 0.43470664847631307 -0.12766672423060421 0 0.41831234741283191 -0.1093998292143126 0 0.42612493601805213 -0.11695082158726471 0 0.42935303727636293 -0.1024650453122619 0 0.4438408528999 -0.1056839815467548 0 0.42612493601805213 -0.11695082158726471 0 0.42935303727636293 -0.1024650453122619 0 0.43835228183280089 -0.090064234582748204 0 0.42935303727636293 -0.1024650453122619 0 0.41659116328044582 -0.094889233531623027 0 0.43835228183280089 -0.090064234582748204 0 0.4438408528999 -0.1056839815467548 0 0.42935303727636293 -0.1024650453122619 0 0.41659116328044582 -0.094889233531623027 0 0.40294505297683919 -0.097890545350631741 0 0.40450274146398318 -0.1138592079906881 0 0.41831234741283191 -0.1093998292143126 0 0.41659116328044582 -0.094889233531623027 0 0.40450274146398318 -0.1138592079906881 0 0.41659116328044582 -0.094889233531623027 0 0.40450274146398318 -0.1138592079906881 0 0.41831234741283191 -0.1093998292143126 0 0.42935303727636293 -0.1024650453122619 0 0.41659116328044582 -0.094889233531623027 0 0.40852850793738749 -0.08302187398209207 0 0.42867958509691018 -0.075919259072559225 0 0.41659116328044582 -0.094889233531623027 0 0.40852850793738749 -0.08302187398209207 0 0.42867958509691018 -0.075919259072559225 0 0.41659116328044582 -0.094889233531623027 0 0.40852850793738749 -0.08302187398209207 0 0.40294505297683919 -0.097890545350631741 0 0.41659116328044582 -0.094889233531623027 0 0.42867958509691018 -0.075919259072559225 0 0.43835228183280089 -0.090064234582748204 0 0.41659116328044582 -0.094889233531623027 0 0.42867958509691018 -0.075919259072559225 0 0.43835228183280089 -0.090064234582748204 0 0.43286371076570229 -0.074444487618741451 0 0.43835228183280089 -0.090064234582748204 0 0.42867958509691018 -0.075919259072559225 0 0.43286371076570229 -0.074444487618741451 0 0.42867958509691018 -0.075919259072559225 0 0.42476773086029529 -0.068295778427018311 0 0.41545835858495972 -0.069969415188378806 0 0.42867958509691018 -0.075919259072559225 0 0.43171057671085339 -0.071162820690839554 0 0.42476773086029529 -0.068295778427018311 0 0.42867958509691018 -0.075919259072559225 0 0.43286371076570229 -0.074444487618741451 0 0.42867958509691018 -0.075919259072559225 0 0.43171057671085339 -0.071162820690839554 0 0.42867958509691018 -0.075919259072559225 0 0.43286371076570229 -0.074444487618741451 0 0.43171057671085339 -0.071162820690839554 0 0.43286371076570229 -0.074444487618741451 0 0.43171057671085339 -0.071162820690839554 0 0.43790108091684732 -0.067744406092390907 0 0.43286371076570229 -0.074444487618741451 0 0.43171057671085339 -0.071162820690839554 0 0.43838469756901682 -0.060689335885435992 0 0.43171057671085339 -0.071162820690839554 0 0.42837741244358091 -0.061677076257950367 0 0.43838469756901682 -0.060689335885435992 0 0.43790108091684732 -0.067744406092390907 0 0.43171057671085339 -0.071162820690839554 0 0.43838469756901682 -0.060689335885435992 0 0.43171057671085339 -0.071162820690839554 0 0.43171057671085339 -0.071162820690839554 0 0.42837741244358091 -0.061677076257950367 0 0.42476773086029529 -0.068295778427018311 0 0.42035195939953551 -0.063389033790308247 0 0.42837741244358091 -0.061677076257950367 0 0.43171057671085339 -0.071162820690839554 0 0.42476773086029529 -0.068295778427018311 0 0.42837741244358091 -0.061677076257950367 0 0.42476773086029529 -0.068295778427018311 0 0.42035195939953551 -0.063389033790308247 0 0.41545835858495972 -0.069969415188378806 0 0.42035195939953551 -0.063389033790308247 0 0.41545835858495972 -0.069969415188378806 0 0.41176247476300049 -0.061317115544730093 0 0.40852850793738749 -0.08302187398209207 0 0.42867958509691018 -0.075919259072559225 0 0.41545835858495972 -0.069969415188378806 0 0.40852850793738749 -0.08302187398209207 0 0.41545835858495972 -0.069969415188378806 0 0.40081938081159629 -0.0703156004253358 0 0.41545835858495972 -0.069969415188378806 0 0.40081938081159629 -0.0703156004253358 0 0.41176247476300049 -0.061317115544730093 0 0.39142404827413158 -0.076384983662935613 0 0.39196439161699398 -0.060406545753070209 0 0.40294568052438101 -0.051927721798403062 0 0.40852850793738749 -0.08302187398209207 0 0.40081938081159629 -0.0703156004253358 0 0.39142404827413158 -0.076384983662935613 0 0.40081938081159629 -0.0703156004253358 0 0.39142404827413158 -0.076384983662935613 0 0.40294568052438101 -0.051927721798403062 0 0.39142404827413158 -0.076384983662935613 0 0.40294568052438101 -0.051927721798403062 0 0.40081938081159629 -0.0703156004253358 0 0.39142404827413158 -0.076384983662935613 0 0.39142404827413158 -0.076384983662935613 0 0.38621950321301651 -0.064579380417974855 0 0.39196439161699398 -0.060406545753070209 0 0.38621950321301651 -0.064579380417974855 0 0.38517067196958732 -0.080424663702982263 0 0.39142404827413158 -0.076384983662935613 0 0.38621950321301651 -0.064579380417974855 0 0.38517067196958732 -0.080424663702982263 0 0.38621950321301651 -0.064579380417974855 0 0.37589291747738229 -0.075658422286157781 0 0.38517067196958732 -0.080424663702982263 0 0.38621950321301651 -0.064579380417974855 0 0.37589291747738229 -0.075658422286157781 0 0.37253489001378881 -0.06566384401318677 0 0.39142404827413158 -0.076384983662935613 0 0.38445949468961399 -0.091168818720886835 0 0.39142404827413158 -0.076384983662935613 0 0.38517067196958732 -0.080424663702982263 0 0.38445949468961399 -0.091168818720886835 0 0.39142404827413158 -0.076384983662935613 0 0.38517067196958732 -0.080424663702982263 0 0.38517067196958732 -0.080424663702982263 0 0.38445949468961399 -0.091168818720886835 0 0.39142404827413158 -0.076384983662935613 0 0.38445949468961399 -0.091168818720886835 0 0.3883774307778643 -0.090124488891623181 0 0.38517067196958732 -0.080424663702982263 0 0.38445949468961399 -0.091168818720886835 0 0.37477387755838187 -0.08867772869148699 0 0.38445949468961399 -0.091168818720886835 0 0.3883774307778643 -0.090124488891623181 0 0.39415171285125689 -0.095307138553363827 0 0.40852850793738749 -0.08302187398209207 0 0.3883774307778643 -0.090124488891623181 0 0.40852850793738749 -0.08302187398209207 0 0.3883774307778643 -0.090124488891623181 0 0.39415171285125689 -0.095307138553363827 0 0.40852850793738749 -0.08302187398209207 0 0.39142404827413158 -0.076384983662935613 0 0.3883774307778643 -0.090124488891623181 0 0.40852850793738749 -0.08302187398209207 0 0.40294505297683919 -0.097890545350631741 0 0.39415171285125689 -0.095307138553363827 0 0.40294505297683919 -0.097890545350631741 0 0.39168386295906887 -0.1029405872831623 0 0.40450274146398318 -0.1138592079906881 0 0.40294505297683919 -0.097890545350631741 0 0.39168386295906887 -0.1029405872831623 0 0.39415171285125689 -0.095307138553363827 0 0.38445949468961399 -0.091168818720886835 0 0.37414460889104878 -0.1130644891952505 0 0.38445949468961399 -0.091168818720886835 0 0.38307373886815971 -0.1121042110371525 0 0.37414460889104878 -0.1130644891952505 0 0.38445949468961399 -0.091168818720886835 0 0.37477387755838187 -0.08867772869148699 0 0.37414460889104878 -0.1130644891952505 0 0.38445949468961399 -0.091168818720886835 0 0.38307373886815971 -0.1121042110371525 0 0.38445949468961399 -0.091168818720886835 0 0.39168386295906887 -0.1029405872831623 0 0.38307373886815971 -0.1121042110371525 0 0.38445949468961399 -0.091168818720886835 0 0.39168386295906887 -0.1029405872831623 0 0.39415171285125689 -0.095307138553363827 0 0.38307373886815971 -0.1121042110371525 0 0.3866526147755342 -0.12617462156044559 0 0.38168798304670581 -0.13303960335341811 0 0.38307373886815971 -0.1121042110371525 0 0.38168798304670581 -0.13303960335341811 0 0.39168386295906887 -0.1029405872831623 0 0.38307373886815971 -0.1121042110371525 0 0.39217702716642111 -0.11739839269425301 0 0.38307373886815971 -0.1121042110371525 0 0.37414460889104878 -0.1130644891952505 0 0.38168798304670581 -0.13303960335341811 0 0.38307373886815971 -0.1121042110371525 0 0.39217702716642111 -0.11739839269425301 0 0.3866526147755342 -0.12617462156044559 0 0.40450274146398318 -0.1138592079906881 0 0.39241431964752083 -0.13282918244975311 0 0.41498985902531488 -0.1188348376497252 0 0.40450274146398318 -0.1138592079906881 0 0.39241431964752083 -0.13282918244975311 0 0.39217702716642111 -0.11739839269425301 0 0.40450274146398318 -0.1138592079906881 0 0.39241431964752083 -0.13282918244975311 0 0.39168386295906887 -0.1029405872831623 0 0.39217702716642111 -0.11739839269425301 0 0.40450274146398318 -0.1138592079906881 0 0.4082288628048476 -0.02764722173023694 0 0.40745191934683578 -0.015717335217447038 0 0.42379769698996927 -0.021663076063066049 0 0.4082288628048476 -0.02764722173023694 0 0.42379769698996927 -0.021663076063066049 0 0.41536154692812011 -0.036024765868892319 0 0.40745191934683578 -0.015717335217447038 0 0.41901291837906252 -0.0039963955795881941 0 0.40125351635378032 -0.0026630609931838668 0 0.40745191934683578 -0.015717335217447038 0 0.41901291837906252 -0.0039963955795881941 0 0.42379769698996927 -0.021663076063066049 0 0.41901291837906252 -0.0039963955795881941 0 0.43268123867784142 -0.010985672582085449 0 0.42379769698996927 -0.021663076063066049 0 0.43585733086864259 0.0094827338633040915 0 0.41901291837906252 -0.0039963955795881941 0 0.43268123867784142 -0.010985672582085449 0 0.42379769698996927 -0.021663076063066049 0 0.43181982857863449 -0.040553460665795432 0 0.43769561211367553 -0.027143272010356718 0 0.43268123867784142 -0.010985672582085449 0 0.42379769698996927 -0.021663076063066049 0 0.43769561211367553 -0.027143272010356718 0 0.42379769698996927 -0.021663076063066049 0 0.43181982857863449 -0.040553460665795432 0 0.42379769698996927 -0.021663076063066049 0 0.43181982857863449 -0.040553460665795432 0 0.41536154692812011 -0.036024765868892319 0 0.43984196016729998 -0.059443845268524809 0 0.43181982857863449 -0.040553460665795432 0 0.43984196016729998 -0.059443845268524809 0 0.42139382034584061 -0.055685783533463658 0 0.43984196016729998 -0.059443845268524809 0 0.43181982857863449 -0.040553460665795432 0 0.42139382034584061 -0.055685783533463658 0 0.43984196016729998 -0.059443845268524809 0 0.42837741244358091 -0.061677076257950367 0 0.42139382034584061 -0.055685783533463658 0 0.43984196016729998 -0.059443845268524809 0 0.43838469756901682 -0.060689335885435992 0 0.42837741244358091 -0.061677076257950367 0 0.43181982857863449 -0.040553460665795432 0 0.42139382034584061 -0.055685783533463658 0 0.41637659128865862 -0.046150928527371619 0 0.42035195939953551 -0.063389033790308247 0 0.42837741244358091 -0.061677076257950367 0 0.42139382034584061 -0.055685783533463658 0 0.42139382034584061 -0.055685783533463658 0 0.41637659128865862 -0.046150928527371619 0 0.40294568052438101 -0.051927721798403062 0 0.42139382034584061 -0.055685783533463658 0 0.41176247476300049 -0.061317115544730093 0 0.40294568052438101 -0.051927721798403062 0 0.42139382034584061 -0.055685783533463658 0 0.40294568052438101 -0.051927721798403062 0 0.42035195939953551 -0.063389033790308247 0 0.42139382034584061 -0.055685783533463658 0 0.41176247476300049 -0.061317115544730093 0 0.41637659128865862 -0.046150928527371619 0 0.407045168428119 -0.043225634542494659 0 0.40294568052438101 -0.051927721798403062 0 0.43181982857863449 -0.040553460665795432 0 0.41536154692812011 -0.036024765868892319 0 0.41637659128865862 -0.046150928527371619 0 0.41536154692812011 -0.036024765868892319 0 0.41637659128865862 -0.046150928527371619 0 0.407045168428119 -0.043225634542494659 0 0.41536154692812011 -0.036024765868892319 0 0.407045168428119 -0.043225634542494659 0 0.40452075370346879 -0.036525558520649641 0 0.4082288628048476 -0.02764722173023694 0 0.41536154692812011 -0.036024765868892319 0 0.40452075370346879 -0.036525558520649641 0 0.4082288628048476 -0.02764722173023694 0 0.39964847187428898 -0.031814184403983148 0 0.40452075370346879 -0.036525558520649641 0 0.39964847187428898 -0.031814184403983148 0 0.40452075370346879 -0.036525558520649641 0 0.39645015008981033 -0.038940584581937603 0 0.407045168428119 -0.043225634542494659 0 0.40452075370346879 -0.036525558520649641 0 0.40101638274392121 -0.042885713789153117 0 0.407045168428119 -0.043225634542494659 0 0.40101638274392121 -0.042885713789153117 0 0.40294568052438101 -0.051927721798403062 0 0.40452075370346879 -0.036525558520649641 0 0.40101638274392121 -0.042885713789153117 0 0.39645015008981033 -0.038940584581937603 0 0.39597978010873641 -0.045911405962879903 0 0.39169433285749677 -0.043343372213832367 0 0.38726833445644693 -0.048734097132967592 0 0.40101638274392121 -0.042885713789153117 0 0.39597978010873641 -0.045911405962879903 0 0.39645015008981033 -0.038940584581937603 0 0.39597978010873641 -0.045911405962879903 0 0.39169433285749677 -0.043343372213832367 0 0.39645015008981033 -0.038940584581937603 0 0.39169433285749677 -0.043343372213832367 0 0.39645015008981033 -0.038940584581937603 0 0.39006166748798587 -0.03851068456073916 0 0.39237833081513662 -0.032976317312045547 0 0.39645015008981033 -0.038940584581937603 0 0.39006166748798587 -0.03851068456073916 0 0.39964847187428898 -0.031814184403983148 0 0.39237833081513662 -0.032976317312045547 0 0.39645015008981033 -0.038940584581937603 0 0.39196439161699398 -0.060406545753070209 0 0.40294568052438101 -0.051927721798403062 0 0.38726833445644693 -0.048734097132967592 0 0.39597978010873641 -0.045911405962879903 0 0.40294568052438101 -0.051927721798403062 0 0.38726833445644693 -0.048734097132967592 0 0.40081938081159629 -0.0703156004253358 0 0.41176247476300049 -0.061317115544730093 0 0.40294568052438101 -0.051927721798403062 0 0.40294568052438101 -0.051927721798403062 0 0.38726833445644693 -0.048734097132967592 0 0.40101638274392121 -0.042885713789153117 0 0.39597978010873641 -0.045911405962879903 0 0.40294568052438101 -0.051927721798403062 0 0.407045168428119 -0.043225634542494659 0 0.40294568052438101 -0.051927721798403062 0 0.38621950321301651 -0.064579380417974855 0 0.38726833445644693 -0.048734097132967592 0 0.38009845727627922 -0.055232452662277318 0 0.38621950321301651 -0.064579380417974855 0 0.38726833445644693 -0.048734097132967592 0 0.38621950321301651 -0.064579380417974855 0 0.39196439161699398 -0.060406545753070209 0 0.38726833445644693 -0.048734097132967592 0 0.38726833445644693 -0.048734097132967592 0 0.38747506704195439 -0.045610871731238831 0 0.37604199949767808 -0.046447185810642853 0 0.38726833445644693 -0.048734097132967592 0 0.38747506704195439 -0.045610871731238831 0 0.38726833445644693 -0.048734097132967592 0 0.38009845727627922 -0.055232452662277318 0 0.37604199949767808 -0.046447185810642853 0 0.38009845727627922 -0.055232452662277318 0 0.37604199949767808 -0.046447185810642853 0 0.37241260517278468 -0.054393929912638479 0 0.38726833445644693 -0.048734097132967592 0 0.37604199949767808 -0.046447185810642853 0 0.38621950321301651 -0.064579380417974855 0 0.38009845727627922 -0.055232452662277318 0 0.37253489001378881 -0.06566384401318677 0 0.38009845727627922 -0.055232452662277318 0 0.37241260517278468 -0.054393929912638479 0 0.37253489001378881 -0.06566384401318677 0 0.38471377641040738 -0.034811301600792759 0 0.38661615530805982 -0.040781870985645258 0 0.38102592054300388 -0.0404179201166045 0 0.39237833081513662 -0.032976317312045547 0 0.38471377641040738 -0.034811301600792759 0 0.38700329277793 -0.027191400451566851 0 0.39237833081513662 -0.032976317312045547 0 0.38471377641040738 -0.034811301600792759 0 0.39006166748798587 -0.03851068456073916 0 0.38471377641040738 -0.034811301600792759 0 0.39006166748798587 -0.03851068456073916 0 0.38661615530805982 -0.040781870985645258 0 0.39169433285749677 -0.043343372213832367 0 0.39006166748798587 -0.03851068456073916 0 0.38661615530805982 -0.040781870985645258 0 0.39169433285749677 -0.043343372213832367 0 0.38726833445644693 -0.048734097132967592 0 0.38747506704195439 -0.045610871731238831 0 0.39169433285749677 -0.043343372213832367 0 0.38747506704195439 -0.045610871731238831 0 0.38661615530805982 -0.040781870985645258 0 0.38747506704195439 -0.045610871731238831 0 0.38661615530805982 -0.040781870985645258 0 0.38102592054300388 -0.0404179201166045 0 0.38102592054300388 -0.0404179201166045 0 0.37604199949767808 -0.046447185810642853 0 0.37241846895786701 -0.046332526890079363 0 0.38102592054300388 -0.0404179201166045 0 0.37827686769138252 -0.035776519279028682 0 0.37241846895786701 -0.046332526890079363 0 0.38747506704195439 -0.045610871731238831 0 0.38102592054300388 -0.0404179201166045 0 0.37604199949767808 -0.046447185810642853 0 0.38471377641040738 -0.034811301600792759 0 0.38102592054300388 -0.0404179201166045 0 0.37827686769138252 -0.035776519279028682 0 0.38471377641040738 -0.034811301600792759 0 0.37827686769138252 -0.035776519279028682 0 0.37978226487414141 -0.029552954754826399 0 0.37827686769138252 -0.035776519279028682 0 0.37978226487414141 -0.029552954754826399 0 0.37323346967010052 -0.031977511221850823 0 0.37681241854169922 -0.024981787149860119 0 0.37978226487414141 -0.029552954754826399 0 0.37323346967010052 -0.031977511221850823 0 0.37681241854169922 -0.024981787149860119 0 0.37978226487414141 -0.029552954754826399 0 0.38155990168888171 -0.02275677217578229 0 0.37978226487414141 -0.029552954754826399 0 0.38155990168888171 -0.02275677217578229 0 0.38700329277793 -0.027191400451566851 0 0.37681241854169922 -0.024981787149860119 0 0.38098788643986747 -0.015092986886321991 0 0.36950372708865681 -0.027599192311477321 0 0.37681241854169922 -0.024981787149860119 0 0.38155990168888171 -0.02275677217578229 0 0.38098788643986747 -0.015092986886321991 0 0.38155990168888171 -0.02275677217578229 0 0.38865892170231509 -0.018637417887591878 0 0.38700329277793 -0.027191400451566851 0 0.38155990168888171 -0.02275677217578229 0 0.38865892170231509 -0.018637417887591878 0 0.38098788643986747 -0.015092986886321991 0 0.38471377641040738 -0.034811301600792759 0 0.37978226487414141 -0.029552954754826399 0 0.38700329277793 -0.027191400451566851 0 0.39237833081513662 -0.032976317312045547 0 0.38700329277793 -0.027191400451566851 0 0.39648070541441222 -0.024218786973312079 0 0.39964847187428898 -0.031814184403983148 0 0.39237833081513662 -0.032976317312045547 0 0.39648070541441222 -0.024218786973312079 0 0.38865892170231509 -0.018637417887591878 0 0.39648070541441222 -0.024218786973312079 0 0.39704308505381719 -0.015096340655079719 0 0.38865892170231509 -0.018637417887591878 0 0.38700329277793 -0.027191400451566851 0 0.39648070541441222 -0.024218786973312079 0 0.40745191934683578 -0.015717335217447038 0 0.39648070541441222 -0.024218786973312079 0 0.39704308505381719 -0.015096340655079719 0 0.4082288628048476 -0.02764722173023694 0 0.40745191934683578 -0.015717335217447038 0 0.39648070541441222 -0.024218786973312079 0 0.4082288628048476 -0.02764722173023694 0 0.39964847187428898 -0.031814184403983148 0 0.39648070541441222 -0.024218786973312079 0 0.40745191934683578 -0.015717335217447038 0 0.40125351635378032 -0.0026630609931838668 0 0.39704308505381719 -0.015096340655079719 0 0.38865892170231509 -0.018637417887591878 0 0.39704308505381719 -0.015096340655079719 0 0.38988381589213361 -0.0095387017844465755 0 0.40125351635378032 -0.0026630609931838668 0 0.39704308505381719 -0.015096340655079719 0 0.38988381589213361 -0.0095387017844465755 0 0.40125351635378032 -0.0026630609931838668 0 0.3901836820299589 -0.001391597430177464 0 0.38988381589213361 -0.0095387017844465755 0 0.38522859762731809 -0.0067490529183468102 0 0.3901836820299589 -0.001391597430177464 0 0.37985900614731261 -0.00097292557244121891 0 0.38098788643986747 -0.015092986886321991 0 0.37985900614731261 -0.00097292557244121891 0 0.36950372708865681 -0.027599192311477321 0 0.38522859762731809 -0.0067490529183468102 0 0.3901836820299589 -0.001391597430177464 0 0.38988381589213361 -0.0095387017844465755 0 0.38865892170231509 -0.018637417887591878 0 0.38988381589213361 -0.0095387017844465755 0 0.38098788643986747 -0.015092986886321991 0 0.38522859762731809 -0.0067490529183468102 0 0.38988381589213361 -0.0095387017844465755 0 0.38098788643986747 -0.015092986886321991 0 0.38522859762731809 -0.0067490529183468102 0 0.38098788643986747 -0.015092986886321991 0 0.37985900614731261 -0.00097292557244121891 0 0.37985900614731261 -0.00097292557244121891 0 0.36950372708865681 -0.027599192311477321 0 0.37985900614731261 -0.00097292557244121891 0 0.36993317961572553 -0.00190717922909682 0 0.36785884854576101 -0.01472210171389535 0 0.37985900614731261 -0.00097292557244121891 0 0.36785884854576101 -0.01472210171389535 0 0.36950372708865681 -0.027599192311477321 0 0.36993317961572553 -0.00190717922909682 0 0.36785884854576101 -0.01472210171389535 0 0.35680375026247479 -0.021527238716637809 0 0.36993317961572553 -0.00190717922909682 0 0.35680375026247479 -0.021527238716637809 0 0.36993317961572553 -0.00190717922909682 0 0.35680375026247479 -0.021527238716637809 0 0.35691828743249421 -0.0059549077285840444 0 0.37681241854169922 -0.024981787149860119 0 0.36950372708865681 -0.027599192311477321 0 0.37323346967010052 -0.031977511221850823 0 0.36785884854576101 -0.01472210171389535 0 0.36393673057344927 -0.022925525303997159 0 0.35680375026247479 -0.021527238716637809 0 0.36785884854576101 -0.01472210171389535 0 0.36950372708865681 -0.027599192311477321 0 0.36393673057344927 -0.022925525303997159 0 0.36950372708865681 -0.027599192311477321 0 0.36393673057344927 -0.022925525303997159 0 0.36063646916242142 -0.0298282861347153 0 0.36393673057344927 -0.022925525303997159 0 0.36063646916242142 -0.0298282861347153 0 0.35680375026247479 -0.021527238716637809 0 0.36063646916242142 -0.0298282861347153 0 0.35680375026247479 -0.021527238716637809 0 0.34367432090922417 -0.041147298204178687 0 0.35680375026247479 -0.021527238716637809 0 0.34334291322038019 -0.02654625218969035 0 0.34367432090922417 -0.041147298204178687 0 0.35680375026247479 -0.021527238716637809 0 0.34813912898896221 -0.014187476718140499 0 0.34334291322038019 -0.02654625218969035 0 0.35680375026247479 -0.021527238716637809 0 0.35691828743249421 -0.0059549077285840444 0 0.34813912898896221 -0.014187476718140499 0 0.35691828743249421 -0.0059549077285840444 0 0.34813912898896221 -0.014187476718140499 0 0.34742912803282622 -0.00054991540311621 0 0.32645434853523192 0.0045026471266838841 0 0.34742912803282622 -0.00054991540311621 0 0.33376562776341778 -0.017191003613603779 0 0.34813912898896221 -0.014187476718140499 0 0.34742912803282622 -0.00054991540311621 0 0.33376562776341778 -0.017191003613603779 0 0.34334291322038019 -0.02654625218969035 0 0.33376562776341778 -0.017191003613603779 0 0.32945986171138658 -0.040342111817750291 0 0.34813912898896221 -0.014187476718140499 0 0.34334291322038019 -0.02654625218969035 0 0.33376562776341778 -0.017191003613603779 0 0.31907084508181588 -0.030007935069255559 0 0.31134066784602282 -0.01211333358107233 0 0.30758471680350907 -0.024669330781351459 0 0.33376562776341778 -0.017191003613603779 0 0.31907084508181588 -0.030007935069255559 0 0.32945986171138658 -0.040342111817750291 0 0.33376562776341778 -0.017191003613603779 0 0.31907084508181588 -0.030007935069255559 0 0.31134066784602282 -0.01211333358107233 0 0.32645434853523192 0.0045026471266838841 0 0.30205268838721883 0.0072181113708649986 0 0.31134066784602282 -0.01211333358107233 0 0.32645434853523192 0.0045026471266838841 0 0.33376562776341778 -0.017191003613603779 0 0.31134066784602282 -0.01211333358107233 0 0.31704006202333768 -0.048993234993009803 0 0.33054489155597361 -0.060767357691719523 0 0.31537168281203037 -0.065196115570620286 0 0.31704006202333768 -0.048993234993009803 0 0.31537168281203037 -0.065196115570620286 0 0.30871124865851152 -0.056754109539941172 0 0.31704006202333768 -0.048993234993009803 0 0.32945986171138658 -0.040342111817750291 0 0.33054489155597361 -0.060767357691719523 0 0.31907084508181588 -0.030007935069255559 0 0.31704006202333768 -0.048993234993009803 0 0.32945986171138658 -0.040342111817750291 0 0.31907084508181588 -0.030007935069255559 0 0.31704006202333768 -0.048993234993009803 0 0.30907959709046112 -0.037823837841023222 0 0.34334291322038019 -0.02654625218969035 0 0.32945986171138658 -0.040342111817750291 0 0.34367432090922417 -0.041147298204178687 0 0.34367432090922417 -0.041147298204178687 0 0.33054489155597361 -0.060767357691719523 0 0.34453025015439148 -0.056460512247983347 0 0.34367432090922417 -0.041147298204178687 0 0.33054489155597361 -0.060767357691719523 0 0.32945986171138658 -0.040342111817750291 0 0.34367432090922417 -0.041147298204178687 0 0.33054489155597361 -0.060767357691719523 0 0.33054489155597361 -0.060767357691719523 0 0.34453025015439148 -0.056460512247983347 0 0.34477556040209628 -0.068513509189692984 0 0.34453025015439148 -0.056460512247983347 0 0.35193885585578077 -0.058308145567490838 0 0.34477556040209628 -0.068513509189692984 0 0.35193885585578077 -0.058308145567490838 0 0.36044486748612808 -0.058958473798907653 0 0.34477556040209628 -0.068513509189692984 0 0.34453025015439148 -0.056460512247983347 0 0.35112250005690082 -0.048715736533681477 0 0.35193885585578077 -0.058308145567490838 0 0.34367432090922417 -0.041147298204178687 0 0.34453025015439148 -0.056460512247983347 0 0.35112250005690082 -0.048715736533681477 0 0.35112250005690082 -0.048715736533681477 0 0.35914844803000112 -0.054225459050513423 0 0.35907853787199329 -0.042316993253451701 0 0.35112250005690082 -0.048715736533681477 0 0.35914844803000112 -0.054225459050513423 0 0.35193885585578077 -0.058308145567490838 0 0.35914844803000112 -0.054225459050513423 0 0.35193885585578077 -0.058308145567490838 0 0.36044486748612808 -0.058958473798907653 0 0.35680375026247479 -0.021527238716637809 0 0.34367432090922417 -0.041147298204178687 0 0.36063646916242142 -0.0298282861347153 0 0.34367432090922417 -0.041147298204178687 0 0.35653947631241489 -0.038727585118134608 0 0.34367432090922417 -0.041147298204178687 0 0.35112250005690082 -0.048715736533681477 0 0.35653947631241489 -0.038727585118134608 0 0.35112250005690082 -0.048715736533681477 0 0.35907853787199329 -0.042316993253451701 0 0.35653947631241489 -0.038727585118134608 0 0.37241846895786701 -0.046332526890079363 0 0.37323346967010052 -0.031977511221850823 0 0.36044486748612808 -0.058958473798907653 0 0.36950372708865681 -0.027599192311477321 0 0.35914844803000112 -0.054225459050513423 0 0.37323346967010052 -0.031977511221850823 0 0.37323346967010052 -0.031977511221850823 0 0.36044486748612808 -0.058958473798907653 0 0.36950372708865681 -0.027599192311477321 0 0.35914844803000112 -0.054225459050513423 0 0.36950372708865681 -0.027599192311477321 0 0.35914844803000112 -0.054225459050513423 0 0.35907853787199329 -0.042316993253451701 0 0.36950372708865681 -0.027599192311477321 0 0.36063646916242142 -0.0298282861347153 0 0.35653947631241489 -0.038727585118134608 0 0.36950372708865681 -0.027599192311477321 0 0.35907853787199329 -0.042316993253451701 0 0.35653947631241489 -0.038727585118134608 0 0.37827686769138252 -0.035776519279028682 0 0.37241846895786701 -0.046332526890079363 0 0.37323346967010052 -0.031977511221850823 0 0.35914844803000112 -0.054225459050513423 0 0.37323346967010052 -0.031977511221850823 0 0.36044486748612808 -0.058958473798907653 0 0.36641776289673561 -0.062437772380317703 0 0.36044486748612808 -0.058958473798907653 0 0.36792342612837881 -0.055530675745485793 0 0.37241846895786701 -0.046332526890079363 0 0.36044486748612808 -0.058958473798907653 0 0.36792342612837881 -0.055530675745485793 0 0.37604199949767808 -0.046447185810642853 0 0.37241846895786701 -0.046332526890079363 0 0.37241260517278468 -0.054393929912638479 0 0.37241846895786701 -0.046332526890079363 0 0.37241260517278468 -0.054393929912638479 0 0.36792342612837881 -0.055530675745485793 0 0.36641776289673561 -0.062437772380317703 0 0.37241260517278468 -0.054393929912638479 0 0.36792342612837881 -0.055530675745485793 0 0.36641776289673561 -0.062437772380317703 0 0.37241260517278468 -0.054393929912638479 0 0.37253489001378881 -0.06566384401318677 0 0.36641776289673561 -0.062437772380317703 0 0.36044486748612808 -0.058958473798907653 0 0.36187342736687872 -0.07280485642619558 0 0.36641776289673561 -0.062437772380317703 0 0.37253489001378881 -0.06566384401318677 0 0.36187342736687872 -0.07280485642619558 0 0.37253489001378881 -0.06566384401318677 0 0.36187342736687872 -0.07280485642619558 0 0.36570122238790942 -0.077877236578595216 0 0.37589291747738229 -0.075658422286157781 0 0.37253489001378881 -0.06566384401318677 0 0.36570122238790942 -0.077877236578595216 0 0.37589291747738229 -0.075658422286157781 0 0.36570122238790942 -0.077877236578595216 0 0.36001916754388652 -0.096672531328002673 0 0.37589291747738229 -0.075658422286157781 0 0.38517067196958732 -0.080424663702982263 0 0.36001916754388652 -0.096672531328002673 0 0.38517067196958732 -0.080424663702982263 0 0.36001916754388652 -0.096672531328002673 0 0.36570122238790942 -0.077877236578595216 0 0.35848555611455518 -0.085952375410201912 0 0.36001916754388652 -0.096672531328002673 0 0.38517067196958732 -0.080424663702982263 0 0.37477387755838187 -0.08867772869148699 0 0.36001916754388652 -0.096672531328002673 0 0.36187342736687872 -0.07280485642619558 0 0.36570122238790942 -0.077877236578595216 0 0.35848555611455518 -0.085952375410201912 0 0.36187342736687872 -0.07280485642619558 0 0.35848555611455518 -0.085952375410201912 0 0.34765626530215582 -0.085939436375964226 0 0.35848555611455518 -0.085952375410201912 0 0.34765626530215582 -0.085939436375964226 0 0.36001916754388652 -0.096672531328002673 0 0.36044486748612808 -0.058958473798907653 0 0.36187342736687872 -0.07280485642619558 0 0.34765626530215582 -0.085939436375964226 0 0.36044486748612808 -0.058958473798907653 0 0.34765626530215582 -0.085939436375964226 0 0.34477556040209628 -0.068513509189692984 0 0.36044486748612808 -0.058958473798907653 0 0.34765626530215582 -0.085939436375964226 0 0.37414460889104878 -0.1130644891952505 0 0.3601449306129022 -0.11850155776987351 0 0.35257934650439399 -0.1055279444075968 0 0.37414460889104878 -0.1130644891952505 0 0.3601449306129022 -0.11850155776987351 0 0.36382972309248252 -0.13496015966961369 0 0.37414460889104878 -0.1130644891952505 0 0.36382972309248252 -0.13496015966961369 0 0.37477387755838187 -0.08867772869148699 0 0.37414460889104878 -0.1130644891952505 0 0.35257934650439399 -0.1055279444075968 0 0.37477387755838187 -0.08867772869148699 0 0.35257934650439399 -0.1055279444075968 0 0.37477387755838187 -0.08867772869148699 0 0.36001916754388652 -0.096672531328002673 0 0.35257934650439399 -0.1055279444075968 0 0.34765626530215582 -0.085939436375964226 0 0.36001916754388652 -0.096672531328002673 0 0.33486766311818461 -0.11292039895302131 0 0.36001916754388652 -0.096672531328002673 0 0.33486766311818461 -0.11292039895302131 0 0.36001916754388652 -0.096672531328002673 0 0.35257934650439399 -0.1055279444075968 0 0.33486766311818461 -0.11292039895302131 0 0.3601449306129022 -0.11850155776987351 0 0.35257934650439399 -0.1055279444075968 0 0.34512867772017841 -0.11875622547200899 0 0.3601449306129022 -0.11850155776987351 0 0.34512867772017841 -0.11875622547200899 0 0.35359682368998729 -0.12636209878618751 0 0.35257934650439399 -0.1055279444075968 0 0.33038481545040638 -0.12237816012370691 0 0.35257934650439399 -0.1055279444075968 0 0.34512867772017841 -0.11875622547200899 0 0.33038481545040638 -0.12237816012370691 0 0.35257934650439399 -0.1055279444075968 0 0.33038481545040638 -0.12237816012370691 0 0.33486766311818461 -0.11292039895302131 0 0.33038481545040638 -0.12237816012370691 0 0.33486766311818461 -0.11292039895302131 0 0.32306951985187848 -0.1205419975169673 0 0.33038481545040638 -0.12237816012370691 0 0.33486766311818461 -0.11292039895302131 0 0.34512867772017841 -0.11875622547200899 0 0.33038481545040638 -0.12237816012370691 0 0.33881687548735118 -0.1249116950881661 0 0.33486766311818461 -0.11292039895302131 0 0.32306951985187848 -0.1205419975169673 0 0.34765626530215582 -0.085939436375964226 0 0.33486766311818461 -0.11292039895302131 0 0.34765626530215582 -0.085939436375964226 0 0.33486766311818461 -0.11292039895302131 0 0.32932197142233338 -0.090978733178256541 0 0.33486766311818461 -0.11292039895302131 0 0.31337193075958403 -0.096637117247997686 0 0.32932197142233338 -0.090978733178256541 0 0.31337193075958403 -0.096637117247997686 0 0.32306951985187848 -0.1205419975169673 0 0.33486766311818461 -0.11292039895302131 0 0.31337193075958403 -0.096637117247997686 0 0.32306951985187848 -0.1205419975169673 0 0.32306951985187848 -0.1205419975169673 0 0.31062652378382349 -0.1140705460178307 0 0.31410261484209018 -0.13473970053723189 0 0.31337193075958403 -0.096637117247997686 0 0.32306951985187848 -0.1205419975169673 0 0.31062652378382349 -0.1140705460178307 0 0.32306951985187848 -0.1205419975169673 0 0.32536152641447069 -0.12619187007117069 0 0.33038481545040638 -0.12237816012370691 0 0.32306951985187848 -0.1205419975169673 0 0.32536152641447069 -0.12619187007117069 0 0.33038481545040638 -0.12237816012370691 0 0.32536152641447069 -0.12619187007117069 0 0.33054489155597361 -0.060767357691719523 0 0.34477556040209628 -0.068513509189692984 0 0.33329853572901869 -0.079009296135037876 0 0.34765626530215582 -0.085939436375964226 0 0.34477556040209628 -0.068513509189692984 0 0.33329853572901869 -0.079009296135037876 0 0.34765626530215582 -0.085939436375964226 0 0.33329853572901869 -0.079009296135037876 0 0.32932197142233338 -0.090978733178256541 0 0.31337193075958403 -0.096637117247997686 0 0.32932197142233338 -0.090978733178256541 0 0.31741546220272299 -0.080387417179260415 0 0.33329853572901869 -0.079009296135037876 0 0.32932197142233338 -0.090978733178256541 0 0.31741546220272299 -0.080387417179260415 0 0.33054489155597361 -0.060767357691719523 0 0.33329853572901869 -0.079009296135037876 0 0.31741546220272299 -0.080387417179260415 0 0.33054489155597361 -0.060767357691719523 0 0.31741546220272299 -0.080387417179260415 0 0.33054489155597361 -0.060767357691719523 0 0.31741546220272299 -0.080387417179260415 0 0.31537168281203037 -0.065196115570620286 0 0.31537168281203037 -0.065196115570620286 0 0.30367434166728852 -0.072732236979028447 0 0.30871124865851152 -0.056754109539941172 0 0.31741546220272299 -0.080387417179260415 0 0.31537168281203037 -0.065196115570620286 0 0.30367434166728852 -0.072732236979028447 0 0.31337193075958403 -0.096637117247997686 0 0.30367434166728852 -0.072732236979028447 0 0.31337193075958403 -0.096637117247997686 0 0.30367434166728852 -0.072732236979028447 0 0.30715043272555559 -0.093401391498429673 0 0.30367434166728852 -0.072732236979028447 0 0.30715043272555559 -0.093401391498429673 0 0.29116823058654129 -0.081502230327335237 0 0.31337193075958403 -0.096637117247997686 0 0.31741546220272299 -0.080387417179260415 0 0.30367434166728852 -0.072732236979028447 0 0.30367434166728852 -0.072732236979028447 0 0.30715043272555559 -0.093401391498429673 0 0.30715043272555559 -0.093401391498429673 0 0.29116823058654129 -0.081502230327335237 0 0.28615482954487348 -0.095746851969512381 0 0.29116823058654129 -0.081502230327335237 0 0.28615482954487348 -0.095746851969512381 0 0.27600272211986032 -0.082984743688750778 0 0.30367434166728852 -0.072732236979028447 0 0.28330552894874339 -0.06611418021340415 0 0.29511441524632098 -0.051631733105645831 0 0.30367434166728852 -0.072732236979028447 0 0.29116823058654129 -0.081502230327335237 0 0.28330552894874339 -0.06611418021340415 0 0.29116823058654129 -0.081502230327335237 0 0.28330552894874339 -0.06611418021340415 0 0.27600272211986032 -0.082984743688750778 0 0.29855868868391899 -0.1224101122764809 0 0.31062652378382349 -0.1140705460178307 0 0.30470532665548983 -0.1300224831618419 0 0.31062652378382349 -0.1140705460178307 0 0.31410261484209018 -0.13473970053723189 0 0.29855868868391899 -0.1224101122764809 0 0.31062652378382349 -0.1140705460178307 0 0.29503098363435398 -0.10952539506599419 0 0.31337193075958403 -0.096637117247997686 0 0.30715043272555559 -0.093401391498429673 0 0.31062652378382349 -0.1140705460178307 0 0.30715043272555559 -0.093401391498429673 0 0.31062652378382349 -0.1140705460178307 0 0.30715043272555559 -0.093401391498429673 0 0.31062652378382349 -0.1140705460178307 0 0.29503098363435398 -0.10952539506599419 0 0.30715043272555559 -0.093401391498429673 0 0.28615482954487348 -0.095746851969512381 0 0.29503098363435398 -0.10952539506599419 0 0.28615482954487348 -0.095746851969512381 0 0.29503098363435398 -0.10952539506599419 0 0.27955979443228313 -0.109388720319711 0 0.29503098363435398 -0.10952539506599419 0 0.2866661964332114 -0.1225202641597465 0 0.27955979443228313 -0.109388720319711 0 0.29855868868391899 -0.1224101122764809 0 0.29503098363435398 -0.10952539506599419 0 0.2866661964332114 -0.1225202641597465 0 0.27468469358223141 -0.1191205218010425 0 0.26102697910955308 -0.12593828944509211 0 0.27805168356635029 -0.12896772302086559 0 0.27468469358223141 -0.1191205218010425 0 0.26695595317567228 -0.11131652060540941 0 0.26102697910955308 -0.12593828944509211 0 0.2866661964332114 -0.1225202641597465 0 0.27468469358223141 -0.1191205218010425 0 0.27805168356635029 -0.12896772302086559 0 0.2866661964332114 -0.1225202641597465 0 0.27468469358223141 -0.1191205218010425 0 0.27955979443228313 -0.109388720319711 0 0.27468469358223141 -0.1191205218010425 0 0.27955979443228313 -0.109388720319711 0 0.26695595317567228 -0.11131652060540941 0 0.27955979443228313 -0.109388720319711 0 0.26695595317567228 -0.11131652060540941 0 0.27089526791504981 -0.097894228755166152 0 0.28615482954487348 -0.095746851969512381 0 0.27955979443228313 -0.109388720319711 0 0.27089526791504981 -0.097894228755166152 0 0.26695595317567228 -0.11131652060540941 0 0.27089526791504981 -0.097894228755166152 0 0.25478999335181429 -0.1014380819223636 0 0.27089526791504981 -0.097894228755166152 0 0.25478999335181429 -0.1014380819223636 0 0.26190831486579552 -0.086490454025249741 0 0.26695595317567228 -0.11131652060540941 0 0.25478999335181429 -0.1014380819223636 0 0.26102697910955308 -0.12593828944509211 0 0.25478999335181429 -0.1014380819223636 0 0.26102697910955308 -0.12593828944509211 0 0.24668450707492651 -0.1206782074556402 0 0.25478999335181429 -0.1014380819223636 0 0.26102697910955308 -0.12593828944509211 0 0.28330552894874339 -0.06611418021340415 0 0.27600272211986032 -0.082984743688750778 0 0.26502990268317378 -0.072127469414226195 0 0.28330552894874339 -0.06611418021340415 0 0.26502990268317378 -0.072127469414226195 0 0.26682032699965069 -0.058625542665095343 0 0.28615482954487348 -0.095746851969512381 0 0.27089526791504981 -0.097894228755166152 0 0.27600272211986032 -0.082984743688750778 0 0.27089526791504981 -0.097894228755166152 0 0.27600272211986032 -0.082984743688750778 0 0.26190831486579552 -0.086490454025249741 0 0.27600272211986032 -0.082984743688750778 0 0.26190831486579552 -0.086490454025249741 0 0.26502990268317378 -0.072127469414226195 0 0.26190831486579552 -0.086490454025249741 0 0.26502990268317378 -0.072127469414226195 0 0.24855300759407559 -0.076937874399635342 0 0.25478999335181429 -0.1014380819223636 0 0.26190831486579552 -0.086490454025249741 0 0.24855300759407559 -0.076937874399635342 0 0.25478999335181429 -0.1014380819223636 0 0.24855300759407559 -0.076937874399635342 0 0.26502990268317378 -0.072127469414226195 0 0.25586530905001148 -0.061375873046404378 0 0.24855300759407559 -0.076937874399635342 0 0.26502990268317378 -0.072127469414226195 0 0.25586530905001148 -0.061375873046404378 0 0.26682032699965069 -0.058625542665095343 0 0.25586530905001148 -0.061375873046404378 0 0.26682032699965069 -0.058625542665095343 0 0.25670056186620921 -0.045601215355329419 0 0.25586530905001148 -0.061375873046404378 0 0.25670056186620921 -0.045601215355329419 0 0.24231602183633699 -0.052437666876907117 0 0.28330552894874339 -0.06611418021340415 0 0.26682032699965069 -0.058625542665095343 0 0.27507371089696803 -0.044365446519006327 0 0.26682032699965069 -0.058625542665095343 0 0.27507371089696803 -0.044365446519006327 0 0.25670056186620921 -0.045601215355329419 0 0.27507371089696803 -0.044365446519006327 0 0.26325470084909253 -0.032880251946980431 0 0.27385922927279482 -0.02402437659349714 0 0.27507371089696803 -0.044365446519006327 0 0.27385922927279482 -0.02402437659349714 0 0.28655448882535273 -0.030531229232263531 0 0.27507371089696803 -0.044365446519006327 0 0.26325470084909253 -0.032880251946980431 0 0.25670056186620921 -0.045601215355329419 0 0.26325470084909253 -0.032880251946980431 0 0.25670056186620921 -0.045601215355329419 0 0.25240879578814662 -0.031932583293773388 0 0.25670056186620921 -0.045601215355329419 0 0.25240879578814662 -0.031932583293773388 0 0.24177153622815559 -0.037171260361527361 0 0.25240879578814662 -0.031932583293773388 0 0.25551021413525132 -0.020432923835010389 0 0.24480696586202441 -0.02357726497001934 0 0.26325470084909253 -0.032880251946980431 0 0.26634466841625482 -0.01060523671623954 0 0.26325470084909253 -0.032880251946980431 0 0.25240879578814662 -0.031932583293773388 0 0.25551021413525132 -0.020432923835010389 0 0.26325470084909253 -0.032880251946980431 0 0.25551021413525132 -0.020432923835010389 0 0.26634466841625482 -0.01060523671623954 0 0.25779769119506141 0.00062595460482481498 0 0.25052547948833143 -0.0039930107272881654 0 0.25585976430676138 -0.0096080118451394719 0 0.25146702323205578 0.0027030344999698021 0 0.25779769119506141 0.00062595460482481498 0 0.25052547948833143 -0.0039930107272881654 0 0.25052547948833143 -0.0039930107272881654 0 0.25585976430676138 -0.0096080118451394719 0 0.24912076829890839 -0.013634842551984079 0 0.25551021413525132 -0.020432923835010389 0 0.25585976430676138 -0.0096080118451394719 0 0.24912076829890839 -0.013634842551984079 0 0.25551021413525132 -0.020432923835010389 0 0.25585976430676138 -0.0096080118451394719 0 0.26634466841625482 -0.01060523671623954 0 0.25779769119506141 0.00062595460482481498 0 0.25585976430676138 -0.0096080118451394719 0 0.26634466841625482 -0.01060523671623954 0 0.2694346359834166 0.01166977851450139 0 0.26634466841625482 -0.01060523671623954 0 0.27799456240438453 -0.0094307253588812312 0 0.26634466841625482 -0.01060523671623954 0 0.27799456240438453 -0.0094307253588812312 0 0.27385922927279482 -0.02402437659349714 0 0.26325470084909253 -0.032880251946980431 0 0.26634466841625482 -0.01060523671623954 0 0.27385922927279482 -0.02402437659349714 0 0.27799456240438453 -0.0094307253588812312 0 0.27385922927279482 -0.02402437659349714 0 0.28655448882535273 -0.030531229232263531 0 0.27799456240438453 -0.0094307253588812312 0 0.28655448882535273 -0.030531229232263531 0 0.27799456240438453 -0.0094307253588812312 0 0.28655448882535273 -0.030531229232263531 0 0.29493451680948057 -0.020764441132930189 0 0.27799456240438453 -0.0094307253588812312 0 0.29493451680948057 -0.020764441132930189 0 0.29344583822293752 -0.0060846365994091404 0 0.28517836190386781 0.0058141559630328233 0 0.27799456240438453 -0.0094307253588812312 0 0.29344583822293752 -0.0060846365994091404 0 0.29493451680948057 -0.020764441132930189 0 0.29344583822293752 -0.0060846365994091404 0 0.31134066784602282 -0.01211333358107233 0 0.30205268838721883 0.0072181113708649986 0 0.29344583822293752 -0.0060846365994091404 0 0.31134066784602282 -0.01211333358107233 0 0.29493451680948057 -0.020764441132930189 0 0.30758471680350907 -0.024669330781351459 0 0.30907959709046112 -0.037823837841023222 0 0.29493451680948057 -0.020764441132930189 0 0.31134066784602282 -0.01211333358107233 0 0.30758471680350907 -0.024669330781351459 0 0.31907084508181588 -0.030007935069255559 0 0.30758471680350907 -0.024669330781351459 0 0.30907959709046112 -0.037823837841023222 0 0.29493451680948057 -0.020764441132930189 0 0.29930442923838418 -0.046748339055979471 0 0.29493451680948057 -0.020764441132930189 0 0.30907959709046112 -0.037823837841023222 0 0.29930442923838418 -0.046748339055979471 0 0.31704006202333768 -0.048993234993009803 0 0.30907959709046112 -0.037823837841023222 0 0.30842952357535769 -0.046927510365996891 0 0.30907959709046112 -0.037823837841023222 0 0.29930442923838418 -0.046748339055979471 0 0.30842952357535769 -0.046927510365996891 0 0.30367434166728852 -0.072732236979028447 0 0.29930442923838418 -0.046748339055979471 0 0.30367434166728852 -0.072732236979028447 0 0.29930442923838418 -0.046748339055979471 0 0.29511441524632098 -0.051631733105645831 0 0.29930442923838418 -0.046748339055979471 0 0.30842952357535769 -0.046927510365996891 0 0.30871124865851152 -0.056754109539941172 0 0.30367434166728852 -0.072732236979028447 0 0.29930442923838418 -0.046748339055979471 0 0.30871124865851152 -0.056754109539941172 0 0.30367434166728852 -0.072732236979028447 0 0.29511441524632098 -0.051631733105645831 0 0.31704006202333768 -0.048993234993009803 0 0.30842952357535769 -0.046927510365996891 0 0.30871124865851152 -0.056754109539941172 0 0.28330552894874339 -0.06611418021340415 0 0.27507371089696803 -0.044365446519006327 0 0.29511441524632098 -0.051631733105645831 0 0.28655448882535273 -0.030531229232263531 0 0.29493451680948057 -0.020764441132930189 0 0.29930442923838418 -0.046748339055979471 0 0.28655448882535273 -0.030531229232263531 0 0.29930442923838418 -0.046748339055979471 0 0.29511441524632098 -0.051631733105645831 0 0.27507371089696803 -0.044365446519006327 0 0.28655448882535273 -0.030531229232263531 0 0.29511441524632098 -0.051631733105645831 0 0.28655448882535273 -0.030531229232263531 0 0.29511441524632098 -0.051631733105645831 0 0.28413180287858603 -0.19976776016750769 0 0.29694455204878489 -0.21719279671364261 0 0.27998063234369169 -0.2208611720744719 0 0.28413180287858603 -0.19976776016750769 0 0.29694455204878489 -0.21719279671364261 0 0.30840129665258081 -0.20337615167826509 0 0.28413180287858603 -0.19976776016750769 0 0.30725948101702788 -0.18546378349299619 0 0.28413180287858603 -0.19976776016750769 0 0.29037697318851791 -0.17909283459295641 0 0.30725948101702788 -0.18546378349299619 0 0.28413180287858603 -0.19976776016750769 0 0.30840129665258081 -0.20337615167826509 0 0.30725948101702788 -0.18546378349299619 0 0.29694455204878489 -0.21719279671364261 0 0.30840129665258081 -0.20337615167826509 0 0.31399587389391442 -0.2204306930805128 0 0.29694455204878489 -0.21719279671364261 0 0.29645154298867221 -0.23338951182927509 0 0.31399587389391442 -0.2204306930805128 0 0.29645154298867221 -0.23338951182927509 0 0.31301507341631019 -0.23717240786443211 0 0.31399587389391442 -0.2204306930805128 0 0.31301507341631019 -0.23717240786443211 0 0.29897224555525947 -0.25346708268488699 0 0.31200767160584758 -0.25248528850130292 0 0.29645154298867221 -0.23338951182927509 0 0.31301507341631019 -0.23717240786443211 0 0.29897224555525947 -0.25346708268488699 0 0.29645154298867221 -0.23338951182927509 0 0.28099221496754662 -0.2431913801295135 0 0.29897224555525947 -0.25346708268488699 0 0.29694455204878489 -0.21719279671364261 0 0.29645154298867221 -0.23338951182927509 0 0.27998063234369169 -0.2208611720744719 0 0.29645154298867221 -0.23338951182927509 0 0.27998063234369169 -0.2208611720744719 0 0.28099221496754662 -0.2431913801295135 0 0.27998063234369169 -0.2208611720744719 0 0.28099221496754662 -0.2431913801295135 0 0.26313047788533078 -0.2340948456317816 0 0.27998063234369169 -0.2208611720744719 0 0.26313047788533078 -0.2340948456317816 0 0.25940818733614812 -0.21487516109021479 0 0.28099221496754662 -0.2431913801295135 0 0.26313047788533078 -0.2340948456317816 0 0.26685276843451161 -0.25331453017334882 0 0.26313047788533078 -0.2340948456317816 0 0.26685276843451161 -0.25331453017334882 0 0.26685276843451161 -0.25331453017334882 0 0.245414225112776 -0.23837786330605601 0 0.26313047788533078 -0.2340948456317816 0 0.26685276843451161 -0.25331453017334882 0 0.245414225112776 -0.23837786330605601 0 0.26313047788533078 -0.2340948456317816 0 0.25940818733614812 -0.21487516109021479 0 0.26313047788533078 -0.2340948456317816 0 0.25940818733614812 -0.21487516109021479 0 0.2466501685766008 -0.2243275603377666 0 0.26313047788533078 -0.2340948456317816 0 0.245414225112776 -0.23837786330605601 0 0.2466501685766008 -0.2243275603377666 0 0.25940818733614812 -0.21487516109021479 0 0.2594592524399798 -0.19562782495124861 0 0.24132227075770779 -0.21084873522201861 0 0.28413180287858603 -0.19976776016750769 0 0.27998063234369169 -0.2208611720744719 0 0.25940818733614812 -0.21487516109021479 0 0.28413180287858603 -0.19976776016750769 0 0.25940818733614812 -0.21487516109021479 0 0.2594592524399798 -0.19562782495124861 0 0.28413180287858603 -0.19976776016750769 0 0.2594592524399798 -0.19562782495124861 0 0.27335168031194002 -0.1798185181990711 0 0.2594592524399798 -0.19562782495124861 0 0.25520100398496198 -0.17064461911937909 0 0.24422200040960829 -0.18740953650477349 0 0.2594592524399798 -0.19562782495124861 0 0.25520100398496198 -0.17064461911937909 0 0.27335168031194002 -0.1798185181990711 0 0.2594592524399798 -0.19562782495124861 0 0.25520100398496198 -0.17064461911937909 0 0.25520100398496198 -0.17064461911937909 0 0.27248333049093187 -0.1637464198680843 0 0.26726396486729181 -0.1504384969678205 0 0.25520100398496198 -0.17064461911937909 0 0.25094275552994427 -0.1456614132875097 0 0.27248333049093187 -0.1637464198680843 0 0.27335168031194002 -0.1798185181990711 0 0.28493236426213842 -0.16598801372034991 0 0.25520100398496198 -0.17064461911937909 0 0.27248333049093187 -0.1637464198680843 0 0.27335168031194002 -0.1798185181990711 0 0.27248333049093187 -0.1637464198680843 0 0.28166763902832709 -0.15184245133380089 0 0.28493236426213842 -0.16598801372034991 0 0.26102697910955308 -0.12593828944509211 0 0.25094275552994427 -0.1456614132875097 0 0.24668450707492651 -0.1206782074556402 0 0.26102697910955308 -0.12593828944509211 0 0.26726396486729181 -0.1504384969678205 0 0.26102697910955308 -0.12593828944509211 0 0.25094275552994427 -0.1456614132875097 0 0.26726396486729181 -0.1504384969678205 0 0.25520100398496198 -0.17064461911937909 0 0.25094275552994427 -0.1456614132875097 0 0.26726396486729181 -0.1504384969678205 0 0.27248333049093187 -0.1637464198680843 0 0.26726396486729181 -0.1504384969678205 0 0.28166763902832709 -0.15184245133380089 0 0.26726396486729181 -0.1504384969678205 0 0.2771775248496946 -0.14101277649937599 0 0.28166763902832709 -0.15184245133380089 0 0.26102697910955308 -0.12593828944509211 0 0.2771775248496946 -0.14101277649937599 0 0.27805168356635029 -0.12896772302086559 0 0.26102697910955308 -0.12593828944509211 0 0.26726396486729181 -0.1504384969678205 0 0.2771775248496946 -0.14101277649937599 0 0.2771775248496946 -0.14101277649937599 0 0.27805168356635029 -0.12896772302086559 0 0.28563950694582441 -0.1338000336372705 0 0.29855868868391899 -0.1224101122764809 0 0.2866661964332114 -0.1225202641597465 0 0.29513802418751811 -0.1344293429968606 0 0.2866661964332114 -0.1225202641597465 0 0.28563950694582441 -0.1338000336372705 0 0.29513802418751811 -0.1344293429968606 0 0.2866661964332114 -0.1225202641597465 0 0.27805168356635029 -0.12896772302086559 0 0.28563950694582441 -0.1338000336372705 0 0.2771775248496946 -0.14101277649937599 0 0.28563950694582441 -0.1338000336372705 0 0.29000124449826042 -0.14459897005511571 0 0.29513802418751811 -0.1344293429968606 0 0.29000124449826042 -0.14459897005511571 0 0.29976629691526752 -0.14228304112370471 0 0.28563950694582441 -0.1338000336372705 0 0.29513802418751811 -0.1344293429968606 0 0.29000124449826042 -0.14459897005511571 0 0.29000124449826042 -0.14459897005511571 0 0.29718264608228367 -0.14882470262728489 0 0.29976629691526752 -0.14228304112370471 0 0.2771775248496946 -0.14101277649937599 0 0.29000124449826042 -0.14459897005511571 0 0.28166763902832709 -0.15184245133380089 0 0.29000124449826042 -0.14459897005511571 0 0.28166763902832709 -0.15184245133380089 0 0.29301567316121108 -0.15497916971390349 0 0.29000124449826042 -0.14459897005511571 0 0.29301567316121108 -0.15497916971390349 0 0.29718264608228367 -0.14882470262728489 0 0.29301567316121108 -0.15497916971390349 0 0.30255514952511348 -0.15408648051857229 0 0.29718264608228367 -0.14882470262728489 0 0.30255514952511348 -0.15408648051857229 0 0.29718264608228367 -0.14882470262728489 0 0.3070329976516733 -0.1466370877671298 0 0.30255514952511348 -0.15408648051857229 0 0.31131374370073039 -0.15418391120335559 0 0.3070329976516733 -0.1466370877671298 0 0.31131374370073039 -0.15418391120335559 0 0.3070329976516733 -0.1466370877671298 0 0.31592397855770288 -0.14562787810014219 0 0.3070329976516733 -0.1466370877671298 0 0.31218873191149471 -0.14209371309322771 0 0.31592397855770288 -0.14562787810014219 0 0.3070329976516733 -0.1466370877671298 0 0.29976629691526752 -0.14228304112370471 0 0.30777926154999119 -0.13989569483929051 0 0.3070329976516733 -0.1466370877671298 0 0.31218873191149471 -0.14209371309322771 0 0.30777926154999119 -0.13989569483929051 0 0.29718264608228367 -0.14882470262728489 0 0.3070329976516733 -0.1466370877671298 0 0.29976629691526752 -0.14228304112370471 0 0.31062652378382349 -0.1140705460178307 0 0.30470532665548983 -0.1300224831618419 0 0.31410261484209018 -0.13473970053723189 0 0.29513802418751811 -0.1344293429968606 0 0.30304566880039358 -0.1368513216778284 0 0.30470532665548983 -0.1300224831618419 0 0.29976629691526752 -0.14228304112370471 0 0.30304566880039358 -0.1368513216778284 0 0.30777926154999119 -0.13989569483929051 0 0.29513802418751811 -0.1344293429968606 0 0.29976629691526752 -0.14228304112370471 0 0.30304566880039358 -0.1368513216778284 0 0.30304566880039358 -0.1368513216778284 0 0.30777926154999119 -0.13989569483929051 0 0.30827862871863698 -0.13575882271487669 0 0.30827862871863698 -0.13575882271487669 0 0.30470532665548983 -0.1300224831618419 0 0.31410261484209018 -0.13473970053723189 0 0.30777926154999119 -0.13989569483929051 0 0.31197986875768841 -0.1363513015819072 0 0.31257557708140621 -0.13884458907405131 0 0.31218873191149471 -0.14209371309322771 0 0.30777926154999119 -0.13989569483929051 0 0.31257557708140621 -0.13884458907405131 0 0.30777926154999119 -0.13989569483929051 0 0.31197986875768841 -0.1363513015819072 0 0.30827862871863698 -0.13575882271487669 0 0.31197986875768841 -0.1363513015819072 0 0.30827862871863698 -0.13575882271487669 0 0.31410261484209018 -0.13473970053723189 0 0.30304566880039358 -0.1368513216778284 0 0.30827862871863698 -0.13575882271487669 0 0.30470532665548983 -0.1300224831618419 0 0.29855868868391899 -0.1224101122764809 0 0.29513802418751811 -0.1344293429968606 0 0.30470532665548983 -0.1300224831618419 0 0.27335168031194002 -0.1798185181990711 0 0.29037697318851791 -0.17909283459295641 0 0.28493236426213842 -0.16598801372034991 0 0.28413180287858603 -0.19976776016750769 0 0.27335168031194002 -0.1798185181990711 0 0.29037697318851791 -0.17909283459295641 0 0.29301567316121108 -0.15497916971390349 0 0.28493236426213842 -0.16598801372034991 0 0.30220953747289719 -0.164426097384857 0 0.29037697318851791 -0.17909283459295641 0 0.28493236426213842 -0.16598801372034991 0 0.30220953747289719 -0.164426097384857 0 0.28166763902832709 -0.15184245133380089 0 0.29301567316121108 -0.15497916971390349 0 0.28493236426213842 -0.16598801372034991 0 0.30220953747289719 -0.164426097384857 0 0.30725948101702788 -0.18546378349299619 0 0.31769991648837659 -0.16247391624575319 0 0.29301567316121108 -0.15497916971390349 0 0.30255514952511348 -0.15408648051857229 0 0.30220953747289719 -0.164426097384857 0 0.31131374370073039 -0.15418391120335559 0 0.30220953747289719 -0.164426097384857 0 0.31769991648837659 -0.16247391624575319 0 0.30255514952511348 -0.15408648051857229 0 0.31131374370073039 -0.15418391120335559 0 0.30220953747289719 -0.164426097384857 0 0.29037697318851791 -0.17909283459295641 0 0.30220953747289719 -0.164426097384857 0 0.30725948101702788 -0.18546378349299619 0 0.30725948101702788 -0.18546378349299619 0 0.31769991648837659 -0.16247391624575319 0 0.33038715915546979 -0.17115980681848461 0 0.30725948101702788 -0.18546378349299619 0 0.33038715915546979 -0.17115980681848461 0 0.32701603034658389 -0.1885228362372538 0 0.30725948101702788 -0.18546378349299619 0 0.33038715915546979 -0.17115980681848461 0 0.31769991648837659 -0.16247391624575319 0 0.33091066925891732 -0.15911026268045439 0 0.32246088250861948 -0.15185200720367911 0 0.31769991648837659 -0.16247391624575319 0 0.33038715915546979 -0.17115980681848461 0 0.33091066925891732 -0.15911026268045439 0 0.33038715915546979 -0.17115980681848461 0 0.35351483729391309 -0.1568558301439755 0 0.33038715915546979 -0.17115980681848461 0 0.33091066925891732 -0.15911026268045439 0 0.35351483729391309 -0.1568558301439755 0 0.33038715915546979 -0.17115980681848461 0 0.34167697088140347 -0.1819843703090975 0 0.35351483729391309 -0.1568558301439755 0 0.34167697088140347 -0.1819843703090975 0 0.34441353153137361 -0.18458188180880841 0 0.32701603034658389 -0.1885228362372538 0 0.33038715915546979 -0.17115980681848461 0 0.34167697088140347 -0.1819843703090975 0 0.32701603034658389 -0.1885228362372538 0 0.32684448888679302 -0.1298474219827683 0 0.3216559581827978 -0.1407940094784545 0 0.33514432479548623 -0.1503067940762938 0 0.32306951985187848 -0.1205419975169673 0 0.32536152641447069 -0.12619187007117069 0 0.31410261484209018 -0.13473970053723189 0 0.32536152641447069 -0.12619187007117069 0 0.32684448888679302 -0.1298474219827683 0 0.3199602692396834 -0.13455453881953269 0 0.33038481545040638 -0.12237816012370691 0 0.32536152641447069 -0.12619187007117069 0 0.32684448888679302 -0.1298474219827683 0 0.32536152641447069 -0.12619187007117069 0 0.32684448888679302 -0.1298474219827683 0 0.32536152641447069 -0.12619187007117069 0 0.31410261484209018 -0.13473970053723189 0 0.32536152641447069 -0.12619187007117069 0 0.3199602692396834 -0.13455453881953269 0 0.31410261484209018 -0.13473970053723189 0 0.3199602692396834 -0.13455453881953269 0 0.31436251012777638 -0.13628506161340659 0 0.31410261484209018 -0.13473970053723189 0 0.31197986875768841 -0.1363513015819072 0 0.31436251012777638 -0.13628506161340659 0 0.31410261484209018 -0.13473970053723189 0 0.31436251012777638 -0.13628506161340659 0 0.31410261484209018 -0.13473970053723189 0 0.31197986875768841 -0.1363513015819072 0 0.31410261484209018 -0.13473970053723189 0 0.31218873191149471 -0.14209371309322771 0 0.31257557708140621 -0.13884458907405131 0 0.31656751306008007 -0.13959717424242429 0 0.31436251012777638 -0.13628506161340659 0 0.31257557708140621 -0.13884458907405131 0 0.31656751306008007 -0.13959717424242429 0 0.31197986875768841 -0.1363513015819072 0 0.31436251012777638 -0.13628506161340659 0 0.31257557708140621 -0.13884458907405131 0 0.3199602692396834 -0.13455453881953269 0 0.31436251012777638 -0.13628506161340659 0 0.31656751306008007 -0.13959717424242429 0 0.3199602692396834 -0.13455453881953269 0 0.31656751306008007 -0.13959717424242429 0 0.3216559581827978 -0.1407940094784545 0 0.32684448888679302 -0.1298474219827683 0 0.3216559581827978 -0.1407940094784545 0 0.32684448888679302 -0.1298474219827683 0 0.3199602692396834 -0.13455453881953269 0 0.3216559581827978 -0.1407940094784545 0 0.3216559581827978 -0.1407940094784545 0 0.32246088250861948 -0.15185200720367911 0 0.33514432479548623 -0.1503067940762938 0 0.3216559581827978 -0.1407940094784545 0 0.31592397855770288 -0.14562787810014219 0 0.32246088250861948 -0.15185200720367911 0 0.31656751306008007 -0.13959717424242429 0 0.3216559581827978 -0.1407940094784545 0 0.31592397855770288 -0.14562787810014219 0 0.31218873191149471 -0.14209371309322771 0 0.31656751306008007 -0.13959717424242429 0 0.31592397855770288 -0.14562787810014219 0 0.31131374370073039 -0.15418391120335559 0 0.31592397855770288 -0.14562787810014219 0 0.32246088250861948 -0.15185200720367911 0 0.31131374370073039 -0.15418391120335559 0 0.31769991648837659 -0.16247391624575319 0 0.32246088250861948 -0.15185200720367911 0 0.33091066925891732 -0.15911026268045439 0 0.33514432479548623 -0.1503067940762938 0 0.35351483729391309 -0.1568558301439755 0 0.33091066925891732 -0.15911026268045439 0 0.32246088250861948 -0.15185200720367911 0 0.33514432479548623 -0.1503067940762938 0 0.33514432479548623 -0.1503067940762938 0 0.33794326414671588 -0.13752022119647911 0 0.34693271723154961 -0.14465134044287281 0 0.32684448888679302 -0.1298474219827683 0 0.33514432479548623 -0.1503067940762938 0 0.33794326414671588 -0.13752022119647911 0 0.32684448888679302 -0.1298474219827683 0 0.33514432479548623 -0.1503067940762938 0 0.33794326414671588 -0.13752022119647911 0 0.33551082648536479 -0.12956509724720691 0 0.3452839633343866 -0.13323045223325389 0 0.33794326414671588 -0.13752022119647911 0 0.3452839633343866 -0.13323045223325389 0 0.34693271723154961 -0.14465134044287281 0 0.34512867772017841 -0.11875622547200899 0 0.33881687548735118 -0.1249116950881661 0 0.3452839633343866 -0.13323045223325389 0 0.33881687548735118 -0.1249116950881661 0 0.33551082648536479 -0.12956509724720691 0 0.3452839633343866 -0.13323045223325389 0 0.33038481545040638 -0.12237816012370691 0 0.33881687548735118 -0.1249116950881661 0 0.33551082648536479 -0.12956509724720691 0 0.32684448888679302 -0.1298474219827683 0 0.33794326414671588 -0.13752022119647911 0 0.33551082648536479 -0.12956509724720691 0 0.33038481545040638 -0.12237816012370691 0 0.32684448888679302 -0.1298474219827683 0 0.33551082648536479 -0.12956509724720691 0 0.33038481545040638 -0.12237816012370691 0 0.32684448888679302 -0.1298474219827683 0 0.3601449306129022 -0.11850155776987351 0 0.35359682368998729 -0.12636209878618751 0 0.36382972309248252 -0.13496015966961369 0 0.35359682368998729 -0.12636209878618751 0 0.3452839633343866 -0.13323045223325389 0 0.36382972309248252 -0.13496015966961369 0 0.3452839633343866 -0.13323045223325389 0 0.34693271723154961 -0.14465134044287281 0 0.36382972309248252 -0.13496015966961369 0 0.34512867772017841 -0.11875622547200899 0 0.35359682368998729 -0.12636209878618751 0 0.3452839633343866 -0.13323045223325389 0 0.34693271723154961 -0.14465134044287281 0 0.36382972309248252 -0.13496015966961369 0 0.35351483729391309 -0.1568558301439755 0 0.33514432479548623 -0.1503067940762938 0 0.34693271723154961 -0.14465134044287281 0 0.35351483729391309 -0.1568558301439755 0 0.36382972309248252 -0.13496015966961369 0 0.35351483729391309 -0.1568558301439755 0 0.37332510891082471 -0.1446035987946839 0 0.35351483729391309 -0.1568558301439755 0 0.35886932022109869 -0.16459274030174589 0 0.37332510891082471 -0.1446035987946839 0 0.36382972309248252 -0.13496015966961369 0 0.35351483729391309 -0.1568558301439755 0 0.37332510891082471 -0.1446035987946839 0 0.35886932022109869 -0.16459274030174589 0 0.37332510891082471 -0.1446035987946839 0 0.35351483729391309 -0.1568558301439755 0 0.37332510891082471 -0.1446035987946839 0 0.36382972309248252 -0.13496015966961369 0 0.38168798304670581 -0.13303960335341811 0 0.37414460889104878 -0.1130644891952505 0 0.36382972309248252 -0.13496015966961369 0 0.38168798304670581 -0.13303960335341811 0 0.34167697088140347 -0.1819843703090975 0 0.34441353153137361 -0.18458188180880841 0 0.35886932022109869 -0.16459274030174589 0 0.35498064904055743 -0.17780432810737401 0 0.34441353153137361 -0.18458188180880841 0 0.35886932022109869 -0.16459274030174589 0 0.34441353153137361 -0.18458188180880841 0 0.35886932022109869 -0.16459274030174589 0 0.35498064904055743 -0.17780432810737401 0 0.35886932022109869 -0.16459274030174589 0 0.36386463652432288 -0.17374917714402771 0 0.35390167363100272 -0.18437434707901981 0 0.35720707105288502 -0.1881335113040743 0 0.34907870663112772 -0.18951517127678719 0 0.35498064904055743 -0.17780432810737401 0 0.35390167363100272 -0.18437434707901981 0 0.3598735817499224 -0.18297127795259019 0 0.35390167363100272 -0.18437434707901981 0 0.3598735817499224 -0.18297127795259019 0 0.35720707105288502 -0.1881335113040743 0 0.35498064904055743 -0.17780432810737401 0 0.35390167363100272 -0.18437434707901981 0 0.3505936402085153 -0.1840689320679974 0 0.35498064904055743 -0.17780432810737401 0 0.3505936402085153 -0.1840689320679974 0 0.34441353153137361 -0.18458188180880841 0 0.3505936402085153 -0.1840689320679974 0 0.34441353153137361 -0.18458188180880841 0 0.34907870663112772 -0.18951517127678719 0 0.35390167363100272 -0.18437434707901981 0 0.3505936402085153 -0.1840689320679974 0 0.34907870663112772 -0.18951517127678719 0 0.34167697088140347 -0.1819843703090975 0 0.35351483729391309 -0.1568558301439755 0 0.34167697088140347 -0.1819843703090975 0 0.35351483729391309 -0.1568558301439755 0 0.35886932022109869 -0.16459274030174589 0 0.35886932022109869 -0.16459274030174589 0 0.37041767073275472 -0.16275687789727281 0 0.36386463652432288 -0.17374917714402771 0 0.37332510891082471 -0.1446035987946839 0 0.35886932022109869 -0.16459274030174589 0 0.37041767073275472 -0.16275687789727281 0 0.37041767073275472 -0.16275687789727281 0 0.37444063774910519 -0.17249378005705551 0 0.36386463652432288 -0.17374917714402771 0 0.37444063774910519 -0.17249378005705551 0 0.36386463652432288 -0.17374917714402771 0 0.36769797810238208 -0.18438112537597559 0 0.35498064904055743 -0.17780432810737401 0 0.36386463652432288 -0.17374917714402771 0 0.3598735817499224 -0.18297127795259019 0 0.36386463652432288 -0.17374917714402771 0 0.3598735817499224 -0.18297127795259019 0 0.36769797810238208 -0.18438112537597559 0 0.3598735817499224 -0.18297127795259019 0 0.36769797810238208 -0.18438112537597559 0 0.3616533692119881 -0.1906703968098237 0 0.3598735817499224 -0.18297127795259019 0 0.3616533692119881 -0.1906703968098237 0 0.35720707105288502 -0.1881335113040743 0 0.37444063774910519 -0.17249378005705551 0 0.36769797810238208 -0.18438112537597559 0 0.37753710575082883 -0.1857987300002315 0 0.36769797810238208 -0.18438112537597559 0 0.36564785382202769 -0.19838250695263879 0 0.37753710575082883 -0.1857987300002315 0 0.36564785382202769 -0.19838250695263879 0 0.36397349117651712 -0.20178470310456981 0 0.37753710575082883 -0.1857987300002315 0 0.36397349117651712 -0.20178470310456981 0 0.37753710575082883 -0.1857987300002315 0 0.36397349117651712 -0.20178470310456981 0 0.37779176301256412 -0.20303118393419689 0 0.37753710575082883 -0.1857987300002315 0 0.36397349117651712 -0.20178470310456981 0 0.3598722948750534 -0.19689256067629471 0 0.35535686273347189 -0.19862930743639631 0 0.36564785382202769 -0.19838250695263879 0 0.36397349117651712 -0.20178470310456981 0 0.36564785382202769 -0.19838250695263879 0 0.36397349117651712 -0.20178470310456981 0 0.3598722948750534 -0.19689256067629471 0 0.36564785382202769 -0.19838250695263879 0 0.3598722948750534 -0.19689256067629471 0 0.3616533692119881 -0.1906703968098237 0 0.36769797810238208 -0.18438112537597559 0 0.36564785382202769 -0.19838250695263879 0 0.3616533692119881 -0.1906703968098237 0 0.36397349117651712 -0.20178470310456981 0 0.36914750977271921 -0.21342152861509031 0 0.35160953993585831 -0.2269074490320683 0 0.36397349117651712 -0.20178470310456981 0 0.36914750977271921 -0.21342152861509031 0 0.37779176301256412 -0.20303118393419689 0 0.36397349117651712 -0.20178470310456981 0 0.34735577826220387 -0.2213702133126603 0 0.36397349117651712 -0.20178470310456981 0 0.35160953993585831 -0.2269074490320683 0 0.36397349117651712 -0.20178470310456981 0 0.35020069666593601 -0.2101858486721763 0 0.34735577826220387 -0.2213702133126603 0 0.36397349117651712 -0.20178470310456981 0 0.34735577826220387 -0.2213702133126603 0 0.35160953993585831 -0.2269074490320683 0 0.36397349117651712 -0.20178470310456981 0 0.35020069666593601 -0.2101858486721763 0 0.34967659601343182 -0.205237706057668 0 0.35020069666593601 -0.2101858486721763 0 0.34967659601343182 -0.205237706057668 0 0.339796921211592 -0.2123507722138076 0 0.34967659601343182 -0.205237706057668 0 0.34308007349514041 -0.19823365689958861 0 0.339796921211592 -0.2123507722138076 0 0.35020069666593601 -0.2101858486721763 0 0.339796921211592 -0.2123507722138076 0 0.34735577826220387 -0.2213702133126603 0 0.35488947735419468 -0.1934133531733587 0 0.35720707105288502 -0.1881335113040743 0 0.34907870663112772 -0.18951517127678719 0 0.3616533692119881 -0.1906703968098237 0 0.35488947735419468 -0.1934133531733587 0 0.35720707105288502 -0.1881335113040743 0 0.3598722948750534 -0.19689256067629471 0 0.3616533692119881 -0.1906703968098237 0 0.35488947735419468 -0.1934133531733587 0 0.36397349117651712 -0.20178470310456981 0 0.34967659601343182 -0.205237706057668 0 0.35535686273347189 -0.19862930743639631 0 0.3598722948750534 -0.19689256067629471 0 0.35488947735419468 -0.1934133531733587 0 0.35535686273347189 -0.19862930743639631 0 0.34967659601343182 -0.205237706057668 0 0.35535686273347189 -0.19862930743639631 0 0.34983237496052749 -0.19666651759771139 0 0.35488947735419468 -0.1934133531733587 0 0.35535686273347189 -0.19862930743639631 0 0.34983237496052749 -0.19666651759771139 0 0.34967659601343182 -0.205237706057668 0 0.34983237496052749 -0.19666651759771139 0 0.34308007349514041 -0.19823365689958861 0 0.34441353153137361 -0.18458188180880841 0 0.34907870663112772 -0.18951517127678719 0 0.34308007349514041 -0.19823365689958861 0 0.34983237496052749 -0.19666651759771139 0 0.34907870663112772 -0.18951517127678719 0 0.34308007349514041 -0.19823365689958861 0 0.35488947735419468 -0.1934133531733587 0 0.34983237496052749 -0.19666651759771139 0 0.34907870663112772 -0.18951517127678719 0 0.34441353153137361 -0.18458188180880841 0 0.34308007349514041 -0.19823365689958861 0 0.3299577428416483 -0.20457102331587099 0 0.34441353153137361 -0.18458188180880841 0 0.3299577428416483 -0.20457102331587099 0 0.34441353153137361 -0.18458188180880841 0 0.3299577428416483 -0.20457102331587099 0 0.32701603034658389 -0.1885228362372538 0 0.339796921211592 -0.2123507722138076 0 0.33134681026923613 -0.2205411484389353 0 0.34735577826220387 -0.2213702133126603 0 0.339796921211592 -0.2123507722138076 0 0.3299577428416483 -0.20457102331587099 0 0.33134681026923613 -0.2205411484389353 0 0.34308007349514041 -0.19823365689958861 0 0.339796921211592 -0.2123507722138076 0 0.3299577428416483 -0.20457102331587099 0 0.3299577428416483 -0.20457102331587099 0 0.31399587389391442 -0.2204306930805128 0 0.33134681026923613 -0.2205411484389353 0 0.30840129665258081 -0.20337615167826509 0 0.3299577428416483 -0.20457102331587099 0 0.31399587389391442 -0.2204306930805128 0 0.30840129665258081 -0.20337615167826509 0 0.30725948101702788 -0.18546378349299619 0 0.32701603034658389 -0.1885228362372538 0 0.30840129665258081 -0.20337615167826509 0 0.3299577428416483 -0.20457102331587099 0 0.32701603034658389 -0.1885228362372538 0 0.31301507341631019 -0.23717240786443211 0 0.32975453332214227 -0.2364922944444256 0 0.32481305301011071 -0.2506547068391321 0 0.31301507341631019 -0.23717240786443211 0 0.32481305301011071 -0.2506547068391321 0 0.31200767160584758 -0.25248528850130292 0 0.31301507341631019 -0.23717240786443211 0 0.31399587389391442 -0.2204306930805128 0 0.32975453332214227 -0.2364922944444256 0 0.31399587389391442 -0.2204306930805128 0 0.33134681026923613 -0.2205411484389353 0 0.32975453332214227 -0.2364922944444256 0 0.33134681026923613 -0.2205411484389353 0 0.33986245009692778 -0.23146826003753121 0 0.32975453332214227 -0.2364922944444256 0 0.33134681026923613 -0.2205411484389353 0 0.33986245009692778 -0.23146826003753121 0 0.34735577826220387 -0.2213702133126603 0 0.33986245009692778 -0.23146826003753121 0 0.32975453332214227 -0.2364922944444256 0 0.33924558869519972 -0.25203019495956702 0 0.33986245009692778 -0.23146826003753121 0 0.35160953993585831 -0.2269074490320683 0 0.33924558869519972 -0.25203019495956702 0 0.32975453332214227 -0.2364922944444256 0 0.33924558869519972 -0.25203019495956702 0 0.32975453332214227 -0.2364922944444256 0 0.32481305301011071 -0.2506547068391321 0 0.33924558869519972 -0.25203019495956702 0 0.34766899611191632 -0.24905547854379589 0 0.35160953993585831 -0.2269074490320683 0 0.33924558869519972 -0.25203019495956702 0 0.34766899611191632 -0.24905547854379589 0 0.35560328176390438 -0.24591973778355361 0 0.35160953993585831 -0.2269074490320683 0 0.35560328176390438 -0.24591973778355361 0 0.35160953993585831 -0.2269074490320683 0 0.36572465885048677 -0.23700507780436869 0 0.35160953993585831 -0.2269074490320683 0 0.33924558869519972 -0.25203019495956702 0 0.33986245009692778 -0.23146826003753121 0 0.34735577826220387 -0.2213702133126603 0 0.35160953993585831 -0.2269074490320683 0 0.36914750977271921 -0.21342152861509031 0 0.35160953993585831 -0.2269074490320683 0 0.36572465885048677 -0.23700507780436869 0 0.36914750977271921 -0.21342152861509031 0 0.36572465885048677 -0.23700507780436869 0 0.36914750977271921 -0.21342152861509031 0 0.36572465885048677 -0.23700507780436869 0 0.37591674940047148 -0.2267436074041681 0 0.36914750977271921 -0.21342152861509031 0 0.37591674940047148 -0.2267436074041681 0 0.37990518941070711 -0.2165275492817153 0 0.35560328176390438 -0.24591973778355361 0 0.36572465885048677 -0.23700507780436869 0 0.36230180792825439 -0.26058862699364721 0 0.36572465885048677 -0.23700507780436869 0 0.36230180792825439 -0.26058862699364721 0 0.36572465885048677 -0.23700507780436869 0 0.38006364626063799 -0.23942183657347069 0 0.37591674940047148 -0.2267436074041681 0 0.36572465885048677 -0.23700507780436869 0 0.38006364626063799 -0.23942183657347069 0 0.3738324275777285 -0.25261283991301198 0 0.38006364626063799 -0.23942183657347069 0 0.39662928133952807 -0.2406849077586907 0 0.38656285296170678 -0.25583090435877842 0 0.38006364626063799 -0.23942183657347069 0 0.38656285296170678 -0.25583090435877842 0 0.3738324275777285 -0.25261283991301198 0 0.38006364626063799 -0.23942183657347069 0 0.39662928133952807 -0.2406849077586907 0 0.3853786324712305 -0.22811691082694949 0 0.39662928133952807 -0.2406849077586907 0 0.39602426409116492 -0.21958194698536579 0 0.3853786324712305 -0.22811691082694949 0 0.39602426409116492 -0.21958194698536579 0 0.40949758388478158 -0.21626055666235461 0 0.41077835272804369 -0.2350123431268587 0 0.39662928133952807 -0.2406849077586907 0 0.39602426409116492 -0.21958194698536579 0 0.41077835272804369 -0.2350123431268587 0 0.39602426409116492 -0.21958194698536579 0 0.3853786324712305 -0.22811691082694949 0 0.37990518941070711 -0.2165275492817153 0 0.38006364626063799 -0.23942183657347069 0 0.3853786324712305 -0.22811691082694949 0 0.37591674940047148 -0.2267436074041681 0 0.3853786324712305 -0.22811691082694949 0 0.37591674940047148 -0.2267436074041681 0 0.37990518941070711 -0.2165275492817153 0 0.36914750977271921 -0.21342152861509031 0 0.37990518941070711 -0.2165275492817153 0 0.37779176301256412 -0.20303118393419689 0 0.39602426409116492 -0.21958194698536579 0 0.37990518941070711 -0.2165275492817153 0 0.38847657239927469 -0.20561563430279159 0 0.37990518941070711 -0.2165275492817153 0 0.38847657239927469 -0.20561563430279159 0 0.37779176301256412 -0.20303118393419689 0 0.37779176301256412 -0.20303118393419689 0 0.38749202079653289 -0.19339806448113001 0 0.37753710575082883 -0.1857987300002315 0 0.38847657239927469 -0.20561563430279159 0 0.37779176301256412 -0.20303118393419689 0 0.38749202079653289 -0.19339806448113001 0 0.38847657239927469 -0.20561563430279159 0 0.38749202079653289 -0.19339806448113001 0 0.4015042364045886 -0.1948557269382 0 0.39602426409116492 -0.21958194698536579 0 0.4015042364045886 -0.1948557269382 0 0.40949758388478158 -0.21626055666235461 0 0.39602426409116492 -0.21958194698536579 0 0.38847657239927469 -0.20561563430279159 0 0.4015042364045886 -0.1948557269382 0 0.4015042364045886 -0.1948557269382 0 0.40949758388478158 -0.21626055666235461 0 0.41743817796028371 -0.20213090143470819 0 0.40949758388478158 -0.21626055666235461 0 0.42159330861277711 -0.21739171563296431 0 0.41743817796028371 -0.20213090143470819 0 0.4015042364045886 -0.1948557269382 0 0.41743817796028371 -0.20213090143470819 0 0.41347121665064718 -0.18716427390223209 0 0.41743817796028371 -0.20213090143470819 0 0.42442166664656089 -0.18958231939237721 0 0.41347121665064718 -0.18716427390223209 0 0.42442166664656089 -0.18958231939237721 0 0.43502903224828399 -0.20145410156617949 0 0.43383466624182909 -0.20661735461105771 0 0.42442166664656089 -0.18958231939237721 0 0.43383466624182909 -0.20661735461105771 0 0.41743817796028371 -0.20213090143470819 0 0.42442166664656089 -0.18958231939237721 0 0.43383466624182909 -0.20661735461105771 0 0.43502903224828399 -0.20145410156617949 0 0.43571855325851488 -0.1925195371016947 0 0.43919355456738801 -0.19705714809585201 0 0.42442166664656089 -0.18958231939237721 0 0.43502903224828399 -0.20145410156617949 0 0.43571855325851488 -0.1925195371016947 0 0.42442166664656089 -0.18958231939237721 0 0.43571855325851488 -0.1925195371016947 0 0.4369004316008635 -0.18488692464027651 0 0.42159330861277711 -0.21739171563296431 0 0.41743817796028371 -0.20213090143470819 0 0.43383466624182909 -0.20661735461105771 0 0.42159330861277711 -0.21739171563296431 0 0.43383466624182909 -0.20661735461105771 0 0.42853220684094773 -0.2295399256646535 0 0.43383466624182909 -0.20661735461105771 0 0.42853220684094773 -0.2295399256646535 0 0.43383466624182909 -0.20661735461105771 0 0.42853220684094773 -0.2295399256646535 0 0.43844561153490391 -0.21496194388507719 0 0.43383466624182909 -0.20661735461105771 0 0.43844561153490391 -0.21496194388507719 0 0.43502903224828399 -0.20145410156617949 0 0.43383466624182909 -0.20661735461105771 0 0.43502903224828399 -0.20145410156617949 0 0.43383466624182909 -0.20661735461105771 0 0.43988186480406072 -0.20195959741156291 0 0.42853220684094773 -0.2295399256646535 0 0.43844561153490391 -0.21496194388507719 0 0.42853220684094773 -0.2295399256646535 0 0.4388031889743565 -0.2355099012391387 0 0.43844561153490391 -0.21496194388507719 0 0.42853220684094773 -0.2295399256646535 0 0.43321967175138432 -0.2446961265682864 0 0.42222929151299221 -0.25678747506140942 0 0.42853220684094773 -0.2295399256646535 0 0.43321967175138432 -0.2446961265682864 0 0.4388031889743565 -0.2355099012391387 0 0.42853220684094773 -0.2295399256646535 0 0.42222929151299221 -0.25678747506140942 0 0.43321967175138432 -0.2446961265682864 0 0.44151603668321532 -0.2483124178503491 0 0.43360340288649879 -0.25423167993951368 0 0.39662928133952807 -0.2406849077586907 0 0.41077835272804369 -0.2350123431268587 0 0.41205912157130331 -0.25376412959136307 0 0.42853220684094773 -0.2295399256646535 0 0.41205912157130331 -0.25376412959136307 0 0.42222929151299221 -0.25678747506140942 0 0.42853220684094773 -0.2295399256646535 0 0.41205912157130331 -0.25376412959136307 0 0.42853220684094773 -0.2295399256646535 0 0.41077835272804369 -0.2350123431268587 0 0.41205912157130331 -0.25376412959136307 0 0.41077835272804369 -0.2350123431268587 0 0.41205912157130331 -0.25376412959136307 0 0.40949758388478158 -0.21626055666235461 0 0.42159330861277711 -0.21739171563296431 0 0.41077835272804369 -0.2350123431268587 0 0.42159330861277711 -0.21739171563296431 0 0.42853220684094773 -0.2295399256646535 0 0.41077835272804369 -0.2350123431268587 0 0.40949758388478158 -0.21626055666235461 0 0.41077835272804369 -0.2350123431268587 0 0.41498985902531488 -0.1188348376497252 0 0.39241431964752083 -0.13282918244975311 0 0.40586688520046438 -0.1383937441347462 0 0.39241431964752083 -0.13282918244975311 0 0.40840901913620309 -0.12821766162777271 0 0.41498985902531488 -0.1188348376497252 0 0.39241431964752083 -0.13282918244975311 0 0.40840901913620309 -0.12821766162777271 0 0.40586688520046438 -0.1383937441347462 0 0.39241431964752083 -0.13282918244975311 0 0.3972237736383043 -0.14118263713793791 0 0.39241431964752083 -0.13282918244975311 0 0.38925457769139732 -0.1456593055465864 0 0.3972237736383043 -0.14118263713793791 0 0.39241431964752083 -0.13282918244975311 0 0.3866526147755342 -0.12617462156044559 0 0.38168798304670581 -0.13303960335341811 0 0.39217702716642111 -0.11739839269425301 0 0.39241431964752083 -0.13282918244975311 0 0.3866526147755342 -0.12617462156044559 0 0.37332510891082471 -0.1446035987946839 0 0.39241431964752083 -0.13282918244975311 0 0.38133430023610232 -0.1383828884263654 0 0.37332510891082471 -0.1446035987946839 0 0.39241431964752083 -0.13282918244975311 0 0.3866526147755342 -0.12617462156044559 0 0.38168798304670581 -0.13303960335341811 0 0.37332510891082471 -0.1446035987946839 0 0.38168798304670581 -0.13303960335341811 0 0.37332510891082471 -0.1446035987946839 0 0.38168798304670581 -0.13303960335341811 0 0.38133430023610232 -0.1383828884263654 0 0.38168798304670581 -0.13303960335341811 0 0.38133430023610232 -0.1383828884263654 0 0.39241431964752083 -0.13282918244975311 0 0.38168798304670581 -0.13303960335341811 0 0.38133430023610232 -0.1383828884263654 0 0.37332510891082471 -0.1446035987946839 0 0.37041767073275472 -0.16275687789727281 0 0.3815886502584212 -0.15834509318885021 0 0.37332510891082471 -0.1446035987946839 0 0.39241431964752083 -0.13282918244975311 0 0.38925457769139732 -0.1456593055465864 0 0.37332510891082471 -0.1446035987946839 0 0.38925457769139732 -0.1456593055465864 0 0.3815886502584212 -0.15834509318885021 0 0.38925457769139732 -0.1456593055465864 0 0.39283028722784452 -0.15496008679463349 0 0.3815886502584212 -0.15834509318885021 0 0.38925457769139732 -0.1456593055465864 0 0.39283028722784452 -0.15496008679463349 0 0.40137356222436149 -0.1478713571659053 0 0.38925457769139732 -0.1456593055465864 0 0.3972237736383043 -0.14118263713793791 0 0.40137356222436149 -0.1478713571659053 0 0.40586688520046438 -0.1383937441347462 0 0.3972237736383043 -0.14118263713793791 0 0.40137356222436149 -0.1478713571659053 0 0.39283028722784452 -0.15496008679463349 0 0.40137356222436149 -0.1478713571659053 0 0.40466433489945391 -0.15382678379155629 0 0.40137356222436149 -0.1478713571659053 0 0.40466433489945391 -0.15382678379155629 0 0.39283028722784452 -0.15496008679463349 0 0.40466433489945391 -0.15382678379155629 0 0.3911007203251412 -0.1698127568958937 0 0.40466433489945391 -0.15382678379155629 0 0.3911007203251412 -0.1698127568958937 0 0.40466433489945391 -0.15382678379155629 0 0.3911007203251412 -0.1698127568958937 0 0.41210132473639988 -0.1672857649071014 0 0.3911007203251412 -0.1698127568958937 0 0.40854548179888073 -0.1765368395142333 0 0.41210132473639988 -0.1672857649071014 0 0.37444063774910519 -0.17249378005705551 0 0.3911007203251412 -0.1698127568958937 0 0.3815886502584212 -0.15834509318885021 0 0.39283028722784452 -0.15496008679463349 0 0.3911007203251412 -0.1698127568958937 0 0.3815886502584212 -0.15834509318885021 0 0.37041767073275472 -0.16275687789727281 0 0.37444063774910519 -0.17249378005705551 0 0.3815886502584212 -0.15834509318885021 0 0.37444063774910519 -0.17249378005705551 0 0.3911007203251412 -0.1698127568958937 0 0.37753710575082883 -0.1857987300002315 0 0.38749202079653289 -0.19339806448113001 0 0.3911007203251412 -0.1698127568958937 0 0.37753710575082883 -0.1857987300002315 0 0.3911007203251412 -0.1698127568958937 0 0.37753710575082883 -0.1857987300002315 0 0.38749202079653289 -0.19339806448113001 0 0.4015042364045886 -0.1948557269382 0 0.3911007203251412 -0.1698127568958937 0 0.4015042364045886 -0.1948557269382 0 0.3911007203251412 -0.1698127568958937 0 0.40854548179888073 -0.1765368395142333 0 0.4015042364045886 -0.1948557269382 0 0.40854548179888073 -0.1765368395142333 0 0.4015042364045886 -0.1948557269382 0 0.41347121665064718 -0.18716427390223209 0 0.40854548179888073 -0.1765368395142333 0 0.42442166664656089 -0.18958231939237721 0 0.41347121665064718 -0.18716427390223209 0 0.41500866705129252 -0.17254728417369691 0 0.42442166664656089 -0.18958231939237721 0 0.41500866705129252 -0.17254728417369691 0 0.40854548179888073 -0.1765368395142333 0 0.41500866705129252 -0.17254728417369691 0 0.41210132473639988 -0.1672857649071014 0 0.41347121665064718 -0.18716427390223209 0 0.40854548179888073 -0.1765368395142333 0 0.41500866705129252 -0.17254728417369691 0 0.40854548179888073 -0.1765368395142333 0 0.41210132473639988 -0.1672857649071014 0 0.40854548179888073 -0.1765368395142333 0 0.41500866705129252 -0.17254728417369691 0 0.42442166664656089 -0.18958231939237721 0 0.41500866705129252 -0.17254728417369691 0 0.43316641685927282 -0.1767882461550177 0 0.42442166664656089 -0.18958231939237721 0 0.4369004316008635 -0.18488692464027651 0 0.43316641685927282 -0.1767882461550177 0 0.41500866705129252 -0.17254728417369691 0 0.43316641685927282 -0.1767882461550177 0 0.42969287286296609 -0.1624142696860689 0 0.41500866705129252 -0.17254728417369691 0 0.42969287286296609 -0.1624142696860689 0 0.43316641685927282 -0.1767882461550177 0 0.42969287286296609 -0.1624142696860689 0 0.44578398055619828 -0.16785997807870939 0 0.42969287286296609 -0.1624142696860689 0 0.44437707867463988 -0.15228125519844149 0 0.41210132473639988 -0.1672857649071014 0 0.41991011585155419 -0.14696998874174219 0 0.42969287286296609 -0.1624142696860689 0 0.41210132473639988 -0.1672857649071014 0 0.41991011585155419 -0.14696998874174219 0 0.41500866705129252 -0.17254728417369691 0 0.42969287286296609 -0.1624142696860689 0 0.41210132473639988 -0.1672857649071014 0 0.41500866705129252 -0.17254728417369691 0 0.41210132473639988 -0.1672857649071014 0 0.40466433489945391 -0.15382678379155629 0 0.41210132473639988 -0.1672857649071014 0 0.40466433489945391 -0.15382678379155629 0 0.41210132473639988 -0.1672857649071014 0 0.41991011585155419 -0.14696998874174219 0 0.40466433489945391 -0.15382678379155629 0 0.41619182173933661 -0.14024057536803031 0 0.40137356222436149 -0.1478713571659053 0 0.40466433489945391 -0.15382678379155629 0 0.41619182173933661 -0.14024057536803031 0 0.40586688520046438 -0.1383937441347462 0 0.40137356222436149 -0.1478713571659053 0 0.41619182173933661 -0.14024057536803031 0 0.40466433489945391 -0.15382678379155629 0 0.41991011585155419 -0.14696998874174219 0 0.41619182173933661 -0.14024057536803031 0 0.42969287286296609 -0.1624142696860689 0 0.41991011585155419 -0.14696998874174219 0 0.43286245213425728 -0.1499961611329047 0 0.42969287286296609 -0.1624142696860689 0 0.43286245213425728 -0.1499961611329047 0 0.44437707867463988 -0.15228125519844149 0 0.43286245213425728 -0.1499961611329047 0 0.43072866236769908 -0.13889269744207811 0 0.44287221630449991 -0.13561780898041351 0 0.41991011585155419 -0.14696998874174219 0 0.43286245213425728 -0.1499961611329047 0 0.43072866236769908 -0.13889269744207811 0 0.41991011585155419 -0.14696998874174219 0 0.42771930857921958 -0.1266543669445046 0 0.42771930857921958 -0.1266543669445046 0 0.41619182173933661 -0.14024057536803031 0 0.41991011585155419 -0.14696998874174219 0 0.43072866236769908 -0.13889269744207811 0 0.42771930857921958 -0.1266543669445046 0 0.43072866236769908 -0.13889269744207811 0 0.43470664847631307 -0.12766672423060421 0 0.44287221630449991 -0.13561780898041351 0 0.43072866236769908 -0.13889269744207811 0 0.43470664847631307 -0.12766672423060421 0 0.42771930857921958 -0.1266543669445046 0 0.41991011585155419 -0.14696998874174219 0 0.42771930857921958 -0.1266543669445046 0 0.41619182173933661 -0.14024057536803031 0 0.42771930857921958 -0.1266543669445046 0 0.41619182173933661 -0.14024057536803031 0 0.40840901913620309 -0.12821766162777271 0 0.40586688520046438 -0.1383937441347462 0 0.41619182173933661 -0.14024057536803031 0 0.40840901913620309 -0.12821766162777271 0 0.45048228885265051 -0.12458462941874569 0 0.45712372480540059 -0.14348527729073679 0 0.46356397266065752 -0.12615414689882651 0 0.45712372480540059 -0.14348527729073679 0 0.47631849118330938 -0.13023969572585831 0 0.45712372480540059 -0.14348527729073679 0 0.47631849118330938 -0.13023969572585831 0 0.45712372480540059 -0.14348527729073679 0 0.46852816151852711 -0.1419177572790398 0 0.47631849118330938 -0.13023969572585831 0 0.45048228885265051 -0.12458462941874569 0 0.46356397266065752 -0.12615414689882651 0 0.45712372480540059 -0.14348527729073679 0 0.44136735393435877 -0.11895436276238559 0 0.44287221630449991 -0.13561780898041351 0 0.45048228885265051 -0.12458462941874569 0 0.44287221630449991 -0.13561780898041351 0 0.45712372480540059 -0.14348527729073679 0 0.44136735393435877 -0.11895436276238559 0 0.45048228885265051 -0.12458462941874569 0 0.44287221630449991 -0.13561780898041351 0 0.44136735393435877 -0.11895436276238559 0 0.43470664847631307 -0.12766672423060421 0 0.44287221630449991 -0.13561780898041351 0 0.44287221630449991 -0.13561780898041351 0 0.44437707867463988 -0.15228125519844149 0 0.43286245213425728 -0.1499961611329047 0 0.44287221630449991 -0.13561780898041351 0 0.44437707867463988 -0.15228125519844149 0 0.44437707867463988 -0.15228125519844149 0 0.45712372480540059 -0.14348527729073679 0 0.44287221630449991 -0.13561780898041351 0 0.44437707867463988 -0.15228125519844149 0 0.45712372480540059 -0.14348527729073679 0 0.44437707867463988 -0.15228125519844149 0 0.45864993880048888 -0.14782868035954169 0 0.45404200764197711 -0.15816014568094741 0 0.45864993880048888 -0.14782868035954169 0 0.46269445981217561 -0.1558258980285899 0 0.45404200764197711 -0.15816014568094741 0 0.46269445981217561 -0.1558258980285899 0 0.46322094227526439 -0.16477220770779041 0 0.47925100211277522 -0.14610571445660389 0 0.44437707867463988 -0.15228125519844149 0 0.45712372480540059 -0.14348527729073679 0 0.45864993880048888 -0.14782868035954169 0 0.45712372480540059 -0.14348527729073679 0 0.45864993880048888 -0.14782868035954169 0 0.45864993880048888 -0.14782868035954169 0 0.46728089056099159 -0.14791951253094379 0 0.46852816151852711 -0.1419177572790398 0 0.45712372480540059 -0.14348527729073679 0 0.45864993880048888 -0.14782868035954169 0 0.46852816151852711 -0.1419177572790398 0 0.45864993880048888 -0.14782868035954169 0 0.46728089056099159 -0.14791951253094379 0 0.46269445981217561 -0.1558258980285899 0 0.46322094227526439 -0.16477220770779041 0 0.45404200764197711 -0.15816014568094741 0 0.44578398055619828 -0.16785997807870939 0 0.46269445981217561 -0.1558258980285899 0 0.46322094227526439 -0.16477220770779041 0 0.45404200764197711 -0.15816014568094741 0 0.42969287286296609 -0.1624142696860689 0 0.44437707867463988 -0.15228125519844149 0 0.44578398055619828 -0.16785997807870939 0 0.44437707867463988 -0.15228125519844149 0 0.45404200764197711 -0.15816014568094741 0 0.44578398055619828 -0.16785997807870939 0 0.44437707867463988 -0.15228125519844149 0 0.44578398055619828 -0.16785997807870939 0 0.44578398055619828 -0.16785997807870939 0 0.44719088243775451 -0.18343870095897749 0 0.46322094227526439 -0.16477220770779041 0 0.44578398055619828 -0.16785997807870939 0 0.44719088243775451 -0.18343870095897749 0 0.43316641685927282 -0.1767882461550177 0 0.44578398055619828 -0.16785997807870939 0 0.44719088243775451 -0.18343870095897749 0 0.4369004316008635 -0.18488692464027651 0 0.44387706619469891 -0.1872975342486638 0 0.44719088243775451 -0.18343870095897749 0 0.4369004316008635 -0.18488692464027651 0 0.43316641685927282 -0.1767882461550177 0 0.44719088243775451 -0.18343870095897749 0 0.44387706619469891 -0.1872975342486638 0 0.44719088243775451 -0.18343870095897749 0 0.46322094227526439 -0.16477220770779041 0 0.46931840323959251 -0.1669003304023769 0 0.45938580436640969 -0.18769494634814959 0 0.46931840323959251 -0.1669003304023769 0 0.45938580436640969 -0.18769494634814959 0 0.46322094227526439 -0.16477220770779041 0 0.44719088243775451 -0.18343870095897749 0 0.46403855302843627 -0.18270293135902271 0 0.46931840323959251 -0.1669003304023769 0 0.45938580436640969 -0.18769494634814959 0 0.46322094227526439 -0.16477220770779041 0 0.44719088243775451 -0.18343870095897749 0 0.45938580436640969 -0.18769494634814959 0 0.46403855302843627 -0.18270293135902271 0 0.47843806179775511 -0.1784394908115223 0 0.48250189069034299 -0.1958579048590133 0 0.46403855302843627 -0.18270293135902271 0 0.47843806179775511 -0.1784394908115223 0 0.46931840323959251 -0.1669003304023769 0 0.47843806179775511 -0.1784394908115223 0 0.5 -0.18390271393931371 0 0.48250189069034299 -0.1958579048590133 0 0.47843806179775511 -0.1784394908115223 0 0.5 -0.18390271393931371 0 0.48480308881148843 -0.1615271551447886 0 0.5 -0.18390271393931371 0 0.48480308881148843 -0.1615271551447886 0 0.5 -0.15538709081794869 0 0.46931840323959251 -0.1669003304023769 0 0.47925100211277522 -0.14610571445660389 0 0.48480308881148843 -0.1615271551447886 0 0.46931840323959251 -0.1669003304023769 0 0.47925100211277522 -0.14610571445660389 0 0.46322094227526439 -0.16477220770779041 0 0.46931840323959251 -0.1669003304023769 0 0.47925100211277522 -0.14610571445660389 0 0.47843806179775511 -0.1784394908115223 0 0.48480308881148843 -0.1615271551447886 0 0.46931840323959251 -0.1669003304023769 0 0.46728089056099159 -0.14791951253094379 0 0.46269445981217561 -0.1558258980285899 0 0.47925100211277522 -0.14610571445660389 0 0.46322094227526439 -0.16477220770779041 0 0.47925100211277522 -0.14610571445660389 0 0.46728089056099159 -0.14791951253094379 0 0.46852816151852711 -0.1419177572790398 0 0.47925100211277522 -0.14610571445660389 0 0.5 -0.15538709081794869 0 0.4906824834338146 -0.1448454972177968 0 0.50000000000000022 -0.12687146769658361 0 0.48480308881148843 -0.1615271551447886 0 0.47925100211277522 -0.14610571445660389 0 0.4906824834338146 -0.1448454972177968 0 0.48480308881148843 -0.1615271551447886 0 0.5 -0.15538709081794869 0 0.4906824834338146 -0.1448454972177968 0 0.47925100211277522 -0.14610571445660389 0 0.4906824834338146 -0.1448454972177968 0 0.48935832624480868 -0.1343360579730595 0 0.47925100211277522 -0.14610571445660389 0 0.48935832624480868 -0.1343360579730595 0 0.4860942131156053 -0.13177895602644729 0 0.4906824834338146 -0.1448454972177968 0 0.48935832624480868 -0.1343360579730595 0 0.50000000000000022 -0.12687146769658361 0 0.4994656503768431 -0.12256640148951591 0 0.48935832624480868 -0.1343360579730595 0 0.48857120038041679 -0.1256125201515082 0 0.4994656503768431 -0.12256640148951591 0 0.48935832624480868 -0.1343360579730595 0 0.4994656503768431 -0.12256640148951591 0 0.48935832624480868 -0.1343360579730595 0 0.50000000000000022 -0.12687146769658361 0 0.48935832624480868 -0.1343360579730595 0 0.48857120038041679 -0.1256125201515082 0 0.4860942131156053 -0.13177895602644729 0 0.48213704298207638 -0.1243029659217532 0 0.48857120038041679 -0.1256125201515082 0 0.4860942131156053 -0.13177895602644729 0 0.46852816151852711 -0.1419177572790398 0 0.47925100211277522 -0.14610571445660389 0 0.47631849118330938 -0.13023969572585831 0 0.47925100211277522 -0.14610571445660389 0 0.4860942131156053 -0.13177895602644729 0 0.47631849118330938 -0.13023969572585831 0 0.48213704298207638 -0.1243029659217532 0 0.4860942131156053 -0.13177895602644729 0 0.47631849118330938 -0.13023969572585831 0 0.47925100211277522 -0.14610571445660389 0 0.4860942131156053 -0.13177895602644729 0 0.47925100211277522 -0.14610571445660389 0 0.48935832624480868 -0.1343360579730595 0 0.4733030589782089 -0.1187832607225522 0 0.46356397266065752 -0.12615414689882651 0 0.47631849118330938 -0.13023969572585831 0 0.46261624158384418 -0.22736700929629239 0 0.45230241806133192 -0.2400390922273278 0 0.45087781177727748 -0.2242643272606247 0 0.46261624158384418 -0.22736700929629239 0 0.45087781177727748 -0.2242643272606247 0 0.45883779027999588 -0.2147773665061837 0 0.46261624158384418 -0.22736700929629239 0 0.46630287150538541 -0.23955518564800191 0 0.47685665459845239 -0.23560317082859639 0 0.46630287150538541 -0.23955518564800191 0 0.45230241806133192 -0.2400390922273278 0 0.46983065087919429 -0.25150998945102332 0 0.46261624158384418 -0.22736700929629239 0 0.46630287150538541 -0.23955518564800191 0 0.45230241806133192 -0.2400390922273278 0 0.45230241806133192 -0.2400390922273278 0 0.44151603668321532 -0.2483124178503491 0 0.44617201343810708 -0.2561071796396191 0 0.43321967175138432 -0.2446961265682864 0 0.44151603668321532 -0.2483124178503491 0 0.4388031889743565 -0.2355099012391387 0 0.45230241806133192 -0.2400390922273278 0 0.44151603668321532 -0.2483124178503491 0 0.4388031889743565 -0.2355099012391387 0 0.45230241806133192 -0.2400390922273278 0 0.45087781177727748 -0.2242643272606247 0 0.43844561153490391 -0.21496194388507719 0 0.45230241806133192 -0.2400390922273278 0 0.43844561153490391 -0.21496194388507719 0 0.45230241806133192 -0.2400390922273278 0 0.45087781177727748 -0.2242643272606247 0 0.45230241806133192 -0.2400390922273278 0 0.4388031889743565 -0.2355099012391387 0 0.43844561153490391 -0.21496194388507719 0 0.43844561153490391 -0.21496194388507719 0 0.44387611745089078 -0.20697620954443721 0 0.45087781177727748 -0.2242643272606247 0 0.43844561153490391 -0.21496194388507719 0 0.44945320549322482 -0.20848956229392149 0 0.45087781177727748 -0.2242643272606247 0 0.44945320549322482 -0.20848956229392149 0 0.45087781177727748 -0.2242643272606247 0 0.44945320549322482 -0.20848956229392149 0 0.45883779027999588 -0.2147773665061837 0 0.43383466624182909 -0.20661735461105771 0 0.44387611745089078 -0.20697620954443721 0 0.43988186480406072 -0.20195959741156291 0 0.43844561153490391 -0.21496194388507719 0 0.44387611745089078 -0.20697620954443721 0 0.44945320549322482 -0.20848956229392149 0 0.43383466624182909 -0.20661735461105771 0 0.43844561153490391 -0.21496194388507719 0 0.44387611745089078 -0.20697620954443721 0 0.44387611745089078 -0.20697620954443721 0 0.44945320549322482 -0.20848956229392149 0 0.44387064558727579 -0.1971368716098717 0 0.44719088243775451 -0.18343870095897749 0 0.44945320549322482 -0.20848956229392149 0 0.44387064558727579 -0.1971368716098717 0 0.44719088243775451 -0.18343870095897749 0 0.44945320549322482 -0.20848956229392149 0 0.44719088243775451 -0.18343870095897749 0 0.44945320549322482 -0.20848956229392149 0 0.45938580436640969 -0.18769494634814959 0 0.44387706619469891 -0.1872975342486638 0 0.44035651501233569 -0.1919041830394658 0 0.44387064558727579 -0.1971368716098717 0 0.44387706619469891 -0.1872975342486638 0 0.44719088243775451 -0.18343870095897749 0 0.44387064558727579 -0.1971368716098717 0 0.43571855325851488 -0.1925195371016947 0 0.4369004316008635 -0.18488692464027651 0 0.44035651501233569 -0.1919041830394658 0 0.4369004316008635 -0.18488692464027651 0 0.44387706619469891 -0.1872975342486638 0 0.44035651501233569 -0.1919041830394658 0 0.43571855325851488 -0.1925195371016947 0 0.44035651501233569 -0.1919041830394658 0 0.43919355456738801 -0.19705714809585201 0 0.44387611745089078 -0.20697620954443721 0 0.44387064558727579 -0.1971368716098717 0 0.43988186480406072 -0.20195959741156291 0 0.44035651501233569 -0.1919041830394658 0 0.44387064558727579 -0.1971368716098717 0 0.43919355456738801 -0.19705714809585201 0 0.44387064558727579 -0.1971368716098717 0 0.43919355456738801 -0.19705714809585201 0 0.43988186480406072 -0.20195959741156291 0 0.43502903224828399 -0.20145410156617949 0 0.43919355456738801 -0.19705714809585201 0 0.43988186480406072 -0.20195959741156291 0 0.46403855302843627 -0.18270293135902271 0 0.4704476038134443 -0.20915305109380969 0 0.46403855302843627 -0.18270293135902271 0 0.46044705128973729 -0.2007255439628596 0 0.4704476038134443 -0.20915305109380969 0 0.46403855302843627 -0.18270293135902271 0 0.45938580436640969 -0.18769494634814959 0 0.46044705128973729 -0.2007255439628596 0 0.44945320549322482 -0.20848956229392149 0 0.45938580436640969 -0.18769494634814959 0 0.44945320549322482 -0.20848956229392149 0 0.45938580436640969 -0.18769494634814959 0 0.46044705128973729 -0.2007255439628596 0 0.46261624158384418 -0.22736700929629239 0 0.45883779027999588 -0.2147773665061837 0 0.4704476038134443 -0.20915305109380969 0 0.44945320549322482 -0.20848956229392149 0 0.46044705128973729 -0.2007255439628596 0 0.45883779027999588 -0.2147773665061837 0 0.46044705128973729 -0.2007255439628596 0 0.45883779027999588 -0.2147773665061837 0 0.4704476038134443 -0.20915305109380969 0 0.48320613079507269 -0.21712828694455211 0 0.4704476038134443 -0.20915305109380969 0 0.48250189069034299 -0.1958579048590133 0 0.46403855302843627 -0.18270293135902271 0 0.4704476038134443 -0.20915305109380969 0 0.48250189069034299 -0.1958579048590133 0 0.5 -0.18390271393931371 0 0.48250189069034299 -0.1958579048590133 0 0.50000000000000022 -0.21241833706067881 0 0.48320613079507269 -0.21712828694455211 0 0.48250189069034299 -0.1958579048590133 0 0.50000000000000022 -0.21241833706067881 0 0.50000000000000022 -0.21241833706067881 0 0.49522216721550111 -0.23928824521215311 0 0.5 -0.2383605048986466 0 0.50000000000000022 -0.21241833706067881 0 0.49522216721550111 -0.23928824521215311 0 0.50000000000000022 -0.21241833706067881 0 0.48622450487312358 -0.2326089708806624 0 0.49522216721550111 -0.23928824521215311 0 0.48320613079507269 -0.21712828694455211 0 0.50000000000000022 -0.21241833706067881 0 0.48622450487312358 -0.2326089708806624 0 0.48320613079507269 -0.21712828694455211 0 0.4704476038134443 -0.20915305109380969 0 0.47685665459845239 -0.23560317082859639 0 0.4704476038134443 -0.20915305109380969 0 0.47685665459845239 -0.23560317082859639 0 0.46261624158384418 -0.22736700929629239 0 0.4704476038134443 -0.20915305109380969 0 0.47685665459845239 -0.23560317082859639 0 0.48320613079507269 -0.21712828694455211 0 0.48622450487312358 -0.2326089708806624 0 0.47685665459845239 -0.23560317082859639 0 0.47406397059162309 -0.24718040912275119 0 0.47685665459845239 -0.23560317082859639 0 0.48326570538346042 -0.26205329056338322 0 0.48622450487312358 -0.2326089708806624 0 0.47685665459845239 -0.23560317082859639 0 0.48833441965206348 -0.24938356212214491 0 0.47685665459845239 -0.23560317082859639 0 0.48326570538346042 -0.26205329056338322 0 0.47685665459845239 -0.23560317082859639 0 0.48833441965206348 -0.24938356212214491 0 0.48326570538346042 -0.26205329056338322 0 0.46630287150538541 -0.23955518564800191 0 0.47406397059162309 -0.24718040912275119 0 0.46983065087919429 -0.25150998945102332 0 0.46630287150538541 -0.23955518564800191 0 0.47406397059162309 -0.24718040912275119 0 0.47685665459845239 -0.23560317082859639 0 0.48622450487312358 -0.2326089708806624 0 0.48833441965206348 -0.24938356212214491 0 0.49522216721550111 -0.23928824521215311 0 0.5 -0.2383605048986466 0 0.5 -0.26430267273661417 0 0.48622450487312358 -0.2326089708806624 0 0.49522216721550111 -0.23928824521215311 0 0.48833441965206348 -0.24938356212214491 0 0.49522216721550111 -0.23928824521215311 0 0.5 -0.26430267273661417 0 0.49044433443100249 -0.26615815336362753 0 0.49522216721550111 -0.23928824521215311 0 0.49044433443100249 -0.26615815336362753 0 0.48833441965206348 -0.24938356212214491 0 0.49044433443100249 -0.26615815336362753 0 0.48326570538346042 -0.26205329056338322 0 0.48833441965206348 -0.24938356212214491 0 0.49044433443100249 -0.26615815336362753 0 0.49522216721550111 -0.23928824521215311 0 0.48833441965206348 -0.24938356212214491 0 0.49044433443100249 -0.26615815336362753 0 0.49044433443100249 -0.26615815336362753 0 0.49362955628733562 -0.29148182765925729 0 0.5 -0.26430267273661417 0 0.49044433443100249 -0.26615815336362753 0 0.5 -0.29024484057458189 0 0.49044433443100249 -0.26615815336362753 0 0.48057310299452372 -0.27442308909601498 0 0.48762663632798459 -0.2820045198317635 0 0.49044433443100249 -0.26615815336362753 0 0.48762663632798459 -0.2820045198317635 0 0.49362955628733562 -0.29148182765925729 0 0.49044433443100249 -0.26615815336362753 0 0.48762663632798459 -0.2820045198317635 0 0.46655129747789859 -0.26582578861792311 0 0.46648434844441078 -0.28210885188262103 0 0.4808001768944658 -0.29161248500851811 0 0.46655129747789859 -0.26582578861792311 0 0.4808001768944658 -0.29161248500851811 0 0.48057310299452372 -0.27442308909601498 0 0.46655129747789859 -0.26582578861792311 0 0.4808001768944658 -0.29161248500851811 0 0.49044433443100249 -0.26615815336362753 0 0.48057310299452372 -0.27442308909601498 0 0.47857046583783919 -0.26613788725429688 0 0.48057310299452372 -0.27442308909601498 0 0.47857046583783919 -0.26613788725429688 0 0.46655129747789859 -0.26582578861792311 0 0.49044433443100249 -0.26615815336362753 0 0.47857046583783919 -0.26613788725429688 0 0.48326570538346042 -0.26205329056338322 0 0.47857046583783919 -0.26613788725429688 0 0.48326570538346042 -0.26205329056338322 0 0.47427268089545521 -0.26147589182264319 0 0.47857046583783919 -0.26613788725429688 0 0.47427268089545521 -0.26147589182264319 0 0.46655129747789859 -0.26582578861792311 0 0.47427268089545521 -0.26147589182264319 0 0.46983065087919429 -0.25150998945102332 0 0.46655129747789859 -0.26582578861792311 0 0.48326570538346042 -0.26205329056338322 0 0.47427268089545521 -0.26147589182264319 0 0.46983065087919429 -0.25150998945102332 0 0.47406397059162309 -0.24718040912275119 0 0.48326570538346042 -0.26205329056338322 0 0.46983065087919429 -0.25150998945102332 0 0.45230241806133192 -0.2400390922273278 0 0.46655129747789859 -0.26582578861792311 0 0.45230241806133192 -0.2400390922273278 0 0.46983065087919429 -0.25150998945102332 0 0.46655129747789859 -0.26582578861792311 0 0.45230241806133192 -0.2400390922273278 0 0.4544050332898435 -0.26332149763043228 0 0.45230241806133192 -0.2400390922273278 0 0.4544050332898435 -0.26332149763043228 0 0.46655129747789859 -0.26582578861792311 0 0.4544050332898435 -0.26332149763043228 0 0.45650764851835468 -0.28660390303353689 0 0.4544050332898435 -0.26332149763043228 0 0.46655129747789859 -0.26582578861792311 0 0.46648434844441078 -0.28210885188262103 0 0.4544050332898435 -0.26332149763043228 0 0.45650764851835468 -0.28660390303353689 0 0.46648434844441078 -0.28210885188262103 0 0.44362635413971241 -0.27008751180580409 0 0.4432464161900817 -0.28210384722497511 0 0.45650764851835468 -0.28660390303353689 0 0.4544050332898435 -0.26332149763043228 0 0.44362635413971241 -0.27008751180580409 0 0.45650764851835468 -0.28660390303353689 0 0.44362635413971241 -0.27008751180580409 0 0.4432464161900817 -0.28210384722497511 0 0.43487649240927662 -0.27917736185693021 0 0.45230241806133192 -0.2400390922273278 0 0.4544050332898435 -0.26332149763043228 0 0.44617201343810708 -0.2561071796396191 0 0.44362635413971241 -0.27008751180580409 0 0.43901022501643222 -0.25877537868418221 0 0.43204178946846999 -0.26258700153334152 0 0.44362635413971241 -0.27008751180580409 0 0.43901022501643222 -0.25877537868418221 0 0.44617201343810708 -0.2561071796396191 0 0.44151603668321532 -0.2483124178503491 0 0.43901022501643222 -0.25877537868418221 0 0.43360340288649879 -0.25423167993951368 0 0.44151603668321532 -0.2483124178503491 0 0.43901022501643222 -0.25877537868418221 0 0.44617201343810708 -0.2561071796396191 0 0.4544050332898435 -0.26332149763043228 0 0.44362635413971241 -0.27008751180580409 0 0.44617201343810708 -0.2561071796396191 0 0.44577475803217281 -0.30893570852775948 0 0.43539968905874932 -0.31538212215458122 0 0.43317152862003522 -0.30643914421406981 0 0.44577475803217281 -0.30893570852775948 0 0.4432464161900817 -0.28210384722497511 0 0.45650764851835468 -0.28660390303353689 0 0.44577475803217281 -0.30893570852775948 0 0.4432464161900817 -0.28210384722497511 0 0.43339554189793777 -0.29346357032114778 0 0.44577475803217281 -0.30893570852775948 0 0.4432464161900817 -0.28210384722497511 0 0.45650764851835468 -0.28660390303353689 0 0.46621582404269019 -0.29278182216849069 0 0.45861026374686592 -0.3098863084366415 0 0.45650764851835468 -0.28660390303353689 0 0.46648434844441078 -0.28210885188262103 0 0.46621582404269019 -0.29278182216849069 0 0.46648434844441078 -0.28210885188262103 0 0.46621582404269019 -0.29278182216849069 0 0.47259579538353202 -0.2933050110643512 0 0.44577475803217281 -0.30893570852775948 0 0.45650764851835468 -0.28660390303353689 0 0.45861026374686592 -0.3098863084366415 0 0.46621582404269019 -0.29278182216849069 0 0.45861026374686592 -0.3098863084366415 0 0.47157827151021059 -0.3020626665512936 0 0.45650764851835468 -0.28660390303353689 0 0.45861026374686592 -0.3098863084366415 0 0.45861026374686592 -0.3098863084366415 0 0.47157827151021059 -0.3020626665512936 0 0.47106252071660037 -0.31390800406871489 0 0.47788828305655739 -0.3057624958576276 0 0.48480893822496751 -0.29785088629989981 0 0.48524719824510781 -0.31619169344551751 0 0.47157827151021059 -0.3020626665512936 0 0.47788828305655739 -0.3057624958576276 0 0.47106252071660037 -0.31390800406871489 0 0.47157827151021059 -0.3020626665512936 0 0.47790035602588271 -0.29795922971083277 0 0.47259579538353202 -0.2933050110643512 0 0.47157827151021059 -0.3020626665512936 0 0.47790035602588271 -0.29795922971083277 0 0.47788828305655739 -0.3057624958576276 0 0.47790035602588271 -0.29795922971083277 0 0.47788828305655739 -0.3057624958576276 0 0.48480893822496751 -0.29785088629989981 0 0.47788828305655739 -0.3057624958576276 0 0.48524719824510781 -0.31619169344551751 0 0.47106252071660037 -0.31390800406871489 0 0.48057310299452372 -0.27442308909601498 0 0.4808001768944658 -0.29161248500851811 0 0.48762663632798459 -0.2820045198317635 0 0.46648434844441078 -0.28210885188262103 0 0.47259579538353202 -0.2933050110643512 0 0.4808001768944658 -0.29161248500851811 0 0.46621582404269019 -0.29278182216849069 0 0.47157827151021059 -0.3020626665512936 0 0.47259579538353202 -0.2933050110643512 0 0.47790035602588271 -0.29795922971083277 0 0.47259579538353202 -0.2933050110643512 0 0.4808001768944658 -0.29161248500851811 0 0.47790035602588271 -0.29795922971083277 0 0.4808001768944658 -0.29161248500851811 0 0.48480893822496751 -0.29785088629989981 0 0.49044433443100249 -0.26615815336362753 0 0.5 -0.29024484057458189 0 0.49362955628733562 -0.29148182765925729 0 0.4808001768944658 -0.29161248500851811 0 0.48762663632798459 -0.2820045198317635 0 0.48480893822496751 -0.29785088629989981 0 0.48762663632798459 -0.2820045198317635 0 0.48480893822496751 -0.29785088629989981 0 0.48762663632798459 -0.2820045198317635 0 0.49066941246546031 -0.2899333639377345 0 0.48480893822496751 -0.29785088629989981 0 0.48762663632798459 -0.2820045198317635 0 0.49066941246546031 -0.2899333639377345 0 0.49362955628733562 -0.29148182765925729 0 0.49066941246546031 -0.2899333639377345 0 0.48524719824510781 -0.31619169344551751 0 0.49362955628733562 -0.29148182765925729 0 0.5 -0.31618700841254982 0 0.49681477814366792 -0.31680550195488738 0 0.49066941246546031 -0.2899333639377345 0 0.48480893822496751 -0.29785088629989981 0 0.48524719824510781 -0.31619169344551751 0 0.49066941246546031 -0.2899333639377345 0 0.49362955628733562 -0.29148182765925729 0 0.48524719824510781 -0.31619169344551751 0 0.49362955628733562 -0.29148182765925729 0 0.49681477814366792 -0.31680550195488738 0 0.48524719824510781 -0.31619169344551751 0 0.49362955628733562 -0.29148182765925729 0 0.49681477814366792 -0.31680550195488738 0 0.5 -0.29024484057458189 0 0.49362955628733562 -0.29148182765925729 0 0.5 -0.31618700841254982 0 0.5 -0.31618700841254982 0 0.49681477814366792 -0.31680550195488738 0 0.50000000000000011 -0.34212917625051747 0 0.49681477814366792 -0.31680550195488738 0 0.48524719824510781 -0.31619169344551751 0 0.48972987175530358 -0.33080633805700299 0 0.49681477814366792 -0.31680550195488738 0 0.50000000000000011 -0.34212917625051747 0 0.48972987175530358 -0.33080633805700299 0 0.50000000000000011 -0.34212917625051747 0 0.48972987175530358 -0.33080633805700299 0 0.47982498402475537 -0.3424500229533004 0 0.48524719824510781 -0.31619169344551751 0 0.48972987175530358 -0.33080633805700299 0 0.47982498402475537 -0.3424500229533004 0 0.49681477814366792 -0.31680550195488738 0 0.50000000000000011 -0.34212917625051747 0 0.48524719824510781 -0.31619169344551751 0 0.47982498402475537 -0.3424500229533004 0 0.47982498402475537 -0.3424500229533004 0 0.47329452079966811 -0.32625774460393459 0 0.4620629812580096 -0.34442858786863129 0 0.48524719824510781 -0.31619169344551751 0 0.47982498402475537 -0.3424500229533004 0 0.47329452079966811 -0.32625774460393459 0 0.48524719824510781 -0.31619169344551751 0 0.47329452079966811 -0.32625774460393459 0 0.47106252071660037 -0.31390800406871489 0 0.50000000000000011 -0.34212917625051747 0 0.47440276980440288 -0.36870835246108341 0 0.48528056784964602 -0.38422319355684148 0 0.50000000000000011 -0.34212917625051747 0 0.47982498402475537 -0.3424500229533004 0 0.47440276980440288 -0.36870835246108341 0 0.47982498402475537 -0.3424500229533004 0 0.47440276980440288 -0.36870835246108341 0 0.47982498402475537 -0.3424500229533004 0 0.4620629812580096 -0.34442858786863129 0 0.46447704218672131 -0.35847731030661262 0 0.47982498402475537 -0.3424500229533004 0 0.47440276980440288 -0.36870835246108341 0 0.46447704218672131 -0.35847731030661262 0 0.46097116079846051 -0.37151848296811057 0 0.4508314417163527 -0.36259943113332899 0 0.45267599554352711 -0.3821746371566026 0 0.47440276980440288 -0.36870835246108341 0 0.46097116079846051 -0.37151848296811057 0 0.46447704218672131 -0.35847731030661262 0 0.46097116079846051 -0.37151848296811057 0 0.46447704218672131 -0.35847731030661262 0 0.4508314417163527 -0.36259943113332899 0 0.4620629812580096 -0.34442858786863129 0 0.4508314417163527 -0.36259943113332899 0 0.4620629812580096 -0.34442858786863129 0 0.4508314417163527 -0.36259943113332899 0 0.44830309987426398 -0.33576756983054418 0 0.4620629812580096 -0.34442858786863129 0 0.46447704218672131 -0.35847731030661262 0 0.4508314417163527 -0.36259943113332899 0 0.4508314417163527 -0.36259943113332899 0 0.44830309987426398 -0.33576756983054418 0 0.43591606202591171 -0.35100629912387971 0 0.4508314417163527 -0.36259943113332899 0 0.44830309987426398 -0.33576756983054418 0 0.4508314417163527 -0.36259943113332899 0 0.45267599554352711 -0.3821746371566026 0 0.4508314417163527 -0.36259943113332899 0 0.43777939005225719 -0.38371557324290301 0 0.43032170020703708 -0.37791900723817862 0 0.4508314417163527 -0.36259943113332899 0 0.43777939005225719 -0.38371557324290301 0 0.4508314417163527 -0.36259943113332899 0 0.43591606202591171 -0.35100629912387971 0 0.43032170020703708 -0.37791900723817862 0 0.44577475803217281 -0.30893570852775948 0 0.45861026374686592 -0.3098863084366415 0 0.45975658694119292 -0.32328711551727513 0 0.45861026374686592 -0.3098863084366415 0 0.47106252071660037 -0.31390800406871489 0 0.45975658694119292 -0.32328711551727513 0 0.47329452079966811 -0.32625774460393459 0 0.47106252071660037 -0.31390800406871489 0 0.45975658694119292 -0.32328711551727513 0 0.47329452079966811 -0.32625774460393459 0 0.4620629812580096 -0.34442858786863129 0 0.45975658694119292 -0.32328711551727513 0 0.4620629812580096 -0.34442858786863129 0 0.45975658694119292 -0.32328711551727513 0 0.44830309987426398 -0.33576756983054418 0 0.47329452079966811 -0.32625774460393459 0 0.4620629812580096 -0.34442858786863129 0 0.44151042384478639 -0.32409359100958068 0 0.43591606202591171 -0.35100629912387971 0 0.44830309987426398 -0.33576756983054418 0 0.44151042384478639 -0.32409359100958068 0 0.43591606202591171 -0.35100629912387971 0 0.44577475803217281 -0.30893570852775948 0 0.45975658694119292 -0.32328711551727513 0 0.44830309987426398 -0.33576756983054418 0 0.44577475803217281 -0.30893570852775948 0 0.44830309987426398 -0.33576756983054418 0 0.44151042384478639 -0.32409359100958068 0 0.44577475803217281 -0.30893570852775948 0 0.44830309987426398 -0.33576756983054418 0 0.44577475803217281 -0.30893570852775948 0 0.44151042384478639 -0.32409359100958068 0 0.43539968905874932 -0.31538212215458122 0 0.43012022646717091 -0.32462240607153009 0 0.41660158043141238 -0.33728525921788188 0 0.42625930240461701 -0.31171081724333988 0 0.43539968905874932 -0.31538212215458122 0 0.43012022646717091 -0.32462240607153009 0 0.42625930240461701 -0.31171081724333988 0 0.44151042384478639 -0.32409359100958068 0 0.43539968905874932 -0.31538212215458122 0 0.43012022646717091 -0.32462240607153009 0 0.44151042384478639 -0.32409359100958068 0 0.43012022646717091 -0.32462240607153009 0 0.4307490336338074 -0.33408576887895358 0 0.44151042384478639 -0.32409359100958068 0 0.4307490336338074 -0.33408576887895358 0 0.43591606202591171 -0.35100629912387971 0 0.4307490336338074 -0.33408576887895358 0 0.41660158043141238 -0.33728525921788188 0 0.43591606202591171 -0.35100629912387971 0 0.43012022646717091 -0.32462240607153009 0 0.4307490336338074 -0.33408576887895358 0 0.41660158043141238 -0.33728525921788188 0 0.41660158043141238 -0.33728525921788188 0 0.41164028897625421 -0.32438831950325309 0 0.40129576938076927 -0.33074378281549732 0 0.41660158043141238 -0.33728525921788188 0 0.41164028897625421 -0.32438831950325309 0 0.42625930240461701 -0.31171081724333988 0 0.41660158043141238 -0.33728525921788188 0 0.42625930240461701 -0.31171081724333988 0 0.41164028897625421 -0.32438831950325309 0 0.41623885380312808 -0.31495975181645702 0 0.40091310563778071 -0.31721736525072552 0 0.41164028897625421 -0.32438831950325309 0 0.41623885380312808 -0.31495975181645702 0 0.42625930240461701 -0.31171081724333988 0 0.42371041450741048 -0.36250690921990991 0 0.43591606202591171 -0.35100629912387971 0 0.43032170020703708 -0.37791900723817862 0 0.43591606202591171 -0.35100629912387971 0 0.43032170020703708 -0.37791900723817862 0 0.42371041450741048 -0.36250690921990991 0 0.42003164935784493 -0.37153228393196558 0 0.43032170020703708 -0.37791900723817862 0 0.41660158043141238 -0.33728525921788188 0 0.42371041450741048 -0.36250690921990991 0 0.43591606202591171 -0.35100629912387971 0 0.41660158043141238 -0.33728525921788188 0 0.40694385845821168 -0.36285970119242528 0 0.41660158043141238 -0.33728525921788188 0 0.42371041450741048 -0.36250690921990991 0 0.40694385845821168 -0.36285970119242528 0 0.41660158043141238 -0.33728525921788188 0 0.40694385845821168 -0.36285970119242528 0 0.39604884478845798 -0.34502336667979527 0 0.40694385845821168 -0.36285970119242528 0 0.42003164935784493 -0.37153228393196558 0 0.41915062425872041 -0.38284351807734868 0 0.42371041450741048 -0.36250690921990991 0 0.40694385845821168 -0.36285970119242528 0 0.42003164935784493 -0.37153228393196558 0 0.40694385845821168 -0.36285970119242528 0 0.41915062425872041 -0.38284351807734868 0 0.40694385845821168 -0.36285970119242528 0 0.39221647217136157 -0.36087624343613611 0 0.39903260267420199 -0.38380935707972069 0 0.40694385845821168 -0.36285970119242528 0 0.39903260267420199 -0.38380935707972069 0 0.39221647217136157 -0.36087624343613611 0 0.38177656958814021 -0.37107518427696229 0 0.39903260267420199 -0.38380935707972069 0 0.40694385845821168 -0.36285970119242528 0 0.39604884478845798 -0.34502336667979527 0 0.40694385845821168 -0.36285970119242528 0 0.39221647217136157 -0.36087624343613611 0 0.39604884478845798 -0.34502336667979527 0 0.39221647217136157 -0.36087624343613611 0 0.39604884478845798 -0.34502336667979527 0 0.3744928386284479 -0.3493944272995651 0 0.39221647217136157 -0.36087624343613611 0 0.38177656958814021 -0.37107518427696229 0 0.3744928386284479 -0.3493944272995651 0 0.40091310563778071 -0.31721736525072552 0 0.38515383111870222 -0.32718703216716638 0 0.38745150395915362 -0.31203131370628262 0 0.40091310563778071 -0.31721736525072552 0 0.40129576938076927 -0.33074378281549732 0 0.38515383111870222 -0.32718703216716638 0 0.41164028897625421 -0.32438831950325309 0 0.40091310563778071 -0.31721736525072552 0 0.40129576938076927 -0.33074378281549732 0 0.41660158043141238 -0.33728525921788188 0 0.39604884478845798 -0.34502336667979527 0 0.40129576938076927 -0.33074378281549732 0 0.39604884478845798 -0.34502336667979527 0 0.40129576938076927 -0.33074378281549732 0 0.38515383111870222 -0.32718703216716638 0 0.39604884478845798 -0.34502336667979527 0 0.38515383111870222 -0.32718703216716638 0 0.39604884478845798 -0.34502336667979527 0 0.38515383111870222 -0.32718703216716638 0 0.3744928386284479 -0.3493944272995651 0 0.38515383111870222 -0.32718703216716638 0 0.38745150395915362 -0.31203131370628262 0 0.37425881744894002 -0.3093506976545416 0 0.38515383111870222 -0.32718703216716638 0 0.37425881744894002 -0.3093506976545416 0 0.37938073110123149 -0.30181875820438719 0 0.38745150395915362 -0.31203131370628262 0 0.396859805726545 -0.30294326730825161 0 0.37938073110123149 -0.30181875820438719 0 0.38745150395915362 -0.31203131370628262 0 0.37425881744894002 -0.3093506976545416 0 0.37938073110123149 -0.30181875820438719 0 0.37271873510615899 -0.28882589863234659 0 0.37307248883805488 -0.30740854736568468 0 0.37938073110123149 -0.30181875820438719 0 0.37307248883805488 -0.30740854736568468 0 0.37425881744894002 -0.3093506976545416 0 0.37938073110123149 -0.30181875820438719 0 0.37425881744894002 -0.3093506976545416 0 0.37938073110123149 -0.30181875820438719 0 0.37307248883805488 -0.30740854736568468 0 0.40091310563778071 -0.31721736525072552 0 0.38745150395915362 -0.31203131370628262 0 0.396859805726545 -0.30294326730825161 0 0.396859805726545 -0.30294326730825161 0 0.40542591377314752 -0.29451183418126797 0 0.40685665773329099 -0.30483868592629221 0 0.40091310563778071 -0.31721736525072552 0 0.396859805726545 -0.30294326730825161 0 0.40685665773329099 -0.30483868592629221 0 0.396859805726545 -0.30294326730825161 0 0.40542591377314752 -0.29451183418126797 0 0.39835754290607311 -0.28500323772858349 0 0.37938073110123149 -0.30181875820438719 0 0.396859805726545 -0.30294326730825161 0 0.39835754290607311 -0.28500323772858349 0 0.37938073110123149 -0.30181875820438719 0 0.39835754290607311 -0.28500323772858349 0 0.39571992633626679 -0.27779144389787469 0 0.39835754290607311 -0.28500323772858349 0 0.40478113139194422 -0.27692987676707698 0 0.40713223765962792 -0.28490795005737252 0 0.40542591377314752 -0.29451183418126797 0 0.39835754290607311 -0.28500323772858349 0 0.40713223765962792 -0.28490795005737252 0 0.37938073110123149 -0.30181875820438719 0 0.39571992633626679 -0.27779144389787469 0 0.37938073110123149 -0.30181875820438719 0 0.39571992633626679 -0.27779144389787469 0 0.37271873510615899 -0.28882589863234659 0 0.37938073110123149 -0.30181875820438719 0 0.39835754290607311 -0.28500323772858349 0 0.37514506165098033 -0.27099261991554902 0 0.39571992633626679 -0.27779144389787469 0 0.37271873510615899 -0.28882589863234659 0 0.37514506165098033 -0.27099261991554902 0 0.38656285296170678 -0.25583090435877842 0 0.39571992633626679 -0.27779144389787469 0 0.37514506165098033 -0.27099261991554902 0 0.38656285296170678 -0.25583090435877842 0 0.3738324275777285 -0.25261283991301198 0 0.39662928133952807 -0.2406849077586907 0 0.39774279555220082 -0.25701784640167652 0 0.41205912157130331 -0.25376412959136307 0 0.38656285296170678 -0.25583090435877842 0 0.39774279555220082 -0.25701784640167652 0 0.39571992633626679 -0.27779144389787469 0 0.39774279555220082 -0.25701784640167652 0 0.39571992633626679 -0.27779144389787469 0 0.41205912157130331 -0.25376412959136307 0 0.39662928133952807 -0.2406849077586907 0 0.38656285296170678 -0.25583090435877842 0 0.39774279555220082 -0.25701784640167652 0 0.39571992633626679 -0.27779144389787469 0 0.40478113139194422 -0.27692987676707698 0 0.41205912157130331 -0.25376412959136307 0 0.39571992633626679 -0.27779144389787469 0 0.41205912157130331 -0.25376412959136307 0 0.39835754290607311 -0.28500323772858349 0 0.39571992633626679 -0.27779144389787469 0 0.40478113139194422 -0.27692987676707698 0 0.40478113139194422 -0.27692987676707698 0 0.4134523656485799 -0.27416267033306091 0 0.41205912157130331 -0.25376412959136307 0 0.40478113139194422 -0.27692987676707698 0 0.4134523656485799 -0.27416267033306091 0 0.40713223765962792 -0.28490795005737252 0 0.4134523656485799 -0.27416267033306091 0 0.42222929151299221 -0.25678747506140942 0 0.41592637618503731 -0.28403502445816531 0 0.42222929151299221 -0.25678747506140942 0 0.42358538096604992 -0.27420005311244461 0 0.41592637618503731 -0.28403502445816531 0 0.42222929151299221 -0.25678747506140942 0 0.41592637618503731 -0.28403502445816531 0 0.4134523656485799 -0.27416267033306091 0 0.41205912157130331 -0.25376412959136307 0 0.4134523656485799 -0.27416267033306091 0 0.41205912157130331 -0.25376412959136307 0 0.42222929151299221 -0.25678747506140942 0 0.43321967175138432 -0.2446961265682864 0 0.42222929151299221 -0.25678747506140942 0 0.43360340288649879 -0.25423167993951368 0 0.42222929151299221 -0.25678747506140942 0 0.43204178946846999 -0.26258700153334152 0 0.43360340288649879 -0.25423167993951368 0 0.42222929151299221 -0.25678747506140942 0 0.43204178946846999 -0.26258700153334152 0 0.42931437222856023 -0.27239308112594202 0 0.43901022501643222 -0.25877537868418221 0 0.43204178946846999 -0.26258700153334152 0 0.43360340288649879 -0.25423167993951368 0 0.42222929151299221 -0.25678747506140942 0 0.42358538096604992 -0.27420005311244461 0 0.42931437222856023 -0.27239308112594202 0 0.42358538096604992 -0.27420005311244461 0 0.42931437222856023 -0.27239308112594202 0 0.42687148393760999 -0.28358463180426191 0 0.42358538096604992 -0.27420005311244461 0 0.42687148393760999 -0.28358463180426191 0 0.41592637618503731 -0.28403502445816531 0 0.44362635413971241 -0.27008751180580409 0 0.43204178946846999 -0.26258700153334152 0 0.42931437222856023 -0.27239308112594202 0 0.44362635413971241 -0.27008751180580409 0 0.42931437222856023 -0.27239308112594202 0 0.43487649240927662 -0.27917736185693021 0 0.42931437222856023 -0.27239308112594202 0 0.43487649240927662 -0.27917736185693021 0 0.42687148393760999 -0.28358463180426191 0 0.43487649240927662 -0.27917736185693021 0 0.42687148393760999 -0.28358463180426191 0 0.43339554189793777 -0.29346357032114778 0 0.4432464161900817 -0.28210384722497511 0 0.43487649240927662 -0.27917736185693021 0 0.43339554189793777 -0.29346357032114778 0 0.42687148393760999 -0.28358463180426191 0 0.42357128267034228 -0.29240528921066489 0 0.41592637618503731 -0.28403502445816531 0 0.42357128267034228 -0.29240528921066489 0 0.43339554189793777 -0.29346357032114778 0 0.42494724874421669 -0.30214903097020751 0 0.42687148393760999 -0.28358463180426191 0 0.42357128267034228 -0.29240528921066489 0 0.43339554189793777 -0.29346357032114778 0 0.43339554189793777 -0.29346357032114778 0 0.43317152862003522 -0.30643914421406981 0 0.42494724874421669 -0.30214903097020751 0 0.44577475803217281 -0.30893570852775948 0 0.43339554189793777 -0.29346357032114778 0 0.43317152862003522 -0.30643914421406981 0 0.43539968905874932 -0.31538212215458122 0 0.43317152862003522 -0.30643914421406981 0 0.42625930240461701 -0.31171081724333988 0 0.41623885380312808 -0.31495975181645702 0 0.42625930240461701 -0.31171081724333988 0 0.42494724874421669 -0.30214903097020751 0 0.43317152862003522 -0.30643914421406981 0 0.42625930240461701 -0.31171081724333988 0 0.42494724874421669 -0.30214903097020751 0 0.41623885380312808 -0.31495975181645702 0 0.42494724874421669 -0.30214903097020751 0 0.41484560972585399 -0.29456121107475902 0 0.41623885380312808 -0.31495975181645702 0 0.41484560972585399 -0.29456121107475902 0 0.41623885380312808 -0.31495975181645702 0 0.40685665773329099 -0.30483868592629221 0 0.41484560972585399 -0.29456121107475902 0 0.41623885380312808 -0.31495975181645702 0 0.40091310563778071 -0.31721736525072552 0 0.40685665773329099 -0.30483868592629221 0 0.40542591377314752 -0.29451183418126797 0 0.40685665773329099 -0.30483868592629221 0 0.41484560972585399 -0.29456121107475902 0 0.4134523656485799 -0.27416267033306091 0 0.41592637618503731 -0.28403502445816531 0 0.41484560972585399 -0.29456121107475902 0 0.40542591377314752 -0.29451183418126797 0 0.40713223765962792 -0.28490795005737252 0 0.41484560972585399 -0.29456121107475902 0 0.4134523656485799 -0.27416267033306091 0 0.40713223765962792 -0.28490795005737252 0 0.41484560972585399 -0.29456121107475902 0 0.4134523656485799 -0.27416267033306091 0 0.41484560972585399 -0.29456121107475902 0 0.42357128267034228 -0.29240528921066489 0 0.42494724874421669 -0.30214903097020751 0 0.41484560972585399 -0.29456121107475902 0 0.42357128267034228 -0.29240528921066489 0 0.41592637618503731 -0.28403502445816531 0 0.41484560972585399 -0.29456121107475902 0 0.44729169870264102 -0.49999999999999822 0 0.45271391292299312 -0.47374167049221522 0 0.47855572140273961 -0.46618436163627469 0 0.44729169870264102 -0.49999999999999822 0 0.45271391292299312 -0.47374167049221522 0 0.43854185816206681 -0.4825616905795152 0 0.44729169870264102 -0.49999999999999822 0 0.45271391292299312 -0.47374167049221522 0 0.45271391292299312 -0.47374167049221522 0 0.43854185816206681 -0.4825616905795152 0 0.4349046081253311 -0.46194127057110901 0 0.44729169870264102 -0.49999999999999822 0 0.5 -0.5 0 0.47855572140273961 -0.46618436163627469 0 0.5 -0.5 0 0.47855572140273961 -0.46618436163627469 0 0.5 -0.44428056508585662 0 0.47855572140273961 -0.46618436163627469 0 0.5 -0.44428056508585662 0 0.47665394075391188 -0.43865746034254799 0 0.47855572140273961 -0.46618436163627469 0 0.47665394075391188 -0.43865746034254799 0 0.45813612714334551 -0.44748334098443232 0 0.45271391292299312 -0.47374167049221522 0 0.45813612714334551 -0.44748334098443232 0 0.45271391292299312 -0.47374167049221522 0 0.47855572140273961 -0.46618436163627469 0 0.45813612714334551 -0.44748334098443232 0 0.45271391292299312 -0.47374167049221522 0 0.45813612714334551 -0.44748334098443232 0 0.4349046081253311 -0.46194127057110901 0 0.45813612714334551 -0.44748334098443232 0 0.43973076580110609 -0.44143134078807672 0 0.4349046081253311 -0.46194127057110901 0 0.43973076580110609 -0.44143134078807672 0 0.4474140507464815 -0.42323926464414791 0 0.43318375981518481 -0.42752214538308753 0 0.45813612714334551 -0.44748334098443232 0 0.43973076580110609 -0.44143134078807672 0 0.4474140507464815 -0.42323926464414791 0 0.4474140507464815 -0.42323926464414791 0 0.43456962638647589 -0.41673638140720431 0 0.43318375981518481 -0.42752214538308753 0 0.4474140507464815 -0.42323926464414791 0 0.44111141773934032 -0.40988101524572079 0 0.43456962638647589 -0.41673638140720431 0 0.44111141773934032 -0.40988101524572079 0 0.45001739223536158 -0.41133500128936679 0 0.44348260195658917 -0.40057987190043981 0 0.4474140507464815 -0.42323926464414791 0 0.44111141773934032 -0.40988101524572079 0 0.45001739223536158 -0.41133500128936679 0 0.4474140507464815 -0.42323926464414791 0 0.45001739223536158 -0.41133500128936679 0 0.463558341363698 -0.42122501147664931 0 0.463558341363698 -0.42122501147664931 0 0.46898055558405038 -0.39496668196886631 0 0.45001739223536158 -0.41133500128936679 0 0.463558341363698 -0.42122501147664931 0 0.45452054937069902 -0.40174984317987628 0 0.45813612714334551 -0.44748334098443232 0 0.463558341363698 -0.42122501147664931 0 0.45813612714334551 -0.44748334098443232 0 0.4474140507464815 -0.42323926464414791 0 0.463558341363698 -0.42122501147664931 0 0.47665394075391188 -0.43865746034254799 0 0.45813612714334551 -0.44748334098443232 0 0.463558341363698 -0.42122501147664931 0 0.5 -0.44428056508585662 0 0.48301951385977648 -0.41411402252952723 0 0.5 -0.40119773457421282 0 0.47665394075391188 -0.43865746034254799 0 0.463558341363698 -0.42122501147664931 0 0.48301951385977648 -0.41411402252952723 0 0.5 -0.44428056508585662 0 0.47665394075391188 -0.43865746034254799 0 0.48301951385977648 -0.41411402252952723 0 0.463558341363698 -0.42122501147664931 0 0.48301951385977648 -0.41411402252952723 0 0.46898055558405038 -0.39496668196886631 0 0.50000000000000011 -0.34212917625051747 0 0.5 -0.40119773457421282 0 0.48528056784964602 -0.38422319355684148 0 0.48301951385977648 -0.41411402252952723 0 0.46898055558405038 -0.39496668196886631 0 0.48528056784964602 -0.38422319355684148 0 0.48301951385977648 -0.41411402252952723 0 0.5 -0.40119773457421282 0 0.48528056784964602 -0.38422319355684148 0 0.47440276980440288 -0.36870835246108341 0 0.46898055558405038 -0.39496668196886631 0 0.48528056784964602 -0.38422319355684148 0 0.47440276980440288 -0.36870835246108341 0 0.46898055558405038 -0.39496668196886631 0 0.47440276980440288 -0.36870835246108341 0 0.46097116079846051 -0.37151848296811057 0 0.46898055558405038 -0.39496668196886631 0 0.46097116079846051 -0.37151848296811057 0 0.46898055558405038 -0.39496668196886631 0 0.45267599554352711 -0.3821746371566026 0 0.45452054937069902 -0.40174984317987628 0 0.45267599554352711 -0.3821746371566026 0 0.463558341363698 -0.42122501147664931 0 0.46898055558405038 -0.39496668196886631 0 0.45452054937069902 -0.40174984317987628 0 0.46898055558405038 -0.39496668196886631 0 0.45452054937069902 -0.40174984317987628 0 0.45267599554352711 -0.3821746371566026 0 0.45452054937069902 -0.40174984317987628 0 0.44616724234219812 -0.39202796011207919 0 0.44348260195658917 -0.40057987190043981 0 0.45452054937069902 -0.40174984317987628 0 0.44616724234219812 -0.39202796011207919 0 0.45267599554352711 -0.3821746371566026 0 0.45001739223536158 -0.41133500128936679 0 0.45452054937069902 -0.40174984317987628 0 0.44348260195658917 -0.40057987190043981 0 0.44111141773934032 -0.40988101524572079 0 0.44348260195658917 -0.40057987190043981 0 0.43711265044007791 -0.40324843990214698 0 0.44348260195658917 -0.40057987190043981 0 0.43658986506725161 -0.39641072590741072 0 0.43711265044007791 -0.40324843990214698 0 0.44100477485457401 -0.39318353279070811 0 0.43777939005225719 -0.38371557324290301 0 0.43658986506725161 -0.39641072590741072 0 0.44616724234219812 -0.39202796011207919 0 0.44348260195658917 -0.40057987190043981 0 0.44100477485457401 -0.39318353279070811 0 0.44348260195658917 -0.40057987190043981 0 0.44100477485457401 -0.39318353279070811 0 0.43658986506725161 -0.39641072590741072 0 0.4508314417163527 -0.36259943113332899 0 0.43777939005225719 -0.38371557324290301 0 0.45267599554352711 -0.3821746371566026 0 0.44616724234219812 -0.39202796011207919 0 0.44100477485457401 -0.39318353279070811 0 0.43777939005225719 -0.38371557324290301 0 0.44616724234219812 -0.39202796011207919 0 0.43777939005225719 -0.38371557324290301 0 0.45267599554352711 -0.3821746371566026 0 0.43777939005225719 -0.38371557324290301 0 0.43032170020703708 -0.37791900723817862 0 0.4247273383881629 -0.40483171535247758 0 0.43032170020703708 -0.37791900723817862 0 0.4194318031910414 -0.39216983646455078 0 0.41915062425872041 -0.38284351807734868 0 0.42003164935784493 -0.37153228393196558 0 0.43032170020703708 -0.37791900723817862 0 0.41915062425872041 -0.38284351807734868 0 0.43777939005225719 -0.38371557324290301 0 0.43658986506725161 -0.39641072590741072 0 0.43033645998083231 -0.4012057690781009 0 0.43777939005225719 -0.38371557324290301 0 0.43033645998083231 -0.4012057690781009 0 0.4247273383881629 -0.40483171535247758 0 0.43032170020703708 -0.37791900723817862 0 0.4247273383881629 -0.40483171535247758 0 0.4194318031910414 -0.39216983646455078 0 0.43777939005225719 -0.38371557324290301 0 0.4247273383881629 -0.40483171535247758 0 0.43032170020703708 -0.37791900723817862 0 0.4247273383881629 -0.40483171535247758 0 0.43658986506725161 -0.39641072590741072 0 0.43711265044007791 -0.40324843990214698 0 0.43033645998083231 -0.4012057690781009 0 0.43711265044007791 -0.40324843990214698 0 0.43033645998083231 -0.4012057690781009 0 0.43220534253355247 -0.40719020985292398 0 0.43033645998083231 -0.4012057690781009 0 0.42843014924991057 -0.40455355422592842 0 0.43220534253355247 -0.40719020985292398 0 0.43033645998083231 -0.4012057690781009 0 0.42843014924991057 -0.40455355422592842 0 0.4247273383881629 -0.40483171535247758 0 0.42843014924991057 -0.40455355422592842 0 0.42747314646279311 -0.40679945317150762 0 0.43220534253355247 -0.40719020985292398 0 0.42843014924991057 -0.40455355422592842 0 0.4247273383881629 -0.40483171535247758 0 0.42747314646279311 -0.40679945317150762 0 0.4247273383881629 -0.40483171535247758 0 0.42426093538537663 -0.40707543291741172 0 0.42747314646279311 -0.40679945317150762 0 0.4247273383881629 -0.40483171535247758 0 0.42426093538537663 -0.40707543291741172 0 0.4194318031910414 -0.39216983646455078 0 0.41723075118351122 -0.40153312275792052 0 0.41042401604013051 -0.39689030725727847 0 0.4247273383881629 -0.40483171535247758 0 0.4194318031910414 -0.39216983646455078 0 0.41723075118351122 -0.40153312275792052 0 0.4247273383881629 -0.40483171535247758 0 0.41723075118351122 -0.40153312275792052 0 0.41767965978799843 -0.40787408227232091 0 0.41723075118351122 -0.40153312275792052 0 0.41213143430885019 -0.40719813961023998 0 0.41767965978799843 -0.40787408227232091 0 0.41723075118351122 -0.40153312275792052 0 0.41042401604013051 -0.39689030725727847 0 0.41213143430885019 -0.40719813961023998 0 0.41042401604013051 -0.39689030725727847 0 0.4039490696618791 -0.40525554928771362 0 0.41213143430885019 -0.40719813961023998 0 0.4194318031910414 -0.39216983646455078 0 0.41042401604013051 -0.39689030725727847 0 0.41139321869831252 -0.38712232255213758 0 0.41139321869831252 -0.38712232255213758 0 0.40892704732746787 -0.37989859388178931 0 0.39903260267420199 -0.38380935707972069 0 0.41139321869831252 -0.38712232255213758 0 0.41915062425872041 -0.38284351807734868 0 0.40892704732746787 -0.37989859388178931 0 0.40694385845821168 -0.36285970119242528 0 0.41915062425872041 -0.38284351807734868 0 0.40892704732746787 -0.37989859388178931 0 0.41042401604013051 -0.39689030725727847 0 0.41139321869831252 -0.38712232255213758 0 0.39903260267420199 -0.38380935707972069 0 0.4194318031910414 -0.39216983646455078 0 0.41139321869831252 -0.38712232255213758 0 0.41915062425872041 -0.38284351807734868 0 0.40694385845821168 -0.36285970119242528 0 0.40892704732746787 -0.37989859388178931 0 0.39903260267420199 -0.38380935707972069 0 0.38177656958814021 -0.37107518427696229 0 0.38511010382944438 -0.388619377899588 0 0.37203942743426083 -0.38201941848357368 0 0.38177656958814021 -0.37107518427696229 0 0.39903260267420199 -0.38380935707972069 0 0.38511010382944438 -0.388619377899588 0 0.38511010382944438 -0.388619377899588 0 0.37685634441622529 -0.39466869568200519 0 0.37203942743426083 -0.38201941848357368 0 0.37685634441622529 -0.39466869568200519 0 0.39112134689019601 -0.40475901296701761 0 0.37107951917956938 -0.41184813485906868 0 0.38511010382944438 -0.388619377899588 0 0.37685634441622529 -0.39466869568200519 0 0.39112134689019601 -0.40475901296701761 0 0.39903260267420199 -0.38380935707972069 0 0.38511010382944438 -0.388619377899588 0 0.39112134689019601 -0.40475901296701761 0 0.39903260267420199 -0.38380935707972069 0 0.39112134689019601 -0.40475901296701761 0 0.41042401604013051 -0.39689030725727847 0 0.39903260267420199 -0.38380935707972069 0 0.4039490696618791 -0.40525554928771362 0 0.39903260267420199 -0.38380935707972069 0 0.39112134689019601 -0.40475901296701761 0 0.4039490696618791 -0.40525554928771362 0 0.39112134689019601 -0.40475901296701761 0 0.40428007384942721 -0.41537375447326402 0 0.39644470462438469 -0.42564207530908688 0 0.39112134689019601 -0.40475901296701761 0 0.4039490696618791 -0.40525554928771362 0 0.40428007384942721 -0.41537375447326402 0 0.39112134689019601 -0.40475901296701761 0 0.38321009110618998 -0.42570866885431452 0 0.39112134689019601 -0.40475901296701761 0 0.38321009110618998 -0.42570866885431452 0 0.39644470462438469 -0.42564207530908688 0 0.39112134689019601 -0.40475901296701761 0 0.38321009110618998 -0.42570866885431452 0 0.37107951917956938 -0.41184813485906868 0 0.38801938060491847 -0.43584860972794198 0 0.36956283332267259 -0.43186468780665138 0 0.37107951917956938 -0.41184813485906868 0 0.38321009110618998 -0.42570866885431452 0 0.38801938060491847 -0.43584860972794198 0 0.37107951917956938 -0.41184813485906868 0 0.38801938060491847 -0.43584860972794198 0 0.37406842792964579 -0.4436363369252776 0 0.36956283332267259 -0.43186468780665138 0 0.38801938060491847 -0.43584860972794198 0 0.37107951917956938 -0.41184813485906868 0 0.38321009110618998 -0.42570866885431452 0 0.38801938060491847 -0.43584860972794198 0 0.39644470462438469 -0.42564207530908688 0 0.40428007384942721 -0.41537375447326402 0 0.39644470462438469 -0.42564207530908688 0 0.40853089215477462 -0.431034987384812 0 0.38801938060491847 -0.43584860972794198 0 0.39644470462438469 -0.42564207530908688 0 0.40167495698156969 -0.43964865491069133 0 0.39644470462438469 -0.42564207530908688 0 0.40853089215477462 -0.431034987384812 0 0.40167495698156969 -0.43964865491069133 0 0.40853089215477462 -0.431034987384812 0 0.42004569854855461 -0.43159992963423888 0 0.41204521457807092 -0.44182066777683282 0 0.42004569854855461 -0.43159992963423888 0 0.41662911527146901 -0.41793335136864501 0 0.42649457538120822 -0.42026989377648211 0 0.40853089215477462 -0.431034987384812 0 0.42004569854855461 -0.43159992963423888 0 0.41662911527146901 -0.41793335136864501 0 0.40853089215477462 -0.431034987384812 0 0.41662911527146901 -0.41793335136864501 0 0.40428007384942721 -0.41537375447326402 0 0.40853089215477462 -0.431034987384812 0 0.41662911527146901 -0.41793335136864501 0 0.40428007384942721 -0.41537375447326402 0 0.41213143430885019 -0.40719813961023998 0 0.41662911527146901 -0.41793335136864501 0 0.4039490696618791 -0.40525554928771362 0 0.40428007384942721 -0.41537375447326402 0 0.41213143430885019 -0.40719813961023998 0 0.4247273383881629 -0.40483171535247758 0 0.41662911527146901 -0.41793335136864501 0 0.4247273383881629 -0.40483171535247758 0 0.41662911527146901 -0.41793335136864501 0 0.42426093538537663 -0.40707543291741172 0 0.4247273383881629 -0.40483171535247758 0 0.41767965978799843 -0.40787408227232091 0 0.41662911527146901 -0.41793335136864501 0 0.41213143430885019 -0.40719813961023998 0 0.41767965978799843 -0.40787408227232091 0 0.41662911527146901 -0.41793335136864501 0 0.41662911527146901 -0.41793335136864501 0 0.42649457538120822 -0.42026989377648211 0 0.42700861210308788 -0.41231575954086291 0 0.42649457538120822 -0.42026989377648211 0 0.42700861210308788 -0.41231575954086291 0 0.43456962638647589 -0.41673638140720431 0 0.41662911527146901 -0.41793335136864501 0 0.42426093538537663 -0.40707543291741172 0 0.42700861210308788 -0.41231575954086291 0 0.42700861210308788 -0.41231575954086291 0 0.42747314646279311 -0.40679945317150762 0 0.43220534253355247 -0.40719020985292398 0 0.42426093538537663 -0.40707543291741172 0 0.42700861210308788 -0.41231575954086291 0 0.42747314646279311 -0.40679945317150762 0 0.42700861210308788 -0.41231575954086291 0 0.43220534253355247 -0.40719020985292398 0 0.43456962638647589 -0.41673638140720431 0 0.44111141773934032 -0.40988101524572079 0 0.43711265044007791 -0.40324843990214698 0 0.43220534253355247 -0.40719020985292398 0 0.44111141773934032 -0.40988101524572079 0 0.43220534253355247 -0.40719020985292398 0 0.43456962638647589 -0.41673638140720431 0 0.42649457538120822 -0.42026989377648211 0 0.43456962638647589 -0.41673638140720431 0 0.43318375981518481 -0.42752214538308753 0 0.42004569854855461 -0.43159992963423888 0 0.43318375981518481 -0.42752214538308753 0 0.42501528317518822 -0.4469706823576069 0 0.42004569854855461 -0.43159992963423888 0 0.42649457538120822 -0.42026989377648211 0 0.43318375981518481 -0.42752214538308753 0 0.43973076580110609 -0.44143134078807672 0 0.42501528317518822 -0.4469706823576069 0 0.4349046081253311 -0.46194127057110901 0 0.43973076580110609 -0.44143134078807672 0 0.43318375981518481 -0.42752214538308753 0 0.42501528317518822 -0.4469706823576069 0 0.42501528317518822 -0.4469706823576069 0 0.4349046081253311 -0.46194127057110901 0 0.40495924203026767 -0.45984908459681539 0 0.4349046081253311 -0.46194127057110901 0 0.40495924203026767 -0.45984908459681539 0 0.42189910345561682 -0.48384955946568869 0 0.42501528317518822 -0.4469706823576069 0 0.41204521457807092 -0.44182066777683282 0 0.40495924203026767 -0.45984908459681539 0 0.42004569854855461 -0.43159992963423888 0 0.42501528317518822 -0.4469706823576069 0 0.41204521457807092 -0.44182066777683282 0 0.40853089215477462 -0.431034987384812 0 0.41204521457807092 -0.44182066777683282 0 0.40167495698156969 -0.43964865491069133 0 0.38801938060491847 -0.43584860972794198 0 0.40167495698156969 -0.43964865491069133 0 0.40495924203026767 -0.45984908459681539 0 0.38801938060491847 -0.43584860972794198 0 0.40495924203026767 -0.45984908459681539 0 0.41204521457807092 -0.44182066777683282 0 0.40167495698156969 -0.43964865491069133 0 0.40495924203026767 -0.45984908459681539 0 0.38801938060491847 -0.43584860972794198 0 0.38021323208676139 -0.45933672514082169 0 0.40495924203026767 -0.45984908459681539 0 0.38801938060491847 -0.43584860972794198 0 0.38021323208676139 -0.45933672514082169 0 0.37406842792964579 -0.4436363369252776 0 0.38021323208676139 -0.45933672514082169 0 0.40495924203026767 -0.45984908459681539 0 0.38168113325456499 -0.47996419118366768 0 0.40495924203026767 -0.45984908459681539 0 0.38168113325456499 -0.47996419118366768 0 0.4026547900039627 -0.48489557534171812 0 0.38168113325456499 -0.47996419118366768 0 0.38892433156011752 -0.5 0 0.35974064798885569 -0.49999999999999872 0 0.38168113325456499 -0.47996419118366768 0 0.38892433156011752 -0.5 0 0.4026547900039627 -0.48489557534171812 0 0.38892433156011752 -0.5 0 0.4026547900039627 -0.48489557534171812 0 0.41810801513137918 -0.5 0 0.4026547900039627 -0.48489557534171812 0 0.41810801513137918 -0.5 0 0.42189910345561682 -0.48384955946568869 0 0.40495924203026767 -0.45984908459681539 0 0.42189910345561682 -0.48384955946568869 0 0.40495924203026767 -0.45984908459681539 0 0.4026547900039627 -0.48489557534171812 0 0.42189910345561682 -0.48384955946568869 0 0.43854185816206681 -0.4825616905795152 0 0.4349046081253311 -0.46194127057110901 0 0.42189910345561682 -0.48384955946568869 0 0.43854185816206681 -0.4825616905795152 0 0.41810801513137918 -0.5 0 0.42189910345561682 -0.48384955946568869 0 0.44729169870264102 -0.49999999999999822 0 0.43854185816206681 -0.4825616905795152 0 0.41810801513137918 -0.5 0 0.32745927180764189 -0.47097973414600491 0 0.34369502221112891 -0.48577055051097262 0 0.35910945684654327 -0.47374766251284689 0 0.32745927180764189 -0.47097973414600491 0 0.33029064239764427 -0.5 0 0.3124280316429881 -0.48345013465061382 0 0.33029064239764427 -0.5 0 0.3124280316429881 -0.48345013465061382 0 0.30084063680643269 -0.5 0 0.32745927180764189 -0.47097973414600491 0 0.3124280316429881 -0.48345013465061382 0 0.30347280168681662 -0.46896664144447558 0 0.32745927180764189 -0.47097973414600491 0 0.33029064239764427 -0.5 0 0.34369502221112891 -0.48577055051097262 0 0.34369502221112891 -0.48577055051097262 0 0.35974064798885569 -0.49999999999999872 0 0.35910945684654327 -0.47374766251284689 0 0.33029064239764427 -0.5 0 0.34369502221112891 -0.48577055051097262 0 0.35974064798885569 -0.49999999999999872 0 0.38168113325456499 -0.47996419118366768 0 0.35974064798885569 -0.49999999999999872 0 0.35910945684654327 -0.47374766251284689 0 0.35974064798885569 -0.49999999999999872 0 0.35910945684654327 -0.47374766251284689 0 0.38021323208676139 -0.45933672514082169 0 0.38168113325456499 -0.47996419118366768 0 0.35910945684654327 -0.47374766251284689 0 0.35910945684654327 -0.47374766251284689 0 0.3584782657042308 -0.44749532502569522 0 0.35910945684654327 -0.47374766251284689 0 0.3584782657042308 -0.44749532502569522 0 0.33947316415140788 -0.45119168191469178 0 0.38021323208676139 -0.45933672514082169 0 0.35910945684654327 -0.47374766251284689 0 0.3584782657042308 -0.44749532502569522 0 0.37406842792964579 -0.4436363369252776 0 0.3584782657042308 -0.44749532502569522 0 0.36956283332267259 -0.43186468780665138 0 0.38021323208676139 -0.45933672514082169 0 0.37406842792964579 -0.4436363369252776 0 0.3584782657042308 -0.44749532502569522 0 0.3584782657042308 -0.44749532502569522 0 0.33947316415140788 -0.45119168191469178 0 0.34206756619659229 -0.42743789741944188 0 0.32745927180764189 -0.47097973414600491 0 0.35910945684654327 -0.47374766251284689 0 0.33947316415140788 -0.45119168191469178 0 0.33947316415140788 -0.45119168191469178 0 0.32174775733762673 -0.44597940902187577 0 0.32817174941202848 -0.43394601682249728 0 0.33947316415140788 -0.45119168191469178 0 0.34206756619659229 -0.42743789741944188 0 0.32817174941202848 -0.43394601682249728 0 0.32745927180764189 -0.47097973414600491 0 0.33947316415140788 -0.45119168191469178 0 0.32174775733762673 -0.44597940902187577 0 0.32745927180764189 -0.47097973414600491 0 0.32174775733762673 -0.44597940902187577 0 0.31107945920493602 -0.45673920439824223 0 0.32745927180764189 -0.47097973414600491 0 0.31107945920493602 -0.45673920439824223 0 0.30347280168681662 -0.46896664144447558 0 0.32174775733762673 -0.44597940902187577 0 0.30536484093265182 -0.44324035721998067 0 0.31107945920493602 -0.45673920439824223 0 0.32174775733762673 -0.44597940902187577 0 0.31265715186544413 -0.42783147534518962 0 0.30536484093265182 -0.44324035721998067 0 0.31265715186544413 -0.42783147534518962 0 0.32491310750907171 -0.41728962041128742 0 0.32817174941202848 -0.43394601682249728 0 0.32174775733762673 -0.44597940902187577 0 0.31265715186544413 -0.42783147534518962 0 0.32817174941202848 -0.43394601682249728 0 0.32491310750907171 -0.41728962041128742 0 0.32583239640409911 -0.40259744827146338 0 0.30775864882155118 -0.40714134340313268 0 0.32491310750907171 -0.41728962041128742 0 0.30775864882155118 -0.40714134340313268 0 0.31265715186544413 -0.42783147534518962 0 0.32491310750907171 -0.41728962041128742 0 0.30775864882155118 -0.40714134340313268 0 0.32491310750907171 -0.41728962041128742 0 0.33743592346990181 -0.40894912957827162 0 0.34206756619659229 -0.42743789741944188 0 0.33743592346990181 -0.40894912957827162 0 0.34206756619659229 -0.42743789741944188 0 0.35083957976444452 -0.41220749459927147 0 0.32491310750907171 -0.41728962041128742 0 0.33743592346990181 -0.40894912957827162 0 0.32583239640409911 -0.40259744827146338 0 0.32491310750907171 -0.41728962041128742 0 0.34206756619659229 -0.42743789741944188 0 0.32817174941202848 -0.43394601682249728 0 0.32491310750907171 -0.41728962041128742 0 0.34206756619659229 -0.42743789741944188 0 0.3584782657042308 -0.44749532502569522 0 0.34206756619659229 -0.42743789741944188 0 0.35787586528616888 -0.42511017605614282 0 0.35787586528616888 -0.42511017605614282 0 0.36956283332267259 -0.43186468780665138 0 0.37107951917956938 -0.41184813485906868 0 0.3584782657042308 -0.44749532502569522 0 0.35787586528616888 -0.42511017605614282 0 0.36956283332267259 -0.43186468780665138 0 0.35787586528616888 -0.42511017605614282 0 0.37107951917956938 -0.41184813485906868 0 0.35083957976444452 -0.41220749459927147 0 0.34206756619659229 -0.42743789741944188 0 0.35787586528616888 -0.42511017605614282 0 0.35083957976444452 -0.41220749459927147 0 0.37107951917956938 -0.41184813485906868 0 0.35083957976444452 -0.41220749459927147 0 0.34973028811561729 -0.40133226477120859 0 0.33743592346990181 -0.40894912957827162 0 0.35083957976444452 -0.41220749459927147 0 0.34973028811561729 -0.40133226477120859 0 0.34973028811561729 -0.40133226477120859 0 0.35413965775422018 -0.38784765999019521 0 0.33745593842760713 -0.39356741645313348 0 0.37107951917956938 -0.41184813485906868 0 0.34973028811561729 -0.40133226477120859 0 0.35413965775422018 -0.38784765999019521 0 0.37107951917956938 -0.41184813485906868 0 0.36665942929354511 -0.39132239107701922 0 0.35413965775422018 -0.38784765999019521 0 0.37107951917956938 -0.41184813485906868 0 0.35413965775422018 -0.38784765999019521 0 0.37685634441622529 -0.39466869568200519 0 0.37107951917956938 -0.41184813485906868 0 0.36665942929354511 -0.39132239107701922 0 0.37685634441622529 -0.39466869568200519 0 0.36665942929354511 -0.39132239107701922 0 0.37203942743426083 -0.38201941848357368 0 0.36665942929354511 -0.39132239107701922 0 0.37203942743426083 -0.38201941848357368 0 0.3591821976834495 -0.38022804637025343 0 0.36665942929354511 -0.39132239107701922 0 0.3591821976834495 -0.38022804637025343 0 0.35413965775422018 -0.38784765999019521 0 0.37203942743426083 -0.38201941848357368 0 0.3591821976834495 -0.38022804637025343 0 0.36734443732854488 -0.36873687328289317 0 0.35413965775422018 -0.38784765999019521 0 0.33719979632887231 -0.36384718512132108 0 0.3591821976834495 -0.38022804637025343 0 0.35413965775422018 -0.38784765999019521 0 0.33719979632887231 -0.36384718512132108 0 0.33781865377147879 -0.38268913145672001 0 0.32247922257521228 -0.38549426426222733 0 0.33719979632887231 -0.36384718512132108 0 0.35413965775422018 -0.38784765999019521 0 0.33781865377147879 -0.38268913145672001 0 0.33719979632887231 -0.36384718512132108 0 0.35413965775422018 -0.38784765999019521 0 0.33781865377147879 -0.38268913145672001 0 0.33745593842760713 -0.39356741645313348 0 0.33781865377147879 -0.38268913145672001 0 0.33745593842760713 -0.39356741645313348 0 0.32247922257521228 -0.38549426426222733 0 0.33745593842760713 -0.39356741645313348 0 0.32583239640409911 -0.40259744827146338 0 0.32247922257521228 -0.38549426426222733 0 0.33743592346990181 -0.40894912957827162 0 0.34973028811561729 -0.40133226477120859 0 0.33745593842760713 -0.39356741645313348 0 0.33743592346990181 -0.40894912957827162 0 0.33745593842760713 -0.39356741645313348 0 0.32583239640409911 -0.40259744827146338 0 0.31580925937570808 -0.39206197879121429 0 0.32247922257521228 -0.38549426426222733 0 0.30775864882155118 -0.40714134340313268 0 0.32583239640409911 -0.40259744827146338 0 0.32247922257521228 -0.38549426426222733 0 0.30775864882155118 -0.40714134340313268 0 0.32247922257521228 -0.38549426426222733 0 0.30775864882155118 -0.40714134340313268 0 0.31580925937570808 -0.39206197879121429 0 0.32247922257521228 -0.38549426426222733 0 0.32009868596209662 -0.36887875521605568 0 0.31580925937570808 -0.39206197879121429 0 0.32009868596209662 -0.36887875521605568 0 0.31580925937570808 -0.39206197879121429 0 0.30998187684672829 -0.38378159716649768 0 0.32009868596209662 -0.36887875521605568 0 0.30998187684672829 -0.38378159716649768 0 0.29690695861361271 -0.38428680435613238 0 0.29867463979634229 -0.36704725229961849 0 0.31580925937570808 -0.39206197879121429 0 0.30998187684672829 -0.38378159716649768 0 0.30443976368998049 -0.40517794914587668 0 0.30998187684672829 -0.38378159716649768 0 0.29690695861361271 -0.38428680435613238 0 0.30443976368998049 -0.40517794914587668 0 0.30998187684672829 -0.38378159716649768 0 0.30443976368998049 -0.40517794914587668 0 0.29690695861361271 -0.38428680435613238 0 0.30443976368998049 -0.40517794914587668 0 0.29169964669691589 -0.39764111929207618 0 0.31580925937570808 -0.39206197879121429 0 0.30443976368998049 -0.40517794914587668 0 0.30775864882155118 -0.40714134340313268 0 0.30443976368998049 -0.40517794914587668 0 0.30775864882155118 -0.40714134340313268 0 0.30443976368998049 -0.40517794914587668 0 0.29169964669691589 -0.39764111929207618 0 0.30443976368998049 -0.40517794914587668 0 0.29169964669691589 -0.39764111929207618 0 0.29154554871053462 -0.41168655877670279 0 0.29169964669691589 -0.39764111929207618 0 0.28788442972978728 -0.38806960195952211 0 0.26597886051493591 -0.38242515312275849 0 0.29690695861361271 -0.38428680435613238 0 0.28806263156304052 -0.37590589324082269 0 0.29867463979634229 -0.36704725229961849 0 0.29690695861361271 -0.38428680435613238 0 0.29169964669691589 -0.39764111929207618 0 0.28788442972978728 -0.38806960195952211 0 0.29690695861361271 -0.38428680435613238 0 0.28788442972978728 -0.38806960195952211 0 0.28806263156304052 -0.37590589324082269 0 0.28788442972978728 -0.38806960195952211 0 0.28806263156304052 -0.37590589324082269 0 0.27844023565683512 -0.37592081843581743 0 0.29169964669691589 -0.39764111929207618 0 0.26597886051493591 -0.38242515312275849 0 0.28788442972978728 -0.38806960195952211 0 0.27844023565683512 -0.37592081843581743 0 0.26597886051493591 -0.38242515312275849 0 0.27844023565683512 -0.37592081843581743 0 0.26597886051493591 -0.38242515312275849 0 0.2683201577905977 -0.36880683366587053 0 0.26597886051493591 -0.38242515312275849 0 0.2683201577905977 -0.36880683366587053 0 0.26597886051493591 -0.38242515312275849 0 0.2609193059175009 -0.37943200932685378 0 0.2683201577905977 -0.36880683366587053 0 0.2609193059175009 -0.37943200932685378 0 0.25584480791356118 -0.39053297558078609 0 0.246896461869373 -0.37341279136137712 0 0.26597886051493591 -0.38242515312275849 0 0.2609193059175009 -0.37943200932685378 0 0.26597886051493591 -0.38242515312275849 0 0.2609193059175009 -0.37943200932685378 0 0.25584480791356118 -0.39053297558078609 0 0.26597886051493591 -0.38242515312275849 0 0.26132694446826438 -0.40948334836722389 0 0.25584480791356118 -0.39053297558078609 0 0.26132694446826438 -0.40948334836722389 0 0.24376609950306391 -0.40198070240532918 0 0.26597886051493591 -0.38242515312275849 0 0.25584480791356118 -0.39053297558078609 0 0.26132694446826438 -0.40948334836722389 0 0.26597886051493591 -0.38242515312275849 0 0.27458341990034568 -0.40092449001202202 0 0.26132694446826438 -0.40948334836722389 0 0.29169964669691589 -0.39764111929207618 0 0.26597886051493591 -0.38242515312275849 0 0.27458341990034568 -0.40092449001202202 0 0.29169964669691589 -0.39764111929207618 0 0.27458341990034568 -0.40092449001202202 0 0.27418733755925517 -0.41709133145188287 0 0.27458341990034568 -0.40092449001202202 0 0.27418733755925517 -0.41709133145188287 0 0.26132694446826438 -0.40948334836722389 0 0.26132694446826438 -0.40948334836722389 0 0.24918274412191141 -0.4173192016844926 0 0.24376609950306391 -0.40198070240532918 0 0.27418733755925517 -0.41709133145188287 0 0.26132694446826438 -0.40948334836722389 0 0.25667502842159368 -0.43654154361168918 0 0.26132694446826438 -0.40948334836722389 0 0.25062748944589119 -0.42657998059939911 0 0.24918274412191141 -0.4173192016844926 0 0.27418733755925517 -0.41709133145188287 0 0.25667502842159368 -0.43654154361168918 0 0.26132694446826438 -0.40948334836722389 0 0.25667502842159368 -0.43654154361168918 0 0.25062748944589119 -0.42657998059939911 0 0.26132694446826438 -0.40948334836722389 0 0.25667502842159368 -0.43654154361168918 0 0.25667502842159368 -0.43654154361168918 0 0.25062748944589119 -0.42657998059939911 0 0.24531699308093161 -0.43900719588430748 0 0.27483069243413882 -0.43120528368665317 0 0.28707698388889769 -0.4375543996504343 0 0.27038949737840789 -0.44254931809614001 0 0.25667502842159368 -0.43654154361168918 0 0.27483069243413882 -0.43120528368665317 0 0.27038949737840789 -0.44254931809614001 0 0.27418733755925517 -0.41709133145188287 0 0.25667502842159368 -0.43654154361168918 0 0.27483069243413882 -0.43120528368665317 0 0.27418733755925517 -0.41709133145188287 0 0.27483069243413882 -0.43120528368665317 0 0.28582461492253902 -0.42228982562311929 0 0.30157638068398501 -0.41623256837056022 0 0.29696133738608937 -0.43404979584482289 0 0.28707698388889769 -0.4375543996504343 0 0.30157638068398501 -0.41623256837056022 0 0.28707698388889769 -0.4375543996504343 0 0.28582461492253902 -0.42228982562311929 0 0.30157638068398501 -0.41623256837056022 0 0.28707698388889769 -0.4375543996504343 0 0.27483069243413882 -0.43120528368665317 0 0.28582461492253902 -0.42228982562311929 0 0.28707698388889769 -0.4375543996504343 0 0.29169964669691589 -0.39764111929207618 0 0.27418733755925517 -0.41709133145188287 0 0.27418733755925517 -0.41709133145188287 0 0.28582461492253902 -0.42228982562311929 0 0.29154554871053462 -0.41168655877670279 0 0.29169964669691589 -0.39764111929207618 0 0.27418733755925517 -0.41709133145188287 0 0.29154554871053462 -0.41168655877670279 0 0.28582461492253902 -0.42228982562311929 0 0.29154554871053462 -0.41168655877670279 0 0.30157638068398501 -0.41623256837056022 0 0.31265715186544413 -0.42783147534518962 0 0.30157638068398501 -0.41623256837056022 0 0.30775864882155118 -0.40714134340313268 0 0.30443976368998049 -0.40517794914587668 0 0.30157638068398501 -0.41623256837056022 0 0.30443976368998049 -0.40517794914587668 0 0.30157638068398501 -0.41623256837056022 0 0.30775864882155118 -0.40714134340313268 0 0.30443976368998049 -0.40517794914587668 0 0.29154554871053462 -0.41168655877670279 0 0.30157638068398501 -0.41623256837056022 0 0.30157638068398501 -0.41623256837056022 0 0.30775864882155118 -0.40714134340313268 0 0.30157638068398501 -0.41623256837056022 0 0.29696133738608937 -0.43404979584482289 0 0.31265715186544413 -0.42783147534518962 0 0.29696133738608937 -0.43404979584482289 0 0.30536484093265182 -0.44324035721998067 0 0.31265715186544413 -0.42783147534518962 0 0.30157638068398501 -0.41623256837056022 0 0.29696133738608937 -0.43404979584482289 0 0.30536484093265182 -0.44324035721998067 0 0.31107945920493602 -0.45673920439824223 0 0.29735262425994269 -0.45452988015887419 0 0.30536484093265182 -0.44324035721998067 0 0.29735262425994269 -0.45452988015887419 0 0.29423708828732059 -0.44439149713088932 0 0.29696133738608937 -0.43404979584482289 0 0.30536484093265182 -0.44324035721998067 0 0.29423708828732059 -0.44439149713088932 0 0.31107945920493602 -0.45673920439824223 0 0.29735262425994269 -0.45452988015887419 0 0.30347280168681662 -0.46896664144447558 0 0.29735262425994269 -0.45452988015887419 0 0.28656221709973262 -0.46733664935771319 0 0.30347280168681662 -0.46896664144447558 0 0.29735262425994269 -0.45452988015887419 0 0.28656221709973262 -0.46733664935771319 0 0.28442965496902139 -0.45258305278033428 0 0.29735262425994269 -0.45452988015887419 0 0.28442965496902139 -0.45258305278033428 0 0.29423708828732059 -0.44439149713088932 0 0.29696133738608937 -0.43404979584482289 0 0.29423708828732059 -0.44439149713088932 0 0.28707698388889769 -0.4375543996504343 0 0.28442965496902139 -0.45258305278033428 0 0.29423708828732059 -0.44439149713088932 0 0.28707698388889769 -0.4375543996504343 0 0.28442965496902139 -0.45258305278033428 0 0.28707698388889769 -0.4375543996504343 0 0.27038949737840789 -0.44254931809614001 0 0.25667502842159368 -0.43654154361168918 0 0.27038949737840789 -0.44254931809614001 0 0.25438548531633381 -0.44985883131447418 0 0.25667502842159368 -0.43654154361168918 0 0.25438548531633381 -0.44985883131447418 0 0.2415828451700795 -0.45330382001334091 0 0.25667502842159368 -0.43654154361168918 0 0.25438548531633381 -0.44985883131447418 0 0.25438548531633381 -0.44985883131447418 0 0.25147530174806371 -0.4662087952442745 0 0.2708900642968145 -0.47127465904807098 0 0.27038949737840789 -0.44254931809614001 0 0.25438548531633381 -0.44985883131447418 0 0.2708900642968145 -0.47127465904807098 0 0.28656221709973262 -0.46733664935771319 0 0.28442965496902139 -0.45258305278033428 0 0.2708900642968145 -0.47127465904807098 0 0.28442965496902139 -0.45258305278033428 0 0.27038949737840789 -0.44254931809614001 0 0.2708900642968145 -0.47127465904807098 0 0.27038949737840789 -0.44254931809614001 0 0.2708900642968145 -0.47127465904807098 0 0.25147530174806371 -0.4662087952442745 0 0.2708900642968145 -0.47127465904807098 0 0.25348812323057662 -0.48407980809220702 0 0.2708900642968145 -0.47127465904807098 0 0.25348812323057662 -0.48407980809220702 0 0.27139063121522111 -0.500000000000002 0 0.25348812323057662 -0.48407980809220702 0 0.25529481614335181 -0.5 0 0.27139063121522111 -0.500000000000002 0 0.2708900642968145 -0.47127465904807098 0 0.27139063121522111 -0.500000000000002 0 0.28857231587163001 -0.48357108668302651 0 0.2708900642968145 -0.47127465904807098 0 0.27139063121522111 -0.500000000000002 0 0.27139063121522111 -0.500000000000002 0 0.28857231587163001 -0.48357108668302651 0 0.30084063680643269 -0.5 0 0.28656221709973262 -0.46733664935771319 0 0.28857231587163001 -0.48357108668302651 0 0.30347280168681662 -0.46896664144447558 0 0.28656221709973262 -0.46733664935771319 0 0.2708900642968145 -0.47127465904807098 0 0.28857231587163001 -0.48357108668302651 0 0.28857231587163001 -0.48357108668302651 0 0.3124280316429881 -0.48345013465061382 0 0.30347280168681662 -0.46896664144447558 0 0.28857231587163001 -0.48357108668302651 0 0.3124280316429881 -0.48345013465061382 0 0.30084063680643269 -0.5 0 0.3329590095033178 -0.29937208575795959 0 0.33705123919746349 -0.2772546595682972 0 0.3329590095033178 -0.29937208575795959 0 0.32029050925033709 -0.29054568532826008 0 0.33705123919746349 -0.2772546595682972 0 0.34132883005847792 -0.28985097967810869 0 0.3329590095033178 -0.29937208575795959 0 0.33705123919746349 -0.2772546595682972 0 0.34132883005847792 -0.28985097967810869 0 0.33705123919746349 -0.2772546595682972 0 0.34691938036898168 -0.28450857491683029 0 0.34132883005847792 -0.28985097967810869 0 0.3329590095033178 -0.29937208575795959 0 0.34838569116414742 -0.29826859846934978 0 0.3329590095033178 -0.29937208575795959 0 0.3501046617722422 -0.31131780857689623 0 0.3410015193903167 -0.32000673568230942 0 0.3329590095033178 -0.29937208575795959 0 0.3501046617722422 -0.31131780857689623 0 0.3329590095033178 -0.29937208575795959 0 0.32867356102589851 -0.32253380869942783 0 0.32327271593148132 -0.31419627970249692 0 0.3329590095033178 -0.29937208575795959 0 0.32867356102589851 -0.32253380869942783 0 0.3329590095033178 -0.29937208575795959 0 0.31313654190606982 -0.30508208234774897 0 0.32029050925033709 -0.29054568532826008 0 0.3329590095033178 -0.29937208575795959 0 0.31313654190606982 -0.30508208234774897 0 0.32327271593148132 -0.31419627970249692 0 0.31313654190606982 -0.30508208234774897 0 0.32029050925033709 -0.29054568532826008 0 0.3329590095033178 -0.29937208575795959 0 0.32029050925033709 -0.29054568532826008 0 0.32029050925033709 -0.29054568532826008 0 0.3297680489727709 -0.27128794014391472 0 0.32029050925033709 -0.29054568532826008 0 0.3147215762287866 -0.26609600062902022 0 0.3297680489727709 -0.27128794014391472 0 0.3147215762287866 -0.26609600062902022 0 0.32481305301011071 -0.2506547068391321 0 0.3297680489727709 -0.27128794014391472 0 0.3147215762287866 -0.26609600062902022 0 0.32481305301011071 -0.2506547068391321 0 0.31200767160584758 -0.25248528850130292 0 0.34114346889161712 -0.25513723337863631 0 0.33924558869519972 -0.25203019495956702 0 0.3297680489727709 -0.27128794014391472 0 0.33924558869519972 -0.25203019495956702 0 0.3297680489727709 -0.27128794014391472 0 0.32481305301011071 -0.2506547068391321 0 0.33924558869519972 -0.25203019495956702 0 0.3297680489727709 -0.27128794014391472 0 0.34766899611191632 -0.24905547854379589 0 0.3414531294178017 -0.25346359960349019 0 0.33924558869519972 -0.25203019495956702 0 0.34114346889161712 -0.25513723337863631 0 0.3414531294178017 -0.25346359960349019 0 0.34114346889161712 -0.25513723337863631 0 0.3414531294178017 -0.25346359960349019 0 0.33924558869519972 -0.25203019495956702 0 0.34114346889161712 -0.25513723337863631 0 0.33924558869519972 -0.25203019495956702 0 0.34114346889161712 -0.25513723337863631 0 0.3297680489727709 -0.27128794014391472 0 0.33705123919746349 -0.2772546595682972 0 0.32029050925033709 -0.29054568532826008 0 0.3297680489727709 -0.27128794014391472 0 0.33705123919746349 -0.2772546595682972 0 0.34114346889161712 -0.25513723337863631 0 0.33705123919746349 -0.2772546595682972 0 0.35001121294882309 -0.26965470478077991 0 0.34114346889161712 -0.25513723337863631 0 0.33705123919746349 -0.2772546595682972 0 0.35001121294882309 -0.26965470478077991 0 0.36230180792825439 -0.26058862699364721 0 0.3588789570060249 -0.28417217618292612 0 0.33705123919746349 -0.2772546595682972 0 0.35001121294882309 -0.26965470478077991 0 0.34691938036898168 -0.28450857491683029 0 0.35001121294882309 -0.26965470478077991 0 0.3588789570060249 -0.28417217618292612 0 0.35001121294882309 -0.26965470478077991 0 0.3588789570060249 -0.28417217618292612 0 0.34691938036898168 -0.28450857491683029 0 0.34766899611191632 -0.24905547854379589 0 0.35560328176390438 -0.24591973778355361 0 0.34969698284371992 -0.25563656351398362 0 0.34114346889161712 -0.25513723337863631 0 0.3414531294178017 -0.25346359960349019 0 0.34969698284371992 -0.25563656351398362 0 0.34766899611191632 -0.24905547854379589 0 0.3414531294178017 -0.25346359960349019 0 0.34969698284371992 -0.25563656351398362 0 0.34114346889161712 -0.25513723337863631 0 0.35001121294882309 -0.26965470478077991 0 0.34114346889161712 -0.25513723337863631 0 0.35001121294882309 -0.26965470478077991 0 0.34969698284371992 -0.25563656351398362 0 0.35001121294882309 -0.26965470478077991 0 0.34969698284371992 -0.25563656351398362 0 0.36230180792825439 -0.26058862699364721 0 0.35560328176390438 -0.24591973778355361 0 0.34969698284371992 -0.25563656351398362 0 0.36230180792825439 -0.26058862699364721 0 0.36572465885048677 -0.23700507780436869 0 0.36230180792825439 -0.26058862699364721 0 0.3738324275777285 -0.25261283991301198 0 0.37514506165098033 -0.27099261991554902 0 0.36230180792825439 -0.26058862699364721 0 0.3738324275777285 -0.25261283991301198 0 0.36230180792825439 -0.26058862699364721 0 0.3588789570060249 -0.28417217618292612 0 0.37514506165098033 -0.27099261991554902 0 0.36230180792825439 -0.26058862699364721 0 0.3588789570060249 -0.28417217618292612 0 0.3588789570060249 -0.28417217618292612 0 0.37307248883805488 -0.30740854736568468 0 0.37271873510615899 -0.28882589863234659 0 0.3588789570060249 -0.28417217618292612 0 0.37307248883805488 -0.30740854736568468 0 0.37514506165098033 -0.27099261991554902 0 0.37271873510615899 -0.28882589863234659 0 0.3588789570060249 -0.28417217618292612 0 0.3588789570060249 -0.28417217618292612 0 0.35668705298178782 -0.29927446300410931 0 0.3588789570060249 -0.28417217618292612 0 0.34838569116414742 -0.29826859846934978 0 0.35668705298178782 -0.29927446300410931 0 0.34132883005847792 -0.28985097967810869 0 0.34691938036898168 -0.28450857491683029 0 0.34838569116414742 -0.29826859846934978 0 0.3588789570060249 -0.28417217618292612 0 0.34691938036898168 -0.28450857491683029 0 0.34838569116414742 -0.29826859846934978 0 0.3329590095033178 -0.29937208575795959 0 0.3501046617722422 -0.31131780857689623 0 0.34838569116414742 -0.29826859846934978 0 0.3501046617722422 -0.31131780857689623 0 0.34838569116414742 -0.29826859846934978 0 0.3501046617722422 -0.31131780857689623 0 0.34838569116414742 -0.29826859846934978 0 0.35668705298178782 -0.29927446300410931 0 0.35668705298178782 -0.29927446300410931 0 0.35449514895756018 -0.31437674982529368 0 0.3501046617722422 -0.31131780857689623 0 0.35668705298178782 -0.29927446300410931 0 0.35449514895756018 -0.31437674982529368 0 0.35668705298178782 -0.29927446300410931 0 0.37307248883805488 -0.30740854736568468 0 0.35449514895756018 -0.31437674982529368 0 0.3588789570060249 -0.28417217618292612 0 0.35668705298178782 -0.29927446300410931 0 0.37307248883805488 -0.30740854736568468 0 0.37307248883805488 -0.30740854736568468 0 0.37425881744894002 -0.3093506976545416 0 0.37425881744894002 -0.3093506976545416 0 0.36403304179323959 -0.32438803102212849 0 0.37307248883805488 -0.30740854736568468 0 0.37425881744894002 -0.3093506976545416 0 0.36403304179323959 -0.32438803102212849 0 0.37307248883805488 -0.30740854736568468 0 0.35449514895756018 -0.31437674982529368 0 0.35204425751386792 -0.32604184878840481 0 0.37307248883805488 -0.30740854736568468 0 0.35204425751386792 -0.32604184878840481 0 0.37307248883805488 -0.30740854736568468 0 0.36403304179323959 -0.32438803102212849 0 0.35204425751386792 -0.32604184878840481 0 0.38515383111870222 -0.32718703216716638 0 0.37425881744894002 -0.3093506976545416 0 0.36403304179323959 -0.32438803102212849 0 0.38515383111870222 -0.32718703216716638 0 0.36403304179323959 -0.32438803102212849 0 0.3744928386284479 -0.3493944272995651 0 0.36403304179323959 -0.32438803102212849 0 0.35380726613754132 -0.33942536438971671 0 0.3744928386284479 -0.3493944272995651 0 0.36403304179323959 -0.32438803102212849 0 0.35380726613754132 -0.33942536438971671 0 0.35240483359668051 -0.32877908759994062 0 0.35380726613754132 -0.33942536438971671 0 0.3517541755911181 -0.33326214147176048 0 0.35240483359668051 -0.32877908759994062 0 0.35380726613754132 -0.33942536438971671 0 0.36403304179323959 -0.32438803102212849 0 0.35240483359668051 -0.32877908759994062 0 0.35380726613754132 -0.33942536438971671 0 0.3517541755911181 -0.33326214147176048 0 0.35380726613754132 -0.33942536438971671 0 0.33720820584043859 -0.33918820515533621 0 0.3517541755911181 -0.33326214147176048 0 0.35240483359668051 -0.32877908759994062 0 0.35240483359668051 -0.32877908759994062 0 0.35204425751386792 -0.32604184878840481 0 0.33720820584043859 -0.33918820515533621 0 0.35204425751386792 -0.32604184878840481 0 0.33720820584043859 -0.33918820515533621 0 0.3517541755911181 -0.33326214147176048 0 0.35240483359668051 -0.32877908759994062 0 0.33720820584043859 -0.33918820515533621 0 0.3501046617722422 -0.31131780857689623 0 0.35204425751386792 -0.32604184878840481 0 0.3410015193903167 -0.32000673568230942 0 0.3501046617722422 -0.31131780857689623 0 0.35204425751386792 -0.32604184878840481 0 0.3501046617722422 -0.31131780857689623 0 0.35449514895756018 -0.31437674982529368 0 0.35204425751386792 -0.32604184878840481 0 0.35449514895756018 -0.31437674982529368 0 0.35204425751386792 -0.32604184878840481 0 0.3501046617722422 -0.31131780857689623 0 0.35449514895756018 -0.31437674982529368 0 0.36403304179323959 -0.32438803102212849 0 0.35240483359668051 -0.32877908759994062 0 0.35204425751386792 -0.32604184878840481 0 0.35240483359668051 -0.32877908759994062 0 0.35204425751386792 -0.32604184878840481 0 0.38177656958814021 -0.37107518427696229 0 0.36734443732854488 -0.36873687328289317 0 0.3744928386284479 -0.3493944272995651 0 0.3591821976834495 -0.38022804637025343 0 0.36734443732854488 -0.36873687328289317 0 0.35649473191049491 -0.35982670537998512 0 0.38177656958814021 -0.37107518427696229 0 0.37203942743426083 -0.38201941848357368 0 0.36734443732854488 -0.36873687328289317 0 0.36734443732854488 -0.36873687328289317 0 0.3744928386284479 -0.3493944272995651 0 0.35649473191049491 -0.35982670537998512 0 0.35380726613754132 -0.33942536438971671 0 0.3744928386284479 -0.3493944272995651 0 0.35649473191049491 -0.35982670537998512 0 0.35380726613754132 -0.33942536438971671 0 0.35649473191049491 -0.35982670537998512 0 0.33719979632887231 -0.36384718512132108 0 0.35380726613754132 -0.33942536438971671 0 0.33719979632887231 -0.36384718512132108 0 0.35380726613754132 -0.33942536438971671 0 0.35649473191049491 -0.35982670537998512 0 0.3591821976834495 -0.38022804637025343 0 0.35649473191049491 -0.35982670537998512 0 0.33719979632887231 -0.36384718512132108 0 0.3591821976834495 -0.38022804637025343 0 0.35649473191049491 -0.35982670537998512 0 0.32247922257521228 -0.38549426426222733 0 0.33719979632887231 -0.36384718512132108 0 0.35380726613754132 -0.33942536438971671 0 0.33719979632887231 -0.36384718512132108 0 0.33720820584043859 -0.33918820515533621 0 0.33719979632887231 -0.36384718512132108 0 0.3243881125484791 -0.345695531640896 0 0.33720820584043859 -0.33918820515533621 0 0.33719979632887231 -0.36384718512132108 0 0.3243881125484791 -0.345695531640896 0 0.31552399000347731 -0.36238524518711901 0 0.32106610316022433 -0.34098889320773978 0 0.30609033177793232 -0.34970361435475289 0 0.31552399000347731 -0.36238524518711901 0 0.32106610316022433 -0.34098889320773978 0 0.3243881125484791 -0.345695531640896 0 0.32009868596209662 -0.36887875521605568 0 0.31552399000347731 -0.36238524518711901 0 0.3243881125484791 -0.345695531640896 0 0.31552399000347731 -0.36238524518711901 0 0.32106610316022433 -0.34098889320773978 0 0.3243881125484791 -0.345695531640896 0 0.32009868596209662 -0.36887875521605568 0 0.33719979632887231 -0.36384718512132108 0 0.3243881125484791 -0.345695531640896 0 0.32009868596209662 -0.36887875521605568 0 0.30998187684672829 -0.38378159716649768 0 0.32009868596209662 -0.36887875521605568 0 0.31552399000347731 -0.36238524518711901 0 0.30998187684672829 -0.38378159716649768 0 0.31552399000347731 -0.36238524518711901 0 0.32247922257521228 -0.38549426426222733 0 0.33719979632887231 -0.36384718512132108 0 0.32009868596209662 -0.36887875521605568 0 0.3329590095033178 -0.29937208575795959 0 0.32867356102589851 -0.32253380869942783 0 0.3410015193903167 -0.32000673568230942 0 0.32867356102589851 -0.32253380869942783 0 0.3410015193903167 -0.32000673568230942 0 0.33720820584043859 -0.33918820515533621 0 0.35204425751386792 -0.32604184878840481 0 0.3410015193903167 -0.32000673568230942 0 0.33720820584043859 -0.33918820515533621 0 0.3243881125484791 -0.345695531640896 0 0.32867356102589851 -0.32253380869942783 0 0.33720820584043859 -0.33918820515533621 0 0.32106610316022433 -0.34098889320773978 0 0.32550311657988618 -0.32385898297690002 0 0.32106610316022433 -0.34098889320773978 0 0.30598257456179478 -0.31961847936723409 0 0.3243881125484791 -0.345695531640896 0 0.32867356102589851 -0.32253380869942783 0 0.32106610316022433 -0.34098889320773978 0 0.31730625048913152 -0.32057337072328879 0 0.32550311657988618 -0.32385898297690002 0 0.32867356102589851 -0.32253380869942783 0 0.32106610316022433 -0.34098889320773978 0 0.32550311657988618 -0.32385898297690002 0 0.3243881125484791 -0.345695531640896 0 0.32867356102589851 -0.32253380869942783 0 0.32106610316022433 -0.34098889320773978 0 0.3243881125484791 -0.345695531640896 0 0.32106610316022433 -0.34098889320773978 0 0.32106610316022433 -0.34098889320773978 0 0.31730625048913152 -0.32057337072328879 0 0.30598257456179478 -0.31961847936723409 0 0.31730625048913152 -0.32057337072328879 0 0.32550311657988618 -0.32385898297690002 0 0.32327271593148132 -0.31419627970249692 0 0.32867356102589851 -0.32253380869942783 0 0.32550311657988618 -0.32385898297690002 0 0.32327271593148132 -0.31419627970249692 0 0.31313654190606982 -0.30508208234774897 0 0.31730625048913152 -0.32057337072328879 0 0.32327271593148132 -0.31419627970249692 0 0.31313654190606982 -0.30508208234774897 0 0.31730625048913152 -0.32057337072328879 0 0.30598257456179478 -0.31961847936723409 0 0.30598257456179478 -0.31961847936723409 0 0.2983694040928177 -0.33508794731255559 0 0.29284029636165287 -0.31832166387556787 0 0.30598257456179478 -0.31961847936723409 0 0.29602052509318483 -0.30550420110306648 0 0.30598257456179478 -0.31961847936723409 0 0.29284029636165287 -0.31832166387556787 0 0.29602052509318483 -0.30550420110306648 0 0.30598257456179478 -0.31961847936723409 0 0.2983694040928177 -0.33508794731255559 0 0.32106610316022433 -0.34098889320773978 0 0.30598257456179478 -0.31961847936723409 0 0.2983694040928177 -0.33508794731255559 0 0.32106610316022433 -0.34098889320773978 0 0.2983694040928177 -0.33508794731255559 0 0.30609033177793232 -0.34970361435475289 0 0.2983694040928177 -0.33508794731255559 0 0.28335638139815023 -0.33512994256595102 0 0.29284029636165287 -0.31832166387556787 0 0.2983694040928177 -0.33508794731255559 0 0.28335638139815023 -0.33512994256595102 0 0.29075623362383879 -0.35055741525787609 0 0.2983694040928177 -0.33508794731255559 0 0.29075623362383879 -0.35055741525787609 0 0.28335638139815023 -0.33512994256595102 0 0.29284029636165287 -0.31832166387556787 0 0.28015175719036262 -0.32198256272802839 0 0.29284029636165287 -0.31832166387556787 0 0.28015175719036262 -0.32198256272802839 0 0.28615796304163782 -0.30725831381773933 0 0.30998187684672829 -0.38378159716649768 0 0.31552399000347731 -0.36238524518711901 0 0.29867463979634229 -0.36704725229961849 0 0.31552399000347731 -0.36238524518711901 0 0.29867463979634229 -0.36704725229961849 0 0.30609033177793232 -0.34970361435475289 0 0.29867463979634229 -0.36704725229961849 0 0.30609033177793232 -0.34970361435475289 0 0.29075623362383879 -0.35055741525787609 0 0.2983694040928177 -0.33508794731255559 0 0.30609033177793232 -0.34970361435475289 0 0.29075623362383879 -0.35055741525787609 0 0.29075623362383879 -0.35055741525787609 0 0.28195509868581442 -0.36439661019011282 0 0.2711586980804454 -0.35243765424686307 0 0.28335638139815023 -0.33512994256595102 0 0.29075623362383879 -0.35055741525787609 0 0.2711586980804454 -0.35243765424686307 0 0.28806263156304052 -0.37590589324082269 0 0.29867463979634229 -0.36704725229961849 0 0.28195509868581442 -0.36439661019011282 0 0.29867463979634229 -0.36704725229961849 0 0.29075623362383879 -0.35055741525787609 0 0.28195509868581442 -0.36439661019011282 0 0.28806263156304052 -0.37590589324082269 0 0.27844023565683512 -0.37592081843581743 0 0.28195509868581442 -0.36439661019011282 0 0.28195509868581442 -0.36439661019011282 0 0.2683201577905977 -0.36880683366587053 0 0.2711586980804454 -0.35243765424686307 0 0.2683201577905977 -0.36880683366587053 0 0.2711586980804454 -0.35243765424686307 0 0.25946428957871981 -0.36378683378367782 0 0.27844023565683512 -0.37592081843581743 0 0.28195509868581442 -0.36439661019011282 0 0.2683201577905977 -0.36880683366587053 0 0.2711586980804454 -0.35243765424686307 0 0.25002682423568212 -0.34484488031742488 0 0.25946428957871981 -0.36378683378367782 0 0.2711586980804454 -0.35243765424686307 0 0.25002682423568212 -0.34484488031742488 0 0.26757016950132628 -0.33413440182634802 0 0.2609193059175009 -0.37943200932685378 0 0.2683201577905977 -0.36880683366587053 0 0.25946428957871981 -0.36378683378367782 0 0.25002682423568212 -0.34484488031742488 0 0.25946428957871981 -0.36378683378367782 0 0.246896461869373 -0.37341279136137712 0 0.2609193059175009 -0.37943200932685378 0 0.25946428957871981 -0.36378683378367782 0 0.246896461869373 -0.37341279136137712 0 0.28015175719036262 -0.32198256272802839 0 0.26757016950132628 -0.33413440182634802 0 0.25315718660199121 -0.31627696927347271 0 0.28335638139815023 -0.33512994256595102 0 0.2711586980804454 -0.35243765424686307 0 0.26757016950132628 -0.33413440182634802 0 0.28335638139815023 -0.33512994256595102 0 0.28015175719036262 -0.32198256272802839 0 0.26757016950132628 -0.33413440182634802 0 0.25002682423568212 -0.34484488031742488 0 0.25315718660199121 -0.31627696927347271 0 0.25002682423568212 -0.34484488031742488 0 0.26757016950132628 -0.33413440182634802 0 0.25315718660199121 -0.31627696927347271 0 0.28015175719036262 -0.32198256272802839 0 0.25315718660199121 -0.31627696927347271 0 0.26194524327296032 -0.30441223891309638 0 0.26194524327296032 -0.30441223891309638 0 0.25547721449174782 -0.29113947091761011 0 0.24338588172989539 -0.298619972625849 0 0.25315718660199121 -0.31627696927347271 0 0.26194524327296032 -0.30441223891309638 0 0.24338588172989539 -0.298619972625849 0 0.26194524327296032 -0.30441223891309638 0 0.25547721449174782 -0.29113947091761011 0 0.27571876093841302 -0.29909321854313509 0 0.27571876093841302 -0.29909321854313509 0 0.27128576468646332 -0.27620387435824179 0 0.25547721449174782 -0.29113947091761011 0 0.27571876093841302 -0.29909321854313509 0 0.27128576468646332 -0.27620387435824179 0 0.27571876093841302 -0.29909321854313509 0 0.28605847562457559 -0.29138992283889831 0 0.27128576468646332 -0.27620387435824179 0 0.28605847562457559 -0.29138992283889831 0 0.28453840169229511 -0.27843222637599568 0 0.27128576468646332 -0.27620387435824179 0 0.28015175719036262 -0.32198256272802839 0 0.27571876093841302 -0.29909321854313509 0 0.28615796304163782 -0.30725831381773933 0 0.28015175719036262 -0.32198256272802839 0 0.26194524327296032 -0.30441223891309638 0 0.27571876093841302 -0.29909321854313509 0 0.28015175719036262 -0.32198256272802839 0 0.27571876093841302 -0.29909321854313509 0 0.27571876093841302 -0.29909321854313509 0 0.28615796304163782 -0.30725831381773933 0 0.28605847562457559 -0.29138992283889831 0 0.28615796304163782 -0.30725831381773933 0 0.29602052509318483 -0.30550420110306648 0 0.28605847562457559 -0.29138992283889831 0 0.29602052509318483 -0.30550420110306648 0 0.28605847562457559 -0.29138992283889831 0 0.30359679617051227 -0.2941314383789197 0 0.29284029636165287 -0.31832166387556787 0 0.28615796304163782 -0.30725831381773933 0 0.29602052509318483 -0.30550420110306648 0 0.29602052509318483 -0.30550420110306648 0 0.28605847562457559 -0.29138992283889831 0 0.28605847562457559 -0.29138992283889831 0 0.30247792897839471 -0.27813530027662392 0 0.28453840169229511 -0.27843222637599568 0 0.32029050925033709 -0.29054568532826008 0 0.30359679617051227 -0.2941314383789197 0 0.30247792897839471 -0.27813530027662392 0 0.32029050925033709 -0.29054568532826008 0 0.30247792897839471 -0.27813530027662392 0 0.31313654190606982 -0.30508208234774897 0 0.32029050925033709 -0.29054568532826008 0 0.30359679617051227 -0.2941314383789197 0 0.28605847562457559 -0.29138992283889831 0 0.30359679617051227 -0.2941314383789197 0 0.30247792897839471 -0.27813530027662392 0 0.31313654190606982 -0.30508208234774897 0 0.29602052509318483 -0.30550420110306648 0 0.30359679617051227 -0.2941314383789197 0 0.31313654190606982 -0.30508208234774897 0 0.30598257456179478 -0.31961847936723409 0 0.29602052509318483 -0.30550420110306648 0 0.31313654190606982 -0.30508208234774897 0 0.30598257456179478 -0.31961847936723409 0 0.3147215762287866 -0.26609600062902022 0 0.29897224555525947 -0.25346708268488699 0 0.31200767160584758 -0.25248528850130292 0 0.3147215762287866 -0.26609600062902022 0 0.29897224555525947 -0.25346708268488699 0 0.30247792897839471 -0.27813530027662392 0 0.32029050925033709 -0.29054568532826008 0 0.3147215762287866 -0.26609600062902022 0 0.30247792897839471 -0.27813530027662392 0 0.30247792897839471 -0.27813530027662392 0 0.28466534870645271 -0.26572491522498698 0 0.30247792897839471 -0.27813530027662392 0 0.28453840169229511 -0.27843222637599568 0 0.28466534870645271 -0.26572491522498698 0 0.29897224555525947 -0.25346708268488699 0 0.30247792897839471 -0.27813530027662392 0 0.28466534870645271 -0.26572491522498698 0 0.28099221496754662 -0.2431913801295135 0 0.29897224555525947 -0.25346708268488699 0 0.28466534870645271 -0.26572491522498698 0 0.28466534870645271 -0.26572491522498698 0 0.26685276843451161 -0.25331453017334882 0 0.27128576468646332 -0.27620387435824179 0 0.26685276843451161 -0.25331453017334882 0 0.27128576468646332 -0.27620387435824179 0 0.28099221496754662 -0.2431913801295135 0 0.28466534870645271 -0.26572491522498698 0 0.26685276843451161 -0.25331453017334882 0 0.28466534870645271 -0.26572491522498698 0 0.26685276843451161 -0.25331453017334882 0 0.28453840169229511 -0.27843222637599568 0 0.28466534870645271 -0.26572491522498698 0 0.27128576468646332 -0.27620387435824179 0 0.25547721449174782 -0.29113947091761011 0 0.27128576468646332 -0.27620387435824179 0 0.25399359145879669 -0.27206761396575813 0 0.26685276843451161 -0.25331453017334882 0 0.27128576468646332 -0.27620387435824179 0 0.25399359145879669 -0.27206761396575813 0 0.26685276843451161 -0.25331453017334882 0 0.2407349790181332 -0.26078619027127392 0 0.245414225112776 -0.23837786330605601 0 0.26685276843451161 -0.25331453017334882 0 0.25399359145879669 -0.27206761396575813 0 0.2407349790181332 -0.26078619027127392 0 0.2407349790181332 -0.26078619027127392 0 0.22353458935400369 -0.25590097382475863 0 0.245414225112776 -0.23837786330605601 0 0.25399359145879669 -0.27206761396575813 0 0.2407349790181332 -0.26078619027127392 0 0.2349657351186123 -0.2839102581134047 0 0.2407349790181332 -0.26078619027127392 0 0.21808537532326039 -0.27318491185653271 0 0.2349657351186123 -0.2839102581134047 0 0.2407349790181332 -0.26078619027127392 0 0.22353458935400369 -0.25590097382475863 0 0.21808537532326039 -0.27318491185653271 0 0.22353458935400369 -0.25590097382475863 0 0.2073638936003622 -0.25714551344954623 0 0.21808537532326039 -0.27318491185653271 0 0.22353458935400369 -0.25590097382475863 0 0.2073638936003622 -0.25714551344954623 0 0.2170602795693112 -0.240149865458053 0 0.21808537532326039 -0.27318491185653271 0 0.20274339647441261 -0.27271591664419098 0 0.2121352728881768 -0.29016415385081168 0 0.2073638936003622 -0.25714551344954623 0 0.21808537532326039 -0.27318491185653271 0 0.20274339647441261 -0.27271591664419098 0 0.20274339647441261 -0.27271591664419098 0 0.18780443434606231 -0.26325626036450173 0 0.19043500919459591 -0.28248811050675282 0 0.2073638936003622 -0.25714551344954623 0 0.18780443434606231 -0.26325626036450173 0 0.19599784866598949 -0.2401471711248476 0 0.2073638936003622 -0.25714551344954623 0 0.20274339647441261 -0.27271591664419098 0 0.18780443434606231 -0.26325626036450173 0 0.19088499109304419 -0.29885627720374991 0 0.2121352728881768 -0.29016415385081168 0 0.20576962647339 -0.30622250544781898 0 0.19088499109304419 -0.29885627720374991 0 0.20576962647339 -0.30622250544781898 0 0.18830608827999859 -0.3196601586166144 0 0.20274339647441261 -0.27271591664419098 0 0.19043500919459591 -0.28248811050675282 0 0.2121352728881768 -0.29016415385081168 0 0.19088499109304419 -0.29885627720374991 0 0.19043500919459591 -0.28248811050675282 0 0.2121352728881768 -0.29016415385081168 0 0.20576962647339 -0.30622250544781898 0 0.22633998569921349 -0.3062607098471759 0 0.20822931594931701 -0.32495479707013741 0 0.2121352728881768 -0.29016415385081168 0 0.20576962647339 -0.30622250544781898 0 0.22633998569921349 -0.3062607098471759 0 0.2121352728881768 -0.29016415385081168 0 0.22633998569921349 -0.3062607098471759 0 0.2349657351186123 -0.2839102581134047 0 0.21808537532326039 -0.27318491185653271 0 0.2121352728881768 -0.29016415385081168 0 0.2349657351186123 -0.2839102581134047 0 0.25547721449174782 -0.29113947091761011 0 0.2349657351186123 -0.2839102581134047 0 0.24338588172989539 -0.298619972625849 0 0.22633998569921349 -0.3062607098471759 0 0.2349657351186123 -0.2839102581134047 0 0.24338588172989539 -0.298619972625849 0 0.25547721449174782 -0.29113947091761011 0 0.25399359145879669 -0.27206761396575813 0 0.2349657351186123 -0.2839102581134047 0 0.25315718660199121 -0.31627696927347271 0 0.22633998569921349 -0.3062607098471759 0 0.24338588172989539 -0.298619972625849 0 0.25315718660199121 -0.31627696927347271 0 0.22633998569921349 -0.3062607098471759 0 0.2281134267842416 -0.32570422003553873 0 0.25002682423568212 -0.34484488031742488 0 0.25315718660199121 -0.31627696927347271 0 0.2281134267842416 -0.32570422003553873 0 0.25002682423568212 -0.34484488031742488 0 0.2281134267842416 -0.32570422003553873 0 0.2305177179506965 -0.34465287706711961 0 0.2281134267842416 -0.32570422003553873 0 0.2305177179506965 -0.34465287706711961 0 0.2154796532769461 -0.34097367747340779 0 0.22633998569921349 -0.3062607098471759 0 0.2281134267842416 -0.32570422003553873 0 0.20822931594931701 -0.32495479707013741 0 0.246896461869373 -0.37341279136137712 0 0.2319669387183852 -0.36832085818562837 0 0.23073795595396779 -0.37895283207355451 0 0.246896461869373 -0.37341279136137712 0 0.23700194691277329 -0.35843888598469992 0 0.2319669387183852 -0.36832085818562837 0 0.25002682423568212 -0.34484488031742488 0 0.246896461869373 -0.37341279136137712 0 0.25002682423568212 -0.34484488031742488 0 0.23700194691277329 -0.35843888598469992 0 0.2305177179506965 -0.34465287706711961 0 0.25002682423568212 -0.34484488031742488 0 0.246896461869373 -0.37341279136137712 0 0.23700194691277329 -0.35843888598469992 0 0.2305177179506965 -0.34465287706711961 0 0.22248565734179909 -0.35253815836686769 0 0.2154796532769461 -0.34097367747340779 0 0.23700194691277329 -0.35843888598469992 0 0.22248565734179909 -0.35253815836686769 0 0.22217101668519479 -0.36374950476256668 0 0.23700194691277329 -0.35843888598469992 0 0.2305177179506965 -0.34465287706711961 0 0.22248565734179909 -0.35253815836686769 0 0.23700194691277329 -0.35843888598469992 0 0.22217101668519479 -0.36374950476256668 0 0.2319669387183852 -0.36832085818562837 0 0.22217101668519479 -0.36374950476256668 0 0.2319669387183852 -0.36832085818562837 0 0.21927956499817519 -0.3761052184939323 0 0.2319669387183852 -0.36832085818562837 0 0.23073795595396779 -0.37895283207355451 0 0.21927956499817519 -0.3761052184939323 0 0.2125163114171108 -0.36687103835788132 0 0.2040056858954197 -0.36519237691348022 0 0.20735170233436881 -0.37529040441992079 0 0.22217101668519479 -0.36374950476256668 0 0.2125163114171108 -0.36687103835788132 0 0.21927956499817519 -0.3761052184939323 0 0.2125163114171108 -0.36687103835788132 0 0.21927956499817519 -0.3761052184939323 0 0.20735170233436881 -0.37529040441992079 0 0.22217101668519479 -0.36374950476256668 0 0.2125163114171108 -0.36687103835788132 0 0.2097735871723955 -0.35401768719950638 0 0.2125163114171108 -0.36687103835788132 0 0.2040056858954197 -0.36519237691348022 0 0.2097735871723955 -0.35401768719950638 0 0.2040056858954197 -0.36519237691348022 0 0.2097735871723955 -0.35401768719950638 0 0.2014794907686252 -0.35778861390414218 0 0.22248565734179909 -0.35253815836686769 0 0.22217101668519479 -0.36374950476256668 0 0.2097735871723955 -0.35401768719950638 0 0.22248565734179909 -0.35253815836686769 0 0.2097735871723955 -0.35401768719950638 0 0.2154796532769461 -0.34097367747340779 0 0.2097735871723955 -0.35401768719950638 0 0.2154796532769461 -0.34097367747340779 0 0.20135920740336891 -0.34114786529482588 0 0.2097735871723955 -0.35401768719950638 0 0.19655854458202721 -0.35049684317697388 0 0.20135920740336891 -0.34114786529482588 0 0.19655854458202721 -0.35049684317697388 0 0.20135920740336891 -0.34114786529482588 0 0.18844187102733009 -0.34311859482726997 0 0.19655854458202721 -0.35049684317697388 0 0.18887202633182809 -0.35835767299161281 0 0.18844187102733009 -0.34311859482726997 0 0.19655854458202721 -0.35049684317697388 0 0.18887202633182809 -0.35835767299161281 0 0.19558014542465851 -0.36144754832660819 0 0.19655854458202721 -0.35049684317697388 0 0.2014794907686252 -0.35778861390414218 0 0.19558014542465851 -0.36144754832660819 0 0.2097735871723955 -0.35401768719950638 0 0.19655854458202721 -0.35049684317697388 0 0.2014794907686252 -0.35778861390414218 0 0.2040056858954197 -0.36519237691348022 0 0.2014794907686252 -0.35778861390414218 0 0.19558014542465851 -0.36144754832660819 0 0.2040056858954197 -0.36519237691348022 0 0.19558014542465851 -0.36144754832660819 0 0.19552576267167621 -0.37482654072296612 0 0.19558014542465851 -0.36144754832660819 0 0.19552576267167621 -0.37482654072296612 0 0.18495251552409911 -0.36787222243180112 0 0.2040056858954197 -0.36519237691348022 0 0.19552576267167621 -0.37482654072296612 0 0.20735170233436881 -0.37529040441992079 0 0.2281134267842416 -0.32570422003553873 0 0.20822931594931701 -0.32495479707013741 0 0.2154796532769461 -0.34097367747340779 0 0.20822931594931701 -0.32495479707013741 0 0.2154796532769461 -0.34097367747340779 0 0.20135920740336891 -0.34114786529482588 0 0.20822931594931701 -0.32495479707013741 0 0.20135920740336891 -0.34114786529482588 0 0.1925846451195766 -0.33259055148231143 0 0.20135920740336891 -0.34114786529482588 0 0.18844187102733009 -0.34311859482726997 0 0.1925846451195766 -0.33259055148231143 0 0.20576962647339 -0.30622250544781898 0 0.20822931594931701 -0.32495479707013741 0 0.18830608827999859 -0.3196601586166144 0 0.20822931594931701 -0.32495479707013741 0 0.1925846451195766 -0.33259055148231143 0 0.18830608827999859 -0.3196601586166144 0 0.18830608827999859 -0.3196601586166144 0 0.18135215557637749 -0.33320054149245909 0 0.17130609039627889 -0.32519279682669361 0 0.18830608827999859 -0.3196601586166144 0 0.17130609039627889 -0.32519279682669361 0 0.17859168390391431 -0.30813448180945641 0 0.18844187102733009 -0.34311859482726997 0 0.18135215557637749 -0.33320054149245909 0 0.1718645496567705 -0.34220263802708561 0 0.18135215557637749 -0.33320054149245909 0 0.1718645496567705 -0.34220263802708561 0 0.17130609039627889 -0.32519279682669361 0 0.1925846451195766 -0.33259055148231143 0 0.18830608827999859 -0.3196601586166144 0 0.18135215557637749 -0.33320054149245909 0 0.18844187102733009 -0.34311859482726997 0 0.1925846451195766 -0.33259055148231143 0 0.18135215557637749 -0.33320054149245909 0 0.1718645496567705 -0.34220263802708561 0 0.15485707298171239 -0.32604760306255881 0 0.1718645496567705 -0.34220263802708561 0 0.15902421214288021 -0.34757407018687442 0 0.15485707298171239 -0.32604760306255881 0 0.1718645496567705 -0.34220263802708561 0 0.17130609039627889 -0.32519279682669361 0 0.15485707298171239 -0.32604760306255881 0 0.17130609039627889 -0.32519279682669361 0 0.15485707298171239 -0.32604760306255881 0 0.16307973697458561 -0.30580104081857729 0 0.15485707298171239 -0.32604760306255881 0 0.16307973697458561 -0.30580104081857729 0 0.17130609039627889 -0.32519279682669361 0 0.17859168390391431 -0.30813448180945641 0 0.16307973697458561 -0.30580104081857729 0 0.18495251552409911 -0.36787222243180112 0 0.16892814136503001 -0.35923651562202108 0 0.17977601263503179 -0.37597828505560899 0 0.19552576267167621 -0.37482654072296612 0 0.18495251552409911 -0.36787222243180112 0 0.17977601263503179 -0.37597828505560899 0 0.19558014542465851 -0.36144754832660819 0 0.16892814136503001 -0.35923651562202108 0 0.19558014542465851 -0.36144754832660819 0 0.18495251552409911 -0.36787222243180112 0 0.16892814136503001 -0.35923651562202108 0 0.16892814136503001 -0.35923651562202108 0 0.16810862453789849 -0.37335463314147421 0 0.17977601263503179 -0.37597828505560899 0 0.18887202633182809 -0.35835767299161281 0 0.19558014542465851 -0.36144754832660819 0 0.16892814136503001 -0.35923651562202108 0 0.18887202633182809 -0.35835767299161281 0 0.18844187102733009 -0.34311859482726997 0 0.1718645496567705 -0.34220263802708561 0 0.18887202633182809 -0.35835767299161281 0 0.1718645496567705 -0.34220263802708561 0 0.18887202633182809 -0.35835767299161281 0 0.1718645496567705 -0.34220263802708561 0 0.16892814136503001 -0.35923651562202108 0 0.1718645496567705 -0.34220263802708561 0 0.15902421214288021 -0.34757407018687442 0 0.16892814136503001 -0.35923651562202108 0 0.15902421214288021 -0.34757407018687442 0 0.16892814136503001 -0.35923651562202108 0 0.14227613730540181 -0.35702548291742903 0 0.16892814136503001 -0.35923651562202108 0 0.16810862453789849 -0.37335463314147421 0 0.1560798032690556 -0.37381580958849719 0 0.1560798032690556 -0.37381580958849719 0 0.14227613730540181 -0.35702548291742903 0 0.13526563719118259 -0.37428734927200907 0 0.16892814136503001 -0.35923651562202108 0 0.1560798032690556 -0.37381580958849719 0 0.14227613730540181 -0.35702548291742903 0 0.16892814136503001 -0.35923651562202108 0 0.14227613730540181 -0.35702548291742903 0 0.15902421214288021 -0.34757407018687442 0 0.14227613730540181 -0.35702548291742903 0 0.1485666051435488 -0.34153654298999059 0 0.14227613730540181 -0.35702548291742903 0 0.1485666051435488 -0.34153654298999059 0 0.14227613730540181 -0.35702548291742903 0 0.13312435907329739 -0.34423966007240231 0 0.1485666051435488 -0.34153654298999059 0 0.14227613730540181 -0.35702548291742903 0 0.12883488822235861 -0.3653981992253742 0 0.1225671519020147 -0.35547541492676121 0 0.14227613730540181 -0.35702548291742903 0 0.13312435907329739 -0.34423966007240231 0 0.1225671519020147 -0.35547541492676121 0 0.14227613730540181 -0.35702548291742903 0 0.1225671519020147 -0.35547541492676121 0 0.14227613730540181 -0.35702548291742903 0 0.13526563719118259 -0.37428734927200907 0 0.14227613730540181 -0.35702548291742903 0 0.12883488822235861 -0.3653981992253742 0 0.13526563719118259 -0.37428734927200907 0 0.12883488822235861 -0.3653981992253742 0 0.13526563719118259 -0.37428734927200907 0 0.12431468521239999 -0.37283315219489999 0 0.15485707298171239 -0.32604760306255881 0 0.15054981720686789 -0.30745785001091669 0 0.16307973697458561 -0.30580104081857729 0 0.1448156208763067 -0.3165094444657941 0 0.15485707298171239 -0.32604760306255881 0 0.15054981720686789 -0.30745785001091669 0 0.1448156208763067 -0.3165094444657941 0 0.15485707298171239 -0.32604760306255881 0 0.14280371295722541 -0.32936588571097458 0 0.1448156208763067 -0.3165094444657941 0 0.15485707298171239 -0.32604760306255881 0 0.15485707298171239 -0.32604760306255881 0 0.1485666051435488 -0.34153654298999059 0 0.14280371295722541 -0.32936588571097458 0 0.15902421214288021 -0.34757407018687442 0 0.15485707298171239 -0.32604760306255881 0 0.1485666051435488 -0.34153654298999059 0 0.15485707298171239 -0.32604760306255881 0 0.1485666051435488 -0.34153654298999059 0 0.13312435907329739 -0.34423966007240231 0 0.1485666051435488 -0.34153654298999059 0 0.14280371295722541 -0.32936588571097458 0 0.13312435907329739 -0.34423966007240231 0 0.14280371295722541 -0.32936588571097458 0 0.1298685402381079 -0.32952984507534888 0 0.1448156208763067 -0.3165094444657941 0 0.1298685402381079 -0.32952984507534888 0 0.1155388534104082 -0.31871224426080053 0 0.1448156208763067 -0.3165094444657941 0 0.1155388534104082 -0.31871224426080053 0 0.1448156208763067 -0.3165094444657941 0 0.14280371295722541 -0.32936588571097458 0 0.1298685402381079 -0.32952984507534888 0 0.1448156208763067 -0.3165094444657941 0 0.1244325304318975 -0.29714798684889382 0 0.1448156208763067 -0.3165094444657941 0 0.1244325304318975 -0.29714798684889382 0 0.1155388534104082 -0.31871224426080053 0 0.1448156208763067 -0.3165094444657941 0 0.14081278544542611 -0.29696083104976351 0 0.1244325304318975 -0.29714798684889382 0 0.15054981720686789 -0.30745785001091669 0 0.15241400767225091 -0.28370167150292319 0 0.16307973697458561 -0.30580104081857729 0 0.1448156208763067 -0.3165094444657941 0 0.14081278544542611 -0.29696083104976351 0 0.15054981720686789 -0.30745785001091669 0 0.14081278544542611 -0.29696083104976351 0 0.15054981720686789 -0.30745785001091669 0 0.15241400767225091 -0.28370167150292319 0 0.14081278544542611 -0.29696083104976351 0 0.15241400767225091 -0.28370167150292319 0 0.1289872366265003 -0.2818380530241304 0 0.14081278544542611 -0.29696083104976351 0 0.1289872366265003 -0.2818380530241304 0 0.1244325304318975 -0.29714798684889382 0 0.1289872366265003 -0.2818380530241304 0 0.14079384304425729 -0.27107963924077161 0 0.1146918213993357 -0.27471200743623708 0 0.14079384304425729 -0.27107963924077161 0 0.1205237410750401 -0.25901118411532942 0 0.1146918213993357 -0.27471200743623708 0 0.14079384304425729 -0.27107963924077161 0 0.1146918213993357 -0.27471200743623708 0 0.14079384304425729 -0.27107963924077161 0 0.1205237410750401 -0.25901118411532942 0 0.1349623815238328 -0.2493166432255951 0 0.15178240439281709 -0.25898227664113538 0 0.14831980909585291 -0.2431078336629959 0 0.1349623815238328 -0.2493166432255951 0 0.15178240439281709 -0.25898227664113538 0 0.14079384304425729 -0.27107963924077161 0 0.1349623815238328 -0.2493166432255951 0 0.15241400767225091 -0.28370167150292319 0 0.15178240439281709 -0.25898227664113538 0 0.14079384304425729 -0.27107963924077161 0 0.15241400767225091 -0.28370167150292319 0 0.1289872366265003 -0.2818380530241304 0 0.14079384304425729 -0.27107963924077161 0 0.15241400767225091 -0.28370167150292319 0 0.16898692742887969 -0.26278319325639238 0 0.17267976115139561 -0.28407872563081821 0 0.15241400767225091 -0.28370167150292319 0 0.15178240439281709 -0.25898227664113538 0 0.16898692742887969 -0.26278319325639238 0 0.15178240439281709 -0.25898227664113538 0 0.16898692742887969 -0.26278319325639238 0 0.16303113152504289 -0.24516665548702571 0 0.16898692742887969 -0.26278319325639238 0 0.17847245915017901 -0.2440829880381632 0 0.16303113152504289 -0.24516665548702571 0 0.18780443434606231 -0.26325626036450173 0 0.16898692742887969 -0.26278319325639238 0 0.17847245915017901 -0.2440829880381632 0 0.18780443434606231 -0.26325626036450173 0 0.16898692742887969 -0.26278319325639238 0 0.17267976115139561 -0.28407872563081821 0 0.18780443434606231 -0.26325626036450173 0 0.19043500919459591 -0.28248811050675282 0 0.17267976115139561 -0.28407872563081821 0 0.19088499109304419 -0.29885627720374991 0 0.19043500919459591 -0.28248811050675282 0 0.17267976115139561 -0.28407872563081821 0 0.19088499109304419 -0.29885627720374991 0 0.18830608827999859 -0.3196601586166144 0 0.17859168390391431 -0.30813448180945641 0 0.19088499109304419 -0.29885627720374991 0 0.17267976115139561 -0.28407872563081821 0 0.17859168390391431 -0.30813448180945641 0 0.17267976115139561 -0.28407872563081821 0 0.17859168390391431 -0.30813448180945641 0 0.16307973697458561 -0.30580104081857729 0 0.15241400767225091 -0.28370167150292319 0 0.17267976115139561 -0.28407872563081821 0 0.16307973697458561 -0.30580104081857729 0 0.18797520518034369 -0.5 0 0.1941184427401145 -0.48428235877364578 0 0.21358710312591311 -0.5 0 0.18797520518034369 -0.5 0 0.1941184427401145 -0.48428235877364578 0 0.18136688093356651 -0.48067884671708672 0 0.1941184427401145 -0.48428235877364578 0 0.2000474616164922 -0.47243185824364542 0 0.18136688093356651 -0.48067884671708672 0 0.2000474616164922 -0.47243185824364542 0 0.1905660183788612 -0.46329669083960728 0 0.18136688093356651 -0.48067884671708672 0 0.1941184427401145 -0.48428235877364578 0 0.2000474616164922 -0.47243185824364542 0 0.20736293005827369 -0.48386861570468243 0 0.20736293005827369 -0.48386861570468243 0 0.20291868998716689 -0.45874031579955837 0 0.20736293005827369 -0.48386861570468243 0 0.21707891166922849 -0.46919306983951659 0 0.20291868998716689 -0.45874031579955837 0 0.2000474616164922 -0.47243185824364542 0 0.20736293005827369 -0.48386861570468243 0 0.20291868998716689 -0.45874031579955837 0 0.20736293005827369 -0.48386861570468243 0 0.21707891166922849 -0.46919306983951659 0 0.2234939338499701 -0.48518001626866269 0 0.20736293005827369 -0.48386861570468243 0 0.21358710312591311 -0.5 0 0.2234939338499701 -0.48518001626866269 0 0.1941184427401145 -0.48428235877364578 0 0.20736293005827369 -0.48386861570468243 0 0.21358710312591311 -0.5 0 0.21358710312591311 -0.5 0 0.2234939338499701 -0.48518001626866269 0 0.23919900107148251 -0.500000000000001 0 0.2234939338499701 -0.48518001626866269 0 0.23919900107148251 -0.500000000000001 0 0.23794408018407459 -0.47368892991554518 0 0.25348812323057662 -0.48407980809220702 0 0.23919900107148251 -0.500000000000001 0 0.23794408018407459 -0.47368892991554518 0 0.23919900107148251 -0.500000000000001 0 0.23794408018407459 -0.47368892991554518 0 0.25348812323057662 -0.48407980809220702 0 0.25529481614335181 -0.5 0 0.23919900107148251 -0.500000000000001 0 0.25147530174806371 -0.4662087952442745 0 0.25348812323057662 -0.48407980809220702 0 0.23794408018407459 -0.47368892991554518 0 0.21707891166922849 -0.46919306983951659 0 0.2234939338499701 -0.48518001626866269 0 0.23794408018407459 -0.47368892991554518 0 0.23086555159065059 -0.4608410820993098 0 0.2193605214226888 -0.45174124466167609 0 0.21307826708032351 -0.459794976482787 0 0.21707891166922849 -0.46919306983951659 0 0.23794408018407459 -0.47368892991554518 0 0.23086555159065059 -0.4608410820993098 0 0.21707891166922849 -0.46919306983951659 0 0.23086555159065059 -0.4608410820993098 0 0.21307826708032351 -0.459794976482787 0 0.23086555159065059 -0.4608410820993098 0 0.22866519391527029 -0.4517264937953287 0 0.2193605214226888 -0.45174124466167609 0 0.23086555159065059 -0.4608410820993098 0 0.23668915929666681 -0.44737785983108952 0 0.22866519391527029 -0.4517264937953287 0 0.23794408018407459 -0.47368892991554518 0 0.2415828451700795 -0.45330382001334091 0 0.23668915929666681 -0.44737785983108952 0 0.23794408018407459 -0.47368892991554518 0 0.23086555159065059 -0.4608410820993098 0 0.23668915929666681 -0.44737785983108952 0 0.23794408018407459 -0.47368892991554518 0 0.23668915929666681 -0.44737785983108952 0 0.25147530174806371 -0.4662087952442745 0 0.23794408018407459 -0.47368892991554518 0 0.2415828451700795 -0.45330382001334091 0 0.25438548531633381 -0.44985883131447418 0 0.25147530174806371 -0.4662087952442745 0 0.2415828451700795 -0.45330382001334091 0 0.24531699308093161 -0.43900719588430748 0 0.23668915929666681 -0.44737785983108952 0 0.24063573713675479 -0.43054861344928141 0 0.25667502842159368 -0.43654154361168918 0 0.2415828451700795 -0.45330382001334091 0 0.25667502842159368 -0.43654154361168918 0 0.2415828451700795 -0.45330382001334091 0 0.24531699308093161 -0.43900719588430748 0 0.2415828451700795 -0.45330382001334091 0 0.24531699308093161 -0.43900719588430748 0 0.23668915929666681 -0.44737785983108952 0 0.23668915929666681 -0.44737785983108952 0 0.22550971323793861 -0.44570398168846642 0 0.2249072318359559 -0.43475434319794232 0 0.23668915929666681 -0.44737785983108952 0 0.22866519391527029 -0.4517264937953287 0 0.22550971323793861 -0.44570398168846642 0 0.22866519391527029 -0.4517264937953287 0 0.22550971323793861 -0.44570398168846642 0 0.2193605214226888 -0.45174124466167609 0 0.22550971323793861 -0.44570398168846642 0 0.2193605214226888 -0.45174124466167609 0 0.21652906589840071 -0.44214383764331239 0 0.22550971323793861 -0.44570398168846642 0 0.21652906589840071 -0.44214383764331239 0 0.2249072318359559 -0.43475434319794232 0 0.20291868998716689 -0.45874031579955837 0 0.2076854313353047 -0.43600996033407702 0 0.2193605214226888 -0.45174124466167609 0 0.21652906589840071 -0.44214383764331239 0 0.20291868998716689 -0.45874031579955837 0 0.21652906589840071 -0.44214383764331239 0 0.2076854313353047 -0.43600996033407702 0 0.21638637263971461 -0.43501654475432311 0 0.20291868998716689 -0.45874031579955837 0 0.1990289919604856 -0.43674746730555741 0 0.2076854313353047 -0.43600996033407702 0 0.21652906589840071 -0.44214383764331239 0 0.20291868998716689 -0.45874031579955837 0 0.2076854313353047 -0.43600996033407702 0 0.2193605214226888 -0.45174124466167609 0 0.21307826708032351 -0.459794976482787 0 0.20291868998716689 -0.45874031579955837 0 0.21707891166922849 -0.46919306983951659 0 0.21307826708032351 -0.459794976482787 0 0.20291868998716689 -0.45874031579955837 0 0.2000474616164922 -0.47243185824364542 0 0.20291868998716689 -0.45874031579955837 0 0.2000474616164922 -0.47243185824364542 0 0.20291868998716689 -0.45874031579955837 0 0.1905660183788612 -0.46329669083960728 0 0.20291868998716689 -0.45874031579955837 0 0.1905660183788612 -0.46329669083960728 0 0.18919379729246999 -0.45021473692387548 0 0.20291868998716689 -0.45874031579955837 0 0.18919379729246999 -0.45021473692387548 0 0.1990289919604856 -0.43674746730555741 0 0.20291868998716689 -0.45874031579955837 0 0.1990289919604856 -0.43674746730555741 0 0.18919379729246999 -0.45021473692387548 0 0.1990289919604856 -0.43674746730555741 0 0.18706461789858811 -0.43470203587765971 0 0.1990289919604856 -0.43674746730555741 0 0.19513929393380419 -0.41475461881155629 0 0.18706461789858811 -0.43470203587765971 0 0.202986566453772 -0.42501075945931949 0 0.1990289919604856 -0.43674746730555741 0 0.19513929393380419 -0.41475461881155629 0 0.1990289919604856 -0.43674746730555741 0 0.19513929393380419 -0.41475461881155629 0 0.19513929393380419 -0.41475461881155629 0 0.21245217268344241 -0.4132796048685955 0 0.20458890811376629 -0.39980000439908958 0 0.202986566453772 -0.42501075945931949 0 0.19513929393380419 -0.41475461881155629 0 0.21245217268344241 -0.4132796048685955 0 0.21245217268344241 -0.4132796048685955 0 0.2164237614891972 -0.42715803784196082 0 0.22284598820957 -0.42101909664531267 0 0.21245217268344241 -0.4132796048685955 0 0.2164237614891972 -0.42715803784196082 0 0.2076854313353047 -0.43600996033407702 0 0.21245217268344241 -0.4132796048685955 0 0.2076854313353047 -0.43600996033407702 0 0.202986566453772 -0.42501075945931949 0 0.21245217268344241 -0.4132796048685955 0 0.2076854313353047 -0.43600996033407702 0 0.202986566453772 -0.42501075945931949 0 0.1990289919604856 -0.43674746730555741 0 0.2076854313353047 -0.43600996033407702 0 0.2164237614891972 -0.42715803784196082 0 0.2076854313353047 -0.43600996033407702 0 0.21638637263971461 -0.43501654475432311 0 0.21652906589840071 -0.44214383764331239 0 0.21638637263971461 -0.43501654475432311 0 0.2249072318359559 -0.43475434319794232 0 0.23668915929666681 -0.44737785983108952 0 0.2249072318359559 -0.43475434319794232 0 0.23543423840925901 -0.42106678974663381 0 0.2164237614891972 -0.42715803784196082 0 0.21638637263971461 -0.43501654475432311 0 0.2249072318359559 -0.43475434319794232 0 0.2164237614891972 -0.42715803784196082 0 0.2249072318359559 -0.43475434319794232 0 0.22284598820957 -0.42101909664531267 0 0.2249072318359559 -0.43475434319794232 0 0.23543423840925901 -0.42106678974663381 0 0.22284598820957 -0.42101909664531267 0 0.23668915929666681 -0.44737785983108952 0 0.24063573713675479 -0.43054861344928141 0 0.23543423840925901 -0.42106678974663381 0 0.23668915929666681 -0.44737785983108952 0 0.23543423840925901 -0.42106678974663381 0 0.25062748944589119 -0.42657998059939911 0 0.24063573713675479 -0.43054861344928141 0 0.24918274412191141 -0.4173192016844926 0 0.25062748944589119 -0.42657998059939911 0 0.24531699308093161 -0.43900719588430748 0 0.24063573713675479 -0.43054861344928141 0 0.24063573713675479 -0.43054861344928141 0 0.24376609950306391 -0.40198070240532918 0 0.24063573713675479 -0.43054861344928141 0 0.23543423840925901 -0.42106678974663381 0 0.24376609950306391 -0.40198070240532918 0 0.24063573713675479 -0.43054861344928141 0 0.24918274412191141 -0.4173192016844926 0 0.24376609950306391 -0.40198070240532918 0 0.23543423840925901 -0.42106678974663381 0 0.23417931752185109 -0.3947557196621781 0 0.23543423840925901 -0.42106678974663381 0 0.2250125366299954 -0.40883670757143148 0 0.23417931752185109 -0.3947557196621781 0 0.23543423840925901 -0.42106678974663381 0 0.22284598820957 -0.42101909664531267 0 0.2250125366299954 -0.40883670757143148 0 0.21245217268344241 -0.4132796048685955 0 0.22284598820957 -0.42101909664531267 0 0.2250125366299954 -0.40883670757143148 0 0.2250125366299954 -0.40883670757143148 0 0.23417931752185109 -0.3947557196621781 0 0.21721891403158011 -0.39054924940311408 0 0.23543423840925901 -0.42106678974663381 0 0.23417931752185109 -0.3947557196621781 0 0.24376609950306391 -0.40198070240532918 0 0.25584480791356118 -0.39053297558078609 0 0.246896461869373 -0.37341279136137712 0 0.24376609950306391 -0.40198070240532918 0 0.246896461869373 -0.37341279136137712 0 0.23417931752185109 -0.3947557196621781 0 0.23073795595396779 -0.37895283207355451 0 0.246896461869373 -0.37341279136137712 0 0.23417931752185109 -0.3947557196621781 0 0.24376609950306391 -0.40198070240532918 0 0.246896461869373 -0.37341279136137712 0 0.24376609950306391 -0.40198070240532918 0 0.23417931752185109 -0.3947557196621781 0 0.23073795595396779 -0.37895283207355451 0 0.21721891403158011 -0.39054924940311408 0 0.23073795595396779 -0.37895283207355451 0 0.21927956499817519 -0.3761052184939323 0 0.21721891403158011 -0.39054924940311408 0 0.21927956499817519 -0.3761052184939323 0 0.20735170233436881 -0.37529040441992079 0 0.20540443224470731 -0.38680189550518218 0 0.21927956499817519 -0.3761052184939323 0 0.20540443224470731 -0.38680189550518218 0 0.21721891403158011 -0.39054924940311408 0 0.21245217268344241 -0.4132796048685955 0 0.21721891403158011 -0.39054924940311408 0 0.21245217268344241 -0.4132796048685955 0 0.21721891403158011 -0.39054924940311408 0 0.20458890811376629 -0.39980000439908958 0 0.21245217268344241 -0.4132796048685955 0 0.2250125366299954 -0.40883670757143148 0 0.21721891403158011 -0.39054924940311408 0 0.20540443224470731 -0.38680189550518218 0 0.21721891403158011 -0.39054924940311408 0 0.20458890811376629 -0.39980000439908958 0 0.19513929393380419 -0.41475461881155629 0 0.1912495959071229 -0.39276177031755533 0 0.20540443224470731 -0.38680189550518218 0 0.20458890811376629 -0.39980000439908958 0 0.1912495959071229 -0.39276177031755533 0 0.19513929393380419 -0.41475461881155629 0 0.1912495959071229 -0.39276177031755533 0 0.1820712955836517 -0.40561352917241389 0 0.19513929393380419 -0.41475461881155629 0 0.20458890811376629 -0.39980000439908958 0 0.1912495959071229 -0.39276177031755533 0 0.19552576267167621 -0.37482654072296612 0 0.1912495959071229 -0.39276177031755533 0 0.17977601263503179 -0.37597828505560899 0 0.19552576267167621 -0.37482654072296612 0 0.20540443224470731 -0.38680189550518218 0 0.1912495959071229 -0.39276177031755533 0 0.19552576267167621 -0.37482654072296612 0 0.20735170233436881 -0.37529040441992079 0 0.20540443224470731 -0.38680189550518218 0 0.1912495959071229 -0.39276177031755533 0 0.17977601263503179 -0.37597828505560899 0 0.1693296138889023 -0.38950638994375852 0 0.16810862453789849 -0.37335463314147421 0 0.17977601263503179 -0.37597828505560899 0 0.1693296138889023 -0.38950638994375852 0 0.1820712955836517 -0.40561352917241389 0 0.1693296138889023 -0.38950638994375852 0 0.16719901718793259 -0.40727968630691258 0 0.1912495959071229 -0.39276177031755533 0 0.1820712955836517 -0.40561352917241389 0 0.1693296138889023 -0.38950638994375852 0 0.1693296138889023 -0.38950638994375852 0 0.15281135813073871 -0.39021821192729411 0 0.16719901718793259 -0.40727968630691258 0 0.16810862453789849 -0.37335463314147421 0 0.1560798032690556 -0.37381580958849719 0 0.1693296138889023 -0.38950638994375852 0 0.1560798032690556 -0.37381580958849719 0 0.1693296138889023 -0.38950638994375852 0 0.15281135813073871 -0.39021821192729411 0 0.13526563719118259 -0.37428734927200907 0 0.15281135813073871 -0.39021821192729411 0 0.13898314275338 -0.39207852241921071 0 0.1560798032690556 -0.37381580958849719 0 0.13526563719118259 -0.37428734927200907 0 0.15281135813073871 -0.39021821192729411 0 0.13526563719118259 -0.37428734927200907 0 0.12825513707697819 -0.39154921562659512 0 0.13526563719118259 -0.37428734927200907 0 0.12825513707697819 -0.39154921562659512 0 0.12475973978498341 -0.38007513455137448 0 0.13526563719118259 -0.37428734927200907 0 0.12825513707697819 -0.39154921562659512 0 0.13898314275338 -0.39207852241921071 0 0.13526563719118259 -0.37428734927200907 0 0.12475973978498341 -0.38007513455137448 0 0.12431468521239999 -0.37283315219489999 0 0.12937915153138141 -0.39786744644031768 0 0.13898314275338 -0.39207852241921071 0 0.14856622285376089 -0.40507531513380879 0 0.12937915153138141 -0.39786744644031768 0 0.12825513707697819 -0.39154921562659512 0 0.13898314275338 -0.39207852241921071 0 0.15281135813073871 -0.39021821192729411 0 0.14856622285376089 -0.40507531513380879 0 0.16719901718793259 -0.40727968630691258 0 0.15281135813073871 -0.39021821192729411 0 0.13898314275338 -0.39207852241921071 0 0.14856622285376089 -0.40507531513380879 0 0.12937915153138141 -0.39786744644031768 0 0.14856622285376089 -0.40507531513380879 0 0.1453295799741928 -0.41959427219697898 0 0.14856622285376089 -0.40507531513380879 0 0.1453295799741928 -0.41959427219697898 0 0.16239040777405819 -0.42334994930587122 0 0.12937915153138141 -0.39786744644031768 0 0.12813122167307331 -0.41648435331387218 0 0.1188032783227347 -0.40495322419581908 0 0.12937915153138141 -0.39786744644031768 0 0.1453295799741928 -0.41959427219697898 0 0.12937915153138141 -0.39786744644031768 0 0.1453295799741928 -0.41959427219697898 0 0.12813122167307331 -0.41648435331387218 0 0.1453295799741928 -0.41959427219697898 0 0.12813122167307331 -0.41648435331387218 0 0.13695500534777069 -0.43594307401878929 0 0.12813122167307331 -0.41648435331387218 0 0.13695500534777069 -0.43594307401878929 0 0.1185590513574806 -0.43127213058853769 0 0.1453295799741928 -0.41959427219697898 0 0.13695500534777069 -0.43594307401878929 0 0.1612800084170041 -0.44132109795364027 0 0.1453295799741928 -0.41959427219697898 0 0.1612800084170041 -0.44132109795364027 0 0.1453295799741928 -0.41959427219697898 0 0.16239040777405819 -0.42334994930587122 0 0.1612800084170041 -0.44132109795364027 0 0.16239040777405819 -0.42334994930587122 0 0.17617422744535999 -0.4252202316867949 0 0.1612800084170041 -0.44132109795364027 0 0.16239040777405819 -0.42334994930587122 0 0.16719901718793259 -0.40727968630691258 0 0.17617422744535999 -0.4252202316867949 0 0.14856622285376089 -0.40507531513380879 0 0.16239040777405819 -0.42334994930587122 0 0.16719901718793259 -0.40727968630691258 0 0.19513929393380419 -0.41475461881155629 0 0.1820712955836517 -0.40561352917241389 0 0.17617422744535999 -0.4252202316867949 0 0.1820712955836517 -0.40561352917241389 0 0.16719901718793259 -0.40727968630691258 0 0.17617422744535999 -0.4252202316867949 0 0.19513929393380419 -0.41475461881155629 0 0.17617422744535999 -0.4252202316867949 0 0.18706461789858811 -0.43470203587765971 0 0.17617422744535999 -0.4252202316867949 0 0.18706461789858811 -0.43470203587765971 0 0.17827855149942279 -0.44241050244283392 0 0.17617422744535999 -0.4252202316867949 0 0.17827855149942279 -0.44241050244283392 0 0.1612800084170041 -0.44132109795364027 0 0.17827855149942279 -0.44241050244283392 0 0.17768010644369181 -0.4605944097721989 0 0.1612800084170041 -0.44132109795364027 0 0.18919379729246999 -0.45021473692387548 0 0.17827855149942279 -0.44241050244283392 0 0.17768010644369181 -0.4605944097721989 0 0.18919379729246999 -0.45021473692387548 0 0.18706461789858811 -0.43470203587765971 0 0.17827855149942279 -0.44241050244283392 0 0.1905660183788612 -0.46329669083960728 0 0.17768010644369181 -0.4605944097721989 0 0.18136688093356651 -0.48067884671708672 0 0.1905660183788612 -0.46329669083960728 0 0.18919379729246999 -0.45021473692387548 0 0.17768010644369181 -0.4605944097721989 0 0.17768010644369181 -0.4605944097721989 0 0.1612800084170041 -0.44132109795364027 0 0.16217360808098069 -0.47045562854334172 0 0.13695500534777069 -0.43594307401878929 0 0.1612800084170041 -0.44132109795364027 0 0.14342929433853641 -0.45926409370575327 0 0.13695500534777069 -0.43594307401878929 0 0.14342929433853641 -0.45926409370575327 0 0.1245006430460264 -0.44986298345841902 0 0.13695500534777069 -0.43594307401878929 0 0.1245006430460264 -0.44986298345841902 0 0.1185590513574806 -0.43127213058853769 0 0.14342929433853641 -0.45926409370575327 0 0.1249784531465887 -0.47445194594117079 0 0.1245006430460264 -0.44986298345841902 0 0.1612800084170041 -0.44132109795364027 0 0.14342929433853641 -0.45926409370575327 0 0.16217360808098069 -0.47045562854334172 0 0.14342929433853641 -0.45926409370575327 0 0.14692205111831119 -0.48087532311137049 0 0.16217360808098069 -0.47045562854334172 0 0.14342929433853641 -0.45926409370575327 0 0.14692205111831119 -0.48087532311137049 0 0.1249784531465887 -0.47445194594117079 0 0.14692205111831119 -0.48087532311137049 0 0.13675140928920471 -0.5 0 0.1249784531465887 -0.47445194594117079 0 0.14692205111831119 -0.48087532311137049 0 0.13675140928920471 -0.5 0 0.16236330723477421 -0.5 0 0.16236330723477421 -0.5 0 0.16217360808098069 -0.47045562854334172 0 0.18136688093356651 -0.48067884671708672 0 0.14692205111831119 -0.48087532311137049 0 0.16236330723477421 -0.5 0 0.16217360808098069 -0.47045562854334172 0 0.17768010644369181 -0.4605944097721989 0 0.16217360808098069 -0.47045562854334172 0 0.18136688093356651 -0.48067884671708672 0 0.18797520518034369 -0.5 0 0.16236330723477421 -0.5 0 0.18136688093356651 -0.48067884671708672 0 0.07145436195177346 -0.49999999999999628 0 0.080023780075102358 -0.47607504496211139 0 0.061457514092671937 -0.49110686831322831 0 0.07145436195177346 -0.49999999999999628 0 0.080023780075102358 -0.47607504496211139 0 0.080023780075102358 -0.47607504496211139 0 0.054815885692967747 -0.47949163992475341 0 0.061457514092671937 -0.49110686831322831 0 0.080023780075102358 -0.47607504496211139 0 0.061097485697351579 -0.46665895186478151 0 0.054815885692967747 -0.47949163992475341 0 0.080023780075102358 -0.47607504496211139 0 0.090156209013754054 -0.48716694169824271 0 0.099866354771033811 -0.47607504496211323 0 0.07145436195177346 -0.49999999999999628 0 0.090156209013754054 -0.48716694169824271 0 0.09129693664770433 -0.5 0 0.07145436195177346 -0.49999999999999628 0 0.080023780075102358 -0.47607504496211139 0 0.090156209013754054 -0.48716694169824271 0 0.090156209013754054 -0.48716694169824271 0 0.09129693664770433 -0.5 0 0.1111395113436352 -0.49999999999999939 0 0.1111395113436352 -0.49999999999999939 0 0.099866354771033811 -0.47607504496211323 0 0.090156209013754054 -0.48716694169824271 0 0.1111395113436352 -0.49999999999999939 0 0.099866354771033811 -0.47607504496211323 0 0.13675140928920471 -0.5 0 0.1111395113436352 -0.49999999999999939 0 0.1249784531465887 -0.47445194594117079 0 0.1111395113436352 -0.49999999999999939 0 0.1249784531465887 -0.47445194594117079 0 0.099866354771033811 -0.47607504496211323 0 0.1249784531465887 -0.47445194594117079 0 0.099866354771033811 -0.47607504496211323 0 0.1102873493838057 -0.46050749698597698 0 0.099866354771033811 -0.47607504496211323 0 0.088593198198432338 -0.45215008992422701 0 0.099866354771033811 -0.47607504496211323 0 0.1102873493838057 -0.46050749698597698 0 0.088593198198432338 -0.45215008992422701 0 0.1249784531465887 -0.47445194594117079 0 0.1102873493838057 -0.46050749698597698 0 0.1245006430460264 -0.44986298345841902 0 0.1102873493838057 -0.46050749698597698 0 0.1245006430460264 -0.44986298345841902 0 0.1085419921127363 -0.4437607740104812 0 0.1245006430460264 -0.44986298345841902 0 0.1085419921127363 -0.4437607740104812 0 0.1185590513574806 -0.43127213058853769 0 0.1085419921127363 -0.4437607740104812 0 0.088593198198432338 -0.45215008992422701 0 0.096951625691071547 -0.42881419954394762 0 0.1102873493838057 -0.46050749698597698 0 0.1085419921127363 -0.4437607740104812 0 0.088593198198432338 -0.45215008992422701 0 0.088593198198432338 -0.45215008992422701 0 0.073445200283554404 -0.44460608797232032 0 0.075823663649456391 -0.42537895392391362 0 0.088593198198432338 -0.45215008992422701 0 0.096951625691071547 -0.42881419954394762 0 0.088593198198432338 -0.45215008992422701 0 0.075823663649456391 -0.42537895392391362 0 0.080023780075102358 -0.47607504496211139 0 0.088593198198432338 -0.45215008992422701 0 0.080023780075102358 -0.47607504496211139 0 0.088593198198432338 -0.45215008992422701 0 0.071718163589670786 -0.45806484441618628 0 0.080023780075102358 -0.47607504496211139 0 0.099866354771033811 -0.47607504496211323 0 0.088593198198432338 -0.45215008992422701 0 0.080023780075102358 -0.47607504496211139 0 0.071718163589670786 -0.45806484441618628 0 0.061097485697351579 -0.46665895186478151 0 0.071718163589670786 -0.45806484441618628 0 0.061946738897847492 -0.45819094736012611 0 0.061097485697351579 -0.46665895186478151 0 0.071718163589670786 -0.45806484441618628 0 0.064704256374443353 -0.45087902137092012 0 0.061946738897847492 -0.45819094736012611 0 0.088593198198432338 -0.45215008992422701 0 0.071718163589670786 -0.45806484441618628 0 0.073445200283554404 -0.44460608797232032 0 0.071718163589670786 -0.45806484441618628 0 0.064704256374443353 -0.45087902137092012 0 0.073445200283554404 -0.44460608797232032 0 0.064704256374443353 -0.45087902137092012 0 0.065797485364687075 -0.43850677009745198 0 0.073445200283554404 -0.44460608797232032 0 0.065797485364687075 -0.43850677009745198 0 0.075319236882320617 -0.41827076332423202 0 0.059569931875755933 -0.43920254612338888 0 0.075319236882320617 -0.41827076332423202 0 0.059569931875755933 -0.43920254612338888 0 0.065797485364687075 -0.43850677009745198 0 0.075823663649456391 -0.42537895392391362 0 0.075319236882320617 -0.41827076332423202 0 0.065797485364687075 -0.43850677009745198 0 0.073445200283554404 -0.44460608797232032 0 0.075823663649456391 -0.42537895392391362 0 0.075319236882320617 -0.41827076332423202 0 0.05902511289898927 -0.42112955242416211 0 0.059569931875755933 -0.43920254612338888 0 0.065797485364687075 -0.43850677009745198 0 0.075823663649456391 -0.42537895392391362 0 0.075319236882320617 -0.41827076332423202 0 0.074355142891992632 -0.40369460283655012 0 0.05902511289898927 -0.42112955242416211 0 0.075823663649456391 -0.42537895392391362 0 0.075319236882320617 -0.41827076332423202 0 0.081674564605982533 -0.41771805362618641 0 0.075319236882320617 -0.41827076332423202 0 0.081674564605982533 -0.41771805362618641 0 0.091068541888885288 -0.3973389805250751 0 0.081674564605982533 -0.41771805362618641 0 0.097551643847277991 -0.39692933715492079 0 0.081674564605982533 -0.41771805362618641 0 0.094145777137883968 -0.40902443265764649 0 0.097551643847277991 -0.39692933715492079 0 0.075823663649456391 -0.42537895392391362 0 0.081674564605982533 -0.41771805362618641 0 0.075319236882320617 -0.41827076332423202 0 0.091068541888885288 -0.3973389805250751 0 0.074355142891992632 -0.40369460283655012 0 0.075319236882320617 -0.41827076332423202 0 0.091068541888885288 -0.3973389805250751 0 0.081674564605982533 -0.41771805362618641 0 0.092428882619227826 -0.41811515301007057 0 0.094145777137883968 -0.40902443265764649 0 0.081674564605982533 -0.41771805362618641 0 0.092428882619227826 -0.41811515301007057 0 0.087142905039743992 -0.42847234498746978 0 0.088593198198432338 -0.45215008992422701 0 0.075823663649456391 -0.42537895392391362 0 0.087142905039743992 -0.42847234498746978 0 0.092428882619227826 -0.41811515301007057 0 0.087142905039743992 -0.42847234498746978 0 0.096951625691071547 -0.42881419954394762 0 0.088593198198432338 -0.45215008992422701 0 0.087142905039743992 -0.42847234498746978 0 0.096951625691071547 -0.42881419954394762 0 0.075823663649456391 -0.42537895392391362 0 0.081674564605982533 -0.41771805362618641 0 0.087142905039743992 -0.42847234498746978 0 0.1085419921127363 -0.4437607740104812 0 0.096951625691071547 -0.42881419954394762 0 0.1185590513574806 -0.43127213058853769 0 0.096951625691071547 -0.42881419954394762 0 0.1185590513574806 -0.43127213058853769 0 0.1135510460456142 -0.41740044336116899 0 0.12813122167307331 -0.41648435331387218 0 0.1135510460456142 -0.41740044336116899 0 0.1188032783227347 -0.40495322419581908 0 0.12813122167307331 -0.41648435331387218 0 0.1185590513574806 -0.43127213058853769 0 0.1135510460456142 -0.41740044336116899 0 0.1135510460456142 -0.41740044336116899 0 0.1053100531837107 -0.40547830916366823 0 0.1188032783227347 -0.40495322419581908 0 0.096951625691071547 -0.42881419954394762 0 0.1135510460456142 -0.41740044336116899 0 0.1053100531837107 -0.40547830916366823 0 0.092428882619227826 -0.41811515301007057 0 0.096951625691071547 -0.42881419954394762 0 0.1053100531837107 -0.40547830916366823 0 0.096951625691071547 -0.42881419954394762 0 0.1053100531837107 -0.40547830916366823 0 0.092428882619227826 -0.41811515301007057 0 0.094145777137883968 -0.40902443265764649 0 0.1053100531837107 -0.40547830916366823 0 0.094145777137883968 -0.40902443265764649 0 0.099796423475488533 -0.40297131641582512 0 0.097551643847277991 -0.39692933715492079 0 0.094145777137883968 -0.40902443265764649 0 0.099796423475488533 -0.40297131641582512 0 0.1053100531837107 -0.40547830916366823 0 0.099796423475488533 -0.40297131641582512 0 0.097551643847277991 -0.39692933715492079 0 0.1023614640896542 -0.40039402915341471 0 0.097551643847277991 -0.39692933715492079 0 0.1067877358521397 -0.3961971538792447 0 0.1023614640896542 -0.40039402915341471 0 0.1067877358521397 -0.3961971538792447 0 0.1053100531837107 -0.40547830916366823 0 0.1023614640896542 -0.40039402915341471 0 0.1067877358521397 -0.3961971538792447 0 0.1053100531837107 -0.40547830916366823 0 0.1128790005969969 -0.39893885368520221 0 0.099796423475488533 -0.40297131641582512 0 0.1053100531837107 -0.40547830916366823 0 0.1023614640896542 -0.40039402915341471 0 0.1053100531837107 -0.40547830916366823 0 0.1128790005969969 -0.39893885368520221 0 0.1188032783227347 -0.40495322419581908 0 0.1067877358521397 -0.3961971538792447 0 0.1128790005969969 -0.39893885368520221 0 0.11358796905952261 -0.39222645219087099 0 0.1128790005969969 -0.39893885368520221 0 0.11358796905952261 -0.39222645219087099 0 0.1199059665668766 -0.39583912899640789 0 0.12937915153138141 -0.39786744644031768 0 0.1199059665668766 -0.39583912899640789 0 0.1188032783227347 -0.40495322419581908 0 0.1128790005969969 -0.39893885368520221 0 0.1199059665668766 -0.39583912899640789 0 0.1188032783227347 -0.40495322419581908 0 0.11358796905952261 -0.39222645219087099 0 0.1199059665668766 -0.39583912899640789 0 0.1134287230885727 -0.37614062068365473 0 0.12937915153138141 -0.39786744644031768 0 0.1134287230885727 -0.37614062068365473 0 0.12937915153138141 -0.39786744644031768 0 0.1199059665668766 -0.39583912899640789 0 0.1134287230885727 -0.37614062068365473 0 0.12937915153138141 -0.39786744644031768 0 0.12825513707697819 -0.39154921562659512 0 0.1134287230885727 -0.37614062068365473 0 0.1067877358521397 -0.3961971538792447 0 0.11358796905952261 -0.39222645219087099 0 0.1134287230885727 -0.37614062068365473 0 0.12825513707697819 -0.39154921562659512 0 0.12475973978498341 -0.38007513455137448 0 0.1134287230885727 -0.37614062068365473 0 0.12475973978498341 -0.38007513455137448 0 0.1134287230885727 -0.37614062068365473 0 0.12431468521239999 -0.37283315219489999 0 0.10681784689545 -0.37640719772591807 0 0.091068541888885288 -0.3973389805250751 0 0.097551643847277991 -0.39692933715492079 0 0.1134287230885727 -0.37614062068365473 0 0.10681784689545 -0.37640719772591807 0 0.097551643847277991 -0.39692933715492079 0 0.1067877358521397 -0.3961971538792447 0 0.1134287230885727 -0.37614062068365473 0 0.097551643847277991 -0.39692933715492079 0 0.1134287230885727 -0.37614062068365473 0 0.097551643847277991 -0.39692933715492079 0 0.10681784689545 -0.37640719772591807 0 0.091068541888885288 -0.3973389805250751 0 0.091068541888885288 -0.3973389805250751 0 0.072254907701292129 -0.38960435878331529 0 0.080057527538918469 -0.37311903694777149 0 0.10681784689545 -0.37640719772591807 0 0.091068541888885288 -0.3973389805250751 0 0.080057527538918469 -0.37311903694777149 0 0.081674564605982533 -0.41771805362618641 0 0.097551643847277991 -0.39692933715492079 0 0.091068541888885288 -0.3973389805250751 0 0.091068541888885288 -0.3973389805250751 0 0.074355142891992632 -0.40369460283655012 0 0.072254907701292129 -0.38960435878331529 0 0.074355142891992632 -0.40369460283655012 0 0.072254907701292129 -0.38960435878331529 0 0.059240479649729047 -0.39390659052864602 0 0.072254907701292129 -0.38960435878331529 0 0.058386149463197833 -0.37941850139812128 0 0.080057527538918469 -0.37311903694777149 0 0.072254907701292129 -0.38960435878331529 0 0.058386149463197833 -0.37941850139812128 0 0.059240479649729047 -0.39390659052864602 0 0.058386149463197833 -0.37941850139812128 0 0.042908531035049949 -0.38835025376664589 0 0.041488949718820077 -0.37076857367455868 0 0.058386149463197833 -0.37941850139812128 0 0.059240479649729047 -0.39390659052864602 0 0.042908531035049949 -0.38835025376664589 0 0.059240479649729047 -0.39390659052864602 0 0.042908531035049949 -0.38835025376664589 0 0.048297667157112707 -0.4084652358585974 0 0.074355142891992632 -0.40369460283655012 0 0.059240479649729047 -0.39390659052864602 0 0.048297667157112707 -0.4084652358585974 0 0.074355142891992632 -0.40369460283655012 0 0.048297667157112707 -0.4084652358585974 0 0.042908531035049949 -0.38835025376664589 0 0.030227578916607378 -0.39672384097045449 0 0.048297667157112707 -0.4084652358585974 0 0.030227578916607378 -0.39672384097045449 0 0.022240191422232831 -0.41323586888064479 0 0.048297667157112707 -0.4084652358585974 0 0.042908531035049949 -0.38835025376664589 0 0.026412304450098231 -0.38015849104250599 0 0.041488949718820077 -0.37076857367455868 0 0.042908531035049949 -0.38835025376664589 0 0.026412304450098231 -0.38015849104250599 0 0.030227578916607378 -0.39672384097045449 0 0.026412304450098231 -0.38015849104250599 0 0.011279200518543159 -0.39340935530387838 0 0.030227578916607378 -0.39672384097045449 0 -0.0002309574959115171 -0.38989703637146378 0 0.008447370374284632 -0.37761356823728881 0 0.011279200518543159 -0.39340935530387838 0 0.026412304450098231 -0.38015849104250599 0 0.008447370374284632 -0.37761356823728881 0 0.011279200518543159 -0.39340935530387838 0 -0.006885251579728505 -0.37848749906022888 0 -0.0002309574959115171 -0.38989703637146378 0 0.008447370374284632 -0.37761356823728881 0 0.001153593978423865 -0.40303237548600529 0 0.011279200518543159 -0.39340935530387838 0 0.022240191422232831 -0.41323586888064479 0 -0.0002309574959115171 -0.38989703637146378 0 0.001153593978423865 -0.40303237548600529 0 0.011279200518543159 -0.39340935530387838 0 0.011279200518543159 -0.39340935530387838 0 0.030227578916607378 -0.39672384097045449 0 0.022240191422232831 -0.41323586888064479 0 -0.0038172843126471848 -0.41800650190269101 0 0.022240191422232831 -0.41323586888064479 0 -0.0038172843126471848 -0.41800650190269101 0 0.022240191422232831 -0.41323586888064479 0 0.010260569214517699 -0.42627300972387938 0 -0.0038172843126471848 -0.41800650190269101 0 0.001153593978423865 -0.40303237548600529 0 0.022240191422232831 -0.41323586888064479 0 -0.0038172843126471848 -0.41800650190269101 0 0.010260569214517699 -0.42627300972387938 0 0.0055431072351901436 -0.4407131410852434 0 -0.0038172843126471848 -0.41800650190269101 0 0.0055431072351901436 -0.4407131410852434 0 0.010260569214517699 -0.42627300972387938 0 0.020227408156938829 -0.4373290231840718 0 0.0055431072351901436 -0.4407131410852434 0 0.022240191422232831 -0.41323586888064479 0 0.010260569214517699 -0.42627300972387938 0 0.020227408156938829 -0.4373290231840718 0 0.022240191422232831 -0.41323586888064479 0 0.020227408156938829 -0.4373290231840718 0 0.04097291721832523 -0.42747121108533209 0 0.04097291721832523 -0.42747121108533209 0 0.059569931875755933 -0.43920254612338888 0 0.036865876607472342 -0.44448529200297271 0 0.020227408156938829 -0.4373290231840718 0 0.04097291721832523 -0.42747121108533209 0 0.036865876607472342 -0.44448529200297271 0 0.022240191422232831 -0.41323586888064479 0 0.048297667157112707 -0.4084652358585974 0 0.022240191422232831 -0.41323586888064479 0 0.04097291721832523 -0.42747121108533209 0 0.048297667157112707 -0.4084652358585974 0 0.074355142891992632 -0.40369460283655012 0 0.048297667157112707 -0.4084652358585974 0 0.05902511289898927 -0.42112955242416211 0 0.04097291721832523 -0.42747121108533209 0 0.048297667157112707 -0.4084652358585974 0 0.05902511289898927 -0.42112955242416211 0 0.04097291721832523 -0.42747121108533209 0 0.05902511289898927 -0.42112955242416211 0 0.059569931875755933 -0.43920254612338888 0 0.065797485364687075 -0.43850677009745198 0 0.059569931875755933 -0.43920254612338888 0 0.049920406123391527 -0.4592954865687176 0 0.059569931875755933 -0.43920254612338888 0 0.043820626869191262 -0.4601343289225458 0 0.065797485364687075 -0.43850677009745198 0 0.049920406123391527 -0.4592954865687176 0 0.059569931875755933 -0.43920254612338888 0 0.049920406123391527 -0.4592954865687176 0 0.043820626869191262 -0.4601343289225458 0 0.064704256374443353 -0.45087902137092012 0 0.065797485364687075 -0.43850677009745198 0 0.049920406123391527 -0.4592954865687176 0 0.064704256374443353 -0.45087902137092012 0 0.061946738897847492 -0.45819094736012611 0 0.049920406123391527 -0.4592954865687176 0 0.061946738897847492 -0.45819094736012611 0 0.061097485697351579 -0.46665895186478151 0 0.049920406123391527 -0.4592954865687176 0 0.061097485697351579 -0.46665895186478151 0 0.049920406123391527 -0.4592954865687176 0 0.049520298674660367 -0.47198846009244938 0 0.049920406123391527 -0.4592954865687176 0 0.043820626869191262 -0.4601343289225458 0 0.034043326882095999 -0.48008420303998328 0 0.043820626869191262 -0.4601343289225458 0 0.024149365009782091 -0.45919756745288698 0 0.028071321862625911 -0.48106611172170233 0 0.043820626869191262 -0.4601343289225458 0 0.036865876607472342 -0.44448529200297271 0 0.024149365009782091 -0.45919756745288698 0 0.059569931875755933 -0.43920254612338888 0 0.043820626869191262 -0.4601343289225458 0 0.036865876607472342 -0.44448529200297271 0 0.020227408156938829 -0.4373290231840718 0 0.016205844796234579 -0.45016487799749949 0 0.024149365009782091 -0.45919756745288698 0 0.020227408156938829 -0.4373290231840718 0 0.036865876607472342 -0.44448529200297271 0 0.024149365009782091 -0.45919756745288698 0 0.020227408156938829 -0.4373290231840718 0 0.024149365009782091 -0.45919756745288698 0 0.016205844796234579 -0.45016487799749949 0 0.0055431072351901436 -0.4407131410852434 0 0.01490349878302724 -0.46341978026779579 0 0.020227408156938829 -0.4373290231840718 0 0.016205844796234579 -0.45016487799749949 0 0.0055431072351901436 -0.4407131410852434 0 0.0055431072351901436 -0.4407131410852434 0 0.01490349878302724 -0.46341978026779579 0 -0.01026886369710741 -0.4623083482497492 0 0.0055431072351901436 -0.4407131410852434 0 0.01490349878302724 -0.46341978026779579 0 0.01490349878302724 -0.46341978026779579 0 0.024149365009782091 -0.45919756745288698 0 0.028071321862625911 -0.48106611172170233 0 0.016205844796234579 -0.45016487799749949 0 0.01490349878302724 -0.46341978026779579 0 0.024149365009782091 -0.45919756745288698 0 0.024149365009782091 -0.45919756745288698 0 0.028071321862625911 -0.48106611172170233 0 0.01490349878302724 -0.46341978026779579 0 0.028071321862625911 -0.48106611172170233 0 0.024263890330864221 -0.4861264194503484 0 0.01490349878302724 -0.46341978026779579 0 0.0086890905038902247 -0.48115417412487699 0 0.024263890330864221 -0.4861264194503484 0 0.01490349878302724 -0.46341978026779579 0 0.024263890330864221 -0.4861264194503484 0 0.028071321862625911 -0.48106611172170233 0 0.024263890330864221 -0.4861264194503484 0 -0.01026886369710741 -0.4623083482497492 0 0.01490349878302724 -0.46341978026779579 0 0.0086890905038902247 -0.48115417412487699 0 -0.00044931618556415248 -0.5 0 0.0086890905038902247 -0.48115417412487699 0 0.027647044704889451 -0.50000000000000322 0 0.0086890905038902247 -0.48115417412487699 0 0.027647044704889451 -0.50000000000000322 0 0.028071321862625911 -0.48106611172170233 0 0.024263890330864221 -0.4861264194503484 0 0.03146697051537696 -0.50000000000000044 0 0.0086890905038902247 -0.48115417412487699 0 0.020508721226960461 -0.49111726723850468 0 0.027647044704889451 -0.50000000000000322 0 0.028071321862625911 -0.48106611172170233 0 0.03146697051537696 -0.50000000000000044 0 0.034043326882095999 -0.48008420303998328 0 0.028071321862625911 -0.48106611172170233 0 0.03146697051537696 -0.50000000000000044 0 0.0086890905038902247 -0.48115417412487699 0 0.020508721226960461 -0.49111726723850468 0 0.024263890330864221 -0.4861264194503484 0 0.020508721226960461 -0.49111726723850468 0 0.024263890330864221 -0.4861264194503484 0 0.024263890330864221 -0.4861264194503484 0 0.029983017017608769 -0.50000000000000089 0 0.024263890330864221 -0.4861264194503484 0 0.029983017017608769 -0.50000000000000089 0 0.027647044704889451 -0.50000000000000322 0 0.020508721226960461 -0.49111726723850468 0 0.024263890330864221 -0.4861264194503484 0 0.027647044704889451 -0.50000000000000322 0 0.024263890330864221 -0.4861264194503484 0 0.029983017017608769 -0.50000000000000089 0 0.03146697051537696 -0.50000000000000044 0 0.03146697051537696 -0.50000000000000044 0 0.044674166034325023 -0.48836107021954811 0 0.051460666233575258 -0.5 0 0.03146697051537696 -0.50000000000000044 0 0.044674166034325023 -0.48836107021954811 0 0.034043326882095999 -0.48008420303998328 0 0.049920406123391527 -0.4592954865687176 0 0.034043326882095999 -0.48008420303998328 0 0.049920406123391527 -0.4592954865687176 0 0.034043326882095999 -0.48008420303998328 0 0.049520298674660367 -0.47198846009244938 0 0.043820626869191262 -0.4601343289225458 0 0.028071321862625911 -0.48106611172170233 0 0.043820626869191262 -0.4601343289225458 0 0.028071321862625911 -0.48106611172170233 0 0.034043326882095999 -0.48008420303998328 0 0.044674166034325023 -0.48836107021954811 0 0.034043326882095999 -0.48008420303998328 0 0.045981304838399253 -0.4793625295130533 0 0.034043326882095999 -0.48008420303998328 0 0.045981304838399253 -0.4793625295130533 0 0.049520298674660367 -0.47198846009244938 0 0.045981304838399253 -0.4793625295130533 0 0.049520298674660367 -0.47198846009244938 0 0.054815885692967747 -0.47949163992475341 0 0.044674166034325023 -0.48836107021954811 0 0.045981304838399253 -0.4793625295130533 0 0.054815885692967747 -0.47949163992475341 0 0.061097485697351579 -0.46665895186478151 0 0.049520298674660367 -0.47198846009244938 0 0.054815885692967747 -0.47949163992475341 0 0.044674166034325023 -0.48836107021954811 0 0.054815885692967747 -0.47949163992475341 0 0.061457514092671937 -0.49110686831322831 0 0.07145436195177346 -0.49999999999999628 0 0.051460666233575258 -0.5 0 0.061457514092671937 -0.49110686831322831 0 0.044674166034325023 -0.48836107021954811 0 0.051460666233575258 -0.5 0 0.061457514092671937 -0.49110686831322831 0 0.078383200856741692 -0.29390583677474691 0 0.098335129391144888 -0.29037440914075918 0 0.096220675925182797 -0.30468731721645942 0 0.078383200856741692 -0.29390583677474691 0 0.088589799754414056 -0.2783443756317025 0 0.098335129391144888 -0.29037440914075918 0 0.072026500329293836 -0.30804494639140362 0 0.096220675925182797 -0.30468731721645942 0 0.086262085944509542 -0.32091504405580729 0 0.078383200856741692 -0.29390583677474691 0 0.072026500329293836 -0.30804494639140362 0 0.096220675925182797 -0.30468731721645942 0 0.078383200856741692 -0.29390583677474691 0 0.072026500329293836 -0.30804494639140362 0 0.066491896905393977 -0.29614264899816478 0 0.072026500329293836 -0.30804494639140362 0 0.062543139868267844 -0.30352452107495992 0 0.058202048681686977 -0.31040058453369163 0 0.072026500329293836 -0.30804494639140362 0 0.062543139868267844 -0.30352452107495992 0 0.066491896905393977 -0.29614264899816478 0 0.078383200856741692 -0.29390583677474691 0 0.088589799754414056 -0.2783443756317025 0 0.062487778109492312 -0.28197674382716797 0 0.078383200856741692 -0.29390583677474691 0 0.066491896905393977 -0.29614264899816478 0 0.062487778109492312 -0.28197674382716797 0 0.088589799754414056 -0.2783443756317025 0 0.062487778109492312 -0.28197674382716797 0 0.072004114156178994 -0.27061382619376811 0 0.062487778109492312 -0.28197674382716797 0 0.055142941812409779 -0.2660654826002834 0 0.072004114156178994 -0.27061382619376811 0 0.088589799754414056 -0.2783443756317025 0 0.062487778109492312 -0.28197674382716797 0 0.072004114156178994 -0.27061382619376811 0 0.071147319235645254 -0.26011635242580122 0 0.082652731868932905 -0.26656617648388509 0 0.072004114156178994 -0.27061382619376811 0 0.071147319235645254 -0.26011635242580122 0 0.055142941812409779 -0.2660654826002834 0 0.071147319235645254 -0.26011635242580122 0 0.055142941812409779 -0.2660654826002834 0 0.067874033935018813 -0.25023048061506209 0 0.071147319235645254 -0.26011635242580122 0 0.055142941812409779 -0.2660654826002834 0 0.067874033935018813 -0.25023048061506209 0 0.071147319235645254 -0.26011635242580122 0 0.087151696658880728 -0.25416722225131932 0 0.087151696658880728 -0.25416722225131932 0 0.082652731868932905 -0.26656617648388509 0 0.099779404583940273 -0.26650619051543878 0 0.071147319235645254 -0.26011635242580122 0 0.087151696658880728 -0.25416722225131932 0 0.071147319235645254 -0.26011635242580122 0 0.087151696658880728 -0.25416722225131932 0 0.082652731868932905 -0.26656617648388509 0 0.082652731868932905 -0.26656617648388509 0 0.088589799754414056 -0.2783443756317025 0 0.099779404583940273 -0.26650619051543878 0 0.072004114156178994 -0.27061382619376811 0 0.082652731868932905 -0.26656617648388509 0 0.088589799754414056 -0.2783443756317025 0 0.088589799754414056 -0.2783443756317025 0 0.1146918213993357 -0.27471200743623708 0 0.088589799754414056 -0.2783443756317025 0 0.099779404583940273 -0.26650619051543878 0 0.1146918213993357 -0.27471200743623708 0 0.088589799754414056 -0.2783443756317025 0 0.1040494399874884 -0.27778652923199337 0 0.1146918213993357 -0.27471200743623708 0 0.099779404583940273 -0.26650619051543878 0 0.11066201163214991 -0.26417825606919387 0 0.1146918213993357 -0.27471200743623708 0 0.087151696658880728 -0.25416722225131932 0 0.099779404583940273 -0.26650619051543878 0 0.097846024754628516 -0.24737526388992959 0 0.099779404583940273 -0.26650619051543878 0 0.1080005813478328 -0.25495050858549961 0 0.097846024754628516 -0.24737526388992959 0 0.099779404583940273 -0.26650619051543878 0 0.1080005813478328 -0.25495050858549961 0 0.11066201163214991 -0.26417825606919387 0 0.1080005813478328 -0.25495050858549961 0 0.1205237410750401 -0.25901118411532942 0 0.1159975879669817 -0.24165004779051419 0 0.1080005813478328 -0.25495050858549961 0 0.11066201163214991 -0.26417825606919387 0 0.1205237410750401 -0.25901118411532942 0 0.11066201163214991 -0.26417825606919387 0 0.1205237410750401 -0.25901118411532942 0 0.1146918213993357 -0.27471200743623708 0 0.1040494399874884 -0.27778652923199337 0 0.1146918213993357 -0.27471200743623708 0 0.1244325304318975 -0.29714798684889382 0 0.1289872366265003 -0.2818380530241304 0 0.1146918213993357 -0.27471200743623708 0 0.1244325304318975 -0.29714798684889382 0 0.1040494399874884 -0.27778652923199337 0 0.1244325304318975 -0.29714798684889382 0 0.1040494399874884 -0.27778652923199337 0 0.098335129391144888 -0.29037440914075918 0 0.1244325304318975 -0.29714798684889382 0 0.088589799754414056 -0.2783443756317025 0 0.1040494399874884 -0.27778652923199337 0 0.098335129391144888 -0.29037440914075918 0 0.098335129391144888 -0.29037440914075918 0 0.096220675925182797 -0.30468731721645942 0 0.1244325304318975 -0.29714798684889382 0 0.096220675925182797 -0.30468731721645942 0 0.1244325304318975 -0.29714798684889382 0 0.1155388534104082 -0.31871224426080053 0 0.1298685402381079 -0.32952984507534888 0 0.1155388534104082 -0.31871224426080053 0 0.1108238470030618 -0.33764160260082271 0 0.13312435907329739 -0.34423966007240231 0 0.1298685402381079 -0.32952984507534888 0 0.1108238470030618 -0.33764160260082271 0 0.1108238470030618 -0.33764160260082271 0 0.086262085944509542 -0.32091504405580729 0 0.086489960769107421 -0.34089335077870059 0 0.1155388534104082 -0.31871224426080053 0 0.086262085944509542 -0.32091504405580729 0 0.1155388534104082 -0.31871224426080053 0 0.1108238470030618 -0.33764160260082271 0 0.086262085944509542 -0.32091504405580729 0 0.096220675925182797 -0.30468731721645942 0 0.1155388534104082 -0.31871224426080053 0 0.086262085944509542 -0.32091504405580729 0 0.110163834689208 -0.37196017674826992 0 0.1225671519020147 -0.35547541492676121 0 0.110163834689208 -0.37196017674826992 0 0.1225671519020147 -0.35547541492676121 0 0.096028410873882794 -0.35318880199002167 0 0.110163834689208 -0.37196017674826992 0 0.1188250474546181 -0.36907492204174752 0 0.1225671519020147 -0.35547541492676121 0 0.1134287230885727 -0.37614062068365473 0 0.110163834689208 -0.37196017674826992 0 0.1188250474546181 -0.36907492204174752 0 0.1134287230885727 -0.37614062068365473 0 0.10681784689545 -0.37640719772591807 0 0.110163834689208 -0.37196017674826992 0 0.1134287230885727 -0.37614062068365473 0 0.110163834689208 -0.37196017674826992 0 0.1134287230885727 -0.37614062068365473 0 0.1188250474546181 -0.36907492204174752 0 0.12883488822235861 -0.3653981992253742 0 0.12431468521239999 -0.37283315219489999 0 0.1188250474546181 -0.36907492204174752 0 0.1134287230885727 -0.37614062068365473 0 0.12431468521239999 -0.37283315219489999 0 0.1188250474546181 -0.36907492204174752 0 0.12883488822235861 -0.3653981992253742 0 0.1188250474546181 -0.36907492204174752 0 0.1225671519020147 -0.35547541492676121 0 0.13312435907329739 -0.34423966007240231 0 0.1108238470030618 -0.33764160260082271 0 0.1225671519020147 -0.35547541492676121 0 0.1108238470030618 -0.33764160260082271 0 0.1225671519020147 -0.35547541492676121 0 0.096028410873882794 -0.35318880199002167 0 0.1108238470030618 -0.33764160260082271 0 0.096028410873882794 -0.35318880199002167 0 0.086489960769107421 -0.34089335077870059 0 0.1225671519020147 -0.35547541492676121 0 0.096028410873882794 -0.35318880199002167 0 0.10681784689545 -0.37640719772591807 0 0.110163834689208 -0.37196017674826992 0 0.096028410873882794 -0.35318880199002167 0 0.10681784689545 -0.37640719772591807 0 0.096028410873882794 -0.35318880199002167 0 0.080057527538918469 -0.37311903694777149 0 0.10681784689545 -0.37640719772591807 0 0.110163834689208 -0.37196017674826992 0 0.096028410873882794 -0.35318880199002167 0 0.080057527538918469 -0.37311903694777149 0 0.069482668440143946 -0.3509865846799376 0 0.096028410873882794 -0.35318880199002167 0 0.069482668440143946 -0.3509865846799376 0 0.086489960769107421 -0.34089335077870059 0 0.096028410873882794 -0.35318880199002167 0 0.069482668440143946 -0.3509865846799376 0 0.069482668440143946 -0.3509865846799376 0 0.086489960769107421 -0.34089335077870059 0 0.069852791583939075 -0.34173472056691362 0 0.069482668440143946 -0.3509865846799376 0 0.069852791583939075 -0.34173472056691362 0 0.06273858900306252 -0.34068432281469541 0 0.080057527538918469 -0.37311903694777149 0 0.069482668440143946 -0.3509865846799376 0 0.057570492985330957 -0.36327811312390212 0 0.058386149463197833 -0.37941850139812128 0 0.080057527538918469 -0.37311903694777149 0 0.057570492985330957 -0.36327811312390212 0 0.086262085944509542 -0.32091504405580729 0 0.086489960769107421 -0.34089335077870059 0 0.069852791583939075 -0.34173472056691362 0 0.086262085944509542 -0.32091504405580729 0 0.069852791583939075 -0.34173472056691362 0 0.059489576637547198 -0.32988109814371552 0 0.069852791583939075 -0.34173472056691362 0 0.06273858900306252 -0.34068432281469541 0 0.059489576637547198 -0.32988109814371552 0 0.069852791583939075 -0.34173472056691362 0 0.059489576637547198 -0.32988109814371552 0 0.086262085944509542 -0.32091504405580729 0 0.056985318478610943 -0.3231178438508141 0 0.086262085944509542 -0.32091504405580729 0 0.056985318478610943 -0.3231178438508141 0 0.059489576637547198 -0.32988109814371552 0 0.072026500329293836 -0.30804494639140362 0 0.086262085944509542 -0.32091504405580729 0 0.056985318478610943 -0.3231178438508141 0 0.049126361691153878 -0.31802747572051859 0 0.056985318478610943 -0.3231178438508141 0 0.058202048681686977 -0.31040058453369163 0 0.072026500329293836 -0.30804494639140362 0 0.056985318478610943 -0.3231178438508141 0 0.058202048681686977 -0.31040058453369163 0 0.049126361691153878 -0.31802747572051859 0 0.059489576637547198 -0.32988109814371552 0 0.047945431098936682 -0.32822654330898032 0 0.049126361691153878 -0.31802747572051859 0 0.059489576637547198 -0.32988109814371552 0 0.049126361691153878 -0.31802747572051859 0 0.047945431098936682 -0.32822654330898032 0 0.049126361691153878 -0.31802747572051859 0 0.056985318478610943 -0.3231178438508141 0 0.059489576637547198 -0.32988109814371552 0 0.06273858900306252 -0.34068432281469541 0 0.059489576637547198 -0.32988109814371552 0 0.052129319350619832 -0.34013488786821489 0 0.059489576637547198 -0.32988109814371552 0 0.052129319350619832 -0.34013488786821489 0 0.047945431098936682 -0.32822654330898032 0 0.052129319350619832 -0.34013488786821489 0 0.035147464639791258 -0.33616973370667702 0 0.04293692600640503 -0.34878436736985352 0 0.052129319350619832 -0.34013488786821489 0 0.047945431098936682 -0.32822654330898032 0 0.035147464639791258 -0.33616973370667702 0 0.047945431098936682 -0.32822654330898032 0 0.035147464639791258 -0.33616973370667702 0 0.029237480660762621 -0.32176531908807759 0 0.049126361691153878 -0.31802747572051859 0 0.029237480660762621 -0.32176531908807759 0 0.033194951413019418 -0.29980485628408171 0 0.049126361691153878 -0.31802747572051859 0 0.047945431098936682 -0.32822654330898032 0 0.029237480660762621 -0.32176531908807759 0 0.058386149463197833 -0.37941850139812128 0 0.057570492985330957 -0.36327811312390212 0 0.041488949718820077 -0.37076857367455868 0 0.057570492985330957 -0.36327811312390212 0 0.04293692600640503 -0.34878436736985352 0 0.041488949718820077 -0.37076857367455868 0 0.069482668440143946 -0.3509865846799376 0 0.057570492985330957 -0.36327811312390212 0 0.04293692600640503 -0.34878436736985352 0 0.069482668440143946 -0.3509865846799376 0 0.06273858900306252 -0.34068432281469541 0 0.052129319350619832 -0.34013488786821489 0 0.069482668440143946 -0.3509865846799376 0 0.04293692600640503 -0.34878436736985352 0 0.069482668440143946 -0.3509865846799376 0 0.052129319350619832 -0.34013488786821489 0 0.04293692600640503 -0.34878436736985352 0 0.035147464639791258 -0.33616973370667702 0 0.04293692600640503 -0.34878436736985352 0 0.01639118357266621 -0.34658215005976939 0 0.04293692600640503 -0.34878436736985352 0 0.041488949718820077 -0.37076857367455868 0 0.022406419046352589 -0.36376723859040411 0 0.026412304450098231 -0.38015849104250599 0 0.008447370374284632 -0.37761356823728881 0 0.022406419046352589 -0.36376723859040411 0 0.026412304450098231 -0.38015849104250599 0 0.041488949718820077 -0.37076857367455868 0 0.022406419046352589 -0.36376723859040411 0 0.04293692600640503 -0.34878436736985352 0 0.01639118357266621 -0.34658215005976939 0 0.04293692600640503 -0.34878436736985352 0 0.022406419046352589 -0.36376723859040411 0 0.01639118357266621 -0.34658215005976939 0 -0.010154558861072671 -0.34437993274968542 0 0.01639118357266621 -0.34658215005976939 0 -0.010154558861072671 -0.34437993274968542 0 -0.00087171803812412241 -0.36099859624565339 0 0.01639118357266621 -0.34658215005976939 0 -0.00087171803812412241 -0.36099859624565339 0 0.022406419046352589 -0.36376723859040411 0 0.01639118357266621 -0.34658215005976939 0 -0.00087171803812412241 -0.36099859624565339 0 0.008447370374284632 -0.37761356823728881 0 0.022406419046352589 -0.36376723859040411 0 -0.00087171803812412241 -0.36099859624565339 0 -0.006885251579728505 -0.37848749906022888 0 0.008447370374284632 -0.37761356823728881 0 0.029237480660762621 -0.32176531908807759 0 0.0080070738272272155 -0.31934045583688658 0 0.019694401482341799 -0.3072633890018186 0 0.01639118357266621 -0.34658215005976939 0 0.029237480660762621 -0.32176531908807759 0 0.0080070738272272155 -0.31934045583688658 0 0.035147464639791258 -0.33616973370667702 0 0.01639118357266621 -0.34658215005976939 0 0.029237480660762621 -0.32176531908807759 0 -0.010154558861072671 -0.34437993274968542 0 0.01639118357266621 -0.34658215005976939 0 0.0080070738272272155 -0.31934045583688658 0 -0.0076279330807100428 -0.30593606881339941 0 0.0080070738272272155 -0.31934045583688658 0 0.0083545417417527149 -0.29963329643705627 0 0.0080070738272272155 -0.31934045583688658 0 0.0083545417417527149 -0.29963329643705627 0 0.019694401482341799 -0.3072633890018186 0 0.0083545417417527149 -0.29963329643705627 0 0.017839916158978449 -0.29523178096835939 0 0.019694401482341799 -0.3072633890018186 0 -0.00076605396032216472 -0.28198048718404672 0 0.0083545417417527149 -0.29963329643705627 0 0.0069756100461842371 -0.28397019199677043 0 0.0083545417417527149 -0.29963329643705627 0 0.0069756100461842371 -0.28397019199677043 0 0.010692145022894809 -0.28787512627119433 0 -0.00076605396032216472 -0.28198048718404672 0 0.0069756100461842371 -0.28397019199677043 0 0.0045821526031087087 -0.2786173792429289 0 0.0083545417417527149 -0.29963329643705627 0 0.010692145022894809 -0.28787512627119433 0 0.017839916158978449 -0.29523178096835939 0 0.0069756100461842371 -0.28397019199677043 0 0.017263541134881731 -0.28158223684764772 0 0.0069756100461842371 -0.28397019199677043 0 0.017263541134881731 -0.28158223684764772 0 0.0091241378294696779 -0.27989622810723958 0 0.010692145022894809 -0.28787512627119433 0 0.017263541134881731 -0.28158223684764772 0 0.017839916158978449 -0.29523178096835939 0 0.0069756100461842371 -0.28397019199677043 0 0.010692145022894809 -0.28787512627119433 0 0.017263541134881731 -0.28158223684764772 0 0.010692145022894809 -0.28787512627119433 0 0.017263541134881731 -0.28158223684764772 0 0.017263541134881731 -0.28158223684764772 0 0.033194951413019418 -0.29980485628408171 0 0.017263541134881731 -0.28158223684764772 0 0.033194951413019418 -0.29980485628408171 0 0.031947400198004551 -0.28506368705851259 0 0.017263541134881731 -0.28158223684764772 0 0.017839916158978449 -0.29523178096835939 0 0.033194951413019418 -0.29980485628408171 0 0.017263541134881731 -0.28158223684764772 0 0.031947400198004551 -0.28506368705851259 0 0.019714923856090281 -0.27923474780019369 0 0.029237480660762621 -0.32176531908807759 0 0.019694401482341799 -0.3072633890018186 0 0.033194951413019418 -0.29980485628408171 0 0.017839916158978449 -0.29523178096835939 0 0.019694401482341799 -0.3072633890018186 0 0.033194951413019418 -0.29980485628408171 0 0.049126361691153878 -0.31802747572051859 0 0.033194951413019418 -0.29980485628408171 0 0.052134651751780753 -0.29204647916040088 0 0.049126361691153878 -0.31802747572051859 0 0.033194951413019418 -0.29980485628408171 0 0.031947400198004551 -0.28506368705851259 0 0.052134651751780753 -0.29204647916040088 0 0.037428932834249737 -0.2726501152002378 0 0.033194951413019418 -0.29980485628408171 0 0.031947400198004551 -0.28506368705851259 0 0.052134651751780753 -0.29204647916040088 0 0.066491896905393977 -0.29614264899816478 0 0.052134651751780753 -0.29204647916040088 0 0.062487778109492312 -0.28197674382716797 0 0.049126361691153878 -0.31802747572051859 0 0.052134651751780753 -0.29204647916040088 0 0.049126361691153878 -0.31802747572051859 0 0.052134651751780753 -0.29204647916040088 0 0.058202048681686977 -0.31040058453369163 0 0.062543139868267844 -0.30352452107495992 0 0.066491896905393977 -0.29614264899816478 0 0.052134651751780753 -0.29204647916040088 0 0.062543139868267844 -0.30352452107495992 0 0.052134651751780753 -0.29204647916040088 0 0.058202048681686977 -0.31040058453369163 0 0.038780519285289132 -0.26097718399101127 0 0.057846114714487293 -0.24271962018182791 0 0.055142941812409779 -0.2660654826002834 0 0.057846114714487293 -0.24271962018182791 0 0.055142941812409779 -0.2660654826002834 0 0.038780519285289132 -0.26097718399101127 0 0.057846114714487293 -0.24271962018182791 0 0.067874033935018813 -0.25023048061506209 0 0.055142941812409779 -0.2660654826002834 0 0.057846114714487293 -0.24271962018182791 0 0.052134651751780753 -0.29204647916040088 0 0.062487778109492312 -0.28197674382716797 0 0.055142941812409779 -0.2660654826002834 0 0.052134651751780753 -0.29204647916040088 0 0.055142941812409779 -0.2660654826002834 0 0.037428932834249737 -0.2726501152002378 0 0.052134651751780753 -0.29204647916040088 0 0.055142941812409779 -0.2660654826002834 0 0.055142941812409779 -0.2660654826002834 0 0.037428932834249737 -0.2726501152002378 0 0.055142941812409779 -0.2660654826002834 0 0.037428932834249737 -0.2726501152002378 0 0.038780519285289132 -0.26097718399101127 0 0.037428932834249737 -0.2726501152002378 0 0.038780519285289132 -0.26097718399101127 0 0.019714923856090281 -0.27923474780019369 0 0.038780519285289132 -0.26097718399101127 0 0.0260136043064539 -0.25368843892529891 0 0.031111355620218481 -0.24268629821052121 0 0.038780519285289132 -0.26097718399101127 0 0.0260136043064539 -0.25368843892529891 0 0.020609292334703159 -0.26336156632994667 0 0.020609292334703159 -0.26336156632994667 0 0.018988667536095918 -0.25671216635903049 0 0.012616589156076561 -0.26224180635229061 0 0.020609292334703159 -0.26336156632994667 0 0.01441348579647325 -0.27074698617618959 0 0.012616589156076561 -0.26224180635229061 0 0.0260136043064539 -0.25368843892529891 0 0.020609292334703159 -0.26336156632994667 0 0.018988667536095918 -0.25671216635903049 0 0.0260136043064539 -0.25368843892529891 0 0.018988667536095918 -0.25671216635903049 0 0.01671518434715006 -0.247556853828586 0 0.018988667536095918 -0.25671216635903049 0 0.012616589156076561 -0.26224180635229061 0 0.01671518434715006 -0.247556853828586 0 0.037428932834249737 -0.2726501152002378 0 0.019714923856090281 -0.27923474780019369 0 0.038780519285289132 -0.26097718399101127 0 0.019714923856090281 -0.27923474780019369 0 0.020609292334703159 -0.26336156632994667 0 0.019714923856090281 -0.27923474780019369 0 0.01441348579647325 -0.27074698617618959 0 0.038780519285289132 -0.26097718399101127 0 0.020609292334703159 -0.26336156632994667 0 0.019714923856090281 -0.27923474780019369 0 0.031947400198004551 -0.28506368705851259 0 0.037428932834249737 -0.2726501152002378 0 0.019714923856090281 -0.27923474780019369 0 0.017263541134881731 -0.28158223684764772 0 0.019714923856090281 -0.27923474780019369 0 0.01441348579647325 -0.27074698617618959 0 0.017263541134881731 -0.28158223684764772 0 0.019714923856090281 -0.27923474780019369 0 0.017263541134881731 -0.28158223684764772 0 0.0091241378294696779 -0.27989622810723958 0 0.0078713171084167366 -0.27611966578703301 0 0.017263541134881731 -0.28158223684764772 0 0.0078713171084167366 -0.27611966578703301 0 0.004872478391404365 -0.2674091274464469 0 0.017263541134881731 -0.28158223684764772 0 0.004872478391404365 -0.2674091274464469 0 0.017263541134881731 -0.28158223684764772 0 0.01441348579647325 -0.27074698617618959 0 0.004872478391404365 -0.2674091274464469 0 0.01441348579647325 -0.27074698617618959 0 0.004872478391404365 -0.2674091274464469 0 0.012616589156076561 -0.26224180635229061 0 -0.00050171560382180334 -0.27574476939202991 0 0.004872478391404365 -0.2674091274464469 0 8.3830497070164071e-05 -0.26193179011910639 0 -0.00050171560382180334 -0.27574476939202991 0 0.004872478391404365 -0.2674091274464469 0 0.0043039909202731283 -0.2744768869369279 0 -0.00050171560382180334 -0.27574476939202991 0 0.004872478391404365 -0.2674091274464469 0 0.0078713171084167366 -0.27611966578703301 0 0.004872478391404365 -0.2674091274464469 0 0.0043039909202731283 -0.2744768869369279 0 0.0078713171084167366 -0.27611966578703301 0 0.0043039909202731283 -0.2744768869369279 0 0.0045821526031087087 -0.2786173792429289 0 -0.00050171560382180334 -0.27574476939202991 0 0.0043039909202731283 -0.2744768869369279 0 0.0045821526031087087 -0.2786173792429289 0 -0.00076605396032216472 -0.28198048718404672 0 -0.00050171560382180334 -0.27574476939202991 0 0.0045821526031087087 -0.2786173792429289 0 0.0069756100461842371 -0.28397019199677043 0 0.0091241378294696779 -0.27989622810723958 0 0.0045821526031087087 -0.2786173792429289 0 0.0091241378294696779 -0.27989622810723958 0 0.0078713171084167366 -0.27611966578703301 0 0.0045821526031087087 -0.2786173792429289 0 0.004872478391404365 -0.2674091274464469 0 0.012616589156076561 -0.26224180635229061 0 0.01671518434715006 -0.247556853828586 0 0.004872478391404365 -0.2674091274464469 0 0.01671518434715006 -0.247556853828586 0 0.004872478391404365 -0.2674091274464469 0 8.3830497070164071e-05 -0.26193179011910639 0 0.0067143507753700711 -0.25051930183427962 0 0.004872478391404365 -0.2674091274464469 0 0.0067143507753700711 -0.25051930183427962 0 0.01671518434715006 -0.247556853828586 0 0.004872478391404365 -0.2674091274464469 0 8.3830497070164071e-05 -0.26193179011910639 0 8.3830497070164071e-05 -0.26193179011910639 0 0.0012579076468239409 -0.23423541692219441 0 0.0067143507753700711 -0.25051930183427962 0 0.01064235299440182 -0.2414633208550642 0 0.0012579076468239409 -0.23423541692219441 0 8.3830497070164071e-05 -0.26193179011910639 0 0.0067143507753700711 -0.25051930183427962 0 0.0012579076468239409 -0.23423541692219441 0 0.0067143507753700711 -0.25051930183427962 0 0.01064235299440182 -0.2414633208550642 0 0.01671518434715006 -0.247556853828586 0 0.01064235299440182 -0.2414633208550642 0 0.01671518434715006 -0.247556853828586 0 0.017697870769775401 -0.2388891290950711 0 0.01064235299440182 -0.2414633208550642 0 0.010390960427418451 -0.23333670670514919 0 0.017697870769775401 -0.2388891290950711 0 0.01064235299440182 -0.2414633208550642 0 0.0012579076468239409 -0.23423541692219441 0 0.010390960427418451 -0.23333670670514919 0 0.013000601161959561 -0.2188736429061707 0 0.010390960427418451 -0.23333670670514919 0 0.017697870769775401 -0.2388891290950711 0 0.013000601161959561 -0.2188736429061707 0 0.017697870769775401 -0.2388891290950711 0 0.0012579076468239409 -0.23423541692219441 0 0.013000601161959561 -0.2188736429061707 0 0.002431984796575862 -0.2065390437252822 0 0.0012579076468239409 -0.23423541692219441 0 0.002431984796575862 -0.2065390437252822 0 0.0012579076468239409 -0.23423541692219441 0 0.013000601161959561 -0.2188736429061707 0 0.010390960427418451 -0.23333670670514919 0 0.013000601161959561 -0.2188736429061707 0 0.028557890302895801 -0.22770458021072529 0 0.017697870769775401 -0.2388891290950711 0 0.028557890302895801 -0.22770458021072529 0 0.01671518434715006 -0.247556853828586 0 0.017697870769775401 -0.2388891290950711 0 0.028557890302895801 -0.22770458021072529 0 0.031111355620218481 -0.24268629821052121 0 0.01671518434715006 -0.247556853828586 0 0.028557890302895801 -0.22770458021072529 0 0.01671518434715006 -0.247556853828586 0 0.0260136043064539 -0.25368843892529891 0 0.031111355620218481 -0.24268629821052121 0 0.01671518434715006 -0.247556853828586 0 0.0083033315541437072 -0.19885815671727039 0 0.002431984796575862 -0.2065390437252822 0 0.0036060619463278189 -0.17884267052837 0 0.002431984796575862 -0.2065390437252822 0 0.0036060619463278189 -0.17884267052837 0 0.0083033315541437072 -0.19885815671727039 0 0.0036060619463278189 -0.17884267052837 0 0.0083033315541437072 -0.19885815671727039 0 0.018875620525212401 -0.1959368558804282 0 0.016866704270444739 -0.1843813988987909 0 0.013000601161959561 -0.2188736429061707 0 0.0083033315541437072 -0.19885815671727039 0 0.002431984796575862 -0.2065390437252822 0 0.013000601161959561 -0.2188736429061707 0 0.0083033315541437072 -0.19885815671727039 0 0.02290237548665813 -0.20683366474639411 0 0.013000601161959561 -0.2188736429061707 0 0.0083033315541437072 -0.19885815671727039 0 0.013000601161959561 -0.2188736429061707 0 0.028557890302895801 -0.22770458021072529 0 0.02290237548665813 -0.20683366474639411 0 0.028557890302895801 -0.22770458021072529 0 0.02290237548665813 -0.20683366474639411 0 0.040400596258641563 -0.20785230659286441 0 0.02290237548665813 -0.20683366474639411 0 0.018875620525212401 -0.1959368558804282 0 0.028574150556353772 -0.19110822187923321 0 0.02290237548665813 -0.20683366474639411 0 0.028574150556353772 -0.19110822187923321 0 0.040400596258641563 -0.20785230659286441 0 0.0083033315541437072 -0.19885815671727039 0 0.02290237548665813 -0.20683366474639411 0 0.018875620525212401 -0.1959368558804282 0 0.018875620525212401 -0.1959368558804282 0 0.028574150556353772 -0.19110822187923321 0 0.016866704270444739 -0.1843813988987909 0 0.028574150556353772 -0.19110822187923321 0 0.040400596258641563 -0.20785230659286441 0 0.041535826721452278 -0.18434185642373249 0 0.040400596258641563 -0.20785230659286441 0 0.057512001605103093 -0.187032965346141 0 0.041535826721452278 -0.18434185642373249 0 0.028557890302895801 -0.22770458021072529 0 0.040400596258641563 -0.20785230659286441 0 0.040400596258641563 -0.20785230659286441 0 0.06201484979107022 -0.20990014988735509 0 0.04685324024306671 -0.22219493358122569 0 0.040400596258641563 -0.20785230659286441 0 0.06201484979107022 -0.20990014988735509 0 0.057512001605103093 -0.187032965346141 0 0.038780519285289132 -0.26097718399101127 0 0.031111355620218481 -0.24268629821052121 0 0.043874015202801341 -0.2363808838228319 0 0.038780519285289132 -0.26097718399101127 0 0.043874015202801341 -0.2363808838228319 0 0.057846114714487293 -0.24271962018182791 0 0.028557890302895801 -0.22770458021072529 0 0.031111355620218481 -0.24268629821052121 0 0.043874015202801341 -0.2363808838228319 0 0.028557890302895801 -0.22770458021072529 0 0.043874015202801341 -0.2363808838228319 0 0.04685324024306671 -0.22219493358122569 0 0.028557890302895801 -0.22770458021072529 0 0.040400596258641563 -0.20785230659286441 0 0.04685324024306671 -0.22219493358122569 0 0.043874015202801341 -0.2363808838228319 0 0.04685324024306671 -0.22219493358122569 0 0.059418849659924597 -0.2291367473923516 0 0.06201484979107022 -0.20990014988735509 0 0.04685324024306671 -0.22219493358122569 0 0.059418849659924597 -0.2291367473923516 0 0.059418849659924597 -0.2291367473923516 0 0.057846114714487293 -0.24271962018182791 0 0.043874015202801341 -0.2363808838228319 0 0.059418849659924597 -0.2291367473923516 0 0.057846114714487293 -0.24271962018182791 0 0.057846114714487293 -0.24271962018182791 0 0.076735088517559141 -0.2412840752084903 0 0.077689484208481097 -0.22371724566532231 0 0.067874033935018813 -0.25023048061506209 0 0.087151696658880728 -0.25416722225131932 0 0.076735088517559141 -0.2412840752084903 0 0.067874033935018813 -0.25023048061506209 0 0.057846114714487293 -0.24271962018182791 0 0.076735088517559141 -0.2412840752084903 0 0.087151696658880728 -0.25416722225131932 0 0.076735088517559141 -0.2412840752084903 0 0.097846024754628516 -0.24737526388992959 0 0.076735088517559141 -0.2412840752084903 0 0.097846024754628516 -0.24737526388992959 0 0.096187254007197326 -0.23290295471937941 0 0.077689484208481097 -0.22371724566532231 0 0.095986011146728209 -0.22015363612185981 0 0.096187254007197326 -0.23290295471937941 0 0.076735088517559141 -0.2412840752084903 0 0.077689484208481097 -0.22371724566532231 0 0.096187254007197326 -0.23290295471937941 0 0.06201484979107022 -0.20990014988735509 0 0.059418849659924597 -0.2291367473923516 0 0.077689484208481097 -0.22371724566532231 0 0.059418849659924597 -0.2291367473923516 0 0.057846114714487293 -0.24271962018182791 0 0.077689484208481097 -0.22371724566532231 0 0.057846114714487293 -0.24271962018182791 0 0.077689484208481097 -0.22371724566532231 0 0.06201484979107022 -0.20990014988735509 0 0.070997566149412231 -0.19501732188575191 0 0.078986603031075409 -0.20469033364373659 0 0.06201484979107022 -0.20990014988735509 0 0.077689484208481097 -0.22371724566532231 0 0.078986603031075409 -0.20469033364373659 0 0.06201484979107022 -0.20990014988735509 0 0.070997566149412231 -0.19501732188575191 0 0.057512001605103093 -0.187032965346141 0 0.070997566149412231 -0.19501732188575191 0 0.08669826130393854 -0.1901020796314371 0 0.072739360996877236 -0.1826161845400617 0 0.070997566149412231 -0.19501732188575191 0 0.072739360996877236 -0.1826161845400617 0 0.057512001605103093 -0.187032965346141 0 0.08669826130393854 -0.1901020796314371 0 0.078986603031075409 -0.20469033364373659 0 0.097532853702475025 -0.20471487114881659 0 0.070997566149412231 -0.19501732188575191 0 0.08669826130393854 -0.1901020796314371 0 0.078986603031075409 -0.20469033364373659 0 0.077689484208481097 -0.22371724566532231 0 0.097532853702475025 -0.20471487114881659 0 0.095986011146728209 -0.22015363612185981 0 0.077689484208481097 -0.22371724566532231 0 0.078986603031075409 -0.20469033364373659 0 0.097532853702475025 -0.20471487114881659 0 0.077689484208481097 -0.22371724566532231 0 0.097532853702475025 -0.20471487114881659 0 0.097532853702475025 -0.20471487114881659 0 0.1125344526687595 -0.219279472953921 0 0.095986011146728209 -0.22015363612185981 0 0.097532853702475025 -0.20471487114881659 0 0.1136863458492906 -0.20378040004091749 0 0.1125344526687595 -0.219279472953921 0 0.097532853702475025 -0.20471487114881659 0 0.1136863458492906 -0.20378040004091749 0 0.11007713721097059 -0.1870325833763419 0 0.08669826130393854 -0.1901020796314371 0 0.097532853702475025 -0.20471487114881659 0 0.11007713721097059 -0.1870325833763419 0 0.1136863458492906 -0.20378040004091749 0 0.11007713721097059 -0.1870325833763419 0 0.13460093981495719 -0.20409467268459039 0 0.11007713721097059 -0.1870325833763419 0 0.13460093981495719 -0.20409467268459039 0 0.1136863458492906 -0.20378040004091749 0 0.1125344526687595 -0.219279472953921 0 0.13460093981495719 -0.20409467268459039 0 0.1125344526687595 -0.219279472953921 0 0.1159975879669817 -0.24165004779051419 0 0.13655352386568281 -0.22873657271323361 0 0.1205237410750401 -0.25901118411532942 0 0.1159975879669817 -0.24165004779051419 0 0.1349623815238328 -0.2493166432255951 0 0.1080005813478328 -0.25495050858549961 0 0.1159975879669817 -0.24165004779051419 0 0.097846024754628516 -0.24737526388992959 0 0.1159975879669817 -0.24165004779051419 0 0.097846024754628516 -0.24737526388992959 0 0.096187254007197326 -0.23290295471937941 0 0.1125344526687595 -0.219279472953921 0 0.095986011146728209 -0.22015363612185981 0 0.096187254007197326 -0.23290295471937941 0 0.1125344526687595 -0.219279472953921 0 0.1159975879669817 -0.24165004779051419 0 0.096187254007197326 -0.23290295471937941 0 0.099811008091181652 -0.14384138323931531 0 0.10403702207660299 -0.16326038184938421 0 0.084317127921957863 -0.14823390541143391 0 0.099811008091181652 -0.14384138323931531 0 0.1070975840221542 -0.12901936097366529 0 0.11664369703868829 -0.14927516463013341 0 0.099811008091181652 -0.14384138323931531 0 0.11664369703868829 -0.14927516463013341 0 0.10403702207660299 -0.16326038184938421 0 0.099811008091181652 -0.14384138323931531 0 0.1070975840221542 -0.12901936097366529 0 0.083080921236928257 -0.1264973167547758 0 0.1070975840221542 -0.12901936097366529 0 0.12262221221342071 -0.13389266175810649 0 0.11664369703868829 -0.14927516463013341 0 0.1070975840221542 -0.12901936097366529 0 0.11664369703868829 -0.14927516463013341 0 0.1070975840221542 -0.12901936097366529 0 0.12262221221342071 -0.13389266175810649 0 0.1190541931230828 -0.1197795804448404 0 0.11664369703868829 -0.14927516463013341 0 0.1207615378566083 -0.1690611530772719 0 0.1374666051814516 -0.16316857255182851 0 0.11664369703868829 -0.14927516463013341 0 0.1207615378566083 -0.1690611530772719 0 0.10403702207660299 -0.16326038184938421 0 0.1207615378566083 -0.1690611530772719 0 0.11007713721097059 -0.1870325833763419 0 0.10403702207660299 -0.16326038184938421 0 0.1207615378566083 -0.1690611530772719 0 0.11007713721097059 -0.1870325833763419 0 0.1355832277753278 -0.18256906297867159 0 0.11007713721097059 -0.1870325833763419 0 0.10403702207660299 -0.16326038184938421 0 0.085553334606984971 -0.1699704940680922 0 0.08669826130393854 -0.1901020796314371 0 0.11007713721097059 -0.1870325833763419 0 0.085553334606984971 -0.1699704940680922 0 0.11007713721097059 -0.1870325833763419 0 0.085553334606984971 -0.1699704940680922 0 0.10403702207660299 -0.16326038184938421 0 0.085553334606984971 -0.1699704940680922 0 0.084317127921957863 -0.14823390541143391 0 0.085553334606984971 -0.1699704940680922 0 0.084317127921957863 -0.14823390541143391 0 0.085553334606984971 -0.1699704940680922 0 0.066920495491539542 -0.15700695940800519 0 0.084317127921957863 -0.14823390541143391 0 0.08669826130393854 -0.1901020796314371 0 0.085553334606984971 -0.1699704940680922 0 0.072739360996877236 -0.1826161845400617 0 0.08669826130393854 -0.1901020796314371 0 0.085553334606984971 -0.1699704940680922 0 0.085553334606984971 -0.1699704940680922 0 0.072739360996877236 -0.1826161845400617 0 0.064777764916886083 -0.1718753967498918 0 0.072739360996877236 -0.1826161845400617 0 0.064777764916886083 -0.1718753967498918 0 0.057512001605103093 -0.187032965346141 0 0.085553334606984971 -0.1699704940680922 0 0.066920495491539542 -0.15700695940800519 0 0.085553334606984971 -0.1699704940680922 0 0.064777764916886083 -0.1718753967498918 0 0.066920495491539542 -0.15700695940800519 0 0.066920495491539542 -0.15700695940800519 0 0.084317127921957863 -0.14823390541143391 0 0.069366989766765766 -0.13993750831354301 0 0.084317127921957863 -0.14823390541143391 0 0.083080921236928257 -0.1264973167547758 0 0.084317127921957863 -0.14823390541143391 0 0.083080921236928257 -0.1264973167547758 0 0.069366989766765766 -0.13993750831354301 0 0.099811008091181652 -0.14384138323931531 0 0.084317127921957863 -0.14823390541143391 0 0.083080921236928257 -0.1264973167547758 0 0.083080921236928257 -0.1264973167547758 0 0.063807332183046475 -0.12593044164835129 0 0.069366989766765766 -0.13993750831354301 0 0.063807332183046475 -0.12593044164835129 0 0.069366989766765766 -0.13993750831354301 0 0.048287656376094987 -0.14404342474791701 0 0.063807332183046475 -0.12593044164835129 0 0.048287656376094987 -0.14404342474791701 0 0.049104014041263577 -0.1196087793214939 0 0.066920495491539542 -0.15700695940800519 0 0.048287656376094987 -0.14404342474791701 0 0.05000582515403152 -0.16715358829598581 0 0.066920495491539542 -0.15700695940800519 0 0.048287656376094987 -0.14404342474791701 0 0.066920495491539542 -0.15700695940800519 0 0.069366989766765766 -0.13993750831354301 0 0.048287656376094987 -0.14404342474791701 0 0.048287656376094987 -0.14404342474791701 0 0.029654817260650421 -0.1310798900878288 0 0.02388141530638695 -0.14942570742343159 0 0.048287656376094987 -0.14404342474791701 0 0.0311865600331315 -0.16856220000443789 0 0.02388141530638695 -0.14942570742343159 0 0.048287656376094987 -0.14404342474791701 0 0.029654817260650421 -0.1310798900878288 0 0.048287656376094987 -0.14404342474791701 0 0.029654817260650421 -0.1310798900878288 0 0.049104014041263577 -0.1196087793214939 0 0.064777764916886083 -0.1718753967498918 0 0.057512001605103093 -0.187032965346141 0 0.05000582515403152 -0.16715358829598581 0 0.057512001605103093 -0.187032965346141 0 0.05000582515403152 -0.16715358829598581 0 0.041535826721452278 -0.18434185642373249 0 0.064777764916886083 -0.1718753967498918 0 0.066920495491539542 -0.15700695940800519 0 0.05000582515403152 -0.16715358829598581 0 0.048287656376094987 -0.14404342474791701 0 0.05000582515403152 -0.16715358829598581 0 0.0311865600331315 -0.16856220000443789 0 0.028574150556353772 -0.19110822187923321 0 0.041535826721452278 -0.18434185642373249 0 0.0311865600331315 -0.16856220000443789 0 0.05000582515403152 -0.16715358829598581 0 0.041535826721452278 -0.18434185642373249 0 0.0311865600331315 -0.16856220000443789 0 0.016866704270444739 -0.1843813988987909 0 0.015683630908641302 -0.16662214217939031 0 0.0311865600331315 -0.16856220000443789 0 0.028574150556353772 -0.19110822187923321 0 0.016866704270444739 -0.1843813988987909 0 0.0311865600331315 -0.16856220000443789 0 0.015683630908641302 -0.16662214217939031 0 0.0311865600331315 -0.16856220000443789 0 0.02388141530638695 -0.14942570742343159 0 0.0036060619463278189 -0.17884267052837 0 0.0048487431793671938 -0.1495279332452783 0 -0.001068637237327709 -0.15892335893679441 0 0.0036060619463278189 -0.17884267052837 0 0.0048487431793671938 -0.1495279332452783 0 0.015683630908641302 -0.16662214217939031 0 0.0036060619463278189 -0.17884267052837 0 0.0048487431793671938 -0.1495279332452783 0 -0.001068637237327709 -0.15892335893679441 0 0.0036060619463278189 -0.17884267052837 0 0.0083033315541437072 -0.19885815671727039 0 0.016866704270444739 -0.1843813988987909 0 0.0036060619463278189 -0.17884267052837 0 0.016866704270444739 -0.1843813988987909 0 0.015683630908641302 -0.16662214217939031 0 0.0036060619463278189 -0.17884267052837 0 0.029654817260650421 -0.1310798900878288 0 0.01374394806444101 -0.13155091327441429 0 0.01102197814520493 -0.118116355427742 0 0.017102777324577559 -0.13881719164903611 0 0.029654817260650421 -0.1310798900878288 0 0.01374394806444101 -0.13155091327441429 0 0.017102777324577559 -0.13881719164903611 0 0.029654817260650421 -0.1310798900878288 0 0.02388141530638695 -0.14942570742343159 0 0.017102777324577559 -0.13881719164903611 0 0.02388141530638695 -0.14942570742343159 0 0.0048487431793671938 -0.1495279332452783 0 0.015683630908641302 -0.16662214217939031 0 0.02388141530638695 -0.14942570742343159 0 0.0048487431793671938 -0.1495279332452783 0 0.0048487431793671938 -0.1495279332452783 0 0.01374394806444101 -0.13155091327441429 0 0.0060914244124049312 -0.1202131959621866 0 0.0048487431793671938 -0.1495279332452783 0 0.0060914244124049312 -0.1202131959621866 0 0.0048487431793671938 -0.1495279332452783 0 0.0040996962806560469 -0.1210602278589137 0 0.0060914244124049312 -0.1202131959621866 0 0.017102777324577559 -0.13881719164903611 0 0.0048487431793671938 -0.1495279332452783 0 0.01374394806444101 -0.13155091327441429 0 -0.0057433364209832811 -0.13900404734521879 0 0.0048487431793671938 -0.1495279332452783 0 0.0040996962806560469 -0.1210602278589137 0 -0.004113471453644461 -0.1154041966511728 0 0.0040996962806560469 -0.1210602278589137 0 0.0060914244124049312 -0.1202131959621866 0 0.0060914244124049312 -0.1202131959621866 0 0.008897877203537588 -0.1166385421965826 0 0.0072790162794601852 -0.092198011813101055 0 0.0040996962806560469 -0.1210602278589137 0 0.0060914244124049312 -0.1202131959621866 0 0.008897877203537588 -0.1166385421965826 0 0.01102197814520493 -0.118116355427742 0 0.01814793710467261 -0.1056086013187357 0 0.01374394806444101 -0.13155091327441429 0 0.0060914244124049312 -0.1202131959621866 0 0.01102197814520493 -0.118116355427742 0 0.0060914244124049312 -0.1202131959621866 0 0.008897877203537588 -0.1166385421965826 0 0.01102197814520493 -0.118116355427742 0 0.0060914244124049312 -0.1202131959621866 0 0.01102197814520493 -0.118116355427742 0 0.008897877203537588 -0.1166385421965826 0 0.01102197814520493 -0.118116355427742 0 0.029654817260650421 -0.1310798900878288 0 0.01102197814520493 -0.118116355427742 0 0.032100185483670038 -0.1091523238126884 0 0.029654817260650421 -0.1310798900878288 0 0.01102197814520493 -0.118116355427742 0 0.01102197814520493 -0.118116355427742 0 0.032100185483670038 -0.1091523238126884 0 0.01102197814520493 -0.118116355427742 0 0.01814793710467261 -0.1056086013187357 0 0.032100185483670038 -0.1091523238126884 0 0.01814793710467261 -0.1056086013187357 0 0.0072790162794601852 -0.092198011813101055 0 0.026569745935960891 -0.093084733125965241 0 0.01814793710467261 -0.1056086013187357 0 0.026569745935960891 -0.093084733125965241 0 0.032100185483670038 -0.1091523238126884 0 0.0060914244124049312 -0.1202131959621866 0 0.0072790162794601852 -0.092198011813101055 0 0.008897877203537588 -0.1166385421965826 0 0.01814793710467261 -0.1056086013187357 0 0.0072790162794601852 -0.092198011813101055 0 -0.00213609781972147 -0.1055666400830108 0 0.0060914244124049312 -0.1202131959621866 0 0.0072790162794601852 -0.092198011813101055 0 0.0072790162794601852 -0.092198011813101055 0 0.0084666081465137599 -0.064182827664015507 0 0.0072790162794601852 -0.092198011813101055 0 0.0084666081465137599 -0.064182827664015507 0 0.02417447201108372 -0.076753562847375958 0 -0.007088811202105999 -0.074459216535332842 0 0.0072790162794601852 -0.092198011813101055 0 0.0084666081465137599 -0.064182827664015507 0 0.02417447201108372 -0.076753562847375958 0 0.038323104308026407 -0.071373377897195153 0 0.02639934936470572 -0.057470074996009618 0 0.0084666081465137599 -0.064182827664015507 0 0.02417447201108372 -0.076753562847375958 0 0.02639934936470572 -0.057470074996009618 0 0.0072790162794601852 -0.092198011813101055 0 0.02417447201108372 -0.076753562847375958 0 0.026569745935960891 -0.093084733125965241 0 0.02417447201108372 -0.076753562847375958 0 0.026569745935960891 -0.093084733125965241 0 0.036271129387192583 -0.083137620217740599 0 0.026569745935960891 -0.093084733125965241 0 0.036271129387192583 -0.083137620217740599 0 0.039778316610867753 -0.093494110866993996 0 0.036271129387192583 -0.083137620217740599 0 0.038323104308026407 -0.071373377897195153 0 0.049034250780738593 -0.082832853610715407 0 0.036271129387192583 -0.083137620217740599 0 0.039778316610867753 -0.093494110866993996 0 0.049034250780738593 -0.082832853610715407 0 0.038323104308026407 -0.071373377897195153 0 0.02639934936470572 -0.057470074996009618 0 0.0383098785929143 -0.059482438013221763 0 0.02417447201108372 -0.076753562847375958 0 0.036271129387192583 -0.083137620217740599 0 0.038323104308026407 -0.071373377897195153 0 0.038323104308026407 -0.071373377897195153 0 0.049634059765161991 -0.069609338430719217 0 0.049034250780738593 -0.082832853610715407 0 0.038323104308026407 -0.071373377897195153 0 0.049634059765161991 -0.069609338430719217 0 0.0383098785929143 -0.059482438013221763 0 0.049634059765161991 -0.069609338430719217 0 0.060636884267044951 -0.063410112722622702 0 0.050191209306467997 -0.057386369560069227 0 0.049634059765161991 -0.069609338430719217 0 0.061179918632068467 -0.074768782568441092 0 0.049034250780738593 -0.082832853610715407 0 0.049634059765161991 -0.069609338430719217 0 0.061179918632068467 -0.074768782568441092 0 0.060636884267044951 -0.063410112722622702 0 0.039778316610867753 -0.093494110866993996 0 0.049034250780738593 -0.082832853610715407 0 0.053178392822133901 -0.1001882921976317 0 0.049034250780738593 -0.082832853610715407 0 0.061884138425929408 -0.085692664313436084 0 0.053178392822133901 -0.1001882921976317 0 0.061179918632068467 -0.074768782568441092 0 0.049034250780738593 -0.082832853610715407 0 0.061884138425929408 -0.085692664313436084 0 0.053178392822133901 -0.1001882921976317 0 0.049104014041263577 -0.1196087793214939 0 0.067174284497723974 -0.1092828098373143 0 0.063807332183046475 -0.12593044164835129 0 0.049104014041263577 -0.1196087793214939 0 0.067174284497723974 -0.1092828098373143 0 0.029654817260650421 -0.1310798900878288 0 0.049104014041263577 -0.1196087793214939 0 0.032100185483670038 -0.1091523238126884 0 0.053178392822133901 -0.1001882921976317 0 0.049104014041263577 -0.1196087793214939 0 0.032100185483670038 -0.1091523238126884 0 0.053178392822133901 -0.1001882921976317 0 0.032100185483670038 -0.1091523238126884 0 0.026569745935960891 -0.093084733125965241 0 0.039778316610867753 -0.093494110866993996 0 0.032100185483670038 -0.1091523238126884 0 0.039778316610867753 -0.093494110866993996 0 0.053178392822133901 -0.1001882921976317 0 0.032100185483670038 -0.1091523238126884 0 0.02299756951747272 -0.0020397452794008362 0 0.02516804576855591 -0.018904521160213791 0 0.034763315700838397 -0.0035658680787951391 0 0.02299756951747272 -0.0020397452794008362 0 0.010658677065371989 -0.01247212120586009 0 0.02516804576855591 -0.018904521160213791 0 0.01166315411717637 0.01122340110320991 0 0.010658677065371989 -0.01247212120586009 0 0.01166315411717637 0.01122340110320991 0 0.02299756951747272 -0.0020397452794008362 0 0.010658677065371989 -0.01247212120586009 0 -0.0030996309439716872 -0.010090613405617991 0 0.001543159741337678 0.0020358238033578099 0 0.010658677065371989 -0.01247212120586009 0 -0.00068626669319661398 -0.022988926579625781 0 -0.0030996309439716872 -0.010090613405617991 0 0.010658677065371989 -0.01247212120586009 0 0.010658677065371989 -0.01247212120586009 0 0.0096542000135663025 -0.036167643514929952 0 -0.00068626669319661398 -0.022988926579625781 0 0.010658677065371989 -0.01247212120586009 0 0.0096542000135663025 -0.036167643514929952 0 0.010658677065371989 -0.01247212120586009 0 0.02516804576855591 -0.018904521160213791 0 0.0096542000135663025 -0.036167643514929952 0 0.02516804576855591 -0.018904521160213791 0 0.027202912599634789 -0.038935558385674127 0 0.037204568651802578 -0.029963682118369011 0 0.02516804576855591 -0.018904521160213791 0 0.0096542000135663025 -0.036167643514929952 0 0.02516804576855591 -0.018904521160213791 0 0.027202912599634789 -0.038935558385674127 0 0.0096542000135663025 -0.036167643514929952 0 0.027202912599634789 -0.038935558385674127 0 0.0096542000135663025 -0.036167643514929952 0 0.02639934936470572 -0.057470074996009618 0 -0.00068626669319661398 -0.022988926579625781 0 -0.0071939510845541758 -0.035470850984737123 0 0.0096542000135663025 -0.036167643514929952 0 -0.008024144218591928 -0.055839324175433983 0 0.0096542000135663025 -0.036167643514929952 0 0.0084666081465137599 -0.064182827664015507 0 0.0096542000135663025 -0.036167643514929952 0 0.0084666081465137599 -0.064182827664015507 0 0.0096542000135663025 -0.036167643514929952 0 0.02639934936470572 -0.057470074996009618 0 -0.008024144218591928 -0.055839324175433983 0 0.0084666081465137599 -0.064182827664015507 0 0.0096542000135663025 -0.036167643514929952 0 0.027202912599634789 -0.038935558385674127 0 0.02639934936470572 -0.057470074996009618 0 0.040226956860627799 -0.047019334308817752 0 0.02639934936470572 -0.057470074996009618 0 0.0383098785929143 -0.059482438013221763 0 0.040226956860627799 -0.047019334308817752 0 0.0383098785929143 -0.059482438013221763 0 0.040226956860627799 -0.047019334308817752 0 0.050191209306467997 -0.057386369560069227 0 0.049634059765161991 -0.069609338430719217 0 0.0383098785929143 -0.059482438013221763 0 0.050191209306467997 -0.057386369560069227 0 0.040226956860627799 -0.047019334308817752 0 0.050191209306467997 -0.057386369560069227 0 0.055985546309688147 -0.046492219090197302 0 0.060636884267044951 -0.063410112722622702 0 0.050191209306467997 -0.057386369560069227 0 0.057860563182880409 -0.054967928628541982 0 0.060636884267044951 -0.063410112722622702 0 0.057860563182880409 -0.054967928628541982 0 0.06599223540453858 -0.054030042894283238 0 0.057860563182880409 -0.054967928628541982 0 0.055985546309688147 -0.046492219090197302 0 0.06599223540453858 -0.054030042894283238 0 0.050191209306467997 -0.057386369560069227 0 0.057860563182880409 -0.054967928628541982 0 0.055985546309688147 -0.046492219090197302 0 0.055985546309688147 -0.046492219090197302 0 0.047721461794608552 -0.034515057118556611 0 0.058462136321210598 -0.02582028113159485 0 0.055985546309688147 -0.046492219090197302 0 0.058462136321210598 -0.02582028113159485 0 0.070631500714582129 -0.05164233617632373 0 0.040226956860627799 -0.047019334308817752 0 0.055985546309688147 -0.046492219090197302 0 0.047721461794608552 -0.034515057118556611 0 0.040226956860627799 -0.047019334308817752 0 0.047721461794608552 -0.034515057118556611 0 0.037204568651802578 -0.029963682118369011 0 0.027202912599634789 -0.038935558385674127 0 0.040226956860627799 -0.047019334308817752 0 0.037204568651802578 -0.029963682118369011 0 0.02516804576855591 -0.018904521160213791 0 0.037204568651802578 -0.029963682118369011 0 0.039309879901611423 -0.01400739255581821 0 0.037204568651802578 -0.029963682118369011 0 0.046728100829713598 -0.023279768943804138 0 0.039309879901611423 -0.01400739255581821 0 0.046728100829713598 -0.023279768943804138 0 0.052644391958435767 -0.01036671940508104 0 0.039309879901611423 -0.01400739255581821 0 0.047721461794608552 -0.034515057118556611 0 0.037204568651802578 -0.029963682118369011 0 0.046728100829713598 -0.023279768943804138 0 0.047721461794608552 -0.034515057118556611 0 0.046728100829713598 -0.023279768943804138 0 0.058462136321210598 -0.02582028113159485 0 0.046728100829713598 -0.023279768943804138 0 0.058462136321210598 -0.02582028113159485 0 0.052644391958435767 -0.01036671940508104 0 0.058462136321210598 -0.02582028113159485 0 0.052644391958435767 -0.01036671940508104 0 0.069079275787977124 -0.003283146202666887 0 0.056306301055715817 0.0035062028627736229 0 0.052644391958435767 -0.01036671940508104 0 0.069079275787977124 -0.003283146202666887 0 0.045980657854386091 0.00068406954062421969 0 0.056306301055715817 0.0035062028627736229 0 0.052644391958435767 -0.01036671940508104 0 0.045980657854386091 0.00068406954062421969 0 0.039309879901611423 -0.01400739255581821 0 0.034763315700838397 -0.0035658680787951391 0 0.045980657854386091 0.00068406954062421969 0 0.039309879901611423 -0.01400739255581821 0 0.045980657854386091 0.00068406954062421969 0 0.052644391958435767 -0.01036671940508104 0 0.039309879901611423 -0.01400739255581821 0 0.02516804576855591 -0.018904521160213791 0 0.039309879901611423 -0.01400739255581821 0 0.034763315700838397 -0.0035658680787951391 0 0.089088315826384962 -0.0001164478941750312 0 0.079375579846433675 -0.02256295126396483 0 0.0990154950651633 -0.019680662723375479 0 0.089088315826384962 -0.0001164478941750312 0 0.069079275787977124 -0.003283146202666887 0 0.079375579846433675 -0.02256295126396483 0 0.069079275787977124 -0.003283146202666887 0 0.079375579846433675 -0.02256295126396483 0 0.058462136321210598 -0.02582028113159485 0 0.079375579846433675 -0.02256295126396483 0 0.074535275196779244 -0.035467081224286733 0 0.058462136321210598 -0.02582028113159485 0 0.069079275787977124 -0.003283146202666887 0 0.079375579846433675 -0.02256295126396483 0 0.079375579846433675 -0.02256295126396483 0 0.08967188390489024 -0.041842756325262812 0 0.0990154950651633 -0.019680662723375479 0 0.08967188390489024 -0.041842756325262812 0 0.074535275196779244 -0.035467081224286733 0 0.070631500714582129 -0.05164233617632373 0 0.08967188390489024 -0.041842756325262812 0 0.070631500714582129 -0.05164233617632373 0 0.079375579846433675 -0.02256295126396483 0 0.08967188390489024 -0.041842756325262812 0 0.074535275196779244 -0.035467081224286733 0 0.079375579846433675 -0.02256295126396483 0 0.08967188390489024 -0.041842756325262812 0 0.058462136321210598 -0.02582028113159485 0 0.070631500714582129 -0.05164233617632373 0 0.058462136321210598 -0.02582028113159485 0 0.074535275196779244 -0.035467081224286733 0 0.070631500714582129 -0.05164233617632373 0 0.070631500714582129 -0.05164233617632373 0 0.06599223540453858 -0.054030042894283238 0 0.07931842935183403 -0.070075044918526452 0 0.070631500714582129 -0.05164233617632373 0 0.07931842935183403 -0.070075044918526452 0 0.055985546309688147 -0.046492219090197302 0 0.070631500714582129 -0.05164233617632373 0 0.06599223540453858 -0.054030042894283238 0 0.070631500714582129 -0.05164233617632373 0 0.06599223540453858 -0.054030042894283238 0 0.08967188390489024 -0.041842756325262812 0 0.070631500714582129 -0.05164233617632373 0 0.084992197920998075 -0.056055489132726413 0 0.070631500714582129 -0.05164233617632373 0 0.084992197920998075 -0.056055489132726413 0 0.07931842935183403 -0.070075044918526452 0 0.08967188390489024 -0.041842756325262812 0 0.084992197920998075 -0.056055489132726413 0 0.097512642726589688 -0.05652455872316884 0 0.08967188390489024 -0.041842756325262812 0 0.097512642726589688 -0.05652455872316884 0 0.084992197920998075 -0.056055489132726413 0 0.097512642726589688 -0.05652455872316884 0 0.09143205961034942 -0.068532227183087213 0 0.10592728768557021 -0.057769636247801598 0 0.11259655466009209 -0.054957271556907897 0 0.1053534015482904 -0.07120636112107423 0 0.08967188390489024 -0.041842756325262812 0 0.097512642726589688 -0.05652455872316884 0 0.1012554884599485 -0.045579696284710841 0 0.10592728768557021 -0.057769636247801598 0 0.1111486224970957 -0.042935801411222017 0 0.1012554884599485 -0.045579696284710841 0 0.10592728768557021 -0.057769636247801598 0 0.1111486224970957 -0.042935801411222017 0 0.097512642726589688 -0.05652455872316884 0 0.10592728768557021 -0.057769636247801598 0 0.1012554884599485 -0.045579696284710841 0 0.097512642726589688 -0.05652455872316884 0 0.10592728768557021 -0.057769636247801598 0 0.1053534015482904 -0.07120636112107423 0 0.1247439751881648 -0.051867931114973002 0 0.1053534015482904 -0.07120636112107423 0 0.11259655466009209 -0.054957271556907897 0 0.1247439751881648 -0.051867931114973002 0 0.1053534015482904 -0.07120636112107423 0 0.11259655466009209 -0.054957271556907897 0 0.1247439751881648 -0.051867931114973002 0 0.1111486224970957 -0.042935801411222017 0 0.10592728768557021 -0.057769636247801598 0 0.11259655466009209 -0.054957271556907897 0 0.1111486224970957 -0.042935801411222017 0 0.1111486224970957 -0.042935801411222017 0 0.11636995730862 -0.028101966574642121 0 0.12807025491523169 -0.035656914684930582 0 0.1111486224970957 -0.042935801411222017 0 0.1012554884599485 -0.045579696284710841 0 0.11636995730862 -0.028101966574642121 0 0.1247439751881648 -0.051867931114973002 0 0.1111486224970957 -0.042935801411222017 0 0.12807025491523169 -0.035656914684930582 0 0.1111486224970957 -0.042935801411222017 0 0.11636995730862 -0.028101966574642121 0 0.08967188390489024 -0.041842756325262812 0 0.1012554884599485 -0.045579696284710841 0 0.11636995730862 -0.028101966574642121 0 0.08967188390489024 -0.041842756325262812 0 0.11636995730862 -0.028101966574642121 0 0.08967188390489024 -0.041842756325262812 0 0.0990154950651633 -0.019680662723375479 0 0.11636995730862 -0.028101966574642121 0 0.0990154950651633 -0.019680662723375479 0 0.11636995730862 -0.028101966574642121 0 0.1156423809495314 -0.0120229007862678 0 0.11636995730862 -0.028101966574642121 0 0.1156423809495314 -0.0120229007862678 0 0.12584066592506621 -0.001195642335175832 0 0.1093599609677776 0.0044223724459045207 0 0.1156423809495314 -0.0120229007862678 0 0.1032765382022143 -0.0068494097394784497 0 0.11636995730862 -0.028101966574642121 0 0.12584066592506621 -0.001195642335175832 0 0.089088315826384962 -0.0001164478941750312 0 0.0990154950651633 -0.019680662723375479 0 0.1032765382022143 -0.0068494097394784497 0 0.1093599609677776 0.0044223724459045207 0 0.089088315826384962 -0.0001164478941750312 0 0.1032765382022143 -0.0068494097394784497 0 0.0990154950651633 -0.019680662723375479 0 0.1156423809495314 -0.0120229007862678 0 0.1032765382022143 -0.0068494097394784497 0 0.081844714551898679 -0.10476072809811771 0 0.08800535798908532 -0.088507753660729521 0 0.097551471005620075 -0.10876355731719731 0 0.081844714551898679 -0.10476072809811771 0 0.067174284497723974 -0.1092828098373143 0 0.08800535798908532 -0.088507753660729521 0 0.08800535798908532 -0.088507753660729521 0 0.097551471005620075 -0.10876355731719731 0 0.083080921236928257 -0.1264973167547758 0 0.081844714551898679 -0.10476072809811771 0 0.083080921236928257 -0.1264973167547758 0 0.081844714551898679 -0.10476072809811771 0 0.097551471005620075 -0.10876355731719731 0 0.083080921236928257 -0.1264973167547758 0 0.081844714551898679 -0.10476072809811771 0 0.067174284497723974 -0.1092828098373143 0 0.083080921236928257 -0.1264973167547758 0 0.063807332183046475 -0.12593044164835129 0 0.067174284497723974 -0.1092828098373143 0 0.067174284497723974 -0.1092828098373143 0 0.08800535798908532 -0.088507753660729521 0 0.053178392822133901 -0.1001882921976317 0 0.067174284497723974 -0.1092828098373143 0 0.074256600160597819 -0.091224260582575045 0 0.053178392822133901 -0.1001882921976317 0 0.074256600160597819 -0.091224260582575045 0 0.067174284497723974 -0.1092828098373143 0 0.074256600160597819 -0.091224260582575045 0 0.08800535798908532 -0.088507753660729521 0 0.061884138425929408 -0.085692664313436084 0 0.053178392822133901 -0.1001882921976317 0 0.074256600160597819 -0.091224260582575045 0 0.061179918632068467 -0.074768782568441092 0 0.061884138425929408 -0.085692664313436084 0 0.072193307860126815 -0.080398319415734193 0 0.061884138425929408 -0.085692664313436084 0 0.072193307860126815 -0.080398319415734193 0 0.074256600160597819 -0.091224260582575045 0 0.061179918632068467 -0.074768782568441092 0 0.072193307860126815 -0.080398319415734193 0 0.07931842935183403 -0.070075044918526452 0 0.060636884267044951 -0.063410112722622702 0 0.06599223540453858 -0.054030042894283238 0 0.07931842935183403 -0.070075044918526452 0 0.061179918632068467 -0.074768782568441092 0 0.060636884267044951 -0.063410112722622702 0 0.07931842935183403 -0.070075044918526452 0 0.07931842935183403 -0.070075044918526452 0 0.09143205961034942 -0.068532227183087213 0 0.08800535798908532 -0.088507753660729521 0 0.084992197920998075 -0.056055489132726413 0 0.07931842935183403 -0.070075044918526452 0 0.09143205961034942 -0.068532227183087213 0 0.072193307860126815 -0.080398319415734193 0 0.074256600160597819 -0.091224260582575045 0 0.08800535798908532 -0.088507753660729521 0 0.072193307860126815 -0.080398319415734193 0 0.07931842935183403 -0.070075044918526452 0 0.08800535798908532 -0.088507753660729521 0 0.07931842935183403 -0.070075044918526452 0 0.08800535798908532 -0.088507753660729521 0 0.10219387202600309 -0.087333205730866101 0 0.1053534015482904 -0.07120636112107423 0 0.1150158265531922 -0.089299229149868986 0 0.08800535798908532 -0.088507753660729521 0 0.10219387202600309 -0.087333205730866101 0 0.1053534015482904 -0.07120636112107423 0 0.08800535798908532 -0.088507753660729521 0 0.1053534015482904 -0.07120636112107423 0 0.10219387202600309 -0.087333205730866101 0 0.1150158265531922 -0.089299229149868986 0 0.11008597347001831 -0.096440246178943034 0 0.09143205961034942 -0.068532227183087213 0 0.08800535798908532 -0.088507753660729521 0 0.1053534015482904 -0.07120636112107423 0 0.097512642726589688 -0.05652455872316884 0 0.1053534015482904 -0.07120636112107423 0 0.097512642726589688 -0.05652455872316884 0 0.09143205961034942 -0.068532227183087213 0 0.1053534015482904 -0.07120636112107423 0 0.1150158265531922 -0.089299229149868986 0 0.13058128955205051 -0.06675226183357573 0 0.1053534015482904 -0.07120636112107423 0 0.1150158265531922 -0.089299229149868986 0 0.13058128955205051 -0.06675226183357573 0 0.1247439751881648 -0.051867931114973002 0 0.1053534015482904 -0.07120636112107423 0 0.13058128955205051 -0.06675226183357573 0 0.1053534015482904 -0.07120636112107423 0 0.1150158265531922 -0.089299229149868986 0 0.1150158265531922 -0.089299229149868986 0 0.11008597347001831 -0.096440246178943034 0 0.1150158265531922 -0.089299229149868986 0 0.1213459611195418 -0.1011523911930693 0 0.1213459611195418 -0.1011523911930693 0 0.1133026995856449 -0.1087956211627962 0 0.1213459611195418 -0.1011523911930693 0 0.1133026995856449 -0.1087956211627962 0 0.11008597347001831 -0.096440246178943034 0 0.1150158265531922 -0.089299229149868986 0 0.1213459611195418 -0.1011523911930693 0 0.11008597347001831 -0.096440246178943034 0 0.08800535798908532 -0.088507753660729521 0 0.10219387202600309 -0.087333205730866101 0 0.097551471005620075 -0.10876355731719731 0 0.10219387202600309 -0.087333205730866101 0 0.11008597347001831 -0.096440246178943034 0 0.097551471005620075 -0.10876355731719731 0 0.1133026995856449 -0.1087956211627962 0 0.11008597347001831 -0.096440246178943034 0 0.097551471005620075 -0.10876355731719731 0 0.1070975840221542 -0.12901936097366529 0 0.083080921236928257 -0.1264973167547758 0 0.097551471005620075 -0.10876355731719731 0 0.1070975840221542 -0.12901936097366529 0 0.097551471005620075 -0.10876355731719731 0 0.1070975840221542 -0.12901936097366529 0 0.1133026995856449 -0.1087956211627962 0 0.097551471005620075 -0.10876355731719731 0 0.1213459611195418 -0.1011523911930693 0 0.1190541931230828 -0.1197795804448404 0 0.1319400019185637 -0.12098970759873939 0 0.1213459611195418 -0.1011523911930693 0 0.1133026995856449 -0.1087956211627962 0 0.1190541931230828 -0.1197795804448404 0 0.1070975840221542 -0.12901936097366529 0 0.1133026995856449 -0.1087956211627962 0 0.1190541931230828 -0.1197795804448404 0 0.12262221221342071 -0.13389266175810649 0 0.1190541931230828 -0.1197795804448404 0 0.1319400019185637 -0.12098970759873939 0 0.1213459611195418 -0.1011523911930693 0 0.1319400019185637 -0.12098970759873939 0 0.1319400019185637 -0.12098970759873939 0 0.1578347002431876 -0.1113579148218256 0 0.16226511989515491 -0.13293380512009231 0 0.1319400019185637 -0.12098970759873939 0 0.14153532876761171 -0.10154638959824221 0 0.1578347002431876 -0.1113579148218256 0 0.14153532876761171 -0.10154638959824221 0 0.15782644652371119 -0.084573726926382625 0 0.1578347002431876 -0.1113579148218256 0 0.1213459611195418 -0.1011523911930693 0 0.14153532876761171 -0.10154638959824221 0 0.13964496675725621 -0.083763486491046563 0 0.1213459611195418 -0.1011523911930693 0 0.1319400019185637 -0.12098970759873939 0 0.14153532876761171 -0.10154638959824221 0 0.1150158265531922 -0.089299229149868986 0 0.13964496675725621 -0.083763486491046563 0 0.13058128955205051 -0.06675226183357573 0 0.1213459611195418 -0.1011523911930693 0 0.13964496675725621 -0.083763486491046563 0 0.1150158265531922 -0.089299229149868986 0 0.1213459611195418 -0.1011523911930693 0 0.13964496675725621 -0.083763486491046563 0 0.13964496675725621 -0.083763486491046563 0 0.13058128955205051 -0.06675226183357573 0 0.14532132896215591 -0.061104321835352818 0 0.13964496675725621 -0.083763486491046563 0 0.15794397239497041 -0.066374581789023834 0 0.14532132896215591 -0.061104321835352818 0 0.13964496675725621 -0.083763486491046563 0 0.15794397239497041 -0.066374581789023834 0 0.14153532876761171 -0.10154638959824221 0 0.13964496675725621 -0.083763486491046563 0 0.15782644652371119 -0.084573726926382625 0 0.13964496675725621 -0.083763486491046563 0 0.15782644652371119 -0.084573726926382625 0 0.15794397239497041 -0.066374581789023834 0 0.15782644652371119 -0.084573726926382625 0 0.18153416702202571 -0.074778390140832707 0 0.17157166014114519 -0.097422927103035906 0 0.15782644652371119 -0.084573726926382625 0 0.15794397239497041 -0.066374581789023834 0 0.18153416702202571 -0.074778390140832707 0 0.15794397239497041 -0.066374581789023834 0 0.18153416702202571 -0.074778390140832707 0 0.1762429780326846 -0.048985677087001127 0 0.18153416702202571 -0.074778390140832707 0 0.17157166014114519 -0.097422927103035906 0 0.1891204251521206 -0.092972871605732005 0 0.18018748864644291 -0.1185448788752672 0 0.17157166014114519 -0.097422927103035906 0 0.1891204251521206 -0.092972871605732005 0 0.18018748864644291 -0.1185448788752672 0 0.1578347002431876 -0.1113579148218256 0 0.16226511989515491 -0.13293380512009231 0 0.18018748864644291 -0.1185448788752672 0 0.1578347002431876 -0.1113579148218256 0 0.17157166014114519 -0.097422927103035906 0 0.15782644652371119 -0.084573726926382625 0 0.1578347002431876 -0.1113579148218256 0 0.17157166014114519 -0.097422927103035906 0 0.15233810386836541 -0.0053880958241075833 0 0.1385518702416752 -0.016685524748649979 0 0.16073378317473089 -0.0052690829226585299 0 0.1385518702416752 -0.016685524748649979 0 0.16073378317473089 -0.0052690829226585299 0 0.1385518702416752 -0.016685524748649979 0 0.1635251224679132 -0.013191071102769909 0 0.16073378317473089 -0.0052690829226585299 0 0.15233810386836541 -0.0053880958241075833 0 0.14013679933985859 -0.0035161103433017141 0 0.1385518702416752 -0.016685524748649979 0 0.14623090223015259 0.0023437631495097241 0 0.15233810386836541 -0.0053880958241075833 0 0.14013679933985859 -0.0035161103433017141 0 0.14013679933985859 -0.0035161103433017141 0 0.12584066592506621 -0.001195642335175832 0 0.1385518702416752 -0.016685524748649979 0 0.11636995730862 -0.028101966574642121 0 0.12584066592506621 -0.001195642335175832 0 0.1385518702416752 -0.016685524748649979 0 0.1385518702416752 -0.016685524748649979 0 0.14413454882803911 -0.0325295011088714 0 0.12807025491523169 -0.035656914684930582 0 0.11636995730862 -0.028101966574642121 0 0.1385518702416752 -0.016685524748649979 0 0.12807025491523169 -0.035656914684930582 0 0.11636995730862 -0.028101966574642121 0 0.1385518702416752 -0.016685524748649979 0 0.1385518702416752 -0.016685524748649979 0 0.14413454882803911 -0.0325295011088714 0 0.1635251224679132 -0.013191071102769909 0 0.14413454882803911 -0.0325295011088714 0 0.1635251224679132 -0.013191071102769909 0 0.14614675255091289 -0.044205294517285318 0 0.15764933888057159 -0.052010364699804079 0 0.16259166246213411 -0.039381948270357278 0 0.14614675255091289 -0.044205294517285318 0 0.1617122155497753 -0.021658327200994969 0 0.14413454882803911 -0.0325295011088714 0 0.14614675255091289 -0.044205294517285318 0 0.1617122155497753 -0.021658327200994969 0 0.1247439751881648 -0.051867931114973002 0 0.14413454882803911 -0.0325295011088714 0 0.1247439751881648 -0.051867931114973002 0 0.14413454882803911 -0.0325295011088714 0 0.14614675255091289 -0.044205294517285318 0 0.1247439751881648 -0.051867931114973002 0 0.14413454882803911 -0.0325295011088714 0 0.12807025491523169 -0.035656914684930582 0 0.13058128955205051 -0.06675226183357573 0 0.14614675255091289 -0.044205294517285318 0 0.1247439751881648 -0.051867931114973002 0 0.13058128955205051 -0.06675226183357573 0 0.14614675255091289 -0.044205294517285318 0 0.13058128955205051 -0.06675226183357573 0 0.14614675255091289 -0.044205294517285318 0 0.14532132896215591 -0.061104321835352818 0 0.14614675255091289 -0.044205294517285318 0 0.14532132896215591 -0.061104321835352818 0 0.15764933888057159 -0.052010364699804079 0 0.15794397239497041 -0.066374581789023834 0 0.14532132896215591 -0.061104321835352818 0 0.15764933888057159 -0.052010364699804079 0 0.15794397239497041 -0.066374581789023834 0 0.15764933888057159 -0.052010364699804079 0 0.1762429780326846 -0.048985677087001127 0 0.15794397239497041 -0.066374581789023834 0 0.1762429780326846 -0.048985677087001127 0 0.18153416702202571 -0.074778390140832707 0 0.1762429780326846 -0.048985677087001127 0 0.1960287608895116 -0.056256315598914378 0 0.1762429780326846 -0.048985677087001127 0 0.17388963839184329 -0.0308281934962048 0 0.19454198367039879 -0.031596772384978419 0 0.1762429780326846 -0.048985677087001127 0 0.19454198367039879 -0.031596772384978419 0 0.14614675255091289 -0.044205294517285318 0 0.16259166246213411 -0.039381948270357278 0 0.1617122155497753 -0.021658327200994969 0 0.1762429780326846 -0.048985677087001127 0 0.16259166246213411 -0.039381948270357278 0 0.17388963839184329 -0.0308281934962048 0 0.15764933888057159 -0.052010364699804079 0 0.1762429780326846 -0.048985677087001127 0 0.16259166246213411 -0.039381948270357278 0 0.16259166246213411 -0.039381948270357278 0 0.1617122155497753 -0.021658327200994969 0 0.17388963839184329 -0.0308281934962048 0 0.14413454882803911 -0.0325295011088714 0 0.1617122155497753 -0.021658327200994969 0 0.1635251224679132 -0.013191071102769909 0 0.1617122155497753 -0.021658327200994969 0 0.1801068637958694 -0.01446596035233574 0 0.1635251224679132 -0.013191071102769909 0 0.1617122155497753 -0.021658327200994969 0 0.17388963839184329 -0.0308281934962048 0 0.1801068637958694 -0.01446596035233574 0 0.17388963839184329 -0.0308281934962048 0 0.1801068637958694 -0.01446596035233574 0 0.19454198367039879 -0.031596772384978419 0 0.18291569610778671 0.0061473589033321169 0 0.1635251224679132 -0.013191071102769909 0 0.19057493921054841 0.0002196099024429646 0 0.18291569610778671 0.0061473589033321169 0 0.1801068637958694 -0.01446596035233574 0 0.18291569610778671 0.0061473589033321169 0 0.1801068637958694 -0.01446596035233574 0 0.1635251224679132 -0.013191071102769909 0 0.18291569610778671 0.0061473589033321169 0 0.1635251224679132 -0.013191071102769909 0 0.16073378317473089 -0.0052690829226585299 0 0.2112919316049657 -0.001660364735547086 0 0.1973282508040172 -0.010833001178476411 0 0.20911414549046811 -0.022392620357192881 0 0.2112919316049657 -0.001660364735547086 0 0.20911414549046811 -0.022392620357192881 0 0.2248502520991072 -0.019424538019781969 0 0.20039534490427149 0.0036006089196753371 0 0.2112919316049657 -0.001660364735547086 0 0.1973282508040172 -0.010833001178476411 0 0.19057493921054841 0.0002196099024429646 0 0.1801068637958694 -0.01446596035233574 0 0.1973282508040172 -0.010833001178476411 0 0.19057493921054841 0.0002196099024429646 0 0.20039534490427149 0.0036006089196753371 0 0.1973282508040172 -0.010833001178476411 0 0.1973282508040172 -0.010833001178476411 0 0.20911414549046811 -0.022392620357192881 0 0.19454198367039879 -0.031596772384978419 0 0.1801068637958694 -0.01446596035233574 0 0.1973282508040172 -0.010833001178476411 0 0.19454198367039879 -0.031596772384978419 0 0.20911414549046811 -0.022392620357192881 0 0.217558309273852 -0.048448425467180527 0 0.2248502520991072 -0.019424538019781969 0 0.20911414549046811 -0.022392620357192881 0 0.19454198367039879 -0.031596772384978419 0 0.217558309273852 -0.048448425467180527 0 0.19454198367039879 -0.031596772384978419 0 0.1960287608895116 -0.056256315598914378 0 0.217558309273852 -0.048448425467180527 0 0.1762429780326846 -0.048985677087001127 0 0.19454198367039879 -0.031596772384978419 0 0.1960287608895116 -0.056256315598914378 0 0.217558309273852 -0.048448425467180527 0 0.214103483602718 -0.062199557892696669 0 0.2241538751639362 -0.04047742858595519 0 0.1960287608895116 -0.056256315598914378 0 0.217558309273852 -0.048448425467180527 0 0.214103483602718 -0.062199557892696669 0 0.217558309273852 -0.048448425467180527 0 0.214103483602718 -0.062199557892696669 0 0.214103483602718 -0.062199557892696669 0 0.2241538751639362 -0.04047742858595519 0 0.214103483602718 -0.062199557892696669 0 0.23116196716928411 -0.049605460846889243 0 0.2241538751639362 -0.04047742858595519 0 0.214103483602718 -0.062199557892696669 0 0.23116196716928411 -0.049605460846889243 0 0.23026433431371071 -0.061608605344743932 0 0.23026433431371071 -0.061608605344743932 0 0.24231602183633699 -0.052437666876907117 0 0.238168010164891 -0.070711795791901066 0 0.23116196716928411 -0.049605460846889243 0 0.23026433431371071 -0.061608605344743932 0 0.24231602183633699 -0.052437666876907117 0 0.23116196716928411 -0.049605460846889243 0 0.24231602183633699 -0.052437666876907117 0 0.24177153622815559 -0.037171260361527361 0 0.23116196716928411 -0.049605460846889243 0 0.24177153622815559 -0.037171260361527361 0 0.23379851789068681 -0.034899987216909838 0 0.25670056186620921 -0.045601215355329419 0 0.24231602183633699 -0.052437666876907117 0 0.24177153622815559 -0.037171260361527361 0 0.24177153622815559 -0.037171260361527361 0 0.23379851789068681 -0.034899987216909838 0 0.23800890181959919 -0.028567858093666691 0 0.217558309273852 -0.048448425467180527 0 0.2248502520991072 -0.019424538019781969 0 0.217558309273852 -0.048448425467180527 0 0.2241538751639362 -0.04047742858595519 0 0.2248502520991072 -0.019424538019781969 0 0.23379851789068681 -0.034899987216909838 0 0.2241538751639362 -0.04047742858595519 0 0.23389630907245881 -0.018677928196510759 0 0.23116196716928411 -0.049605460846889243 0 0.23379851789068681 -0.034899987216909838 0 0.2241538751639362 -0.04047742858595519 0 0.2241538751639362 -0.04047742858595519 0 0.2248502520991072 -0.019424538019781969 0 0.23389630907245881 -0.018677928196510759 0 0.2241538751639362 -0.04047742858595519 0 0.23389630907245881 -0.018677928196510759 0 0.23379851789068681 -0.034899987216909838 0 0.23389630907245881 -0.018677928196510759 0 0.23800890181959919 -0.028567858093666691 0 0.23389630907245881 -0.018677928196510759 0 0.23800890181959919 -0.028567858093666691 0 0.24480696586202441 -0.02357726497001934 0 0.24177153622815559 -0.037171260361527361 0 0.23800890181959919 -0.028567858093666691 0 0.24480696586202441 -0.02357726497001934 0 0.25240879578814662 -0.031932583293773388 0 0.24177153622815559 -0.037171260361527361 0 0.24480696586202441 -0.02357726497001934 0 0.24480696586202441 -0.02357726497001934 0 0.2428698325300187 -0.01621726904226432 0 0.24912076829890839 -0.013634842551984079 0 0.25551021413525132 -0.020432923835010389 0 0.24480696586202441 -0.02357726497001934 0 0.24912076829890839 -0.013634842551984079 0 0.23389630907245881 -0.018677928196510759 0 0.24480696586202441 -0.02357726497001934 0 0.2428698325300187 -0.01621726904226432 0 0.24363874298098129 0.003121572192933643 0 0.23389630907245881 -0.018677928196510759 0 0.23723850274875749 -0.001203236067621669 0 0.24363874298098129 0.003121572192933643 0 0.23389630907245881 -0.018677928196510759 0 0.2440102264741397 -0.0098802956650227373 0 0.23389630907245881 -0.018677928196510759 0 0.2428698325300187 -0.01621726904226432 0 0.2440102264741397 -0.0098802956650227373 0 0.24363874298098129 0.003121572192933643 0 0.23389630907245881 -0.018677928196510759 0 0.2428698325300187 -0.01621726904226432 0 0.2440102264741397 -0.0098802956650227373 0 0.24912076829890839 -0.013634842551984079 0 0.25052547948833143 -0.0039930107272881654 0 0.2440102264741397 -0.0098802956650227373 0 0.24912076829890839 -0.013634842551984079 0 0.24363874298098129 0.003121572192933643 0 0.25052547948833143 -0.0039930107272881654 0 0.2440102264741397 -0.0098802956650227373 0 0.23214219492436231 0.0095993494276165742 0 0.2248502520991072 -0.019424538019781969 0 0.23723850274875749 -0.001203236067621669 0 0.2248502520991072 -0.019424538019781969 0 0.23389630907245881 -0.018677928196510759 0 0.23723850274875749 -0.001203236067621669 0 0.23214219492436231 0.0095993494276165742 0 0.2112919316049657 -0.001660364735547086 0 0.2248502520991072 -0.019424538019781969 0 0.23214219492436231 0.0095993494276165742 0 0.2248502520991072 -0.019424538019781969 0 0.2029744236233417 -0.10649620036197779 0 0.2174997348608369 -0.092954400474521859 0 0.22041638629709101 -0.1055281449241252 0 0.2029744236233417 -0.10649620036197779 0 0.22041638629709101 -0.1055281449241252 0 0.2252915869821617 -0.124183695178411 0 0.2029744236233417 -0.10649620036197779 0 0.2252915869821617 -0.124183695178411 0 0.19568248079808651 -0.13552008780937649 0 0.2029744236233417 -0.10649620036197779 0 0.19568248079808651 -0.13552008780937649 0 0.18018748864644291 -0.1185448788752672 0 0.2029744236233417 -0.10649620036197779 0 0.19568248079808651 -0.13552008780937649 0 0.18018748864644291 -0.1185448788752672 0 0.2029744236233417 -0.10649620036197779 0 0.1891204251521206 -0.092972871605732005 0 0.18153416702202571 -0.074778390140832707 0 0.1891204251521206 -0.092972871605732005 0 0.21026636644859689 -0.077472312914579067 0 0.2029744236233417 -0.10649620036197779 0 0.1891204251521206 -0.092972871605732005 0 0.21026636644859689 -0.077472312914579067 0 0.18153416702202571 -0.074778390140832707 0 0.1960287608895116 -0.056256315598914378 0 0.21026636644859689 -0.077472312914579067 0 0.1960287608895116 -0.056256315598914378 0 0.214103483602718 -0.062199557892696669 0 0.21026636644859689 -0.077472312914579067 0 0.214103483602718 -0.062199557892696669 0 0.21026636644859689 -0.077472312914579067 0 0.22526423114262789 -0.073011174232622572 0 0.214103483602718 -0.062199557892696669 0 0.21026636644859689 -0.077472312914579067 0 0.2029744236233417 -0.10649620036197779 0 0.21026636644859689 -0.077472312914579067 0 0.2029744236233417 -0.10649620036197779 0 0.21026636644859689 -0.077472312914579067 0 0.2174997348608369 -0.092954400474521859 0 0.21026636644859689 -0.077472312914579067 0 0.2174997348608369 -0.092954400474521859 0 0.2239976694596226 -0.08340681085732865 0 0.2174997348608369 -0.092954400474521859 0 0.2239976694596226 -0.08340681085732865 0 0.22860335878303761 -0.090910467987137936 0 0.2239976694596226 -0.08340681085732865 0 0.22526423114262789 -0.073011174232622572 0 0.23447669203153401 -0.084195460729718619 0 0.2239976694596226 -0.08340681085732865 0 0.22860335878303761 -0.090910467987137936 0 0.23447669203153401 -0.084195460729718619 0 0.22860335878303761 -0.090910467987137936 0 0.23482754103231379 -0.092239999689325711 0 0.23447669203153401 -0.084195460729718619 0 0.214103483602718 -0.062199557892696669 0 0.23026433431371071 -0.061608605344743932 0 0.22526423114262789 -0.073011174232622572 0 0.21026636644859689 -0.077472312914579067 0 0.2239976694596226 -0.08340681085732865 0 0.22526423114262789 -0.073011174232622572 0 0.22526423114262789 -0.073011174232622572 0 0.238168010164891 -0.070711795791901066 0 0.23447669203153401 -0.084195460729718619 0 0.23026433431371071 -0.061608605344743932 0 0.22526423114262789 -0.073011174232622572 0 0.238168010164891 -0.070711795791901066 0 0.24231602183633699 -0.052437666876907117 0 0.24855300759407559 -0.076937874399635342 0 0.24231602183633699 -0.052437666876907117 0 0.24855300759407559 -0.076937874399635342 0 0.238168010164891 -0.070711795791901066 0 0.25586530905001148 -0.061375873046404378 0 0.24231602183633699 -0.052437666876907117 0 0.24855300759407559 -0.076937874399635342 0 0.238168010164891 -0.070711795791901066 0 0.2424262586199088 -0.09569500162377062 0 0.24855300759407559 -0.076937874399635342 0 0.238168010164891 -0.070711795791901066 0 0.2424262586199088 -0.09569500162377062 0 0.25478999335181429 -0.1014380819223636 0 0.24855300759407559 -0.076937874399635342 0 0.2424262586199088 -0.09569500162377062 0 0.238168010164891 -0.070711795791901066 0 0.23447669203153401 -0.084195460729718619 0 0.2424262586199088 -0.09569500162377062 0 0.23482754103231379 -0.092239999689325711 0 0.23447669203153401 -0.084195460729718619 0 0.2424262586199088 -0.09569500162377062 0 0.2424262586199088 -0.09569500162377062 0 0.23380385469477491 -0.098159068416675654 0 0.24668450707492651 -0.1206782074556402 0 0.25478999335181429 -0.1014380819223636 0 0.2424262586199088 -0.09569500162377062 0 0.24668450707492651 -0.1206782074556402 0 0.2424262586199088 -0.09569500162377062 0 0.24668450707492651 -0.1206782074556402 0 0.23482754103231379 -0.092239999689325711 0 0.2424262586199088 -0.09569500162377062 0 0.23380385469477491 -0.098159068416675654 0 0.22860335878303761 -0.090910467987137936 0 0.23482754103231379 -0.092239999689325711 0 0.23380385469477491 -0.098159068416675654 0 0.22860335878303761 -0.090910467987137936 0 0.23380385469477491 -0.098159068416675654 0 0.22041638629709101 -0.1055281449241252 0 0.23380385469477491 -0.098159068416675654 0 0.22041638629709101 -0.1055281449241252 0 0.2252915869821617 -0.124183695178411 0 0.2174997348608369 -0.092954400474521859 0 0.22860335878303761 -0.090910467987137936 0 0.22041638629709101 -0.1055281449241252 0 0.23380385469477491 -0.098159068416675654 0 0.2252915869821617 -0.124183695178411 0 0.23380385469477491 -0.098159068416675654 0 0.2252915869821617 -0.124183695178411 0 0.24668450707492651 -0.1206782074556402 0 0.25094275552994427 -0.1456614132875097 0 0.24668450707492651 -0.1206782074556402 0 0.2348325650588825 -0.13864036574533761 0 0.2252915869821617 -0.124183695178411 0 0.24668450707492651 -0.1206782074556402 0 0.2348325650588825 -0.13864036574533761 0 0.25094275552994427 -0.1456614132875097 0 0.24668450707492651 -0.1206782074556402 0 0.25094275552994427 -0.1456614132875097 0 0.2348325650588825 -0.13864036574533761 0 0.23759484522934221 -0.1556858320445253 0 0.2348325650588825 -0.13864036574533761 0 0.23759484522934221 -0.1556858320445253 0 0.2167793192695486 -0.15020832194014611 0 0.2252915869821617 -0.124183695178411 0 0.2348325650588825 -0.13864036574533761 0 0.2167793192695486 -0.15020832194014611 0 0.2252915869821617 -0.124183695178411 0 0.2167793192695486 -0.15020832194014611 0 0.2252915869821617 -0.124183695178411 0 0.2167793192695486 -0.15020832194014611 0 0.19568248079808651 -0.13552008780937649 0 0.19568248079808651 -0.13552008780937649 0 0.18839053797283131 -0.16454397525677519 0 0.19568248079808651 -0.13552008780937649 0 0.18839053797283131 -0.16454397525677519 0 0.18071267706335609 -0.1471870391796152 0 0.2167793192695486 -0.15020832194014611 0 0.19568248079808651 -0.13552008780937649 0 0.18839053797283131 -0.16454397525677519 0 0.18839053797283131 -0.16454397525677519 0 0.2082670515569354 -0.1762329487018813 0 0.18109859514757229 -0.19356786270417289 0 0.2167793192695486 -0.15020832194014611 0 0.18839053797283131 -0.16454397525677519 0 0.2082670515569354 -0.1762329487018813 0 0.2167793192695486 -0.15020832194014611 0 0.2082670515569354 -0.1762329487018813 0 0.2167793192695486 -0.15020832194014611 0 0.2082670515569354 -0.1762329487018813 0 0.2302185823033735 -0.1732744401302537 0 0.2082670515569354 -0.1762329487018813 0 0.2302185823033735 -0.1732744401302537 0 0.2126266068843784 -0.19426564681905539 0 0.23759484522934221 -0.1556858320445253 0 0.2167793192695486 -0.15020832194014611 0 0.2302185823033735 -0.1732744401302537 0 0.25520100398496198 -0.17064461911937909 0 0.25094275552994427 -0.1456614132875097 0 0.23759484522934221 -0.1556858320445253 0 0.25520100398496198 -0.17064461911937909 0 0.23759484522934221 -0.1556858320445253 0 0.2302185823033735 -0.1732744401302537 0 0.2302185823033735 -0.1732744401302537 0 0.24422200040960829 -0.18740953650477349 0 0.23062338474916361 -0.19717021769009321 0 0.25520100398496198 -0.17064461911937909 0 0.2302185823033735 -0.1732744401302537 0 0.24422200040960829 -0.18740953650477349 0 0.2594592524399798 -0.19562782495124861 0 0.24422200040960829 -0.18740953650477349 0 0.24132227075770779 -0.21084873522201861 0 0.24422200040960829 -0.18740953650477349 0 0.24132227075770779 -0.21084873522201861 0 0.23062338474916361 -0.19717021769009321 0 0.25940818733614812 -0.21487516109021479 0 0.24132227075770779 -0.21084873522201861 0 0.2466501685766008 -0.2243275603377666 0 0.23062338474916361 -0.19717021769009321 0 0.22397568179104119 -0.22344119643876201 0 0.2126266068843784 -0.19426564681905539 0 0.24132227075770779 -0.21084873522201861 0 0.23062338474916361 -0.19717021769009321 0 0.22397568179104119 -0.22344119643876201 0 0.2302185823033735 -0.1732744401302537 0 0.23062338474916361 -0.19717021769009321 0 0.2126266068843784 -0.19426564681905539 0 0.245414225112776 -0.23837786330605601 0 0.2466501685766008 -0.2243275603377666 0 0.22397568179104119 -0.22344119643876201 0 0.24132227075770779 -0.21084873522201861 0 0.2466501685766008 -0.2243275603377666 0 0.22397568179104119 -0.22344119643876201 0 0.245414225112776 -0.23837786330605601 0 0.22397568179104119 -0.22344119643876201 0 0.245414225112776 -0.23837786330605601 0 0.22397568179104119 -0.22344119643876201 0 0.2170602795693112 -0.240149865458053 0 0.22353458935400369 -0.25590097382475863 0 0.245414225112776 -0.23837786330605601 0 0.2170602795693112 -0.240149865458053 0 0.2170602795693112 -0.240149865458053 0 0.20650983977955609 -0.22692064901085071 0 0.19599784866598949 -0.2401471711248476 0 0.2073638936003622 -0.25714551344954623 0 0.2170602795693112 -0.240149865458053 0 0.19599784866598949 -0.2401471711248476 0 0.22397568179104119 -0.22344119643876201 0 0.20650983977955609 -0.22692064901085071 0 0.20253713846930629 -0.20850452957146801 0 0.22397568179104119 -0.22344119643876201 0 0.2170602795693112 -0.240149865458053 0 0.20650983977955609 -0.22692064901085071 0 0.20650983977955609 -0.22692064901085071 0 0.193454456209258 -0.22202563231348879 0 0.20253713846930629 -0.20850452957146801 0 0.193454456209258 -0.22202563231348879 0 0.19599784866598949 -0.2401471711248476 0 0.18448613529291399 -0.2310753740202306 0 0.20650983977955609 -0.22692064901085071 0 0.193454456209258 -0.22202563231348879 0 0.19599784866598949 -0.2401471711248476 0 0.2082670515569354 -0.1762329487018813 0 0.2126266068843784 -0.19426564681905539 0 0.18109859514757229 -0.19356786270417289 0 0.2126266068843784 -0.19426564681905539 0 0.20253713846930629 -0.20850452957146801 0 0.18109859514757229 -0.19356786270417289 0 0.22397568179104119 -0.22344119643876201 0 0.2126266068843784 -0.19426564681905539 0 0.20253713846930629 -0.20850452957146801 0 0.22397568179104119 -0.22344119643876201 0 0.20253713846930629 -0.20850452957146801 0 0.20253713846930629 -0.20850452957146801 0 0.18109859514757229 -0.19356786270417289 0 0.1873963019030479 -0.2107233916142201 0 0.193454456209258 -0.22202563231348879 0 0.1873963019030479 -0.2107233916142201 0 0.1823003861573019 -0.22015641756283311 0 0.193454456209258 -0.22202563231348879 0 0.20253713846930629 -0.20850452957146801 0 0.1873963019030479 -0.2107233916142201 0 0.20253713846930629 -0.20850452957146801 0 0.18109859514757229 -0.19356786270417289 0 0.1745308524473087 -0.2150113165947363 0 0.17019060107389919 -0.1859680425473777 0 0.18109859514757229 -0.19356786270417289 0 0.1766520607147089 -0.2112662618829971 0 0.17019060107389919 -0.1859680425473777 0 0.18109859514757229 -0.19356786270417289 0 0.1766520607147089 -0.2112662618829971 0 0.18109859514757229 -0.19356786270417289 0 0.17019060107389919 -0.1859680425473777 0 0.18109859514757229 -0.19356786270417289 0 0.1873963019030479 -0.2107233916142201 0 0.1766520607147089 -0.2112662618829971 0 0.1766520607147089 -0.2112662618829971 0 0.1745308524473087 -0.2150113165947363 0 0.1722055262818416 -0.22896466106182031 0 0.1766520607147089 -0.2112662618829971 0 0.1745308524473087 -0.2150113165947363 0 0.17019060107389919 -0.1859680425473777 0 0.1873963019030479 -0.2107233916142201 0 0.1766520607147089 -0.2112662618829971 0 0.1823003861573019 -0.22015641756283311 0 0.1745308524473087 -0.2150113165947363 0 0.16390936237675419 -0.20790909999192431 0 0.16430308229757809 -0.2206406514725231 0 0.16390936237675419 -0.20790909999192431 0 0.16430308229757809 -0.2206406514725231 0 0.15310576144909629 -0.21644329115163211 0 0.16390936237675419 -0.20790909999192431 0 0.1574165146158884 -0.2014821981933522 0 0.15310576144909629 -0.21644329115163211 0 0.1745308524473087 -0.2150113165947363 0 0.16390936237675419 -0.20790909999192431 0 0.17019060107389919 -0.1859680425473777 0 0.16390936237675419 -0.20790909999192431 0 0.1574165146158884 -0.2014821981933522 0 0.17019060107389919 -0.1859680425473777 0 0.1574165146158884 -0.2014821981933522 0 0.15032397728154959 -0.1897364567907191 0 0.17019060107389919 -0.1859680425473777 0 0.18780443434606231 -0.26325626036450173 0 0.19599784866598949 -0.2401471711248476 0 0.17847245915017901 -0.2440829880381632 0 0.19599784866598949 -0.2401471711248476 0 0.17847245915017901 -0.2440829880381632 0 0.18448613529291399 -0.2310753740202306 0 0.17847245915017901 -0.2440829880381632 0 0.1722055262818416 -0.22896466106182031 0 0.18448613529291399 -0.2310753740202306 0 0.1766520607147089 -0.2112662618829971 0 0.1722055262818416 -0.22896466106182031 0 0.1766520607147089 -0.2112662618829971 0 0.1722055262818416 -0.22896466106182031 0 0.1823003861573019 -0.22015641756283311 0 0.1722055262818416 -0.22896466106182031 0 0.18448613529291399 -0.2310753740202306 0 0.1823003861573019 -0.22015641756283311 0 0.193454456209258 -0.22202563231348879 0 0.18448613529291399 -0.2310753740202306 0 0.1823003861573019 -0.22015641756283311 0 0.1722055262818416 -0.22896466106182031 0 0.16430308229757809 -0.2206406514725231 0 0.1564037032594377 -0.23106345101607981 0 0.1745308524473087 -0.2150113165947363 0 0.1722055262818416 -0.22896466106182031 0 0.16430308229757809 -0.2206406514725231 0 0.16430308229757809 -0.2206406514725231 0 0.1564037032594377 -0.23106345101607981 0 0.15310576144909629 -0.21644329115163211 0 0.17847245915017901 -0.2440829880381632 0 0.1722055262818416 -0.22896466106182031 0 0.16303113152504289 -0.24516665548702571 0 0.1722055262818416 -0.22896466106182031 0 0.1564037032594377 -0.23106345101607981 0 0.16303113152504289 -0.24516665548702571 0 0.15178240439281709 -0.25898227664113538 0 0.16303113152504289 -0.24516665548702571 0 0.14831980909585291 -0.2431078336629959 0 0.1564037032594377 -0.23106345101607981 0 0.16303113152504289 -0.24516665548702571 0 0.14831980909585291 -0.2431078336629959 0 0.1564037032594377 -0.23106345101607981 0 0.13655352386568281 -0.22873657271323361 0 0.15310576144909629 -0.21644329115163211 0 0.1564037032594377 -0.23106345101607981 0 0.14831980909585291 -0.2431078336629959 0 0.13655352386568281 -0.22873657271323361 0 0.14831980909585291 -0.2431078336629959 0 0.13655352386568281 -0.22873657271323361 0 0.1349623815238328 -0.2493166432255951 0 0.1159975879669817 -0.24165004779051419 0 0.13655352386568281 -0.22873657271323361 0 0.1349623815238328 -0.2493166432255951 0 0.1574165146158884 -0.2014821981933522 0 0.15032397728154959 -0.1897364567907191 0 0.13460093981495719 -0.20409467268459039 0 0.13655352386568281 -0.22873657271323361 0 0.15310576144909629 -0.21644329115163211 0 0.13460093981495719 -0.20409467268459039 0 0.1574165146158884 -0.2014821981933522 0 0.15310576144909629 -0.21644329115163211 0 0.13460093981495719 -0.20409467268459039 0 0.1125344526687595 -0.219279472953921 0 0.13655352386568281 -0.22873657271323361 0 0.13460093981495719 -0.20409467268459039 0 0.11007713721097059 -0.1870325833763419 0 0.13460093981495719 -0.20409467268459039 0 0.1355832277753278 -0.18256906297867159 0 0.15032397728154959 -0.1897364567907191 0 0.13460093981495719 -0.20409467268459039 0 0.1355832277753278 -0.18256906297867159 0 0.1355832277753278 -0.18256906297867159 0 0.1538286031276753 -0.17456830754960331 0 0.1374666051814516 -0.16316857255182851 0 0.15032397728154959 -0.1897364567907191 0 0.1355832277753278 -0.18256906297867159 0 0.1538286031276753 -0.17456830754960331 0 0.1538286031276753 -0.17456830754960331 0 0.1374666051814516 -0.16316857255182851 0 0.15064182040234331 -0.1519841832208729 0 0.1538286031276753 -0.17456830754960331 0 0.1374666051814516 -0.16316857255182851 0 0.1207615378566083 -0.1690611530772719 0 0.1355832277753278 -0.18256906297867159 0 0.1374666051814516 -0.16316857255182851 0 0.12262221221342071 -0.13389266175810649 0 0.11664369703868829 -0.14927516463013341 0 0.13666272724427711 -0.14182240112808439 0 0.11664369703868829 -0.14927516463013341 0 0.1374666051814516 -0.16316857255182851 0 0.13666272724427711 -0.14182240112808439 0 0.12262221221342071 -0.13389266175810649 0 0.1319400019185637 -0.12098970759873939 0 0.13666272724427711 -0.14182240112808439 0 0.1319400019185637 -0.12098970759873939 0 0.13666272724427711 -0.14182240112808439 0 0.16226511989515491 -0.13293380512009231 0 0.1374666051814516 -0.16316857255182851 0 0.13666272724427711 -0.14182240112808439 0 0.15064182040234331 -0.1519841832208729 0 0.13666272724427711 -0.14182240112808439 0 0.15064182040234331 -0.1519841832208729 0 0.16226511989515491 -0.13293380512009231 0 0.16226511989515491 -0.13293380512009231 0 0.18071267706335609 -0.1471870391796152 0 0.16622786048452731 -0.15945092383373499 0 0.16226511989515491 -0.13293380512009231 0 0.16622786048452731 -0.15945092383373499 0 0.15064182040234331 -0.1519841832208729 0 0.16226511989515491 -0.13293380512009231 0 0.16622786048452731 -0.15945092383373499 0 0.18018748864644291 -0.1185448788752672 0 0.16226511989515491 -0.13293380512009231 0 0.18071267706335609 -0.1471870391796152 0 0.18018748864644291 -0.1185448788752672 0 0.19568248079808651 -0.13552008780937649 0 0.18071267706335609 -0.1471870391796152 0 0.18839053797283131 -0.16454397525677519 0 0.17508362103581271 -0.1716821685116432 0 0.16622786048452731 -0.15945092383373499 0 0.18839053797283131 -0.16454397525677519 0 0.18071267706335609 -0.1471870391796152 0 0.16622786048452731 -0.15945092383373499 0 0.18839053797283131 -0.16454397525677519 0 0.18109859514757229 -0.19356786270417289 0 0.17508362103581271 -0.1716821685116432 0 0.18839053797283131 -0.16454397525677519 0 0.18109859514757229 -0.19356786270417289 0 0.18109859514757229 -0.19356786270417289 0 0.17508362103581271 -0.1716821685116432 0 0.17019060107389919 -0.1859680425473777 0 0.1538286031276753 -0.17456830754960331 0 0.17019060107389919 -0.1859680425473777 0 0.17019060107389919 -0.1859680425473777 0 0.16622786048452731 -0.15945092383373499 0 0.17508362103581271 -0.1716821685116432 0 0.17019060107389919 -0.1859680425473777 0 0.16622786048452731 -0.15945092383373499 0 0.1538286031276753 -0.17456830754960331 0 0.17019060107389919 -0.1859680425473777 0 0.16622786048452731 -0.15945092383373499 0 0.15032397728154959 -0.1897364567907191 0 0.1538286031276753 -0.17456830754960331 0 0.17019060107389919 -0.1859680425473777 0 0.1538286031276753 -0.17456830754960331 0 0.15064182040234331 -0.1519841832208729 0 0.16622786048452731 -0.15945092383373499 0 
</DataArray>
</Points>
<Cells>
<DataArray type="UInt32" Name="connectivity" format="ascii">
0 1 2 3 4 5 6 7 8 9 10 11 12 13 14 15 16 17 18 19 20 21 22 23 24 25 26 27 28 29 30 31 32 33 34 35 36 37 38 39 40 41 42 43 44 45 46 47 48 49 50 51 52 53 54 55 56 57 58 59 60 61 62 63 64 65 66 67 68 69 70 71 72 73 74 75 76 77 78 79 80 81 82 83 84 85 86 87 88 89 90 91 92 93 94 95 96 97 98 99 100 101 102 103 104 105 106 107 108 109 110 111 112 113 114 115 116 117 118 119 120 121 122 123 124 125 126 127 128 129 130 131 132 133 134 135 136 137 138 139 140 141 142 143 144 145 146 147 148 149 150 151 152 153 154 155 156 157 158 159 160 161 162 163 164 165 166 167 168 169 170 171 172 173 174 175 176 177 178 179 180 181 182 183 184 185 186 187 188 189 190 191 192 193 194 195 196 197 198 199 200 201 202 203 204 205 206 207 208 209 210 211 212 213 214 215 216 217 218 219 220 221 222 223 224 225 226 227 228 229 230 231 232 233 234 235 236 237 238 239 240 241 242 243 244 245 246 247 248 249 250 251 252 253 254 255 256 257 258 259 260 261 262 263 264 265 266 267 268 269 270 271 272 273 274 275 276 277 278 279 280 281 282 283 284 285 286 287 288 289 290 291 292 293 294 295 296 297 298 299 300 301 302 303 304 305 306 307 308 309 310 311 312 313 314 315 316 317 318 319 320 321 322 323 324 325 326 327 328 329 330 331 332 333 334 335 336 337 338 339 340 341 342 343 344 345 346 347 348 349 350 351 352 353 354 355 356 357 358 359 360 361 362 363 364 365 366 367 368 369 370 371 372 373 374 375 376 377 378 379 380 381 382 383 384 385 386 387 388 389 390 391 392 393 394 395 396 397 398 399 400 401 402 403 404 405 406 407 408 409 410 411 412 413 414 415 416 417 418 419 420 421 422 423 424 425 426 427 428 429 430 431 432 433 434 435 436 437 438 439 440 441 442 443 444 445 446 447 448 449 450 451 452 453 454 455 456 457 458 459 460 461 462 463 464 465 466 467 468 469 470 471 472 473 474 475 476 477 478 479 480 481 482 483 484 485 486 487 488 489 490 491 492 493 494 495 496 497 498 499 500 501 502 503 504 505 506 507 508 509 510 511 512 513 514 515 516 517 518 519 520 521 522 523 524 525 526 527 528 529 530 531 532 533 534 535 536 537 538 539 540 541 542 543 544 545 546 547 548 549 550 551 552 553 554 555 556 557 558 559 560 561 562 563 564 565 566 567 568 569 570 571 572 573 574 575 576 577 578 579 580 581 582 583 584 585 586 587 588 589 590 591 592 593 594 595 596 597 598 599 600 601 602 603 604 605 606 607 608 609 610 611 612 613 614 615 616 617 618 619 620 621 622 623 624 625 626 627 628 629 630 631 632 633 634 635 636 637 638 639 640 641 642 643 644 645 646 647 648 649 650 651 652 653 654 655 656 657 658 659 660 661 662 663 664 665 666 667 668 669 670 671 672 673 674 675 676 677 678 679 680 681 682 683 684 685 686 687 688 689 690 691 692 693 694 695 696 697 698 699 700 701 702 703 704 705 706 707 708 709 710 711 712 713 714 715 716 717 718 719 720 721 722 723 724 725 726 727 728 729 730 731 732 733 734 735 736 737 738 739 740 741 742 743 744 745 746 747 748 749 750 751 752 753 754 755 756 757 758 759 760 761 762 763 764 765 766 767 768 769 770 771 772 773 774 775 776 777 778 779 780 781 782 783 784 785 786 787 788 789 790 791 792 793 794 795 796 797 798 799 800 801 802 803 804 805 806 807 808 809 810 811 812 813 814 815 816 817 818 819 820 821 822 823 824 825 826 827 828 829 830 831 832 833 834 835 836 837 838 839 840 841 842 843 844 845 846 847 848 849 850 851 852 853 854 855 856 857 858 859 860 861 862 863 864 865 866 867 868 869 870 871 872 873 874 875 876 877 878 879 880 881 882 883 884 885 886 887 888 889 890 891 892 893 894 895 896 897 898 899 900 901 902 903 904 905 906 907 908 909 910 911 912 913 914 915 916 917 918 919 920 921 922 923 924 925 926 927 928 929 930 931 932 933 934 935 936 937 938 939 940 941 942 943 944 945 946 947 948 949 950 951 952 953 954 955 956 957 958 959 960 961 962 963 964 965 966 967 968 969 970 971 972 973 974 975 976 977 978 979 980 981 982 983 984 985 986 987 988 989 990 991 992 993 994 995 996 997 998 999 1000 1001 1002 1003 1004 1005 1006 1007 1008 1009 1010 1011 1012 1013 1014 1015 1016 1017 1018 1019 1020 1021 1022 1023 1024 1025 1026 1027 1028 1029 1030 1031 1032 1033 1034 1035 1036 1037 1038 1039 1040 1041 1042 1043 1044 1045 1046 1047 1048 1049 1050 1051 1052 1053 1054 1055 1056 1057 1058 1059 1060 1061 1062 1063 1064 1065 1066 1067 1068 1069 1070 1071 1072 1073 1074 1075 1076 1077 1078 1079 1080 1081 1082 1083 1084 1085 1086 1087 1088 1089 1090 1091 1092 1093 1094 1095 1096 1097 1098 1099 1100 1101 1102 1103 1104 1105 1106 1107 1108 1109 1110 1111 1112 1113 1114 1115 1116 1117 1118 1119 1120 1121 1122 1123 1124 1125 1126 1127 1128 1129 1130 1131 1132 1133 1134 1135 1136 1137 1138 1139 1140 1141 1142 1143 1144 1145 1146 1147 1148 1149 1150 1151 1152 1153 1154 1155 1156 1157 1158 1159 1160 1161 1162 1163 1164 1165 1166 1167 1168 1169 1170 1171 1172 1173 1174 1175 1176 1177 1178 1179 1180 1181 1182 1183 1184 1185 1186 1187 1188 1189 1190 1191 1192 1193 1194 1195 1196 1197 1198 1199 1200 1201 1202 1203 1204 1205 1206 1207 1208 1209 1210 1211 1212 1213 1214 1215 1216 1217 1218 1219 1220 1221 1222 1223 1224 1225 1226 1227 1228 1229 1230 1231 1232 1233 1234 1235 1236 1237 1238 1239 1240 1241 1242 1243 1244 1245 1246 1247 1248 1249 1250 1251 1252 1253 1254 1255 1256 1257 1258 1259 1260 1261 1262 1263 1264 1265 1266 1267 1268 1269 1270 1271 1272 1273 1274 1275 1276 1277 1278 1279 1280 1281 1282 1283 1284 1285 1286 1287 1288 1289 1290 1291 1292 1293 1294 1295 1296 1297 1298 1299 1300 1301 1302 1303 1304 1305 1306 1307 1308 1309 1310 1311 1312 1313 1314 1315 1316 1317 1318 1319 1320 1321 1322 1323 1324 1325 1326 1327 1328 1329 1330 1331 1332 1333 1334 1335 1336 1337 1338 1339 1340 1341 1342 1343 1344 1345 1346 1347 1348 1349 1350 1351 1352 1353 1354 1355 1356 1357 1358 1359 1360 1361 1362 1363 1364 1365 1366 1367 1368 1369 1370 1371 1372 1373 1374 1375 1376 1377 1378 1379 1380 1381 1382 1383 1384 1385 1386 1387 1388 1389 1390 1391 1392 1393 1394 1395 1396 1397 1398 1399 1400 1401 1402 1403 1404 1405 1406 1407 1408 1409 1410 1411 1412 1413 1414 1415 1416 1417 1418 1419 1420 1421 1422 1423 1424 1425 1426 1427 1428 1429 1430 1431 1432 1433 1434 1435 1436 1437 1438 1439 1440 1441 1442 1443 1444 1445 1446 1447 1448 1449 1450 1451 1452 1453 1454 1455 1456 1457 1458 1459 1460 1461 1462 1463 1464 1465 1466 1467 1468 1469 1470 1471 1472 1473 1474 1475 1476 1477 1478 1479 1480 1481 1482 1483 1484 1485 1486 1487 1488 1489 1490 1491 1492 1493 1494 1495 1496 1497 1498 1499 1500 1501 1502 1503 1504 1505 1506 1507 1508 1509 1510 1511 1512 1513 1514 1515 1516 1517 1518 1519 1520 1521 1522 1523 1524 1525 1526 1527 1528 1529 1530 1531 1532 1533 1534 1535 1536 1537 1538 1539 1540 1541 1542 1543 1544 1545 1546 1547 1548 1549 1550 1551 1552 1553 1554 1555 1556 1557 1558 1559 1560 1561 1562 1563 1564 1565 1566 1567 1568 1569 1570 1571 1572 1573 1574 1575 1576 1577 1578 1579 1580 1581 1582 1583 1584 1585 1586 1587 1588 1589 1590 1591 1592 1593 1594 1595 1596 1597 1598 1599 1600 1601 1602 1603 1604 1605 1606 1607 1608 1609 1610 1611 1612 1613 1614 1615 1616 1617 1618 1619 1620 1621 1622 1623 1624 1625 1626 1627 1628 1629 1630 1631 1632 1633 1634 1635 1636 1637 1638 1639 1640 1641 1642 1643 1644 1645 1646 1647 1648 1649 1650 1651 1652 1653 1654 1655 1656 1657 1658 1659 1660 1661 1662 1663 1664 1665 1666 1667 1668 1669 1670 1671 1672 1673 1674 1675 1676 1677 1678 1679 1680 1681 1682 1683 1684 1685 1686 1687 1688 1689 1690 1691 1692 1693 1694 1695 1696 1697 1698 1699 1700 1701 1702 1703 1704 1705 1706 1707 1708 1709 1710 1711 1712 1713 1714 1715 1716 1717 1718 1719 1720 1721 1722 1723 1724 1725 1726 1727 1728 1729 1730 1731 1732 1733 1734 1735 1736 1737 1738 1739 1740 1741 1742 1743 1744 1745 1746 1747 1748 1749 1750 1751 1752 1753 1754 1755 1756 1757 1758 1759 1760 1761 1762 1763 1764 1765 1766 1767 1768 1769 1770 1771 1772 1773 1774 1775 1776 1777 1778 1779 1780 1781 1782 1783 1784 1785 1786 1787 1788 1789 1790 1791 1792 1793 1794 1795 1796 1797 1798 1799 1800 1801 1802 1803 1804 1805 1806 1807 1808 1809 1810 1811 1812 1813 1814 1815 1816 1817 1818 1819 1820 1821 1822 1823 1824 1825 1826 1827 1828 1829 1830 1831 1832 1833 1834 1835 1836 1837 1838 1839 1840 1841 1842 1843 1844 1845 1846 1847 1848 1849 1850 1851 1852 1853 1854 1855 1856 1857 1858 1859 1860 1861 1862 1863 1864 1865 1866 1867 1868 1869 1870 1871 1872 1873 1874 1875 1876 1877 1878 1879 1880 1881 1882 1883 1884 1885 1886 1887 1888 1889 1890 1891 1892 1893 1894 1895 1896 1897 1898 1899 1900 1901 1902 1903 1904 1905 1906 1907 1908 1909 1910 1911 1912 1913 1914 1915 1916 1917 1918 1919 1920 1921 1922 1923 1924 1925 1926 1927 1928 1929 1930 1931 1932 1933 1934 1935 1936 1937 1938 1939 1940 1941 1942 1943 1944 1945 1946 1947 1948 1949 1950 1951 1952 1953 1954 1955 1956 1957 1958 1959 1960 1961 1962 1963 1964 1965 1966 1967 1968 1969 1970 1971 1972 1973 1974 1975 1976 1977 1978 1979 1980 1981 1982 1983 1984 1985 1986 1987 1988 1989 1990 1991 1992 1993 1994 1995 1996 1997 1998 1999 2000 2001 2002 2003 2004 2005 2006 2007 2008 2009 2010 2011 2012 2013 2014 2015 2016 2017 2018 2019 2020 2021 2022 2023 2024 2025 2026 2027 2028 2029 2030 2031 2032 2033 2034 2035 2036 2037 2038 2039 2040 2041 2042 2043 2044 2045 2046 2047 2048 2049 2050 2051 2052 2053 2054 2055 2056 2057 2058 2059 2060 2061 2062 2063 2064 2065 2066 2067 2068 2069 2070 2071 2072 2073 2074 2075 2076 2077 2078 2079 2080 2081 2082 2083 2084 2085 2086 2087 2088 2089 2090 2091 2092 2093 2094 2095 2096 2097 2098 2099 2100 2101 2102 2103 2104 2105 2106 2107 2108 2109 2110 2111 2112 2113 2114 2115 2116 2117 2118 2119 2120 2121 2122 2123 2124 2125 2126 2127 2128 2129 2130 2131 2132 2133 2134 2135 2136 2137 2138 2139 2140 2141 2142 2143 2144 2145 2146 2147 2148 2149 2150 2151 2152 2153 2154 2155 2156 2157 2158 2159 2160 2161 2162 2163 2164 2165 2166 2167 2168 2169 2170 2171 2172 2173 2174 2175 2176 2177 2178 2179 2180 2181 2182 2183 2184 2185 2186 2187 2188 2189 2190 2191 2192 2193 2194 2195 2196 2197 2198 2199 2200 2201 2202 2203 2204 2205 2206 2207 2208 2209 2210 2211 2212 2213 2214 2215 2216 2217 2218 2219 2220 2221 2222 2223 2224 2225 2226 2227 2228 2229 2230 2231 2232 2233 2234 2235 2236 2237 2238 2239 2240 2241 2242 2243 2244 2245 2246 2247 2248 2249 2250 2251 2252 2253 2254 2255 2256 2257 2258 2259 2260 2261 2262 2263 2264 2265 2266 2267 2268 2269 2270 2271 2272 2273 2274 2275 2276 2277 2278 2279 2280 2281 2282 2283 2284 2285 2286 2287 2288 2289 2290 2291 2292 2293 2294 2295 2296 2297 2298 2299 2300 2301 2302 2303 2304 2305 2306 2307 2308 2309 2310 2311 2312 2313 2314 2315 2316 2317 2318 2319 2320 2321 2322 2323 2324 2325 2326 2327 2328 2329 2330 2331 2332 2333 2334 2335 2336 2337 2338 2339 2340 2341 2342 2343 2344 2345 2346 2347 2348 2349 2350 2351 2352 2353 2354 2355 2356 2357 2358 2359 2360 2361 2362 2363 2364 2365 2366 2367 2368 2369 2370 2371 2372 2373 2374 2375 2376 2377 2378 2379 2380 2381 2382 2383 2384 2385 2386 2387 2388 2389 2390 2391 2392 2393 2394 2395 2396 2397 2398 2399 2400 2401 2402 2403 2404 2405 2406 2407 2408 2409 2410 2411 2412 2413 2414 2415 2416 2417 2418 2419 2420 2421 2422 2423 2424 2425 2426 2427 2428 2429 2430 2431 2432 2433 2434 2435 2436 2437 2438 2439 2440 2441 2442 2443 2444 2445 2446 2447 2448 2449 2450 2451 2452 2453 2454 2455 2456 2457 2458 2459 2460 2461 2462 2463 2464 2465 2466 2467 2468 2469 2470 2471 2472 2473 2474 2475 2476 2477 2478 2479 2480 2481 2482 2483 2484 2485 2486 2487 2488 2489 2490 2491 2492 2493 2494 2495 2496 2497 2498 2499 2500 2501 2502 2503 2504 2505 2506 2507 2508 2509 2510 2511 2512 2513 2514 2515 2516 2517 2518 2519 2520 2521 2522 2523 2524 2525 2526 2527 2528 2529 2530 2531 2532 2533 2534 2535 2536 2537 2538 2539 2540 2541 2542 2543 2544 2545 2546 2547 2548 2549 2550 2551 2552 2553 2554 2555 2556 2557 2558 2559 2560 2561 2562 2563 2564 2565 2566 2567 2568 2569 2570 2571 2572 2573 2574 2575 2576 2577 2578 2579 2580 2581 2582 2583 2584 2585 2586 2587 2588 2589 2590 2591 2592 2593 2594 2595 2596 2597 2598 2599 2600 2601 2602 2603 2604 2605 2606 2607 2608 2609 2610 2611 2612 2613 2614 2615 2616 2617 2618 2619 2620 2621 2622 2623 2624 2625 2626 2627 2628 2629 2630 2631 2632 2633 2634 2635 2636 2637 2638 2639 2640 2641 2642 2643 2644 2645 2646 2647 2648 2649 2650 2651 2652 2653 2654 2655 2656 2657 2658 2659 2660 2661 2662 2663 2664 2665 2666 2667 2668 2669 2670 2671 2672 2673 2674 2675 2676 2677 2678 2679 2680 2681 2682 2683 2684 2685 2686 2687 2688 2689 2690 2691 2692 2693 2694 2695 2696 2697 2698 2699 2700 2701 2702 2703 2704 2705 2706 2707 2708 2709 2710 2711 2712 2713 2714 2715 2716 2717 2718 2719 2720 2721 2722 2723 2724 2725 2726 2727 2728 2729 2730 2731 2732 2733 2734 2735 2736 2737 2738 2739 2740 2741 2742 2743 2744 2745 2746 2747 2748 2749 2750 2751 2752 2753 2754 2755 2756 2757 2758 2759 2760 2761 2762 2763 2764 2765 2766 2767 2768 2769 2770 2771 2772 2773 2774 2775 2776 2777 2778 2779 2780 2781 2782 2783 2784 2785 2786 2787 2788 2789 2790 2791 2792 2793 2794 2795 2796 2797 2798 2799 2800 2801 2802 2803 2804 2805 2806 2807 2808 2809 2810 2811 2812 2813 2814 2815 2816 2817 2818 2819 2820 2821 2822 2823 2824 2825 2826 2827 2828 2829 2830 2831 2832 2833 2834 2835 2836 2837 2838 2839 2840 2841 2842 2843 2844 2845 2846 2847 2848 2849 2850 2851 2852 2853 2854 2855 2856 2857 2858 2859 2860 2861 2862 2863 2864 2865 2866 2867 2868 2869 2870 2871 2872 2873 2874 2875 2876 2877 2878 2879 2880 2881 2882 2883 2884 2885 2886 2887 2888 2889 2890 2891 2892 2893 2894 2895 2896 2897 2898 2899 2900 2901 2902 2903 2904 2905 2906 2907 2908 2909 2910 2911 2912 2913 2914 2915 2916 2917 2918 2919 2920 2921 2922 2923 2924 2925 2926 2927 2928 2929 2930 2931 2932 2933 2934 2935 2936 2937 2938 2939 2940 2941 2942 2943 2944 2945 2946 2947 2948 2949 2950 2951 2952 2953 2954 2955 2956 2957 2958 2959 2960 2961 2962 2963 2964 2965 2966 2967 2968 2969 2970 2971 2972 2973 2974 2975 2976 2977 2978 2979 2980 2981 2982 2983 2984 2985 2986 2987 2988 2989 2990 2991 2992 2993 2994 2995 2996 2997 2998 2999 3000 3001 3002 3003 3004 3005 3006 3007 3008 3009 3010 3011 3012 3013 3014 3015 3016 3017 3018 3019 3020 3021 3022 3023 3024 3025 3026 3027 3028 3029 3030 3031 3032 3033 3034 3035 3036 3037 3038 3039 3040 3041 3042 3043 3044 3045 3046 3047 3048 3049 3050 3051 3052 3053 3054 3055 3056 3057 3058 3059 3060 3061 3062 3063 3064 3065 3066 3067 3068 3069 3070 3071 3072 3073 3074 3075 3076 3077 3078 3079 3080 3081 3082 3083 3084 3085 3086 3087 3088 3089 3090 3091 3092 3093 3094 3095 3096 3097 3098 3099 3100 3101 3102 3103 3104 3105 3106 3107 3108 3109 3110 3111 3112 3113 3114 3115 3116 3117 3118 3119 3120 3121 3122 3123 3124 3125 3126 3127 3128 3129 3130 3131 3132 3133 3134 3135 3136 3137 3138 3139 3140 3141 3142 3143 3144 3145 3146 3147 3148 3149 3150 3151 3152 3153 3154 3155 3156 3157 3158 3159 3160 3161 3162 3163 3164 3165 3166 3167 3168 3169 3170 3171 3172 3173 3174 3175 3176 3177 3178 3179 3180 3181 3182 3183 3184 3185 3186 3187 3188 3189 3190 3191 3192 3193 3194 3195 3196 3197 3198 3199 3200 3201 3202 3203 3204 3205 3206 3207 3208 3209 3210 3211 3212 3213 3214 3215 3216 3217 3218 3219 3220 3221 3222 3223 3224 3225 3226 3227 3228 3229 3230 3231 3232 3233 3234 3235 3236 3237 3238 3239 3240 3241 3242 3243 3244 3245 3246 3247 3248 3249 3250 3251 3252 3253 3254 3255 3256 3257 3258 3259 3260 3261 3262 3263 3264 3265 3266 3267 3268 3269 3270 3271 3272 3273 3274 3275 3276 3277 3278 3279 3280 3281 3282 3283 3284 3285 3286 3287 3288 3289 3290 3291 3292 3293 3294 3295 3296 3297 3298 3299 3300 3301 3302 3303 3304 3305 3306 3307 3308 3309 3310 3311 3312 3313 3314 3315 3316 3317 3318 3319 3320 3321 3322 3323 3324 3325 3326 3327 3328 3329 3330 3331 3332 3333 3334 3335 3336 3337 3338 3339 3340 3341 3342 3343 3344 3345 3346 3347 3348 3349 3350 3351 3352 3353 3354 3355 3356 3357 3358 3359 3360 3361 3362 3363 3364 3365 3366 3367 3368 3369 3370 3371 3372 3373 3374 3375 3376 3377 3378 3379 3380 3381 3382 3383 3384 3385 3386 3387 3388 3389 3390 3391 3392 3393 3394 3395 3396 3397 3398 3399 3400 3401 3402 3403 3404 3405 3406 3407 3408 3409 3410 3411 3412 3413 3414 3415 3416 3417 3418 3419 3420 3421 3422 3423 3424 3425 3426 3427 3428 3429 3430 3431 3432 3433 3434 3435 3436 3437 3438 3439 3440 3441 3442 3443 3444 3445 3446 3447 3448 3449 3450 3451 3452 3453 3454 3455 3456 3457 3458 3459 3460 3461 3462 3463 3464 3465 3466 3467 3468 3469 3470 3471 3472 3473 3474 3475 3476 3477 3478 3479 3480 3481 3482 3483 3484 3485 3486 3487 3488 3489 3490 3491 3492 3493 3494 3495 3496 3497 3498 3499 3500 3501 3502 3503 3504 3505 3506 3507 3508 3509 3510 3511 3512 3513 3514 3515 3516 3517 3518 3519 3520 3521 3522 3523 3524 3525 3526 3527 3528 3529 3530 3531 3532 3533 3534 3535 3536 3537 3538 3539 3540 3541 3542 3543 3544 3545 3546 3547 3548 3549 3550 3551 3552 3553 3554 3555 3556 3557 3558 3559 3560 3561 3562 3563 3564 3565 3566 3567 3568 3569 3570 3571 3572 3573 3574 3575 3576 3577 3578 3579 3580 3581 3582 3583 3584 3585 3586 3587 3588 3589 3590 3591 3592 3593 3594 3595 3596 3597 3598 3599 3600 3601 3602 3603 3604 3605 3606 3607 3608 3609 3610 3611 3612 3613 3614 3615 3616 3617 3618 3619 3620 3621 3622 3623 3624 3625 3626 3627 3628 3629 3630 3631 3632 3633 3634 3635 3636 3637 3638 3639 3640 3641 3642 3643 3644 3645 3646 3647 3648 3649 3650 3651 3652 3653 3654 3655 3656 3657 3658 3659 3660 3661 3662 3663 3664 3665 3666 3667 3668 3669 3670 3671 3672 3673 3674 3675 3676 3677 3678 3679 3680 3681 3682 3683 3684 3685 3686 3687 3688 3689 3690 3691 3692 3693 3694 3695 3696 3697 3698 3699 3700 3701 3702 3703 3704 3705 3706 3707 3708 3709 3710 3711 3712 3713 3714 3715 3716 3717 3718 3719 3720 3721 3722 3723 3724 3725 3726 3727 3728 3729 3730 3731 3732 3733 3734 3735 3736 3737 3738 3739 3740 3741 3742 3743 3744 3745 3746 3747 3748 3749 3750 3751 3752 3753 3754 3755 3756 3757 3758 3759 3760 3761 3762 3763 3764 3765 3766 3767 3768 3769 3770 3771 3772 3773 3774 3775 3776 3777 3778 3779 3780 3781 3782 3783 3784 3785 3786 3787 3788 3789 3790 3791 3792 3793 3794 3795 3796 3797 3798 3799 3800 3801 3802 3803 3804 3805 3806 3807 3808 3809 3810 3811 3812 3813 3814 3815 3816 3817 3818 3819 3820 3821 3822 3823 3824 3825 3826 3827 3828 3829 3830 3831 3832 3833 3834 3835 3836 3837 3838 3839 3840 3841 3842 3843 3844 3845 3846 3847 3848 3849 3850 3851 3852 3853 3854 3855 3856 3857 3858 3859 3860 3861 3862 3863 3864 3865 3866 3867 3868 3869 3870 3871 3872 3873 3874 3875 3876 3877 3878 3879 3880 3881 3882 3883 3884 3885 3886 3887 3888 3889 3890 3891 3892 3893 3894 3895 3896 3897 3898 3899 3900 3901 3902 3903 3904 3905 3906 3907 3908 3909 3910 3911 3912 3913 3914 3915 3916 3917 3918 3919 3920 3921 3922 3923 3924 3925 3926 3927 3928 3929 3930 3931 3932 3933 3934 3935 3936 3937 3938 3939 3940 3941 3942 3943 3944 3945 3946 3947 3948 3949 3950 3951 3952 3953 3954 3955 3956 3957 3958 3959 3960 3961 3962 3963 3964 3965 3966 3967 3968 3969 3970 3971 3972 3973 3974 3975 3976 3977 3978 3979 3980 3981 3982 3983 3984 3985 3986 3987 3988 3989 3990 3991 3992 3993 3994 3995 3996 3997 3998 3999 4000 4001 4002 4003 4004 4005 4006 4007 4008 4009 4010 4011 4012 4013 4014 4015 4016 4017 4018 4019 4020 4021 4022 4023 4024 4025 4026 4027 4028 4029 4030 4031 4032 4033 4034 4035 4036 4037 4038 4039 4040 4041 4042 4043 4044 4045 4046 4047 4048 4049 4050 4051 4052 4053 4054 4055 4056 4057 4058 4059 4060 4061 4062 4063 4064 4065 4066 4067 4068 4069 4070 4071 4072 4073 4074 4075 4076 4077 4078 4079 4080 4081 4082 4083 4084 4085 4086 4087 4088 4089 4090 4091 4092 4093 4094 4095 4096 4097 4098 4099 4100 4101 4102 4103 4104 4105 4106 4107 4108 4109 4110 4111 4112 4113 4114 4115 4116 4117 4118 4119 4120 4121 4122 4123 4124 4125 4126 4127 4128 4129 4130 4131 4132 4133 4134 4135 4136 4137 4138 4139 4140 4141 4142 4143 4144 4145 4146 4147 4148 4149 4150 4151 4152 4153 4154 4155 4156 4157 4158 4159 4160 4161 4162 4163 4164 4165 4166 4167 4168 4169 4170 4171 4172 4173 4174 4175 4176 4177 4178 4179 4180 4181 4182 4183 4184 4185 4186 4187 4188 4189 4190 4191 4192 4193 4194 4195 4196 4197 4198 4199 4200 4201 4202 4203 4204 4205 4206 4207 4208 4209 4210 4211 4212 4213 4214 4215 4216 4217 4218 4219 4220 4221 4222 4223 4224 4225 4226 4227 4228 4229 4230 4231 4232 4233 4234 4235 4236 4237 4238 4239 4240 4241 4242 4243 4244 4245 4246 4247 4248 4249 4250 4251 4252 4253 4254 4255 4256 4257 4258 4259 4260 4261 4262 4263 4264 4265 4266 4267 4268 4269 4270 4271 4272 4273 4274 4275 4276 4277 4278 4279 4280 4281 4282 4283 4284 4285 4286 4287 4288 4289 4290 4291 4292 4293 4294 4295 4296 4297 4298 4299 4300 4301 4302 4303 4304 4305 4306 4307 4308 4309 4310 4311 4312 4313 4314 4315 4316 4317 4318 4319 4320 4321 4322 4323 4324 4325 4326 4327 4328 4329 4330 4331 4332 4333 4334 4335 4336 4337 4338 4339 4340 4341 4342 4343 4344 4345 4346 4347 4348 4349 4350 4351 4352 4353 4354 4355 4356 4357 4358 4359 4360 4361 4362 4363 4364 4365 4366 4367 4368 4369 4370 4371 4372 4373 4374 4375 4376 4377 4378 4379 4380 4381 4382 4383 4384 4385 4386 4387 4388 4389 4390 4391 4392 4393 4394 4395 4396 4397 4398 4399 4400 4401 4402 4403 4404 4405 4406 4407 4408 4409 4410 4411 4412 4413 4414 4415 4416 4417 4418 4419 4420 4421 4422 4423 4424 4425 4426 4427 4428 4429 4430 4431 4432 4433 4434 4435 4436 4437 4438 4439 4440 4441 4442 4443 4444 4445 4446 4447 4448 4449 4450 4451 4452 4453 4454 4455 4456 4457 4458 4459 4460 4461 4462 4463 4464 4465 4466 4467 4468 4469 4470 4471 4472 4473 4474 4475 4476 4477 4478 4479 4480 4481 4482 4483 4484 4485 4486 4487 4488 4489 4490 4491 4492 4493 4494 4495 4496 4497 4498 4499 4500 4501 4502 4503 4504 4505 4506 4507 4508 4509 4510 4511 4512 4513 4514 4515 4516 4517 4518 4519 4520 4521 4522 4523 4524 4525 4526 4527 4528 4529 4530 4531 4532 4533 4534 4535 4536 4537 4538 4539 4540 4541 4542 4543 4544 4545 4546 4547 4548 4549 4550 4551 4552 4553 4554 4555 4556 4557 4558 4559 4560 4561 4562 4563 4564 4565 4566 4567 4568 4569 4570 4571 4572 4573 4574 4575 4576 4577 4578 4579 4580 4581 4582 4583 4584 4585 4586 4587 4588 4589 4590 4591 4592 4593 4594 4595 4596 4597 4598 4599 4600 4601 4602 4603 4604 4605 4606 4607 4608 4609 4610 4611 4612 4613 4614 4615 4616 4617 4618 4619 4620 4621 4622 4623 4624 4625 4626 4627 4628 4629 4630 4631 4632 4633 4634 4635 4636 4637 4638 4639 4640 4641 4642 4643 4644 4645 4646 4647 4648 4649 4650 4651 4652 4653 4654 4655 4656 4657 4658 4659 4660 4661 4662 4663 4664 4665 4666 4667 4668 4669 4670 4671 4672 4673 4674 4675 4676 4677 4678 4679 4680 4681 4682 4683 4684 4685 4686 4687 4688 4689 4690 4691 4692 4693 4694 4695 4696 4697 4698 4699 4700 4701 4702 4703 4704 4705 4706 4707 4708 4709 4710 4711 4712 4713 4714 4715 4716 4717 4718 4719 4720 4721 4722 4723 4724 4725 4726 4727 4728 4729 4730 4731 4732 4733 4734 4735 4736 4737 4738 4739 4740 4741 4742 4743 4744 4745 4746 4747 4748 4749 4750 4751 4752 4753 4754 4755 4756 4757 4758 4759 4760 4761 4762 4763 4764 4765 4766 4767 4768 4769 4770 4771 4772 4773 4774 4775 4776 4777 4778 4779 4780 4781 4782 4783 4784 4785 4786 4787 4788 4789 4790 4791 4792 4793 4794 4795 4796 4797 4798 4799 4800 4801 4802 4803 4804 4805 4806 4807 4808 4809 4810 4811 4812 4813 4814 4815 4816 4817 4818 4819 4820 4821 4822 4823 4824 4825 4826 4827 4828 4829 4830 4831 4832 4833 4834 4835 4836 4837 4838 4839 4840 4841 4842 4843 4844 4845 4846 4847 4848 4849 4850 4851 4852 4853 4854 4855 4856 4857 4858 4859 4860 4861 4862 4863 4864 4865 4866 4867 4868 4869 4870 4871 4872 4873 4874 4875 4876 4877 4878 4879 4880 4881 4882 4883 4884 4885 4886 4887 4888 4889 4890 4891 4892 4893 4894 4895 4896 4897 4898 4899 4900 4901 4902 4903 4904 4905 4906 4907 4908 4909 4910 4911 4912 4913 4914 4915 4916 4917 4918 4919 4920 4921 4922 4923 4924 4925 4926 4927 4928 4929 4930 4931 4932 4933 4934 4935 4936 4937 4938 4939 4940 4941 4942 4943 4944 4945 4946 4947 4948 4949 4950 4951 4952 4953 4954 4955 4956 4957 4958 4959 4960 4961 4962 4963 4964 4965 4966 4967 4968 4969 4970 4971 4972 4973 4974 4975 4976 4977 4978 4979 4980 4981 4982 4983 4984 4985 4986 4987 4988 4989 4990 4991 4992 4993 4994 4995 4996 4997 4998 4999 5000 5001 5002 5003 5004 5005 5006 5007 5008 5009 5010 5011 5012 5013 5014 5015 5016 5017 5018 5019 5020 5021 5022 5023 5024 5025 5026 5027 5028 5029 5030 5031 5032 5033 5034 5035 5036 5037 5038 5039 5040 5041 5042 5043 5044 5045 5046 5047 5048 5049 5050 5051 5052 5053 5054 5055 5056 5057 5058 5059 5060 5061 5062 5063 5064 5065 5066 5067 5068 5069 5070 5071 5072 5073 5074 5075 5076 5077 5078 5079 5080 5081 5082 5083 5084 5085 5086 5087 5088 5089 5090 5091 5092 5093 5094 5095 5096 5097 5098 5099 5100 5101 5102 5103 5104 5105 5106 5107 5108 5109 5110 5111 5112 5113 5114 5115 5116 5117 5118 5119 5120 5121 5122 5123 5124 5125 5126 5127 5128 5129 5130 5131 5132 5133 5134 5135 5136 5137 5138 5139 5140 5141 5142 5143 5144 5145 5146 5147 5148 5149 5150 5151 5152 5153 5154 5155 5156 5157 5158 5159 5160 5161 5162 5163 5164 5165 5166 5167 5168 5169 5170 5171 5172 5173 5174 5175 5176 5177 5178 5179 5180 5181 5182 5183 5184 5185 5186 5187 5188 5189 5190 5191 5192 5193 5194 5195 5196 5197 5198 5199 5200 5201 5202 5203 5204 5205 5206 5207 5208 5209 5210 5211 5212 5213 5214 5215 5216 5217 5218 5219 5220 5221 5222 5223 5224 5225 5226 5227 5228 5229 5230 5231 5232 5233 5234 5235 5236 5237 5238 5239 5240 5241 5242 5243 5244 5245 5246 5247 5248 5249 5250 5251 5252 5253 5254 5255 5256 5257 5258 5259 5260 5261 5262 5263 5264 5265 5266 5267 5268 5269 5270 5271 5272 5273 5274 5275 5276 5277 5278 5279 5280 5281 5282 5283 5284 5285 5286 5287 5288 5289 5290 5291 5292 5293 5294 5295 5296 5297 5298 5299 5300 5301 5302 5303 5304 5305 5306 5307 5308 5309 5310 5311 5312 5313 5314 5315 5316 5317 5318 5319 5320 5321 5322 5323 5324 5325 5326 5327 5328 5329 5330 5331 5332 5333 5334 5335 5336 5337 5338 5339 5340 5341 5342 5343 5344 5345 5346 5347 5348 5349 5350 5351 5352 5353 5354 5355 5356 5357 5358 5359 5360 5361 5362 5363 5364 5365 5366 5367 5368 5369 5370 5371 5372 5373 5374 5375 5376 5377 5378 5379 5380 5381 5382 5383 5384 5385 5386 5387 5388 5389 5390 5391 5392 5393 5394 5395 5396 5397 5398 5399 5400 5401 5402 5403 5404 5405 5406 5407 5408 5409 5410 5411 5412 5413 5414 5415 5416 5417 5418 5419 5420 5421 5422 5423 5424 5425 5426 5427 5428 5429 5430 5431 5432 5433 5434 5435 5436 5437 5438 5439 5440 5441 5442 5443 5444 5445 5446 5447 5448 5449 5450 5451 5452 5453 5454 5455 5456 5457 5458 5459 5460 5461 5462 5463 5464 5465 5466 5467 5468 5469 5470 5471 5472 5473 5474 5475 5476 5477 5478 5479 5480 5481 5482 5483 5484 5485 5486 5487 5488 5489 5490 5491 5492 5493 5494 5495 5496 5497 5498 5499 5500 5501 5502 5503 5504 5505 5506 5507 5508 5509 5510 5511 5512 5513 5514 5515 5516 5517 5518 5519 5520 5521 5522 5523 5524 5525 5526 5527 5528 5529 5530 5531 5532 5533 5534 5535 5536 5537 5538 5539 5540 5541 5542 5543 5544 5545 5546 5547 5548 5549 5550 5551 5552 5553 5554 5555 5556 5557 5558 5559 5560 5561 5562 5563 5564 5565 5566 5567 5568 5569 5570 5571 5572 5573 5574 5575 5576 5577 5578 5579 5580 5581 5582 5583 5584 5585 5586 5587 5588 5589 5590 5591 5592 5593 5594 5595 5596 5597 5598 5599 5600 5601 5602 5603 5604 5605 5606 5607 5608 5609 5610 5611 5612 5613 5614 5615 5616 5617 5618 5619 5620 5621 5622 5623 5624 5625 5626 5627 5628 5629 5630 5631 5632 5633 5634 5635 5636 5637 5638 5639 5640 5641 5642 5643 5644 5645 5646 5647 5648 5649 5650 5651 5652 5653 5654 5655 5656 5657 5658 5659 5660 5661 5662 5663 5664 5665 5666 5667 5668 5669 5670 5671 5672 5673 5674 5675 5676 5677 5678 5679 5680 5681 5682 5683 5684 5685 5686 5687 5688 5689 5690 5691 5692 5693 5694 5695 5696 5697 5698 5699 5700 5701 5702 5703 5704 5705 5706 5707 5708 5709 5710 5711 5712 5713 5714 5715 5716 5717 5718 5719 5720 5721 5722 5723 5724 5725 5726 5727 5728 5729 5730 5731 5732 5733 5734 5735 5736 5737 5738 5739 5740 5741 5742 5743 5744 5745 5746 5747 5748 5749 5750 5751 5752 5753 5754 5755 5756 5757 5758 5759 5760 5761 5762 5763 5764 5765 5766 5767 5768 5769 5770 5771 5772 5773 5774 5775 5776 5777 5778 5779 5780 5781 5782 5783 5784 5785 5786 5787 5788 5789 5790 5791 5792 5793 5794 5795 5796 5797 5798 5799 5800 5801 5802 5803 5804 5805 5806 5807 5808 5809 5810 5811 5812 5813 5814 5815 5816 5817 5818 5819 5820 5821 5822 5823 5824 5825 5826 5827 5828 5829 5830 5831 5832 5833 5834 5835 5836 5837 5838 5839 5840 5841 5842 5843 5844 5845 5846 5847 5848 5849 5850 5851 5852 5853 5854 5855 5856 5857 5858 5859 5860 5861 5862 5863 5864 5865 5866 5867 5868 5869 5870 5871 5872 5873 5874 5875 5876 5877 5878 5879 5880 5881 5882 5883 5884 5885 5886 5887 5888 5889 5890 5891 5892 5893 5894 5895 5896 5897 5898 5899 5900 5901 5902 5903 5904 5905 5906 5907 5908 5909 5910 5911 5912 5913 5914 5915 5916 5917 5918 5919 5920 5921 5922 5923 5924 5925 5926 5927 5928 5929 5930 5931 5932 5933 5934 5935 5936 5937 5938 5939 5940 5941 5942 5943 5944 5945 5946 5947 5948 5949 5950 5951 5952 5953 5954 5955 5956 5957 5958 5959 5960 5961 5962 5963 5964 5965 5966 5967 5968 5969 5970 5971 5972 5973 5974 5975 5976 5977 5978 5979 5980 5981 5982 5983 5984 5985 5986 5987 5988 5989 5990 5991 5992 5993 5994 5995 5996 5997 5998 5999 6000 6001 6002 6003 6004 6005 6006 6007 6008 6009 6010 6011 6012 6013 6014 6015 6016 6017 6018 6019 6020 6021 6022 6023 6024 6025 6026 6027 6028 6029 6030 6031 6032 6033 6034 6035 6036 6037 6038 6039 6040 6041 6042 6043 6044 6045 6046 6047 6048 6049 6050 6051 6052 6053 6054 6055 6056 6057 6058 6059 6060 6061 6062 6063 6064 6065 6066 6067 6068 6069 6070 6071 6072 6073 6074 6075 6076 6077 6078 6079 6080 6081 6082 6083 6084 6085 6086 6087 6088 6089 6090 6091 6092 6093 6094 6095 6096 6097 6098 6099 6100 6101 6102 6103 6104 6105 6106 6107 6108 6109 6110 6111 6112 6113 6114 6115 6116 6117 6118 6119 6120 6121 6122 6123 6124 6125 6126 6127 6128 6129 6130 6131 6132 6133 6134 6135 6136 6137 6138 6139 6140 6141 6142 6143 6144 6145 6146 6147 6148 6149 6150 6151 6152 6153 6154 6155 6156 6157 6158 6159 6160 6161 6162 6163 6164 6165 6166 6167 6168 6169 6170 6171 6172 6173 6174 6175 6176 6177 6178 6179 6180 6181 6182 6183 6184 6185 6186 6187 6188 6189 6190 6191 6192 6193 6194 6195 6196 6197 6198 6199 6200 6201 6202 6203 6204 6205 6206 6207 6208 6209 6210 6211 6212 6213 6214 6215 6216 6217 6218 6219 6220 6221 6222 6223 6224 6225 6226 6227 6228 6229 6230 6231 6232 6233 6234 6235 6236 6237 6238 6239 6240 6241 6242 6243 6244 6245 6246 6247 6248 6249 6250 6251 6252 6253 6254 6255 6256 6257 6258 6259 6260 6261 6262 6263 6264 6265 6266 6267 6268 6269 6270 6271 6272 6273 6274 6275 6276 6277 6278 6279 6280 6281 6282 6283 6284 6285 6286 6287 6288 6289 6290 6291 6292 6293 6294 6295 6296 6297 6298 6299 6300 6301 6302 6303 6304 6305 6306 6307 6308 6309 6310 6311 6312 6313 6314 6315 6316 6317 6318 6319 6320 6321 6322 6323 6324 6325 6326 6327 6328 6329 6330 6331 6332 6333 6334 6335 6336 6337 6338 6339 6340 6341 6342 6343 6344 6345 6346 6347 6348 6349 6350 6351 6352 6353 6354 6355 6356 6357 6358 6359 6360 6361 6362 6363 6364 6365 6366 6367 6368 6369 6370 6371 6372 6373 6374 6375 6376 6377 6378 6379 6380 6381 6382 6383 6384 6385 6386 6387 6388 6389 6390 6391 6392 6393 6394 6395 6396 6397 6398 6399 6400 6401 6402 6403 6404 6405 6406 6407 6408 6409 6410 6411 6412 6413 6414 6415 6416 6417 6418 6419 6420 6421 6422 6423 6424 6425 6426 6427 6428 6429 6430 6431 6432 6433 6434 6435 6436 6437 6438 6439 6440 6441 6442 6443 6444 6445 6446 6447 6448 6449 6450 6451 6452 6453 6454 6455 6456 6457 6458 6459 6460 6461 6462 6463 6464 6465 6466 6467 6468 6469 6470 6471 6472 6473 6474 6475 6476 6477 6478 6479 6480 6481 6482 6483 6484 6485 6486 6487 6488 6489 6490 6491 6492 6493 6494 6495 6496 6497 6498 6499 6500 6501 6502 6503 6504 6505 6506 6507 6508 6509 6510 6511 6512 6513 6514 6515 6516 6517 6518 6519 6520 6521 6522 6523 6524 6525 6526 6527 6528 6529 6530 6531 6532 6533 6534 6535 6536 6537 6538 6539 6540 6541 6542 6543 6544 6545 6546 6547 6548 6549 6550 6551 6552 6553 6554 6555 6556 6557 6558 6559 6560 6561 6562 6563 6564 6565 6566 6567 6568 6569 6570 6571 6572 6573 6574 6575 6576 6577 6578 6579 6580 6581 6582 6583 6584 6585 6586 6587 6588 6589 6590 6591 6592 6593 6594 6595 6596 6597 6598 6599 6600 6601 6602 6603 6604 6605 6606 6607 6608 6609 6610 6611 6612 6613 6614 6615 6616 6617 6618 6619 6620 6621 6622 6623 6624 6625 6626 6627 6628 6629 6630 6631 6632 6633 6634 6635 6636 6637 6638 6639 6640 6641 6642 6643 6644 6645 6646 6647 6648 6649 6650 6651 6652 6653 6654 6655 6656 6657 6658 6659 6660 6661 6662 6663 6664 6665 6666 6667 6668 6669 6670 6671 6672 6673 6674 6675 6676 6677 6678 6679 6680 6681 6682 6683 6684 6685 6686 6687 6688 6689 6690 6691 6692 6693 6694 6695 6696 6697 6698 6699 6700 6701 6702 6703 6704 6705 6706 6707 6708 6709 6710 6711 6712 6713 6714 6715 6716 6717 6718 6719 6720 6721 6722 6723 6724 6725 6726 6727 6728 6729 6730 6731 6732 6733 6734 6735 6736 6737 6738 6739 6740 6741 6742 6743 6744 6745 6746 6747 6748 6749 6750 6751 6752 6753 6754 6755 6756 6757 6758 6759 6760 6761 6762 6763 6764 6765 6766 6767 6768 6769 6770 6771 6772 6773 6774 6775 6776 6777 6778 6779 6780 6781 6782 6783 6784 6785 6786 6787 6788 6789 6790 6791 6792 6793 6794 6795 6796 6797 6798 6799 6800 6801 6802 6803 6804 6805 6806 6807 6808 6809 6810 6811 6812 6813 6814 6815 6816 6817 6818 6819 6820 6821 6822 6823 6824 6825 6826 6827 6828 6829 6830 6831 6832 6833 6834 6835 6836 6837 6838 6839 6840 6841 6842 6843 6844 6845 6846 6847 6848 6849 6850 6851 6852 6853 6854 6855 6856 6857 6858 6859 6860 6861 6862 6863 6864 6865 6866 6867 6868 6869 6870 6871 6872 6873 6874 6875 6876 6877 6878 6879 6880 6881 6882 6883 6884 6885 6886 6887 6888 6889 6890 6891 6892 6893 6894 6895 6896 6897 6898 6899 6900 6901 6902 6903 6904 6905 6906 6907 6908 6909 6910 6911 6912 6913 6914 6915 6916 6917 6918 6919 6920 6921 6922 6923 6924 6925 6926 6927 6928 6929 6930 6931 6932 6933 6934 6935 6936 6937 6938 6939 6940 6941 6942 6943 6944 6945 6946 6947 6948 6949 6950 6951 6952 6953 6954 6955 6956 6957 6958 6959 6960 6961 6962 6963 6964 6965 6966 6967 6968 6969 6970 6971 6972 6973 6974 6975 6976 6977 6978 6979 6980 6981 6982 6983 6984 6985 6986 6987 6988 6989 6990 6991 6992 6993 6994 6995 6996 6997 6998 6999 7000 7001 7002 7003 7004 7005 7006 7007 7008 7009 7010 7011 7012 7013 7014 7015 7016 7017 7018 7019 7020 7021 7022 7023 7024 7025 7026 7027 7028 7029 7030 7031 7032 7033 7034 7035 7036 7037 7038 7039 7040 7041 7042 7043 7044 7045 7046 7047 7048 7049 7050 7051 7052 7053 7054 7055 7056 7057 7058 7059 7060 7061 7062 7063 7064 7065 7066 7067 7068 7069 7070 7071 7072 7073 7074 7075 7076 7077 7078 7079 7080 7081 7082 7083 7084 7085 7086 7087 7088 7089 7090 7091 7092 7093 7094 7095 7096 7097 7098 7099 7100 7101 7102 7103 7104 7105 7106 7107 7108 7109 7110 7111 7112 7113 7114 7115 7116 7117 7118 7119 7120 7121 7122 7123 7124 7125 7126 7127 7128 7129 7130 7131 7132 7133 7134 7135 7136 7137 7138 7139 7140 7141 7142 7143 7144 7145 7146 7147 7148 7149 7150 7151 7152 7153 7154 7155 7156 7157 7158 7159 7160 7161 7162 7163 7164 7165 7166 7167 7168 7169 7170 7171 7172 7173 7174 7175 7176 7177 7178 7179 7180 7181 7182 7183 7184 7185 7186 7187 7188 7189 7190 7191 7192 7193 7194 7195 7196 7197 7198 7199 7200 7201 7202 7203 7204 7205 7206 7207 7208 7209 7210 7211 7212 7213 7214 7215 7216 7217 7218 7219 7220 7221 7222 7223 7224 7225 7226 7227 7228 7229 7230 7231 7232 7233 7234 7235 7236 7237 7238 7239 7240 7241 7242 7243 7244 7245 7246 7247 7248 7249 7250 7251 7252 7253 7254 7255 7256 7257 7258 7259 7260 7261 7262 7263 7264 7265 7266 7267 7268 7269 7270 7271 7272 7273 7274 7275 7276 7277 7278 7279 7280 7281 7282 7283 7284 7285 7286 7287 7288 7289 7290 7291 7292 7293 7294 7295 7296 7297 7298 7299 7300 7301 7302 7303 7304 7305 7306 7307 7308 7309 7310 7311 7312 7313 7314 7315 7316 7317 7318 7319 7320 7321 7322 7323 7324 7325 7326 7327 7328 7329 7330 7331 7332 7333 7334 7335 7336 7337 7338 7339 7340 7341 7342 7343 7344 7345 7346 7347 7348 7349 7350 7351 7352 7353 7354 7355 7356 7357 7358 7359 7360 7361 7362 7363 7364 7365 7366 7367 7368 7369 7370 7371 7372 7373 7374 7375 7376 7377 7378 7379 7380 7381 7382 7383 7384 7385 7386 7387 7388 7389 7390 7391 7392 7393 7394 7395 7396 7397 7398 7399 7400 7401 7402 7403 7404 7405 7406 7407 7408 7409 7410 7411 7412 7413 7414 7415 7416 7417 7418 7419 7420 7421 7422 7423 7424 7425 7426 7427 7428 7429 7430 7431 7432 7433 7434 7435 7436 7437 7438 7439 7440 7441 7442 7443 7444 7445 7446 7447 7448 7449 7450 7451 7452 7453 7454 7455 7456 7457 7458 7459 7460 7461 7462 7463 7464 7465 7466 7467 7468 7469 7470 7471 7472 7473 7474 7475 7476 7477 7478 7479 7480 7481 7482 7483 7484 7485 7486 7487 7488 7489 7490 7491 7492 7493 7494 7495 7496 7497 7498 7499 7500 7501 7502 7503 7504 7505 7506 7507 7508 7509 7510 7511 7512 7513 7514 7515 7516 7517 7518 7519 7520 7521 7522 7523 7524 7525 7526 7527 7528 7529 7530 7531 7532 7533 7534 7535 7536 7537 7538 7539 7540 7541 7542 7543 7544 7545 7546 7547 7548 7549 7550 7551 7552 7553 7554 7555 7556 7557 7558 7559 7560 7561 7562 7563 7564 7565 7566 7567 7568 7569 7570 7571 7572 7573 7574 7575 7576 7577 7578 7579 7580 7581 7582 7583 7584 7585 7586 7587 7588 7589 7590 7591 7592 7593 7594 7595 7596 7597 7598 7599 7600 7601 7602 7603 7604 7605 7606 7607 7608 7609 7610 7611 7612 7613 7614 7615 7616 7617 7618 7619 7620 7621 7622 7623 7624 7625 7626 7627 7628 7629 7630 7631 7632 7633 7634 7635 7636 7637 7638 7639 7640 7641 7642 7643 7644 7645 7646 7647 7648 7649 7650 7651 7652 7653 7654 7655 7656 7657 7658 7659 7660 7661 7662 7663 7664 7665 7666 7667 7668 7669 7670 7671 7672 7673 7674 7675 7676 7677 7678 7679 7680 7681 7682 7683 7684 7685 7686 7687 7688 7689 7690 7691 7692 7693 7694 7695 7696 7697 7698 7699 7700 7701 7702 7703 7704 7705 7706 7707 7708 7709 7710 7711 7712 7713 7714 7715 7716 7717 7718 7719 7720 7721 7722 7723 7724 7725 7726 7727 7728 7729 7730 7731 7732 7733 7734 7735 7736 7737 7738 7739 7740 7741 7742 7743 7744 7745 7746 7747 7748 7749 7750 7751 7752 7753 7754 7755 7756 7757 7758 7759 7760 7761 7762 7763 7764 7765 7766 7767 7768 7769 7770 7771 7772 7773 7774 7775 7776 7777 7778 7779 7780 7781 7782 7783 7784 7785 7786 7787 7788 7789 7790 7791 7792 7793 7794 7795 7796 7797 7798 7799 7800 7801 7802 7803 7804 7805 7806 7807 7808 7809 7810 7811 7812 7813 7814 7815 7816 7817 7818 7819 7820 7821 7822 7823 7824 7825 7826 7827 7828 7829 7830 7831 7832 7833 7834 7835 7836 7837 7838 7839 7840 7841 7842 7843 7844 7845 7846 7847 7848 7849 7850 7851 7852 7853 7854 7855 7856 7857 7858 7859 7860 7861 7862 7863 7864 7865 7866 7867 7868 7869 7870 7871 7872 7873 7874 7875 7876 7877 7878 7879 7880 7881 7882 7883 7884 7885 7886 7887 7888 7889 7890 7891 7892 7893 7894 7895 7896 7897 7898 7899 7900 7901 7902 7903 7904 7905 7906 7907 7908 7909 7910 7911 7912 7913 7914 7915 7916 7917 7918 7919 7920 7921 7922 7923 7924 7925 7926 7927 7928 7929 7930 7931 7932 7933 7934 7935 7936 7937 7938 7939 7940 7941 7942 7943 7944 7945 7946 7947 7948 7949 7950 7951 7952 7953 7954 7955 7956 7957 7958 7959 7960 7961 7962 7963 7964 7965 7966 7967 7968 7969 7970 7971 7972 7973 7974 7975 7976 7977 7978 7979 7980 7981 7982 7983 7984 7985 7986 7987 7988 7989 7990 7991 7992 7993 7994 7995 7996 7997 7998 7999 8000 8001 8002 8003 8004 8005 8006 8007 8008 8009 8010 8011 8012 8013 8014 8015 8016 8017 8018 8019 8020 8021 8022 8023 8024 8025 8026 8027 8028 8029 8030 8031 8032 8033 8034 8035 8036 8037 8038 8039 8040 8041 8042 8043 8044 8045 8046 8047 8048 8049 8050 8051 8052 8053 8054 8055 8056 8057 8058 8059 8060 8061 8062 8063 8064 8065 8066 8067 8068 8069 8070 8071 8072 8073 8074 8075 8076 8077 8078 8079 8080 8081 8082 8083 8084 8085 8086 8087 8088 8089 8090 8091 8092 8093 8094 8095 8096 8097 8098 8099 8100 8101 8102 8103 8104 8105 8106 8107 8108 8109 8110 8111 8112 8113 8114 8115 8116 8117 8118 8119 8120 8121 8122 8123 8124 8125 8126 8127 8128 8129 8130 8131 8132 8133 8134 8135 8136 8137 8138 8139 8140 8141 8142 8143 8144 8145 8146 8147 8148 8149 8150 8151 8152 8153 8154 8155 8156 8157 8158 8159 8160 8161 8162 8163 8164 8165 8166 8167 8168 8169 8170 8171 8172 8173 8174 8175 8176 8177 8178 8179 8180 8181 8182 8183 8184 8185 8186 8187 8188 8189 8190 8191 8192 8193 8194 8195 8196 8197 8198 8199 8200 8201 8202 8203 8204 8205 8206 8207 8208 8209 8210 8211 8212 8213 8214 8215 8216 8217 8218 8219 8220 8221 8222 8223 8224 8225 8226 8227 8228 8229 8230 8231 8232 8233 8234 8235 8236 8237 8238 8239 8240 8241 8242 8243 8244 8245 8246 8247 8248 8249 8250 8251 8252 8253 8254 8255 8256 8257 8258 8259 8260 8261 8262 8263 8264 8265 8266 8267 8268 8269 8270 8271 8272 8273 8274 8275 8276 8277 8278 8279 8280 8281 8282 8283 8284 8285 8286 8287 8288 8289 8290 8291 8292 8293 8294 8295 8296 8297 8298 8299 8300 8301 8302 8303 8304 8305 8306 8307 8308 8309 8310 8311 8312 8313 8314 8315 8316 8317 8318 8319 8320 8321 8322 8323 8324 8325 8326 8327 8328 8329 8330 8331 8332 8333 8334 8335 8336 8337 8338 8339 8340 8341 8342 8343 8344 8345 8346 8347 8348 8349 8350 8351 8352 8353 8354 8355 8356 8357 8358 8359 8360 8361 8362 8363 8364 8365 8366 8367 8368 8369 8370 8371 8372 8373 8374 8375 8376 8377 8378 8379 8380 8381 8382 8383 8384 8385 8386 8387 8388 8389 8390 8391 8392 8393 8394 8395 8396 8397 8398 8399 8400 8401 8402 8403 8404 8405 8406 8407 8408 8409 8410 8411 8412 8413 8414 8415 8416 8417 8418 8419 8420 8421 8422 8423 8424 8425 8426 8427 8428 8429 8430 8431 8432 8433 8434 8435 8436 8437 8438 8439 8440 8441 8442 8443 8444 8445 8446 8447 8448 8449 8450 8451 8452 8453 8454 8455 8456 8457 8458 8459 8460 8461 8462 8463 8464 8465 8466 8467 8468 8469 8470 8471 8472 8473 8474 8475 8476 8477 8478 8479 8480 8481 8482 8483 8484 8485 8486 8487 8488 8489 8490 8491 8492 8493 8494 8495 8496 8497 8498 8499 8500 8501 8502 8503 8504 8505 8506 8507 8508 8509 8510 8511 8512 8513 8514 8515 8516 8517 8518 8519 8520 8521 8522 8523 8524 8525 8526 8527 8528 8529 8530 8531 8532 8533 8534 8535 8536 8537 8538 8539 8540 8541 8542 8543 8544 8545 8546 8547 8548 8549 8550 8551 8552 8553 8554 8555 8556 8557 8558 8559 8560 8561 8562 8563 8564 8565 8566 8567 8568 8569 8570 8571 8572 8573 8574 8575 8576 8577 8578 8579 8580 8581 8582 8583 8584 8585 8586 8587 8588 8589 8590 8591 8592 8593 8594 8595 8596 8597 8598 8599 8600 8601 8602 8603 8604 8605 8606 8607 8608 8609 8610 8611 8612 8613 8614 8615 8616 8617 8618 8619 8620 8621 8622 8623 8624 8625 8626 8627 8628 8629 8630 8631 8632 8633 8634 8635 8636 8637 8638 8639 8640 8641 8642 8643 8644 8645 8646 8647 8648 8649 8650 8651 8652 8653 8654 8655 8656 8657 8658 8659 8660 8661 8662 8663 8664 8665 8666 8667 8668 8669 8670 8671 8672 8673 8674 8675 8676 8677 8678 8679 8680 8681 8682 8683 8684 8685 8686 8687 8688 8689 8690 8691 8692 8693 8694 8695 8696 8697 8698 8699 8700 8701 8702 8703 8704 8705 8706 8707 8708 8709 8710 8711 8712 8713 8714 8715 8716 8717 8718 8719 8720 8721 8722 8723 8724 8725 8726 8727 8728 8729 8730 8731 8732 8733 8734 8735 8736 8737 8738 8739 8740 8741 8742 8743 8744 8745 8746 8747 8748 8749 8750 8751 8752 8753 8754 8755 8756 8757 8758 8759 8760 8761 8762 8763 8764 8765 8766 8767 8768 8769 8770 8771 8772 8773 8774 8775 8776 8777 8778 8779 8780 8781 8782 8783 8784 8785 8786 8787 8788 8789 8790 8791 8792 8793 8794 8795 8796 8797 8798 8799 8800 8801 8802 8803 8804 8805 8806 8807 8808 8809 8810 8811 8812 8813 8814 8815 8816 8817 8818 8819 8820 8821 8822 8823 8824 8825 8826 8827 8828 8829 8830 8831 8832 8833 8834 8835 8836 8837 8838 8839 8840 8841 8842 8843 8844 8845 8846 8847 8848 8849 8850 8851 8852 8853 8854 8855 8856 8857 8858 8859 8860 8861 8862 8863 8864 8865 8866 8867 8868 8869 8870 8871 8872 8873 8874 8875 8876 8877 8878 8879 8880 8881 8882 8883 8884 8885 8886 8887 8888 8889 8890 8891 8892 8893 8894 8895 8896 8897 8898 8899 8900 8901 8902 8903 8904 8905 8906 8907 8908 8909 8910 8911 8912 8913 8914 8915 8916 8917 8918 8919 8920 8921 8922 8923 8924 8925 8926 8927 8928 8929 8930 8931 8932 8933 8934 8935 8936 8937 8938 8939 8940 8941 8942 8943 8944 8945 8946 8947 8948 8949 8950 8951 8952 8953 8954 8955 8956 8957 8958 8959 8960 8961 8962 8963 8964 8965 8966 8967 8968 8969 8970 8971 8972 8973 8974 8975 8976 8977 8978 8979 8980 8981 8982 8983 8984 8985 8986 8987 8988 8989 8990 8991 8992 8993 8994 8995 8996 8997 8998 8999 9000 9001 9002 9003 9004 9005 9006 9007 9008 9009 9010 9011 9012 9013 9014 9015 9016 9017 9018 9019 9020 9021 9022 9023 9024 9025 9026 9027 9028 9029 9030 9031 9032 9033 9034 9035 9036 9037 9038 9039 9040 9041 9042 9043 9044 9045 9046 9047 9048 9049 9050 9051 9052 9053 9054 9055 9056 9057 9058 9059 9060 9061 9062 9063 9064 9065 9066 9067 9068 9069 9070 9071 9072 9073 9074 9075 9076 9077 9078 9079 9080 9081 9082 9083 9084 9085 9086 9087 9088 9089 9090 9091 9092 9093 9094 9095 9096 9097 9098 9099 9100 9101 9102 9103 9104 9105 9106 9107 9108 9109 9110 9111 9112 9113 9114 9115 9116 9117 9118 9119 9120 9121 9122 9123 9124 9125 9126 9127 9128 9129 9130 9131 9132 9133 9134 9135 9136 9137 9138 9139 9140 9141 9142 9143 9144 9145 9146 9147 9148 9149 9150 9151 9152 9153 9154 9155 9156 9157 9158 9159 9160 9161 9162 9163 9164 9165 9166 9167 9168 9169 9170 9171 9172 9173 9174 9175 9176 9177 9178 9179 9180 9181 9182 9183 9184 9185 9186 9187 9188 9189 9190 9191 9192 9193 9194 9195 9196 9197 9198 9199 9200 9201 9202 9203 9204 9205 9206 9207 9208 9209 9210 9211 9212 9213 9214 9215 9216 9217 9218 9219 9220 9221 9222 9223 9224 9225 9226 9227 9228 9229 9230 9231 9232 9233 9234 9235 9236 9237 9238 9239 9240 9241 9242 9243 9244 9245 9246 9247 9248 9249 9250 9251 9252 9253 9254 9255 9256 9257 9258 9259 9260 9261 9262 9263 9264 9265 9266 9267 9268 9269 9270 9271 9272 9273 9274 9275 9276 9277 9278 9279 9280 9281 9282 9283 9284 9285 9286 9287 9288 9289 9290 9291 9292 9293 9294 9295 9296 9297 9298 9299 9300 9301 9302 9303 9304 9305 9306 9307 9308 9309 9310 9311 9312 9313 9314 9315 9316 9317 9318 9319 9320 9321 9322 9323 9324 9325 9326 9327 9328 9329 9330 9331 9332 9333 9334 9335 9336 9337 9338 9339 9340 9341 9342 9343 9344 9345 9346 9347 9348 9349 9350 9351 9352 9353 9354 9355 9356 9357 9358 9359 9360 9361 9362 9363 9364 9365 9366 9367 9368 9369 9370 9371 9372 9373 9374 9375 9376 9377 9378 9379 9380 9381 9382 9383 9384 9385 9386 9387 9388 9389 9390 9391 9392 9393 9394 9395 9396 9397 9398 9399 9400 9401 9402 9403 9404 9405 9406 9407 9408 9409 9410 9411 9412 9413 9414 9415 9416 9417 9418 9419 9420 9421 9422 9423 9424 9425 9426 9427 9428 9429 9430 9431 9432 9433 9434 9435 9436 9437 9438 9439 9440 9441 9442 9443 9444 9445 9446 9447 9448 9449 9450 9451 9452 9453 9454 9455 9456 9457 9458 9459 9460 9461 9462 9463 9464 9465 9466 9467 9468 9469 9470 9471 9472 9473 9474 9475 9476 9477 9478 9479 9480 9481 9482 9483 9484 9485 9486 9487 9488 9489 9490 9491 9492 9493 9494 9495 9496 9497 9498 9499 9500 9501 9502 9503 9504 9505 9506 9507 9508 9509 9510 9511 9512 9513 9514 9515 9516 9517 9518 9519 9520 9521 9522 9523 9524 9525 9526 9527 9528 9529 9530 9531 9532 9533 9534 9535 9536 9537 9538 9539 9540 9541 9542 9543 9544 9545 9546 9547 9548 9549 9550 9551 9552 9553 9554 9555 9556 9557 9558 9559 9560 9561 9562 9563 9564 9565 9566 9567 9568 9569 9570 9571 9572 9573 9574 9575 9576 9577 9578 9579 9580 9581 9582 9583 9584 9585 9586 9587 9588 9589 9590 9591 9592 9593 9594 9595 9596 9597 9598 9599 9600 9601 9602 9603 9604 9605 9606 9607 9608 9609 9610 9611 9612 9613 9614 9615 9616 9617 9618 9619 9620 9621 9622 9623 9624 9625 9626 9627 9628 9629 9630 9631 9632 9633 9634 9635 9636 9637 9638 9639 9640 9641 9642 9643 9644 9645 9646 9647 9648 9649 9650 9651 9652 9653 9654 9655 9656 9657 9658 9659 9660 9661 9662 9663 9664 9665 9666 9667 9668 9669 9670 9671 9672 9673 9674 9675 9676 9677 9678 9679 9680 9681 9682 9683 9684 9685 9686 9687 9688 9689 9690 9691 9692 9693 9694 9695 9696 9697 9698 9699 9700 9701 9702 9703 9704 9705 9706 9707 9708 9709 9710 9711 9712 9713 9714 9715 9716 9717 9718 9719 9720 9721 9722 9723 9724 9725 9726 9727 9728 9729 9730 9731 9732 9733 9734 9735 9736 9737 9738 9739 9740 9741 9742 9743 9744 9745 9746 9747 9748 9749 9750 9751 9752 9753 9754 9755 9756 9757 9758 9759 9760 9761 9762 9763 9764 9765 9766 9767 9768 9769 9770 9771 9772 9773 9774 9775 9776 9777 9778 9779 9780 9781 9782 9783 9784 9785 9786 9787 9788 9789 9790 9791 9792 9793 9794 9795 9796 9797 9798 9799 9800 9801 9802 9803 9804 9805 9806 9807 9808 9809 9810 9811 9812 9813 9814 9815 9816 9817 9818 9819 9820 9821 9822 9823 9824 9825 9826 9827 9828 9829 9830 9831 9832 9833 9834 9835 9836 9837 9838 9839 9840 9841 9842 9843 9844 9845 9846 9847 9848 9849 9850 9851 9852 9853 9854 9855 9856 9857 9858 9859 9860 9861 9862 9863 9864 9865 9866 9867 9868 9869 9870 9871 9872 9873 9874 9875 9876 9877 9878 9879 9880 9881 9882 9883 9884 9885 9886 9887 9888 9889 9890 9891 9892 9893 9894 9895 9896 9897 9898 9899 9900 9901 9902 9903 9904 9905 9906 9907 9908 9909 9910 9911 9912 9913 9914 9915 9916 9917 9918 9919 9920 9921 9922 9923 9924 9925 9926 9927 9928 9929 9930 9931 9932 9933 9934 9935 9936 9937 9938 9939 9940 9941 9942 9943 9944 9945 9946 9947 9948 9949 9950 9951 9952 9953 9954 9955 9956 9957 9958 9959 9960 9961 9962 9963 9964 9965 9966 9967 9968 9969 9970 9971 9972 9973 9974 9975 9976 9977 9978 9979 9980 9981 9982 9983 9984 9985 9986 9987 9988 9989 9990 9991 9992 9993 9994 9995 9996 9997 9998 9999 10000 10001 10002 10003 10004 10005 10006 10007 10008 10009 10010 10011 10012 10013 10014 10015 10016 10017 10018 10019 10020 10021 10022 10023 10024 10025 10026 10027 10028 10029 10030 10031 10032 10033 10034 10035 10036 10037 10038 10039 10040 10041 10042 10043 10044 10045 10046 10047 10048 10049 10050 10051 10052 10053 10054 10055 10056 10057 10058 10059 10060 10061 10062 10063 10064 10065 10066 10067 10068 10069 10070 10071 10072 10073 10074 10075 10076 10077 10078 10079 10080 10081 10082 10083 10084 10085 10086 10087 10088 10089 10090 10091 10092 10093 10094 10095 10096 10097 10098 10099 10100 10101 10102 10103 10104 10105 10106 10107 10108 10109 10110 10111 10112 10113 10114 10115 10116 10117 10118 10119 10120 10121 10122 10123 10124 10125 10126 10127 10128 10129 10130 10131 10132 10133 10134 10135 10136 10137 10138 10139 10140 10141 10142 10143 10144 10145 10146 10147 10148 10149 10150 10151 10152 10153 10154 10155 10156 10157 10158 10159 10160 10161 10162 10163 10164 10165 10166 10167 10168 10169 10170 10171 10172 10173 10174 10175 10176 10177 10178 10179 10180 10181 10182 10183 10184 10185 10186 10187 10188 10189 10190 10191 10192 10193 10194 10195 10196 10197 10198 10199 10200 10201 10202 10203 10204 10205 10206 10207 10208 10209 10210 10211 10212 10213 10214 10215 10216 10217 10218 10219 10220 10221 10222 10223 10224 10225 10226 10227 10228 10229 10230 10231 10232 10233 10234 10235 10236 10237 10238 10239 10240 10241 10242 10243 10244 10245 10246 10247 10248 10249 10250 10251 10252 10253 10254 10255 10256 10257 10258 10259 10260 10261 10262 10263 10264 10265 10266 10267 10268 10269 10270 10271 10272 10273 10274 10275 10276 10277 10278 10279 10280 10281 10282 10283 10284 10285 10286 10287 10288 10289 10290 10291 10292 10293 10294 10295 10296 10297 10298 10299 10300 10301 10302 10303 10304 10305 10306 10307 10308 10309 10310 10311 10312 10313 10314 10315 10316 10317 10318 10319 10320 10321 10322 10323 10324 10325 10326 10327 10328 10329 10330 10331 10332 10333 10334 10335 10336 10337 10338 10339 10340 10341 10342 10343 10344 10345 10346 10347 10348 10349 10350 10351 10352 10353 10354 10355 10356 10357 10358 10359 10360 10361 10362 10363 10364 10365 10366 10367 10368 10369 10370 10371 10372 10373 10374 10375 10376 10377 10378 10379 10380 10381 10382 10383 10384 10385 10386 10387 10388 10389 10390 10391 10392 10393 10394 10395 10396 10397 10398 10399 10400 10401 10402 10403 10404 10405 10406 10407 10408 10409 10410 10411 10412 10413 10414 10415 10416 10417 10418 10419 10420 10421 10422 10423 10424 10425 10426 10427 10428 10429 10430 10431 10432 10433 10434 10435 10436 10437 10438 10439 10440 10441 10442 10443 10444 10445 10446 10447 10448 10449 10450 10451 10452 10453 10454 10455 10456 10457 10458 10459 10460 10461 10462 10463 10464 10465 10466 10467 10468 10469 10470 10471 10472 10473 10474 10475 10476 10477 10478 10479 10480 10481 10482 10483 10484 10485 10486 10487 10488 10489 10490 10491 10492 10493 10494 10495 10496 10497 10498 10499 10500 10501 10502 10503 10504 10505 10506 10507 10508 10509 10510 10511 10512 10513 10514 10515 10516 10517 10518 10519 10520 10521 10522 10523 10524 10525 10526 10527 10528 10529 10530 10531 10532 10533 10534 10535 10536 10537 10538 10539 10540 10541 10542 10543 10544 10545 10546 10547 10548 10549 10550 10551 10552 10553 10554 10555 10556 10557 10558 10559 10560 10561 10562 10563 10564 10565 10566 10567 10568 10569 10570 10571 10572 10573 10574 10575 10576 10577 10578 10579 10580 10581 10582 10583 10584 10585 10586 10587 10588 10589 10590 10591 10592 10593 10594 10595 10596 10597 10598 10599 10600 10601 10602 10603 10604 10605 10606 10607 10608 10609 10610 10611 10612 10613 10614 10615 10616 10617 10618 10619 10620 10621 10622 10623 10624 10625 10626 10627 10628 10629 10630 10631 10632 10633 10634 10635 10636 10637 10638 10639 10640 10641 10642 10643 10644 10645 10646 10647 10648 10649 10650 10651 10652 10653 10654 10655 10656 10657 10658 10659 10660 10661 10662 10663 10664 10665 10666 10667 10668 10669 10670 10671 10672 10673 10674 10675 10676 10677 10678 10679 10680 10681 10682 10683 10684 10685 10686 10687 10688 10689 10690 10691 10692 10693 10694 10695 10696 10697 10698 10699 10700 10701 10702 10703 10704 10705 10706 10707 10708 10709 10710 10711 10712 10713 10714 10715 10716 10717 10718 10719 10720 10721 10722 10723 10724 10725 10726 10727 10728 10729 10730 10731 10732 10733 10734 10735 10736 10737 10738 10739 10740 10741 10742 10743 10744 10745 10746 10747 10748 10749 10750 10751 10752 10753 10754 10755 10756 10757 10758 10759 10760 10761 10762 10763 10764 10765 10766 10767 10768 10769 10770 10771 10772 10773 10774 10775 10776 10777 10778 10779 10780 10781 10782 10783 10784 10785 10786 10787 10788 10789 10790 10791 10792 10793 10794 10795 10796 10797 10798 10799 10800 10801 10802 10803 10804 10805 10806 10807 10808 10809 10810 10811 10812 10813 10814 10815 10816 10817 10818 10819 10820 10821 10822 10823 10824 10825 10826 10827 10828 10829 10830 10831 10832 10833 10834 10835 10836 10837 10838 10839 10840 10841 10842 10843 10844 10845 10846 10847 10848 10849 10850 10851 10852 10853 10854 10855 10856 10857 10858 10859 10860 10861 10862 10863 10864 10865 10866 10867 10868 10869 10870 10871 10872 10873 10874 10875 10876 10877 10878 10879 10880 10881 10882 10883 10884 10885 10886 10887 10888 10889 10890 10891 10892 10893 10894 10895 10896 10897 10898 10899 10900 10901 10902 10903 10904 10905 10906 10907 10908 10909 10910 10911 10912 10913 10914 10915 10916 10917 10918 10919 10920 10921 10922 10923 10924 10925 10926 10927 10928 10929 10930 10931 10932 10933 10934 10935 10936 10937 10938 10939 10940 10941 10942 10943 10944 10945 10946 10947 10948 10949 10950 10951 10952 10953 10954 10955 10956 10957 10958 10959 10960 10961 10962 10963 10964 10965 10966 10967 10968 10969 10970 10971 10972 10973 10974 10975 10976 10977 10978 10979 10980 10981 10982 10983 10984 10985 10986 10987 10988 10989 10990 10991 10992 10993 10994 10995 10996 10997 10998 10999 11000 11001 11002 11003 11004 11005 11006 11007 11008 11009 11010 11011 11012 11013 11014 11015 11016 11017 11018 11019 11020 11021 11022 11023 11024 11025 11026 11027 11028 11029 11030 11031 11032 11033 11034 11035 11036 11037 11038 11039 11040 11041 11042 11043 11044 11045 11046 11047 11048 11049 11050 11051 11052 11053 11054 11055 11056 11057 11058 11059 11060 11061 11062 11063 11064 11065 11066 11067 11068 11069 11070 11071 11072 11073 11074 11075 11076 11077 11078 11079 11080 11081 11082 11083 11084 11085 11086 11087 11088 11089 11090 11091 11092 11093 11094 11095 11096 11097 11098 11099 11100 11101 11102 11103 11104 11105 11106 11107 11108 11109 11110 11111 11112 11113 11114 11115 11116 11117 11118 11119 11120 11121 11122 11123 11124 11125 11126 11127 11128 11129 11130 11131 11132 11133 11134 11135 11136 11137 11138 11139 11140 11141 11142 11143 11144 11145 11146 11147 11148 11149 11150 11151 11152 11153 11154 11155 11156 11157 11158 11159 11160 11161 11162 11163 11164 11165 11166 11167 11168 11169 11170 11171 11172 11173 11174 11175 11176 11177 11178 11179 11180 11181 11182 11183 11184 11185 11186 11187 11188 11189 11190 11191 11192 11193 11194 11195 11196 11197 11198 11199 11200 11201 11202 11203 11204 11205 11206 11207 11208 11209 11210 11211 11212 11213 11214 11215 11216 11217 11218 11219 11220 11221 11222 11223 11224 11225 11226 11227 11228 11229 11230 11231 11232 11233 11234 11235 11236 11237 11238 11239 11240 11241 11242 11243 11244 11245 11246 11247 11248 11249 11250 11251 11252 11253 11254 11255 11256 11257 11258 11259 11260 11261 11262 11263 11264 11265 11266 11267 11268 11269 11270 11271 11272 11273 11274 11275 11276 11277 11278 11279 11280 11281 11282 11283 11284 11285 11286 11287 11288 11289 11290 11291 11292 11293 11294 11295 11296 11297 11298 11299 11300 11301 11302 11303 11304 11305 11306 11307 11308 11309 11310 11311 11312 11313 11314 11315 11316 11317 11318 11319 11320 11321 11322 11323 11324 11325 11326 11327 11328 11329 11330 11331 11332 11333 11334 11335 11336 11337 11338 11339 11340 11341 11342 11343 11344 11345 11346 11347 11348 11349 11350 11351 11352 11353 11354 11355 11356 11357 11358 11359 11360 11361 11362 11363 11364 11365 11366 11367 11368 11369 11370 11371 11372 11373 11374 11375 11376 11377 11378 11379 11380 11381 11382 11383 11384 11385 11386 11387 11388 11389 11390 11391 11392 11393 11394 11395 11396 11397 11398 11399 11400 11401 11402 11403 11404 11405 11406 11407 11408 11409 11410 11411 11412 11413 11414 11415 11416 11417 11418 11419 11420 11421 11422 11423 11424 11425 11426 11427 11428 11429 11430 11431 11432 11433 11434 11435 11436 11437 11438 11439 11440 11441 11442 11443 11444 11445 11446 11447 11448 11449 11450 11451 11452 11453 11454 11455 11456 11457 11458 11459 11460 11461 11462 11463 11464 11465 11466 11467 11468 11469 11470 11471 11472 11473 11474 11475 11476 11477 11478 11479 11480 11481 11482 11483 11484 11485 11486 11487 11488 11489 11490 11491 11492 11493 11494 11495 11496 11497 11498 11499 11500 11501 11502 11503 11504 11505 11506 11507 11508 11509 11510 11511 11512 11513 11514 11515 11516 11517 11518 11519 11520 11521 11522 11523 11524 11525 11526 11527 11528 11529 11530 11531 11532 11533 11534 11535 11536 11537 11538 11539 11540 11541 11542 11543 11544 11545 11546 11547 11548 11549 11550 11551 11552 11553 11554 11555 11556 11557 11558 11559 11560 11561 11562 11563 11564 11565 11566 11567 11568 11569 11570 11571 11572 11573 11574 11575 11576 11577 11578 11579 11580 11581 11582 11583 11584 11585 11586 11587 11588 11589 11590 11591 11592 11593 11594 11595 11596 11597 11598 11599 11600 11601 11602 11603 11604 11605 11606 11607 11608 11609 11610 11611 11612 11613 11614 11615 11616 11617 11618 11619 11620 11621 11622 11623 11624 11625 11626 11627 11628 11629 11630 11631 11632 11633 11634 11635 11636 11637 11638 11639 11640 11641 11642 11643 11644 11645 11646 11647 11648 11649 11650 11651 11652 11653 11654 11655 11656 11657 11658 11659 11660 11661 11662 11663 11664 11665 11666 11667 11668 11669 11670 11671 11672 11673 11674 11675 11676 11677 11678 11679 11680 11681 11682 11683 11684 11685 11686 11687 11688 11689 11690 11691 11692 11693 11694 11695 11696 11697 11698 11699 11700 11701 11702 11703 11704 11705 11706 11707 11708 11709 11710 11711 11712 11713 11714 11715 11716 11717 11718 11719 11720 11721 11722 11723 11724 11725 11726 11727 11728 11729 11730 11731 11732 11733 11734 11735 11736 11737 11738 11739 11740 11741 11742 11743 11744 11745 11746 11747 11748 11749 11750 11751 11752 11753 11754 11755 11756 11757 11758 11759 11760 11761 11762 11763 11764 11765 11766 11767 11768 11769 11770 11771 11772 11773 11774 11775 11776 11777 11778 11779 11780 11781 11782 11783 11784 11785 11786 11787 11788 11789 11790 11791 11792 11793 11794 11795 11796 11797 11798 11799 11800 11801 11802 11803 11804 11805 11806 11807 11808 11809 11810 11811 11812 11813 11814 11815 11816 11817 11818 11819 11820 11821 11822 11823 11824 11825 11826 11827 11828 11829 11830 11831 11832 11833 11834 11835 11836 11837 11838 11839 11840 11841 11842 11843 11844 11845 11846 11847 11848 11849 11850 11851 11852 11853 11854 11855 11856 11857 11858 11859 11860 11861 11862 11863 11864 11865 11866 11867 11868 11869 11870 11871 11872 11873 11874 11875 11876 11877 11878 11879 11880 11881 11882 11883 11884 11885 11886 11887 11888 11889 11890 11891 11892 11893 11894 11895 11896 11897 11898 11899 11900 11901 11902 11903 11904 11905 11906 11907 11908 11909 11910 11911 11912 11913 11914 11915 11916 11917 11918 11919 11920 11921 11922 11923 11924 11925 11926 11927 11928 11929 11930 11931 11932 11933 11934 11935 11936 11937 11938 11939 11940 11941 11942 11943 11944 11945 11946 11947 11948 11949 11950 11951 11952 11953 11954 11955 11956 11957 11958 11959 11960 11961 11962 11963 11964 11965 11966 11967 11968 11969 11970 11971 11972 11973 11974 11975 11976 11977 11978 11979 11980 11981 11982 11983 11984 11985 11986 11987 11988 11989 11990 11991 11992 11993 11994 11995 11996 11997 11998 11999 12000 12001 12002 12003 12004 12005 12006 12007 12008 12009 12010 12011 12012 12013 12014 12015 12016 12017 12018 12019 12020 12021 12022 12023 12024 12025 12026 12027 12028 12029 12030 12031 12032 12033 12034 12035 12036 12037 12038 12039 12040 12041 12042 12043 12044 12045 12046 12047 12048 12049 12050 12051 12052 12053 12054 12055 12056 12057 12058 12059 12060 12061 12062 12063 12064 12065 12066 12067 12068 12069 12070 12071 12072 12073 12074 12075 12076 12077 12078 12079 12080 12081 12082 12083 12084 12085 12086 12087 12088 12089 12090 12091 12092 12093 12094 12095 12096 12097 12098 12099 12100 12101 12102 12103 12104 12105 12106 12107 12108 12109 12110 12111 12112 12113 12114 12115 12116 12117 12118 12119 12120 12121 12122 12123 12124 12125 12126 12127 12128 12129 12130 12131 12132 12133 12134 12135 12136 12137 12138 12139 12140 12141 12142 12143 12144 12145 12146 12147 12148 12149 12150 12151 12152 12153 12154 12155 12156 12157 12158 12159 12160 12161 12162 12163 12164 12165 12166 12167 12168 12169 12170 12171 12172 12173 12174 12175 12176 12177 12178 12179 12180 12181 12182 12183 12184 12185 12186 12187 12188 12189 12190 12191 12192 12193 12194 12195 12196 12197 12198 12199 12200 12201 12202 12203 12204 12205 12206 12207 12208 12209 12210 12211 12212 12213 12214 12215 12216 12217 12218 12219 12220 12221 12222 12223 12224 12225 12226 12227 12228 12229 12230 12231 12232 12233 12234 12235 12236 12237 12238 12239 12240 12241 12242 12243 12244 12245 12246 12247 12248 12249 12250 12251 12252 12253 12254 12255 12256 12257 12258 12259 12260 12261 12262 12263 12264 12265 12266 12267 12268 12269 12270 12271 12272 12273 12274 12275 12276 12277 12278 12279 12280 12281 12282 12283 12284 12285 12286 12287 12288 12289 12290 12291 12292 12293 12294 12295 12296 12297 12298 12299 12300 12301 12302 12303 12304 12305 12306 12307 12308 12309 12310 12311 12312 12313 12314 12315 12316 12317 12318 12319 12320 12321 12322 12323 12324 12325 12326 12327 12328 12329 12330 12331 12332 12333 12334 12335 12336 12337 12338 12339 12340 12341 12342 12343 12344 12345 12346 12347 12348 12349 12350 12351 12352 12353 12354 12355 12356 12357 12358 12359 12360 12361 12362 12363 12364 12365 12366 12367 12368 12369 12370 12371 12372 12373 12374 12375 12376 12377 12378 12379 12380 12381 12382 12383 12384 12385 12386 12387 12388 12389 12390 12391 12392 12393 12394 12395 12396 12397 12398 12399 12400 12401 12402 12403 12404 12405 12406 12407 12408 12409 12410 12411 12412 12413 12414 12415 12416 12417 12418 12419 12420 12421 12422 12423 12424 12425 12426 12427 12428 12429 12430 12431 12432 12433 12434 12435 12436 12437 12438 12439 12440 12441 12442 12443 12444 12445 12446 12447 12448 12449 12450 12451 12452 12453 12454 12455 12456 12457 12458 12459 12460 12461 12462 12463 12464 12465 12466 12467 12468 12469 12470 12471 12472 12473 12474 12475 12476 12477 12478 12479 12480 12481 12482 12483 12484 12485 12486 12487 12488 12489 12490 12491 12492 12493 12494 12495 12496 12497 12498 12499 12500 12501 12502 12503 12504 12505 12506 12507 12508 12509 12510 12511 12512 12513 12514 12515 12516 12517 12518 12519 12520 12521 12522 12523 12524 12525 12526 12527 12528 12529 12530 12531 12532 12533 12534 12535 12536 12537 12538 12539 12540 12541 12542 12543 12544 12545 12546 12547 12548 12549 12550 12551 12552 12553 12554 12555 12556 12557 12558 12559 12560 12561 12562 12563 12564 12565 12566 12567 12568 12569 12570 12571 12572 12573 12574 12575 12576 12577 12578 12579 12580 12581 12582 12583 12584 12585 12586 12587 12588 12589 12590 12591 12592 12593 12594 12595 12596 12597 12598 12599 12600 12601 12602 12603 12604 12605 12606 12607 12608 12609 12610 12611 12612 12613 12614 12615 12616 12617 12618 12619 12620 12621 12622 12623 12624 12625 12626 12627 12628 12629 12630 12631 12632 12633 12634 12635 12636 12637 12638 12639 12640 12641 12642 12643 12644 12645 12646 12647 12648 12649 12650 12651 12652 12653 12654 12655 12656 12657 12658 12659 12660 12661 12662 12663 12664 12665 12666 12667 12668 12669 12670 12671 12672 12673 12674 12675 12676 12677 12678 12679 12680 12681 12682 12683 12684 12685 12686 12687 12688 12689 12690 12691 12692 12693 12694 12695 12696 12697 12698 12699 12700 12701 12702 12703 12704 12705 12706 12707 12708 12709 12710 12711 12712 12713 12714 12715 12716 12717 12718 12719 12720 12721 12722 12723 12724 12725 12726 12727 12728 12729 12730 12731 12732 12733 12734 12735 12736 12737 12738 12739 12740 12741 12742 12743 12744 12745 12746 12747 12748 12749 12750 12751 12752 12753 12754 12755 12756 12757 12758 12759 12760 12761 12762 12763 12764 12765 12766 12767 12768 12769 12770 12771 12772 12773 12774 12775 12776 12777 12778 12779 12780 12781 12782 12783 12784 12785 12786 12787 12788 12789 12790 12791 12792 12793 12794 12795 12796 12797 12798 12799 12800 12801 12802 12803 12804 12805 12806 12807 12808 12809 12810 12811 12812 12813 12814 12815 12816 12817 12818 12819 12820 12821 12822 12823 12824 12825 12826 12827 12828 12829 12830 12831 12832 12833 12834 12835 12836 12837 12838 12839 12840 12841 12842 12843 12844 12845 12846 12847 12848 12849 12850 12851 12852 12853 12854 12855 12856 12857 12858 12859 12860 12861 12862 12863 12864 12865 12866 12867 12868 12869 12870 12871 12872 12873 12874 12875 12876 12877 12878 12879 12880 12881 12882 12883 12884 12885 12886 12887 12888 12889 12890 12891 12892 12893 12894 12895 12896 12897 12898 12899 12900 12901 12902 12903 12904 12905 12906 12907 12908 12909 12910 12911 12912 12913 12914 12915 12916 12917 12918 12919 12920 12921 12922 12923 12924 12925 12926 12927 12928 12929 12930 12931 12932 12933 12934 12935 12936 12937 12938 12939 12940 12941 12942 12943 12944 12945 12946 12947 12948 12949 12950 12951 12952 12953 12954 12955 12956 12957 12958 12959 12960 12961 12962 12963 12964 12965 12966 12967 12968 12969 12970 12971 12972 12973 12974 12975 12976 12977 12978 12979 12980 12981 12982 12983 12984 12985 12986 12987 12988 12989 12990 12991 12992 12993 12994 12995 12996 12997 12998 12999 13000 13001 13002 13003 13004 13005 13006 13007 13008 13009 13010 13011 13012 13013 13014 13015 13016 13017 13018 13019 13020 13021 13022 13023 13024 13025 13026 13027 13028 13029 13030 13031 13032 13033 13034 13035 13036 13037 13038 13039 13040 13041 13042 13043 13044 13045 13046 13047 13048 13049 13050 13051 13052 13053 13054 13055 13056 13057 13058 13059 13060 13061 13062 13063 13064 13065 13066 13067 13068 13069 13070 13071 13072 13073 13074 13075 13076 13077 13078 13079 13080 13081 13082 13083 13084 13085 13086 13087 13088 13089 13090 13091 13092 13093 13094 13095 13096 13097 13098 13099 13100 13101 13102 13103 13104 13105 13106 13107 13108 13109 13110 13111 13112 13113 13114 13115 13116 13117 13118 13119 13120 13121 13122 13123 13124 13125 13126 13127 13128 13129 13130 13131 13132 13133 13134 13135 13136 13137 13138 13139 13140 13141 13142 13143 13144 13145 13146 13147 13148 13149 13150 13151 13152 13153 13154 13155 13156 13157 13158 13159 13160 13161 13162 13163 13164 13165 13166 13167 13168 13169 13170 13171 13172 13173 13174 13175 13176 13177 13178 13179 13180 13181 13182 13183 13184 13185 13186 13187 13188 13189 13190 13191 13192 13193 13194 13195 13196 13197 13198 13199 13200 13201 13202 13203 13204 13205 13206 13207 13208 13209 13210 13211 13212 13213 13214 13215 13216 13217 13218 13219 13220 13221 13222 13223 13224 13225 13226 13227 13228 13229 13230 13231 13232 13233 13234 13235 13236 13237 13238 13239 13240 13241 13242 13243 13244 13245 13246 13247 13248 13249 13250 13251 13252 13253 13254 13255 13256 13257 13258 13259 13260 13261 13262 13263 13264 13265 13266 13267 13268 13269 13270 13271 13272 13273 13274 13275 13276 13277 13278 13279 13280 13281 13282 13283 13284 13285 13286 13287 13288 13289 13290 13291 13292 13293 13294 13295 13296 13297 13298 13299 13300 13301 13302 13303 13304 13305 13306 13307 13308 13309 13310 13311 13312 13313 13314 13315 13316 13317 13318 13319 13320 13321 13322 13323 13324 13325 13326 13327 13328 13329 13330 13331 13332 13333 13334 13335 13336 13337 13338 13339 13340 13341 13342 13343 13344 13345 13346 13347 13348 13349 13350 13351 13352 13353 13354 13355 13356 13357 13358 13359 13360 13361 13362 13363 13364 13365 13366 13367 13368 13369 13370 13371 13372 13373 13374 13375 13376 13377 13378 13379 13380 13381 13382 13383 13384 13385 13386 13387 13388 13389 13390 13391 13392 13393 13394 13395 13396 13397 13398 13399 13400 13401 13402 13403 13404 13405 13406 13407 13408 13409 13410 13411 13412 13413 13414 13415 13416 13417 13418 13419 13420 13421 13422 13423 13424 13425 13426 13427 13428 13429 13430 13431 13432 13433 13434 13435 13436 13437 13438 13439 13440 13441 13442 13443 13444 13445 13446 13447 13448 13449 13450 13451 13452 13453 13454 13455 13456 13457 13458 13459 13460 13461 13462 13463 13464 13465 13466 13467 13468 13469 13470 13471 13472 13473 13474 13475 13476 13477 13478 13479 13480 13481 13482 13483 13484 13485 13486 13487 13488 13489 13490 13491 13492 13493 13494 13495 13496 13497 13498 13499 13500 13501 13502 13503 13504 13505 13506 13507 13508 13509 13510 13511 13512 13513 13514 13515 13516 13517 13518 13519 13520 13521 13522 13523 13524 13525 13526 13527 13528 13529 13530 13531 13532 13533 13534 13535 13536 13537 13538 13539 13540 13541 13542 13543 13544 13545 13546 13547 13548 13549 13550 13551 13552 13553 13554 13555 13556 13557 13558 13559 13560 13561 13562 13563 13564 13565 13566 13567 13568 13569 13570 13571 13572 13573 13574 13575 13576 13577 13578 13579 13580 13581 13582 13583 13584 13585 13586 13587 13588 13589 13590 13591 13592 13593 13594 13595 13596 13597 13598 13599 13600 13601 13602 13603 13604 13605 13606 13607 13608 13609 13610 13611 13612 13613 13614 13615 13616 13617 13618 13619 13620 13621 13622 13623 13624 13625 13626 13627 13628 13629 13630 13631 13632 13633 13634 13635 13636 13637 13638 13639 13640 13641 13642 13643 13644 13645 13646 13647 13648 13649 13650 13651 13652 13653 13654 13655 13656 13657 13658 13659 13660 13661 13662 13663 13664 13665 13666 13667 13668 13669 13670 13671 13672 13673 13674 13675 13676 13677 13678 13679 13680 13681 13682 13683 13684 13685 13686 13687 13688 13689 13690 13691 13692 13693 13694 13695 13696 13697 13698 13699 13700 13701 13702 13703 13704 13705 13706 13707 13708 13709 13710 13711 13712 13713 13714 13715 13716 13717 13718 13719 13720 13721 13722 13723 13724 13725 13726 13727 13728 13729 13730 13731 13732 13733 13734 13735 13736 13737 13738 13739 13740 13741 13742 13743 13744 13745 13746 13747 13748 13749 13750 13751 13752 13753 13754 13755 13756 13757 13758 13759 13760 13761 13762 13763 13764 13765 13766 13767 13768 13769 13770 13771 13772 13773 13774 13775 13776 13777 13778 13779 13780 13781 13782 13783 13784 13785 13786 13787 13788 13789 13790 13791 13792 13793 13794 13795 13796 13797 13798 13799 13800 13801 13802 13803 13804 13805 13806 13807 13808 13809 13810 13811 13812 13813 13814 13815 13816 13817 13818 13819 13820 13821 13822 13823 13824 13825 13826 13827 13828 13829 13830 13831 13832 13833 13834 13835 13836 13837 13838 13839 13840 13841 13842 13843 13844 13845 13846 13847 13848 13849 13850 13851 13852 13853 13854 13855 13856 13857 13858 13859 13860 13861 13862 13863 13864 13865 13866 13867 13868 13869 13870 13871 13872 13873 13874 13875 13876 13877 13878 13879 13880 13881 13882 13883 13884 13885 13886 13887 13888 13889 13890 13891 13892 13893 13894 13895 13896 13897 13898 13899 13900 13901 13902 13903 13904 13905 13906 13907 13908 13909 13910 13911 13912 13913 13914 13915 13916 13917 13918 13919 13920 13921 13922 13923 13924 13925 13926 13927 13928 13929 13930 13931 13932 13933 13934 13935 13936 13937 13938 13939 13940 13941 13942 13943 13944 13945 13946 13947 13948 13949 13950 13951 13952 13953 13954 13955 13956 13957 13958 13959 13960 13961 13962 13963 13964 13965 13966 13967 13968 13969 13970 13971 13972 13973 13974 13975 13976 13977 13978 13979 13980 13981 13982 13983 13984 13985 13986 13987 13988 13989 13990 13991 13992 13993 13994 13995 13996 13997 13998 13999 14000 14001 14002 14003 14004 14005 14006 14007 14008 14009 14010 14011 14012 14013 14014 14015 14016 14017 14018 14019 14020 14021 14022 14023 14024 14025 14026 14027 14028 14029 14030 14031 14032 14033 14034 14035 14036 14037 14038 14039 14040 14041 14042 14043 14044 14045 14046 14047 14048 14049 14050 14051 14052 14053 14054 14055 14056 14057 14058 14059 14060 14061 14062 14063 14064 14065 14066 14067 14068 14069 14070 14071 14072 14073 14074 14075 14076 14077 14078 14079 14080 14081 14082 14083 14084 14085 14086 14087 14088 14089 14090 14091 14092 14093 14094 14095 14096 14097 14098 14099 14100 14101 14102 14103 14104 14105 14106 14107 14108 14109 14110 14111 14112 14113 14114 14115 14116 14117 14118 14119 14120 14121 14122 14123 14124 14125 14126 14127 14128 14129 14130 14131 14132 14133 14134 14135 14136 14137 14138 14139 14140 14141 14142 14143 14144 14145 14146 14147 14148 14149 14150 14151 14152 14153 14154 14155 14156 14157 14158 14159 14160 14161 14162 14163 14164 14165 14166 14167 14168 14169 14170 14171 14172 14173 14174 14175 14176 14177 14178 14179 14180 14181 14182 14183 14184 14185 14186 14187 14188 14189 14190 14191 14192 14193 14194 14195 14196 14197 14198 14199 14200 14201 14202 14203 14204 14205 14206 14207 14208 14209 14210 14211 14212 14213 14214 14215 14216 14217 14218 14219 14220 14221 14222 14223 14224 14225 14226 14227 14228 14229 14230 14231 14232 14233 14234 14235 14236 14237 14238 14239 14240 14241 14242 14243 14244 14245 14246 14247 14248 14249 14250 14251 14252 14253 14254 14255 14256 14257 14258 14259 14260 14261 14262 14263 14264 14265 14266 14267 14268 14269 14270 14271 14272 14273 14274 14275 14276 14277 14278 14279 14280 14281 14282 14283 14284 14285 14286 14287 14288 14289 14290 14291 14292 14293 14294 14295 14296 14297 14298 14299 14300 14301 14302 14303 14304 14305 14306 14307 14308 14309 14310 14311 14312 14313 14314 14315 14316 14317 14318 14319 14320 14321 14322 14323 14324 14325 14326 14327 14328 14329 14330 14331 14332 14333 14334 14335 14336 14337 14338 14339 14340 14341 14342 14343 14344 14345 14346 14347 14348 14349 14350 14351 14352 14353 14354 14355 14356 14357 14358 14359 14360 14361 14362 14363 14364 14365 14366 14367 14368 14369 14370 14371 14372 14373 14374 14375 14376 14377 14378 14379 14380 14381 14382 14383 14384 14385 14386 14387 14388 14389 14390 14391 14392 14393 14394 14395 14396 14397 14398 14399 14400 14401 14402 14403 14404 14405 14406 14407 14408 14409 14410 14411 14412 14413 14414 14415 14416 14417 14418 14419 14420 14421 14422 14423 14424 14425 14426 14427 14428 14429 14430 14431 14432 14433 14434 14435 14436 14437 14438 14439 14440 14441 14442 14443 14444 14445 14446 14447 14448 14449 14450 14451 14452 14453 14454 14455 14456 14457 14458 14459 14460 14461 14462 14463 14464 14465 14466 14467 14468 14469 14470 14471 14472 14473 14474 14475 14476 14477 14478 14479 14480 14481 14482 14483 14484 14485 14486 14487 14488 14489 14490 14491 14492 14493 14494 14495 14496 14497 14498 14499 14500 14501 14502 14503 14504 14505 14506 14507 14508 14509 14510 14511 14512 14513 14514 14515 14516 14517 14518 14519 14520 14521 14522 14523 14524 14525 14526 14527 14528 14529 14530 14531 14532 14533 14534 14535 14536 14537 14538 14539 14540 14541 14542 14543 14544 14545 14546 14547 14548 14549 14550 14551 14552 14553 14554 14555 14556 14557 14558 14559 14560 14561 14562 14563 14564 14565 14566 14567 14568 14569 14570 14571 14572 14573 14574 14575 14576 14577 14578 14579 14580 14581 14582 14583 14584 14585 14586 14587 14588 14589 14590 14591 14592 14593 14594 14595 14596 14597 14598 14599 14600 14601 14602 14603 14604 14605 14606 14607 14608 14609 14610 14611 14612 14613 14614 14615 14616 14617 14618 14619 14620 14621 14622 14623 14624 14625 14626 14627 14628 14629 14630 14631 14632 14633 14634 14635 14636 14637 14638 14639 14640 14641 14642 14643 14644 14645 14646 14647 14648 14649 14650 14651 14652 14653 14654 14655 14656 14657 14658 14659 14660 14661 14662 14663 14664 14665 14666 14667 14668 14669 14670 14671 14672 14673 14674 14675 14676 14677 14678 14679 14680 14681 14682 14683 14684 14685 14686 14687 14688 14689 14690 14691 14692 14693 14694 14695 14696 14697 14698 14699 14700 14701 14702 14703 14704 14705 14706 14707 14708 14709 14710 14711 14712 14713 14714 14715 14716 14717 14718 14719 14720 14721 14722 14723 14724 14725 14726 14727 14728 14729 14730 14731 14732 14733 14734 14735 14736 14737 14738 14739 14740 14741 14742 14743 14744 14745 14746 14747 14748 14749 14750 14751 14752 14753 14754 14755 14756 14757 14758 14759 14760 14761 14762 14763 14764 14765 14766 14767 14768 14769 14770 14771 14772 14773 14774 14775 14776 14777 14778 14779 14780 14781 14782 14783 14784 14785 14786 14787 14788 14789 14790 14791 14792 14793 14794 14795 14796 14797 14798 14799 14800 14801 14802 14803 14804 14805 14806 14807 14808 14809 14810 14811 14812 14813 14814 14815 14816 14817 14818 14819 14820 14821 14822 14823 14824 14825 14826 14827 14828 14829 14830 14831 14832 14833 14834 14835 14836 14837 14838 14839 14840 14841 14842 14843 14844 14845 14846 14847 14848 14849 14850 14851 14852 14853 14854 14855 14856 14857 14858 14859 14860 14861 14862 14863 14864 14865 14866 14867 14868 14869 14870 14871 14872 14873 14874 14875 14876 14877 14878 14879 14880 14881 14882 14883 14884 14885 14886 14887 14888 14889 14890 14891 14892 14893 14894 14895 14896 14897 14898 14899 14900 14901 14902 14903 14904 14905 14906 14907 14908 14909 14910 14911 14912 14913 14914 14915 14916 14917 14918 14919 14920 14921 14922 14923 14924 14925 14926 14927 14928 14929 14930 14931 14932 14933 14934 14935 14936 14937 14938 14939 14940 14941 14942 14943 14944 14945 14946 14947 14948 14949 14950 14951 14952 14953 14954 14955 14956 14957 14958 14959 14960 14961 14962 14963 14964 14965 14966 14967 14968 14969 14970 14971 14972 14973 14974 14975 14976 14977 14978 14979 14980 14981 14982 14983 14984 14985 14986 14987 14988 14989 14990 14991 14992 14993 14994 14995 14996 14997 14998 14999 15000 15001 15002 15003 15004 15005 15006 15007 15008 15009 15010 15011 15012 15013 15014 15015 15016 15017 15018 15019 15020 15021 15022 15023 15024 15025 15026 15027 15028 15029 15030 15031 15032 15033 15034 15035 15036 15037 15038 15039 15040 15041 15042 15043 15044 15045 15046 15047 15048 15049 15050 15051 15052 15053 15054 15055 15056 15057 15058 15059 15060 15061 15062 15063 15064 15065 15066 15067 15068 15069 15070 15071 15072 15073 15074 15075 15076 15077 15078 15079 15080 15081 15082 15083 15084 15085 15086 15087 15088 15089 15090 15091 15092 15093 15094 15095 15096 15097 15098 15099 15100 15101 15102 15103 15104 15105 15106 15107 15108 15109 15110 15111 15112 15113 15114 15115 15116 15117 15118 15119 15120 15121 15122 15123 15124 15125 15126 15127 15128 15129 15130 15131 15132 15133 15134 15135 15136 15137 15138 15139 15140 15141 15142 15143 15144 15145 15146 15147 15148 15149 15150 15151 15152 15153 15154 15155 15156 15157 15158 15159 15160 15161 15162 15163 15164 15165 15166 15167 15168 15169 15170 15171 15172 15173 15174 15175 15176 15177 15178 15179 15180 15181 15182 15183 15184 15185 15186 15187 15188 15189 15190 15191 15192 15193 15194 15195 15196 15197 15198 15199 15200 15201 15202 15203 15204 15205 15206 15207 15208 15209 15210 15211 15212 15213 15214 15215 15216 15217 15218 15219 15220 15221 15222 15223 15224 15225 15226 15227 15228 15229 15230 15231 15232 15233 15234 15235 15236 15237 15238 15239 15240 15241 15242 15243 15244 15245 15246 15247 15248 15249 15250 15251 15252 15253 15254 15255 15256 15257 15258 15259 15260 15261 15262 15263 15264 15265 15266 15267 15268 15269 15270 15271 15272 15273 15274 15275 15276 15277 15278 15279 15280 15281 15282 15283 15284 15285 15286 15287 15288 15289 15290 15291 15292 15293 15294 15295 15296 15297 15298 15299 15300 15301 15302 15303 15304 15305 15306 15307 15308 15309 15310 15311 15312 15313 15314 15315 15316 15317 15318 15319 15320 15321 15322 15323 15324 15325 15326 15327 15328 15329 15330 15331 15332 15333 15334 15335 15336 15337 15338 15339 15340 15341 15342 15343 15344 15345 15346 15347 15348 15349 15350 15351 15352 15353 15354 15355 15356 15357 15358 15359 15360 15361 15362 15363 15364 15365 15366 15367 15368 15369 15370 15371 15372 15373 15374 15375 15376 15377 15378 15379 15380 15381 15382 15383 15384 15385 15386 15387 15388 15389 15390 15391 15392 15393 15394 15395 15396 15397 15398 15399 15400 15401 15402 15403 15404 15405 15406 15407 15408 15409 15410 15411 15412 15413 15414 15415 15416 15417 15418 15419 15420 15421 15422 15423 15424 15425 15426 15427 15428 15429 15430 15431 15432 15433 15434 15435 15436 15437 15438 15439 15440 15441 15442 15443 15444 15445 15446 15447 15448 15449 15450 15451 15452 15453 15454 15455 15456 15457 15458 15459 15460 15461 15462 15463 15464 15465 15466 15467 15468 15469 15470 15471 15472 15473 15474 15475 15476 15477 15478 15479 15480 15481 15482 15483 15484 15485 15486 15487 15488 15489 15490 15491 15492 15493 15494 15495 15496 15497 15498 15499 15500 15501 15502 15503 15504 15505 15506 15507 15508 15509 15510 15511 15512 15513 15514 15515 15516 15517 15518 15519 15520 15521 15522 15523 15524 15525 15526 15527 15528 15529 15530 15531 15532 15533 15534 15535 15536 15537 15538 15539 15540 15541 15542 15543 15544 15545 15546 15547 15548 15549 15550 15551 15552 15553 15554 15555 15556 15557 15558 15559 15560 15561 15562 15563 15564 15565 15566 15567 15568 15569 15570 15571 15572 15573 15574 15575 15576 15577 15578 15579 15580 15581 15582 15583 15584 15585 15586 15587 15588 15589 15590 15591 15592 15593 15594 15595 15596 15597 15598 15599 15600 15601 15602 15603 15604 15605 15606 15607 15608 15609 15610 15611 15612 15613 15614 15615 15616 15617 15618 15619 15620 15621 15622 15623 15624 15625 15626 15627 15628 15629 15630 15631 15632 15633 15634 15635 15636 15637 15638 15639 15640 15641 15642 15643 15644 15645 15646 15647 15648 15649 15650 15651 15652 15653 15654 15655 15656 15657 15658 15659 15660 15661 15662 15663 15664 15665 15666 15667 15668 15669 15670 15671 15672 15673 15674 15675 15676 15677 15678 15679 15680 15681 15682 15683 15684 15685 15686 15687 15688 15689 15690 15691 15692 15693 15694 15695 15696 15697 15698 15699 15700 15701 15702 15703 15704 15705 15706 15707 15708 15709 15710 15711 15712 15713 15714 15715 15716 15717 15718 15719 15720 15721 15722 15723 15724 15725 15726 15727 15728 15729 15730 15731 15732 15733 15734 15735 15736 15737 15738 15739 15740 15741 15742 15743 15744 15745 15746 15747 15748 15749 15750 15751 15752 15753 15754 15755 15756 15757 15758 15759 15760 15761 15762 15763 15764 15765 15766 15767 15768 15769 15770 15771 15772 15773 15774 15775 15776 15777 15778 15779 15780 15781 15782 15783 15784 15785 15786 15787 15788 15789 15790 15791 15792 15793 15794 15795 15796 15797 15798 15799 15800 15801 15802 15803 15804 15805 15806 15807 15808 15809 15810 15811 15812 15813 15814 15815 15816 15817 15818 15819 15820 15821 15822 15823 15824 15825 15826 15827 15828 15829 15830 15831 15832 15833 15834 15835 15836 15837 15838 15839 15840 15841 15842 15843 15844 15845 15846 15847 15848 15849 15850 15851 15852 15853 15854 15855 15856 15857 15858 15859 15860 15861 15862 15863 15864 15865 15866 15867 15868 15869 15870 15871 15872 15873 15874 15875 15876 15877 15878 15879 15880 15881 15882 15883 15884 15885 15886 15887 15888 15889 15890 15891 15892 15893 15894 15895 15896 15897 15898 15899 15900 15901 15902 15903 15904 15905 15906 15907 15908 15909 15910 15911 15912 15913 15914 15915 15916 15917 15918 15919 15920 15921 15922 15923 15924 15925 15926 15927 15928 15929 15930 15931 15932 15933 15934 15935 15936 15937 15938 15939 15940 15941 15942 15943 15944 15945 15946 15947 15948 15949 15950 15951 15952 15953 15954 15955 15956 15957 15958 15959 15960 15961 15962 15963 15964 15965 15966 15967 15968 15969 15970 15971 15972 15973 15974 15975 15976 15977 15978 15979 15980 15981 15982 15983 15984 15985 15986 15987 15988 15989 15990 15991 15992 15993 15994 15995 15996 15997 15998 15999 16000 16001 16002 16003 16004 16005 16006 16007 16008 16009 16010 16011 16012 16013 16014 16015 16016 16017 16018 16019 16020 16021 16022 16023 16024 16025 16026 16027 16028 16029 16030 16031 16032 16033 16034 16035 16036 16037 16038 16039 16040 16041 16042 16043 16044 16045 16046 16047 16048 16049 16050 16051 16052 16053 16054 16055 16056 16057 16058 16059 16060 16061 16062 16063 16064 16065 16066 16067 16068 16069 16070 16071 16072 16073 16074 16075 16076 16077 16078 16079 16080 16081 16082 16083 16084 16085 16086 16087 16088 16089 16090 16091 16092 16093 16094 16095 16096 16097 16098 16099 16100 16101 16102 16103 16104 16105 16106 16107 16108 16109 16110 16111 16112 16113 16114 16115 16116 16117 16118 16119 16120 16121 16122 16123 16124 16125 16126 16127 16128 16129 16130 16131 16132 16133 16134 16135 16136 16137 16138 16139 16140 16141 16142 16143 16144 16145 16146 16147 16148 16149 16150 16151 16152 16153 16154 16155 16156 16157 16158 16159 16160 16161 16162 16163 16164 16165 16166 16167 16168 16169 16170 16171 16172 16173 16174 16175 16176 16177 16178 16179 16180 16181 16182 16183 16184 16185 16186 16187 16188 16189 16190 16191 16192 16193 16194 16195 16196 16197 16198 16199 16200 16201 16202 16203 16204 16205 16206 16207 16208 16209 16210 16211 16212 16213 16214 16215 16216 16217 16218 16219 16220 16221 16222 16223 16224 16225 16226 16227 16228 16229 16230 16231 16232 16233 16234 16235 16236 16237 16238 16239 16240 16241 16242 16243 16244 16245 16246 16247 16248 16249 16250 16251 16252 16253 16254 16255 16256 16257 16258 16259 16260 16261 16262 16263 16264 16265 16266 16267 16268 16269 16270 16271 16272 16273 16274 16275 16276 16277 16278 16279 16280 16281 16282 16283 16284 16285 16286 16287 16288 16289 16290 16291 16292 16293 16294 16295 16296 16297 16298 16299 16300 16301 16302 16303 16304 16305 16306 16307 16308 16309 16310 16311 16312 16313 16314 16315 16316 16317 16318 16319 16320 16321 16322 16323 16324 16325 16326 16327 16328 16329 16330 16331 16332 16333 16334 16335 16336 16337 16338 16339 16340 16341 16342 16343 16344 16345 16346 16347 16348 16349 16350 16351 16352 16353 16354 16355 16356 16357 16358 16359 16360 16361 16362 16363 16364 16365 16366 16367 16368 16369 16370 16371 16372 16373 16374 16375 16376 16377 16378 16379 16380 16381 16382 16383 16384 16385 16386 16387 16388 16389 16390 16391 16392 16393 16394 16395 16396 16397 16398 16399 16400 16401 16402 16403 16404 16405 16406 16407 16408 16409 16410 16411 16412 16413 16414 16415 16416 16417 16418 16419 16420 16421 16422 16423 16424 16425 16426 16427 16428 16429 16430 16431 16432 16433 16434 16435 16436 16437 16438 16439 16440 16441 16442 16443 16444 16445 16446 16447 16448 16449 16450 16451 16452 16453 16454 16455 16456 16457 16458 16459 16460 16461 16462 16463 16464 16465 16466 16467 16468 16469 16470 16471 16472 16473 16474 16475 16476 16477 16478 16479 16480 16481 16482 16483 16484 16485 16486 16487 16488 16489 16490 16491 16492 16493 16494 16495 16496 16497 16498 16499 16500 16501 16502 16503 16504 16505 16506 16507 16508 16509 16510 16511 16512 16513 16514 16515 16516 16517 16518 16519 16520 16521 16522 16523 16524 16525 16526 16527 16528 16529 16530 16531 16532 16533 16534 16535 16536 16537 16538 16539 16540 16541 16542 16543 16544 16545 16546 16547 16548 16549 16550 16551 16552 16553 16554 16555 16556 16557 16558 16559 16560 16561 16562 16563 16564 16565 16566 16567 16568 16569 16570 16571 16572 16573 16574 16575 16576 16577 16578 16579 16580 16581 16582 16583 16584 16585 16586 16587 16588 16589 16590 16591 16592 16593 16594 16595 16596 16597 16598 16599 16600 16601 16602 16603 16604 16605 16606 16607 16608 16609 16610 16611 16612 16613 16614 16615 16616 16617 16618 16619 16620 16621 16622 16623 16624 16625 16626 16627 16628 16629 16630 16631 16632 16633 16634 16635 16636 16637 16638 16639 16640 16641 16642 16643 16644 16645 16646 16647 16648 16649 16650 16651 16652 16653 16654 16655 16656 16657 16658 16659 16660 16661 16662 16663 16664 16665 16666 16667 16668 16669 16670 16671 16672 16673 16674 16675 16676 16677 16678 16679 16680 16681 16682 16683 16684 16685 16686 16687 16688 16689 16690 16691 16692 16693 16694 16695 16696 16697 16698 16699 16700 16701 16702 16703 16704 16705 16706 16707 16708 16709 16710 16711 16712 16713 16714 16715 16716 16717 16718 16719 16720 16721 16722 16723 16724 16725 16726 16727 16728 16729 16730 16731 16732 16733 16734 16735 16736 16737 16738 16739 16740 16741 16742 16743 16744 16745 16746 16747 16748 16749 16750 16751 16752 16753 16754 16755 16756 16757 16758 16759 16760 16761 16762 16763 16764 16765 16766 16767 16768 16769 16770 16771 16772 16773 16774 16775 16776 16777 16778 16779 16780 16781 16782 16783 16784 16785 16786 16787 16788 16789 16790 16791 16792 16793 16794 16795 16796 16797 16798 16799 16800 16801 16802 16803 16804 16805 16806 16807 16808 16809 16810 16811 16812 16813 16814 16815 16816 16817 16818 16819 16820 16821 16822 16823 16824 16825 16826 16827 16828 16829 16830 16831 16832 16833 16834 16835 16836 16837 16838 16839 16840 16841 16842 16843 16844 16845 16846 16847 16848 16849 16850 16851 16852 16853 16854 16855 16856 16857 16858 16859 16860 16861 16862 16863 16864 16865 16866 16867 16868 16869 16870 16871 16872 16873 16874 16875 16876 16877 16878 16879 16880 16881 16882 16883 16884 16885 16886 16887 16888 16889 16890 16891 16892 16893 16894 16895 16896 16897 16898 16899 16900 16901 16902 16903 16904 16905 16906 16907 16908 16909 16910 16911 16912 16913 16914 16915 16916 16917 16918 16919 16920 16921 16922 16923 16924 16925 16926 16927 16928 16929 16930 16931 16932 16933 16934 16935 16936 16937 16938 16939 16940 16941 16942 16943 16944 16945 16946 16947 16948 16949 16950 16951 16952 16953 16954 16955 16956 16957 16958 16959 16960 16961 16962 16963 16964 16965 16966 16967 16968 16969 16970 16971 16972 16973 16974 16975 16976 16977 16978 16979 16980 16981 16982 16983 16984 16985 16986 16987 16988 16989 16990 16991 16992 16993 16994 16995 16996 16997 16998 16999 17000 17001 17002 17003 17004 17005 17006 17007 17008 17009 17010 17011 17012 17013 17014 17015 17016 17017 17018 17019 17020 17021 17022 17023 17024 17025 17026 17027 17028 17029 17030 17031 17032 17033 17034 17035 17036 17037 17038 17039 17040 17041 17042 17043 17044 17045 17046 17047 17048 17049 17050 17051 17052 17053 17054 17055 17056 17057 17058 17059 17060 17061 17062 17063 17064 17065 17066 17067 17068 17069 17070 17071 17072 17073 17074 17075 17076 17077 17078 17079 17080 17081 17082 17083 17084 17085 17086 17087 17088 17089 17090 17091 17092 17093 17094 17095 17096 17097 17098 17099 17100 17101 17102 17103 17104 17105 17106 17107 17108 17109 17110 17111 17112 17113 17114 17115 17116 17117 17118 17119 17120 17121 17122 17123 17124 17125 17126 17127 17128 17129 17130 17131 17132 17133 17134 17135 17136 17137 17138 17139 17140 17141 17142 17143 17144 17145 17146 17147 17148 17149 17150 17151 17152 17153 17154 17155 17156 17157 17158 17159 17160 17161 17162 17163 17164 17165 17166 17167 17168 17169 17170 17171 17172 17173 17174 17175 17176 17177 17178 17179 17180 17181 17182 17183 17184 17185 17186 17187 17188 17189 17190 17191 17192 17193 17194 17195 17196 17197 17198 17199 17200 17201 17202 17203 17204 17205 17206 17207 17208 17209 17210 17211 17212 17213 17214 17215 17216 17217 17218 17219 17220 17221 17222 17223 17224 17225 17226 17227 17228 17229 17230 17231 17232 17233 17234 17235 17236 17237 17238 17239 17240 17241 17242 17243 17244 17245 17246 17247 17248 17249 17250 17251 17252 17253 17254 17255 17256 17257 17258 17259 17260 17261 17262 17263 17264 17265 17266 17267 17268 17269 17270 17271 17272 17273 17274 17275 17276 17277 17278 17279 17280 17281 17282 17283 17284 17285 17286 17287 17288 17289 17290 17291 17292 17293 17294 17295 17296 17297 17298 17299 17300 17301 17302 17303 17304 17305 17306 17307 17308 17309 17310 17311 17312 17313 17314 17315 17316 17317 17318 17319 17320 17321 17322 17323 17324 17325 17326 17327 17328 17329 17330 17331 17332 17333 17334 17335 17336 17337 17338 17339 17340 17341 17342 17343 17344 17345 17346 17347 17348 17349 17350 17351 17352 17353 17354 17355 17356 17357 17358 17359 17360 17361 17362 17363 17364 17365 17366 17367 17368 17369 17370 17371 17372 17373 17374 17375 17376 17377 17378 17379 17380 17381 17382 17383 17384 17385 17386 17387 17388 17389 17390 17391 17392 17393 17394 17395 17396 17397 17398 17399 17400 17401 17402 17403 17404 17405 17406 17407 17408 17409 17410 17411 17412 17413 17414 17415 17416 17417 17418 17419 17420 17421 17422 17423 17424 17425 17426 17427 17428 17429 17430 17431 17432 17433 17434 17435 17436 17437 17438 17439 17440 17441 17442 17443 17444 17445 17446 17447 17448 17449 17450 17451 17452 17453 17454 17455 17456 17457 17458 17459 17460 17461 17462 17463 17464 17465 17466 17467 17468 17469 17470 17471 17472 17473 17474 17475 17476 17477 17478 17479 17480 17481 17482 17483 17484 17485 17486 17487 17488 17489 17490 17491 17492 17493 17494 17495 17496 17497 17498 17499 17500 17501 17502 17503 17504 17505 17506 17507 17508 17509 17510 17511 17512 17513 17514 17515 17516 17517 17518 17519 17520 17521 17522 17523 17524 17525 17526 17527 17528 17529 17530 17531 17532 17533 17534 17535 17536 17537 17538 17539 17540 17541 17542 17543 17544 17545 17546 17547 17548 17549 17550 17551 17552 17553 17554 17555 17556 17557 17558 17559 17560 17561 17562 17563 17564 17565 17566 17567 17568 17569 17570 17571 17572 17573 17574 17575 17576 17577 17578 17579 17580 17581 17582 17583 17584 17585 17586 17587 17588 17589 17590 17591 17592 17593 17594 17595 17596 17597 17598 17599 17600 17601 17602 17603 17604 17605 17606 17607 17608 17609 17610 17611 17612 17613 17614 17615 17616 17617 17618 17619 17620 17621 17622 17623 17624 17625 17626 17627 17628 17629 17630 17631 17632 17633 17634 17635 17636 17637 17638 17639 17640 17641 17642 17643 17644 17645 17646 17647 17648 17649 17650 17651 17652 17653 17654 17655 17656 17657 17658 17659 17660 17661 17662 17663 17664 17665 17666 17667 17668 17669 17670 17671 17672 17673 17674 17675 17676 17677 17678 17679 17680 17681 17682 17683 17684 17685 17686 17687 17688 17689 17690 17691 17692 17693 17694 17695 17696 17697 17698 17699 17700 17701 17702 17703 17704 17705 17706 17707 17708 17709 17710 17711 17712 17713 17714 17715 17716 17717 17718 17719 17720 17721 17722 17723 17724 17725 17726 17727 17728 17729 17730 17731 17732 17733 17734 17735 17736 17737 17738 17739 17740 17741 17742 17743 17744 17745 17746 17747 17748 17749 17750 17751 17752 17753 17754 17755 17756 17757 17758 17759 17760 17761 17762 17763 17764 17765 17766 17767 17768 17769 17770 17771 17772 17773 17774 17775 17776 17777 17778 17779 17780 17781 17782 17783 17784 17785 17786 17787 17788 17789 17790 17791 17792 17793 17794 17795 17796 17797 17798 17799 17800 17801 17802 17803 17804 17805 17806 17807 17808 17809 17810 17811 17812 17813 17814 17815 17816 17817 17818 17819 17820 17821 17822 17823 17824 17825 17826 17827 17828 17829 17830 17831 17832 17833 17834 17835 17836 17837 17838 17839 17840 17841 17842 17843 17844 17845 17846 17847 17848 17849 17850 17851 17852 17853 17854 17855 17856 17857 17858 17859 17860 17861 17862 17863 17864 17865 17866 17867 17868 17869 17870 17871 17872 17873 17874 17875 17876 17877 17878 17879 17880 17881 17882 17883 17884 17885 17886 17887 17888 17889 17890 17891 17892 17893 17894 17895 17896 17897 17898 17899 17900 17901 17902 17903 17904 17905 17906 17907 17908 17909 17910 17911 17912 17913 17914 17915 17916 17917 17918 17919 17920 17921 17922 17923 17924 17925 17926 17927 17928 17929 17930 17931 17932 17933 17934 17935 17936 17937 17938 17939 17940 17941 17942 17943 17944 17945 17946 17947 17948 17949 17950 17951 17952 17953 17954 17955 17956 17957 17958 17959 17960 17961 17962 17963 17964 17965 17966 17967 17968 17969 17970 17971 17972 17973 17974 17975 17976 17977 17978 17979 17980 17981 17982 17983 17984 17985 17986 17987 17988 17989 17990 17991 17992 17993 17994 17995 17996 17997 17998 17999 18000 18001 18002 18003 18004 18005 18006 18007 18008 18009 18010 18011 18012 18013 18014 18015 18016 18017 18018 18019 18020 18021 18022 18023 18024 18025 18026 18027 18028 18029 18030 18031 18032 18033 18034 18035 18036 18037 18038 18039 18040 18041 18042 18043 18044 18045 18046 18047 18048 18049 18050 18051 18052 18053 18054 18055 18056 18057 18058 18059 18060 18061 18062 18063 18064 18065 18066 18067 18068 18069 18070 18071 18072 18073 18074 18075 18076 18077 18078 18079 18080 18081 18082 18083 18084 18085 18086 18087 18088 18089 18090 18091 18092 18093 18094 18095 18096 18097 18098 18099 18100 18101 18102 18103 18104 18105 18106 18107 18108 18109 18110 18111 18112 18113 18114 18115 18116 18117 18118 18119 18120 18121 18122 18123 18124 18125 18126 18127 18128 18129 18130 18131 18132 18133 18134 18135 18136 18137 18138 18139 18140 18141 18142 18143 18144 18145 18146 18147 18148 18149 18150 18151 18152 18153 18154 18155 18156 18157 18158 18159 18160 18161 18162 18163 18164 18165 18166 18167 18168 18169 18170 18171 18172 18173 18174 18175 18176 18177 18178 18179 18180 18181 18182 18183 18184 18185 18186 18187 18188 18189 18190 18191 18192 18193 18194 18195 18196 18197 18198 18199 18200 18201 18202 18203 18204 18205 18206 18207 18208 18209 18210 18211 18212 18213 18214 18215 18216 18217 18218 18219 18220 18221 18222 18223 18224 18225 18226 18227 18228 18229 18230 18231 18232 18233 18234 18235 18236 18237 18238 18239 18240 18241 18242 18243 18244 18245 18246 18247 18248 18249 18250 18251 18252 18253 18254 18255 18256 18257 18258 18259 18260 18261 18262 18263 18264 18265 18266 18267 18268 18269 18270 18271 18272 18273 18274 18275 18276 18277 18278 18279 18280 18281 18282 18283 18284 18285 18286 18287 18288 18289 18290 18291 18292 18293 18294 18295 18296 18297 18298 18299 18300 18301 18302 18303 18304 18305 18306 18307 18308 18309 18310 18311 18312 18313 18314 18315 18316 18317 18318 18319 18320 18321 18322 18323 18324 18325 18326 18327 18328 18329 18330 18331 18332 18333 18334 18335 18336 18337 18338 18339 18340 18341 18342 18343 18344 18345 18346 18347 18348 18349 18350 18351 18352 18353 18354 18355 18356 18357 18358 18359 18360 18361 18362 18363 18364 18365 18366 18367 18368 18369 18370 18371 18372 18373 18374 18375 18376 18377 18378 18379 18380 18381 18382 18383 18384 18385 18386 18387 18388 18389 18390 18391 18392 18393 18394 18395 18396 18397 18398 18399 18400 18401 18402 18403 18404 18405 18406 18407 18408 18409 18410 18411 18412 18413 18414 18415 18416 18417 18418 18419 18420 18421 18422 18423 18424 18425 18426 18427 18428 18429 18430 18431 18432 18433 18434 18435 18436 18437 18438 18439 18440 18441 18442 18443 18444 18445 18446 18447 18448 18449 18450 18451 18452 18453 18454 18455 18456 18457 18458 18459 18460 18461 18462 18463 18464 18465 18466 18467 18468 18469 18470 18471 18472 18473 18474 18475 18476 18477 18478 18479 18480 18481 18482 18483 18484 18485 18486 18487 18488 18489 18490 18491 18492 18493 18494 18495 18496 18497 18498 18499 18500 18501 18502 18503 18504 18505 18506 18507 18508 18509 18510 18511 18512 18513 18514 18515 18516 18517 18518 18519 18520 18521 18522 18523 18524 18525 18526 18527 18528 18529 18530 18531 18532 18533 18534 18535 18536 18537 18538 18539 18540 18541 18542 18543 18544 18545 18546 18547 18548 18549 18550 18551 18552 18553 18554 18555 18556 18557 18558 18559 18560 18561 18562 18563 18564 18565 18566 18567 18568 18569 18570 18571 18572 18573 18574 18575 18576 18577 18578 18579 18580 18581 18582 18583 18584 18585 18586 18587 18588 18589 18590 18591 18592 18593 18594 18595 18596 18597 18598 18599 18600 18601 18602 18603 18604 18605 18606 18607 18608 18609 18610 18611 18612 18613 18614 18615 18616 18617 18618 18619 18620 18621 18622 18623 18624 18625 18626 18627 18628 18629 18630 18631 18632 18633 18634 18635 18636 18637 18638 18639 18640 18641 18642 18643 18644 18645 18646 18647 18648 18649 18650 18651 18652 18653 18654 18655 18656 18657 18658 18659 18660 18661 18662 18663 18664 18665 18666 18667 18668 18669 18670 18671 18672 18673 18674 18675 18676 18677 18678 18679 18680 18681 18682 18683 18684 18685 18686 18687 18688 18689 18690 18691 18692 18693 18694 18695 18696 18697 18698 18699 18700 18701 18702 18703 18704 18705 18706 18707 18708 18709 18710 18711 18712 18713 18714 18715 18716 18717 18718 18719 18720 18721 18722 18723 18724 18725 18726 18727 18728 18729 18730 18731 18732 18733 18734 18735 18736 18737 18738 18739 18740 18741 18742 18743 18744 18745 18746 18747 18748 18749 18750 18751 18752 18753 18754 18755 18756 18757 18758 18759 18760 18761 18762 18763 18764 18765 18766 18767 18768 18769 18770 18771 18772 18773 18774 18775 18776 18777 18778 18779 18780 18781 18782 18783 18784 18785 18786 18787 18788 18789 18790 18791 18792 18793 18794 18795 18796 18797 18798 18799 18800 18801 18802 18803 18804 18805 18806 18807 18808 18809 18810 18811 18812 18813 18814 18815 18816 18817 18818 18819 18820 18821 18822 18823 18824 18825 18826 18827 18828 18829 18830 18831 18832 18833 18834 18835 18836 18837 18838 18839 18840 18841 18842 18843 18844 18845 18846 18847 18848 18849 18850 18851 18852 18853 18854 18855 18856 18857 18858 18859 18860 18861 18862 18863 18864 18865 18866 18867 18868 18869 18870 18871 18872 18873 18874 18875 18876 18877 18878 18879 18880 18881 18882 18883 18884 18885 18886 18887 18888 18889 18890 18891 18892 18893 18894 18895 18896 18897 18898 18899 18900 18901 18902 18903 18904 18905 18906 18907 18908 18909 18910 18911 18912 18913 18914 18915 18916 18917 18918 18919 18920 18921 18922 18923 18924 18925 18926 18927 18928 18929 18930 18931 18932 18933 18934 18935 18936 18937 18938 18939 18940 18941 18942 18943 18944 18945 18946 18947 18948 18949 18950 18951 18952 18953 18954 18955 18956 18957 18958 18959 18960 18961 18962 18963 18964 18965 18966 18967 18968 18969 18970 18971 18972 18973 18974 18975 18976 18977 18978 18979 18980 18981 18982 18983 18984 18985 18986 18987 18988 18989 18990 18991 18992 18993 18994 18995 18996 18997 18998 18999 19000 19001 19002 19003 19004 19005 19006 19007 19008 19009 19010 19011 19012 19013 19014 19015 19016 19017 19018 19019 19020 19021 19022 19023 19024 19025 19026 19027 19028 19029 19030 19031 19032 19033 19034 19035 19036 19037 19038 19039 19040 19041 19042 19043 19044 19045 19046 19047 19048 19049 19050 19051 19052 19053 19054 19055 19056 19057 19058 19059 19060 19061 19062 19063 19064 19065 19066 19067 19068 19069 19070 19071 19072 19073 19074 19075 19076 19077 19078 19079 19080 19081 19082 19083 19084 19085 19086 19087 19088 19089 19090 19091 19092 19093 19094 19095 19096 19097 19098 19099 19100 19101 19102 19103 19104 19105 19106 19107 19108 19109 19110 19111 19112 19113 19114 19115 19116 19117 19118 19119 19120 19121 19122 19123 19124 19125 19126 19127 19128 19129 19130 19131 19132 19133 19134 19135 19136 19137 19138 19139 19140 19141 19142 19143 19144 19145 19146 19147 19148 19149 19150 19151 19152 19153 19154 19155 19156 19157 19158 19159 19160 19161 19162 19163 19164 19165 19166 19167 19168 19169 19170 19171 19172 19173 19174 19175 19176 19177 19178 19179 19180 19181 19182 19183 19184 19185 19186 19187 19188 19189 19190 19191 19192 19193 19194 19195 19196 19197 19198 19199 19200 19201 19202 19203 19204 19205 19206 19207 19208 19209 19210 19211 19212 19213 19214 19215 19216 19217 19218 19219 19220 19221 19222 19223 19224 19225 19226 19227 19228 19229 19230 19231 19232 19233 19234 19235 19236 19237 19238 19239 19240 19241 19242 19243 19244 19245 19246 19247 19248 19249 19250 19251 19252 19253 19254 19255 19256 19257 19258 19259 19260 19261 19262 19263 19264 19265 19266 19267 19268 19269 19270 19271 19272 19273 19274 19275 19276 19277 19278 19279 19280 19281 19282 19283 19284 19285 19286 19287 19288 19289 19290 19291 19292 19293 19294 19295 19296 19297 19298 19299 19300 19301 19302 19303 19304 19305 19306 19307 19308 19309 19310 19311 19312 19313 19314 19315 19316 19317 19318 19319 19320 19321 19322 19323 19324 19325 19326 19327 19328 19329 19330 19331 19332 19333 19334 19335 19336 19337 19338 19339 19340 19341 19342 19343 19344 19345 19346 19347 19348 19349 19350 19351 19352 19353 19354 19355 19356 19357 19358 19359 19360 19361 19362 19363 19364 19365 19366 19367 19368 19369 19370 19371 19372 19373 19374 19375 19376 19377 19378 19379 19380 19381 19382 19383 19384 19385 19386 19387 19388 19389 19390 19391 19392 19393 19394 19395 19396 19397 19398 19399 19400 19401 19402 19403 19404 19405 19406 19407 19408 19409 19410 19411 19412 19413 19414 19415 19416 19417 19418 19419 19420 19421 19422 19423 19424 19425 19426 19427 19428 19429 19430 19431 19432 19433 19434 19435 19436 19437 19438 19439 19440 19441 19442 19443 19444 19445 19446 19447 19448 19449 19450 19451 19452 19453 19454 19455 19456 19457 19458 19459 19460 19461 19462 19463 19464 19465 19466 19467 19468 19469 19470 19471 19472 19473 19474 19475 19476 19477 19478 19479 19480 19481 19482 19483 19484 19485 19486 19487 19488 19489 19490 19491 19492 19493 19494 19495 19496 19497 19498 19499 19500 19501 19502 19503 19504 19505 19506 19507 19508 19509 19510 19511 19512 19513 19514 19515 19516 19517 19518 19519 19520 19521 19522 19523 19524 19525 19526 19527 19528 19529 19530 19531 19532 19533 19534 19535 19536 19537 19538 19539 19540 19541 19542 19543 19544 19545 19546 19547 19548 19549 19550 19551 19552 19553 19554 19555 19556 19557 19558 19559 19560 19561 19562 19563 19564 19565 19566 19567 19568 19569 19570 19571 19572 19573 19574 19575 19576 19577 19578 19579 19580 19581 19582 19583 19584 19585 19586 19587 19588 19589 19590 19591 19592 19593 19594 19595 19596 19597 19598 19599 19600 19601 19602 19603 19604 19605 19606 19607 19608 19609 19610 19611 19612 19613 19614 19615 19616 19617 19618 19619 19620 19621 19622 19623 19624 19625 19626 19627 19628 19629 19630 19631 19632 19633 19634 19635 19636 19637 19638 19639 19640 19641 19642 19643 19644 19645 19646 19647 19648 19649 19650 19651 19652 19653 19654 19655 19656 19657 19658 19659 19660 19661 19662 19663 19664 19665 19666 19667 19668 19669 19670 19671 19672 19673 19674 19675 19676 19677 19678 19679 19680 19681 19682 19683 19684 19685 19686 19687 19688 19689 19690 19691 19692 19693 19694 19695 19696 19697 19698 19699 19700 19701 19702 19703 19704 19705 19706 19707 19708 19709 19710 19711 19712 19713 19714 19715 19716 19717 19718 19719 19720 19721 19722 19723 19724 19725 19726 19727 19728 19729 19730 19731 19732 19733 19734 19735 19736 19737 19738 19739 19740 19741 19742 19743 19744 19745 19746 19747 19748 19749 19750 19751 19752 19753 19754 19755 19756 19757 19758 19759 19760 19761 19762 19763 19764 19765 19766 19767 19768 19769 19770 19771 19772 19773 19774 19775 19776 19777 19778 19779 19780 19781 19782 19783 19784 19785 19786 19787 19788 19789 19790 19791 19792 19793 19794 19795 19796 19797 19798 19799 19800 19801 19802 19803 19804 19805 19806 19807 19808 19809 19810 19811 19812 19813 19814 19815 19816 19817 19818 19819 19820 19821 19822 19823 19824 19825 19826 19827 19828 19829 19830 19831 19832 19833 19834 19835 19836 19837 19838 19839 19840 19841 19842 19843 19844 19845 19846 19847 19848 19849 19850 19851 19852 19853 19854 19855 19856 19857 19858 19859 19860 19861 19862 19863 19864 19865 19866 19867 19868 19869 19870 19871 19872 19873 19874 19875 19876 19877 19878 19879 19880 19881 19882 19883 19884 19885 19886 19887 19888 19889 19890 19891 19892 19893 19894 19895 19896 19897 19898 19899 19900 19901 19902 19903 19904 19905 19906 19907 19908 19909 19910 19911 19912 19913 19914 19915 19916 19917 19918 19919 19920 19921 19922 19923 19924 19925 19926 19927 19928 19929 19930 19931 19932 19933 19934 19935 19936 19937 19938 19939 19940 19941 19942 19943 19944 19945 19946 19947 19948 19949 19950 19951 19952 19953 19954 19955 19956 19957 19958 19959 19960 19961 19962 19963 19964 19965 19966 19967 19968 19969 19970 19971 19972 19973 19974 19975 19976 19977 19978 19979 19980 19981 19982 19983 19984 19985 19986 19987 19988 19989 19990 19991 19992 19993 19994 19995 19996 19997 19998 19999 20000 20001 20002 20003 20004 20005 20006 20007 20008 20009 20010 20011 20012 20013 20014 20015 20016 20017 20018 20019 20020 20021 20022 20023 20024 20025 20026 20027 20028 20029 20030 20031 20032 20033 20034 20035 20036 20037 20038 20039 20040 20041 20042 20043 20044 20045 20046 20047 20048 20049 20050 20051 20052 20053 20054 20055 20056 20057 20058 20059 20060 20061 20062 20063 20064 20065 20066 20067 20068 20069 20070 20071 20072 20073 20074 20075 20076 20077 20078 20079 20080 20081 20082 20083 20084 20085 20086 20087 20088 20089 20090 20091 20092 20093 20094 20095 20096 20097 20098 20099 20100 20101 20102 20103 20104 20105 20106 20107 20108 20109 20110 20111 20112 20113 20114 20115 20116 20117 20118 20119 20120 20121 20122 20123 20124 20125 20126 20127 20128 20129 20130 20131 20132 20133 20134 20135 20136 20137 20138 20139 20140 20141 20142 20143 20144 20145 20146 20147 20148 20149 20150 20151 20152 20153 20154 20155 20156 20157 20158 20159 20160 20161 20162 20163 20164 20165 20166 20167 20168 20169 20170 20171 20172 20173 20174 20175 20176 20177 20178 20179 20180 20181 20182 20183 20184 20185 20186 20187 20188 20189 20190 20191 20192 20193 20194 20195 20196 20197 20198 20199 20200 20201 20202 20203 20204 20205 20206 20207 20208 20209 20210 20211 20212 20213 20214 20215 20216 20217 20218 20219 20220 20221 20222 20223 20224 20225 20226 20227 20228 20229 20230 20231 20232 20233 20234 20235 20236 20237 20238 20239 20240 20241 20242 20243 20244 20245 20246 20247 20248 20249 20250 20251 20252 20253 20254 20255 20256 20257 20258 20259 20260 20261 20262 20263 20264 20265 20266 20267 20268 20269 20270 20271 20272 20273 20274 20275 20276 20277 20278 20279 20280 20281 20282 20283 20284 20285 20286 20287 20288 20289 20290 20291 20292 20293 20294 20295 20296 20297 20298 20299 20300 20301 20302 20303 20304 20305 20306 20307 20308 20309 20310 20311 20312 20313 20314 20315 20316 20317 20318 20319 20320 20321 20322 20323 20324 20325 20326 20327 20328 20329 20330 20331 20332 20333 20334 20335 20336 20337 20338 20339 20340 20341 20342 20343 20344 20345 20346 20347 20348 20349 20350 20351 20352 20353 20354 20355 20356 20357 20358 20359 20360 20361 20362 20363 20364 20365 20366 20367 20368 20369 20370 20371 20372 20373 20374 20375 20376 20377 20378 20379 20380 20381 20382 20383 20384 20385 20386 20387 20388 20389 20390 20391 20392 20393 20394 20395 20396 20397 20398 20399 20400 20401 20402 20403 20404 20405 20406 20407 20408 20409 20410 20411 20412 20413 20414 20415 20416 20417 20418 20419 20420 20421 20422 20423 20424 20425 20426 20427 20428 20429 20430 20431 20432 20433 20434 20435 20436 20437 20438 20439 20440 20441 20442 20443 20444 20445 20446 20447 20448 20449 20450 20451 20452 20453 20454 20455 20456 20457 20458 20459 20460 20461 20462 20463 20464 20465 20466 20467 20468 20469 20470 20471 20472 20473 20474 20475 20476 20477 20478 20479 20480 20481 20482 20483 20484 20485 20486 20487 20488 20489 20490 20491 20492 20493 20494 20495 20496 20497 20498 20499 20500 20501 20502 20503 20504 20505 20506 20507 20508 20509 20510 20511 20512 20513 20514 20515 20516 20517 20518 20519 20520 20521 20522 20523 20524 20525 20526 20527 20528 20529 20530 20531 20532 20533 20534 20535 20536 20537 20538 20539 20540 20541 20542 20543 20544 20545 20546 20547 20548 20549 20550 20551 20552 20553 20554 20555 20556 20557 20558 20559 20560 20561 20562 20563 20564 20565 20566 20567 20568 20569 20570 20571 20572 20573 20574 20575 20576 20577 20578 20579 20580 20581 20582 20583 20584 20585 20586 20587 20588 20589 20590 20591 20592 20593 20594 20595 20596 20597 20598 20599 20600 20601 20602 20603 20604 20605 20606 20607 20608 20609 20610 20611 20612 20613 20614 20615 20616 20617 20618 20619 20620 20621 20622 20623 20624 20625 20626 20627 20628 20629 20630 20631 20632 20633 20634 20635 20636 20637 20638 20639 20640 20641 20642 20643 20644 20645 20646 20647 20648 20649 20650 20651 20652 20653 20654 20655 20656 20657 20658 20659 20660 20661 20662 20663 20664 20665 20666 20667 20668 20669 20670 20671 20672 20673 20674 20675 20676 20677 20678 20679 20680 20681 20682 20683 20684 20685 20686 20687 20688 20689 20690 20691 20692 20693 20694 20695 20696 20697 20698 20699 20700 20701 20702 20703 20704 20705 20706 20707 20708 20709 20710 20711 20712 20713 20714 20715 20716 20717 20718 20719 20720 20721 20722 20723 20724 20725 20726 20727 20728 20729 20730 20731 20732 20733 20734 20735 20736 20737 20738 20739 20740 20741 20742 20743 20744 20745 20746 20747 20748 20749 20750 20751 20752 20753 20754 20755 20756 20757 20758 20759 20760 20761 20762 20763 20764 20765 20766 20767 20768 20769 20770 20771 20772 20773 20774 20775 20776 20777 20778 20779 20780 20781 20782 20783 20784 20785 20786 20787 20788 20789 20790 20791 20792 20793 20794 20795 20796 20797 20798 20799 20800 20801 20802 20803 20804 20805 20806 20807 20808 20809 20810 20811 20812 20813 20814 20815 20816 20817 20818 20819 20820 20821 20822 20823 20824 20825 20826 20827 20828 20829 20830 20831 20832 20833 20834 20835 20836 20837 20838 20839 20840 20841 20842 20843 20844 20845 20846 20847 20848 20849 20850 20851 20852 20853 20854 20855 20856 20857 20858 20859 20860 20861 20862 20863 20864 20865 20866 20867 20868 20869 20870 20871 20872 20873 20874 20875 20876 20877 20878 20879 20880 20881 20882 20883 20884 20885 20886 20887 20888 20889 20890 20891 20892 20893 20894 20895 20896 20897 20898 20899 20900 20901 20902 20903 20904 20905 20906 20907 20908 20909 20910 20911 20912 20913 20914 20915 20916 20917 20918 20919 20920 20921 20922 20923 20924 20925 20926 20927 20928 20929 20930 20931 20932 20933 20934 20935 20936 20937 20938 20939 20940 20941 20942 20943 20944 20945 20946 20947 20948 20949 20950 20951 20952 20953 20954 20955 20956 20957 20958 20959 20960 20961 20962 20963 20964 20965 20966 20967 20968 20969 20970 20971 20972 20973 20974 20975 20976 20977 20978 20979 20980 20981 20982 20983 20984 20985 20986 20987 20988 20989 20990 20991 20992 20993 20994 20995 20996 20997 20998 20999 21000 21001 21002 21003 21004 21005 21006 21007 21008 21009 21010 21011 21012 21013 21014 21015 21016 21017 21018 21019 21020 21021 21022 21023 21024 21025 21026 21027 21028 21029 21030 21031 21032 21033 21034 21035 21036 21037 21038 21039 21040 21041 21042 21043 21044 21045 21046 21047 21048 21049 21050 21051 21052 21053 21054 21055 21056 21057 21058 21059 21060 21061 21062 21063 21064 21065 21066 21067 21068 21069 21070 21071 21072 21073 21074 21075 21076 21077 21078 21079 21080 21081 21082 21083 21084 21085 21086 21087 21088 21089 21090 21091 21092 21093 21094 21095 21096 21097 21098 21099 21100 21101 21102 21103 21104 21105 21106 21107 21108 21109 21110 21111 21112 21113 21114 21115 21116 21117 21118 21119 21120 21121 21122 21123 21124 21125 21126 21127 21128 21129 21130 21131 21132 21133 21134 21135 21136 21137 21138 21139 21140 21141 21142 21143 21144 21145 21146 21147 21148 21149 21150 21151 21152 21153 21154 21155 21156 21157 21158 21159 21160 21161 21162 21163 21164 21165 21166 21167 21168 21169 21170 21171 21172 21173 21174 21175 21176 21177 21178 21179 21180 21181 21182 21183 21184 21185 21186 21187 21188 21189 21190 21191 21192 21193 21194 21195 21196 21197 21198 21199 21200 21201 21202 21203 21204 21205 21206 21207 21208 21209 21210 21211 21212 21213 21214 21215 21216 21217 21218 21219 21220 21221 21222 21223 21224 21225 21226 21227 21228 21229 21230 21231 21232 21233 21234 21235 21236 21237 21238 21239 21240 21241 21242 21243 21244 21245 21246 21247 21248 21249 21250 21251 21252 21253 21254 21255 21256 21257 21258 21259 21260 21261 21262 21263 21264 21265 21266 21267 21268 21269 21270 21271 21272 21273 21274 21275 21276 21277 21278 21279 21280 21281 21282 21283 21284 21285 21286 21287 21288 21289 21290 21291 21292 21293 21294 21295 21296 21297 21298 21299 21300 21301 21302 21303 21304 21305 21306 21307 21308 21309 21310 21311 21312 21313 21314 21315 21316 21317 21318 21319 21320 21321 21322 21323 21324 21325 21326 21327 21328 21329 21330 21331 21332 21333 21334 21335 21336 21337 21338 21339 21340 21341 21342 21343 21344 21345 21346 21347 21348 21349 21350 21351 21352 21353 21354 21355 21356 21357 21358 21359 21360 21361 21362 21363 21364 21365 21366 21367 21368 21369 21370 21371 21372 21373 21374 21375 21376 21377 21378 21379 21380 21381 21382 21383 21384 21385 21386 21387 21388 21389 21390 21391 21392 21393 21394 21395 21396 21397 21398 21399 21400 21401 21402 21403 21404 21405 21406 21407 21408 21409 21410 21411 21412 21413 21414 21415 21416 21417 21418 21419 21420 21421 21422 21423 21424 21425 21426 21427 21428 21429 21430 21431 21432 21433 21434 21435 21436 21437 21438 21439 21440 21441 21442 21443 21444 21445 21446 21447 21448 21449 21450 21451 21452 21453 21454 21455 21456 21457 21458 21459 21460 21461 21462 21463 21464 21465 21466 21467 21468 21469 21470 21471 21472 21473 21474 21475 21476 21477 21478 21479 21480 21481 21482 21483 21484 21485 21486 21487 21488 21489 21490 21491 21492 21493 21494 21495 21496 21497 21498 21499 21500 21501 21502 21503 21504 21505 21506 21507 21508 21509 21510 21511 21512 21513 21514 21515 21516 21517 21518 21519 21520 21521 21522 21523 21524 21525 21526 21527 21528 21529 21530 21531 21532 21533 21534 21535 21536 21537 21538 21539 21540 21541 21542 21543 21544 21545 21546 21547 21548 21549 21550 21551 21552 21553 21554 21555 21556 21557 21558 21559 21560 21561 21562 21563 21564 21565 21566 21567 21568 21569 21570 21571 21572 21573 21574 21575 21576 21577 21578 21579 21580 21581 21582 21583 21584 21585 21586 21587 21588 21589 21590 21591 21592 21593 21594 21595 21596 21597 21598 21599 21600 21601 21602 21603 21604 21605 21606 21607 21608 21609 21610 21611 21612 21613 21614 21615 21616 21617 21618 21619 21620 21621 21622 21623 21624 21625 21626 21627 21628 21629 21630 21631 21632 21633 21634 21635 21636 21637 21638 21639 21640 21641 21642 21643 21644 21645 21646 21647 21648 21649 21650 21651 21652 21653 21654 21655 21656 21657 21658 21659 21660 21661 21662 21663 21664 21665 21666 21667 21668 21669 21670 21671 21672 21673 21674 21675 21676 21677 21678 21679 21680 21681 21682 21683 21684 21685 21686 21687 21688 21689 21690 21691 21692 21693 21694 21695 21696 21697 21698 21699 21700 21701 21702 21703 21704 21705 21706 21707 21708 21709 21710 21711 21712 21713 21714 21715 21716 21717 21718 21719 21720 21721 21722 21723 21724 21725 21726 21727 21728 21729 21730 21731 21732 21733 21734 21735 21736 21737 21738 21739 21740 21741 21742 21743 21744 21745 21746 21747 21748 21749 21750 21751 21752 21753 21754 21755 21756 21757 21758 21759 21760 21761 21762 21763 21764 21765 21766 21767 21768 21769 21770 21771 21772 21773 21774 21775 21776 21777 21778 21779 21780 21781 21782 21783 21784 21785 21786 21787 21788 21789 21790 21791 21792 21793 21794 21795 21796 21797 21798 21799 21800 21801 21802 21803 21804 21805 21806 21807 21808 21809 21810 21811 21812 21813 21814 21815 21816 21817 21818 21819 21820 21821 21822 21823 21824 21825 21826 21827 21828 21829 21830 21831 21832 21833 21834 21835 21836 21837 21838 21839 21840 21841 21842 21843 21844 21845 21846 21847 21848 21849 21850 21851 21852 21853 21854 21855 21856 21857 21858 21859 21860 21861 21862 21863 21864 21865 21866 21867 21868 21869 21870 21871 21872 21873 21874 21875 21876 21877 21878 21879 21880 21881 21882 21883 21884 21885 21886 21887 21888 21889 21890 21891 21892 21893 21894 21895 21896 21897 21898 21899 21900 21901 21902 21903 21904 21905 21906 21907 21908 21909 21910 21911 21912 21913 21914 21915 21916 21917 21918 21919 21920 21921 21922 21923 21924 21925 21926 21927 21928 21929 21930 21931 21932 21933 21934 21935 21936 21937 21938 21939 21940 21941 21942 21943 21944 21945 21946 21947 21948 21949 21950 21951 21952 21953 21954 21955 21956 21957 21958 21959 21960 21961 21962 21963 21964 21965 21966 21967 21968 21969 21970 21971 21972 21973 21974 21975 21976 21977 21978 21979 21980 21981 21982 21983 21984 21985 21986 21987 21988 21989 21990 21991 21992 21993 21994 21995 21996 21997 21998 21999 22000 22001 22002 22003 22004 22005 22006 22007 22008 22009 22010 22011 22012 22013 22014 22015 22016 22017 22018 22019 22020 22021 22022 22023 22024 22025 22026 22027 22028 22029 22030 22031 22032 22033 22034 22035 22036 22037 22038 22039 22040 22041 22042 22043 22044 22045 22046 22047 22048 22049 22050 22051 22052 22053 22054 22055 22056 22057 22058 22059 22060 22061 22062 22063 22064 22065 22066 22067 22068 22069 22070 22071 22072 22073 22074 22075 22076 22077 22078 22079 22080 22081 22082 22083 22084 22085 22086 22087 22088 22089 22090 22091 22092 22093 22094 22095 22096 22097 22098 22099 22100 22101 22102 22103 22104 22105 22106 22107 22108 22109 22110 22111 22112 22113 22114 22115 22116 22117 22118 22119 22120 22121 22122 22123 22124 22125 22126 22127 22128 22129 22130 22131 22132 22133 22134 22135 22136 22137 22138 22139 22140 22141 22142 22143 22144 22145 22146 22147 22148 22149 22150 22151 22152 22153 22154 22155 22156 22157 22158 22159 22160 22161 22162 22163 22164 22165 22166 22167 22168 22169 22170 22171 22172 22173 22174 22175 22176 22177 22178 22179 22180 22181 22182 22183 22184 22185 22186 22187 22188 22189 22190 22191 22192 22193 22194 22195 22196 22197 22198 22199 22200 22201 22202 22203 22204 22205 22206 22207 22208 22209 22210 22211 22212 22213 22214 22215 22216 22217 22218 22219 22220 22221 22222 22223 22224 22225 22226 22227 22228 22229 22230 22231 22232 22233 22234 22235 22236 22237 22238 22239 22240 22241 22242 22243 22244 22245 22246 22247 22248 22249 22250 22251 22252 22253 22254 22255 22256 22257 22258 22259 22260 22261 22262 22263 22264 22265 22266 22267 22268 22269 22270 22271 22272 22273 22274 22275 22276 22277 22278 22279 22280 22281 22282 22283 22284 22285 22286 22287 22288 22289 22290 22291 22292 22293 22294 22295 22296 22297 22298 22299 22300 22301 22302 22303 22304 22305 22306 22307 22308 22309 22310 22311 22312 22313 22314 22315 22316 22317 22318 22319 22320 22321 22322 22323 22324 22325 22326 22327 22328 22329 22330 22331 22332 22333 22334 22335 22336 22337 22338 22339 22340 22341 22342 22343 22344 22345 22346 22347 22348 22349 22350 22351 22352 22353 22354 22355 22356 22357 22358 22359 22360 22361 22362 22363 22364 22365 22366 22367 22368 22369 22370 22371 22372 22373 22374 22375 22376 22377 22378 22379 22380 22381 22382 22383 22384 22385 22386 22387 22388 22389 22390 22391 22392 22393 22394 22395 22396 22397 22398 22399 22400 22401 22402 22403 22404 22405 22406 22407 22408 22409 22410 22411 22412 22413 22414 22415 22416 22417 22418 22419 22420 22421 22422 22423 22424 22425 22426 22427 22428 22429 22430 22431 22432 22433 22434 22435 22436 22437 22438 22439 22440 22441 22442 22443 22444 22445 22446 22447 22448 22449 22450 22451 22452 22453 22454 22455 22456 22457 22458 22459 22460 22461 22462 22463 22464 22465 22466 22467 22468 22469 22470 22471 22472 22473 22474 22475 22476 22477 22478 22479 22480 22481 22482 22483 22484 22485 22486 22487 22488 22489 22490 22491 22492 22493 22494 22495 22496 22497 22498 22499 22500 22501 22502 22503 22504 22505 22506 22507 22508 22509 22510 22511 22512 22513 22514 22515 22516 22517 22518 22519 22520 22521 22522 22523 22524 22525 22526 22527 22528 22529 22530 22531 22532 22533 22534 22535 22536 22537 22538 22539 22540 22541 22542 22543 22544 22545 22546 22547 22548 22549 22550 22551 22552 22553 22554 22555 22556 22557 22558 22559 22560 22561 22562 22563 22564 22565 22566 22567 22568 22569 22570 22571 22572 22573 22574 22575 22576 22577 22578 22579 22580 22581 22582 22583 22584 22585 22586 22587 22588 22589 22590 22591 22592 22593 22594 22595 22596 22597 22598 22599 22600 22601 22602 22603 22604 22605 22606 22607 22608 22609 22610 22611 22612 22613 22614 22615 22616 22617 22618 22619 22620 22621 22622 22623 22624 22625 22626 22627 22628 22629 22630 22631 22632 22633 22634 22635 22636 22637 22638 22639 22640 22641 22642 22643 22644 22645 22646 22647 22648 22649 22650 22651 22652 22653 22654 22655 22656 22657 22658 22659 22660 22661 22662 22663 22664 22665 22666 22667 22668 22669 22670 22671 22672 22673 22674 22675 22676 22677 22678 22679 22680 22681 22682 22683 22684 22685 22686 22687 22688 22689 22690 22691 22692 22693 22694 22695 22696 22697 22698 22699 22700 22701 22702 22703 22704 22705 22706 22707 22708 22709 22710 22711 22712 22713 22714 22715 22716 22717 22718 22719 22720 22721 22722 22723 22724 22725 22726 22727 22728 22729 22730 22731 22732 22733 22734 22735 22736 22737 22738 22739 22740 22741 22742 22743 22744 22745 22746 22747 22748 22749 22750 22751 22752 22753 22754 22755 22756 22757 22758 22759 22760 22761 22762 22763 22764 22765 22766 22767 22768 22769 22770 22771 22772 22773 22774 22775 22776 22777 22778 22779 22780 22781 22782 22783 22784 22785 22786 22787 22788 22789 22790 22791 22792 22793 22794 22795 22796 22797 22798 22799 22800 22801 22802 22803 22804 22805 22806 22807 22808 22809 22810 22811 22812 22813 22814 22815 22816 22817 22818 22819 22820 22821 22822 22823 22824 22825 22826 22827 22828 22829 22830 22831 22832 22833 22834 22835 22836 22837 22838 22839 22840 22841 22842 22843 22844 22845 22846 22847 22848 22849 22850 22851 22852 22853 22854 22855 22856 22857 22858 22859 22860 22861 22862 22863 22864 22865 22866 22867 22868 22869 22870 22871 22872 22873 22874 22875 22876 22877 22878 22879 22880 22881 22882 22883 22884 22885 22886 22887 22888 22889 22890 22891 22892 22893 22894 22895 22896 22897 22898 22899 22900 22901 22902 22903 22904 22905 22906 22907 22908 22909 22910 22911 22912 22913 22914 22915 22916 22917 22918 22919 22920 22921 22922 22923 22924 22925 22926 22927 22928 22929 22930 22931 22932 22933 22934 22935 22936 22937 22938 22939 22940 22941 22942 22943 22944 22945 22946 22947 22948 22949 22950 22951 22952 22953 22954 22955 22956 22957 22958 22959 22960 22961 22962 22963 22964 22965 22966 22967 22968 22969 22970 22971 22972 22973 22974 22975 22976 22977 22978 22979 22980 22981 22982 22983 22984 22985 22986 22987 22988 22989 22990 22991 22992 22993 22994 22995 22996 22997 22998 22999 23000 23001 23002 23003 23004 23005 23006 23007 23008 23009 23010 23011 23012 23013 23014 23015 23016 23017 23018 23019 23020 23021 23022 23023 23024 23025 23026 23027 23028 23029 23030 23031 23032 23033 23034 23035 23036 23037 23038 23039 23040 23041 23042 23043 23044 23045 23046 23047 23048 23049 23050 23051 23052 23053 23054 23055 23056 23057 23058 23059 23060 23061 23062 23063 23064 23065 23066 23067 23068 23069 23070 23071 23072 23073 23074 23075 23076 23077 23078 23079 23080 23081 23082 23083 23084 23085 23086 23087 23088 23089 23090 23091 23092 23093 23094 23095 23096 23097 23098 23099 23100 23101 23102 23103 23104 23105 23106 23107 23108 23109 23110 23111 23112 23113 23114 23115 23116 23117 23118 23119 23120 23121 23122 23123 23124 23125 23126 23127 23128 23129 23130 23131 23132 23133 23134 23135 23136 23137 23138 23139 23140 23141 23142 23143 23144 23145 23146 23147 23148 23149 23150 23151 23152 23153 23154 23155 23156 23157 23158 23159 23160 23161 23162 23163 23164 23165 23166 23167 23168 23169 23170 23171 23172 23173 23174 23175 23176 23177 23178 23179 23180 23181 23182 23183 23184 23185 23186 23187 23188 23189 23190 23191 23192 23193 23194 23195 23196 23197 23198 23199 23200 23201 23202 23203 23204 23205 23206 23207 23208 23209 23210 23211 23212 23213 23214 23215 23216 23217 23218 23219 23220 23221 23222 23223 23224 23225 23226 23227 23228 23229 23230 23231 23232 23233 23234 23235 23236 23237 23238 23239 23240 23241 23242 23243 23244 23245 23246 23247 23248 23249 23250 23251 23252 23253 23254 23255 23256 23257 23258 23259 23260 23261 23262 23263 23264 23265 23266 23267 23268 23269 23270 23271 23272 23273 23274 23275 23276 23277 23278 23279 23280 23281 23282 23283 23284 23285 23286 23287 23288 23289 23290 23291 23292 23293 23294 23295 23296 23297 23298 23299 23300 23301 23302 23303 23304 23305 23306 23307 23308 23309 23310 23311 23312 23313 23314 23315 23316 23317 23318 23319 23320 23321 23322 23323 23324 23325 23326 23327 23328 23329 23330 23331 23332 23333 23334 23335 23336 23337 23338 23339 23340 23341 23342 23343 23344 23345 23346 23347 23348 23349 23350 23351 23352 23353 23354 23355 23356 23357 23358 23359 23360 23361 23362 23363 23364 23365 23366 23367 23368 23369 23370 23371 23372 23373 23374 23375 23376 23377 23378 23379 23380 23381 23382 23383 23384 23385 23386 23387 23388 23389 23390 23391 23392 23393 23394 23395 23396 23397 23398 23399 23400 23401 23402 23403 23404 23405 23406 23407 23408 23409 23410 23411 23412 23413 23414 23415 23416 23417 23418 23419 23420 23421 23422 23423 23424 23425 23426 23427 23428 23429 23430 23431 23432 23433 23434 23435 23436 23437 23438 23439 23440 23441 23442 23443 23444 23445 23446 23447 23448 23449 23450 23451 23452 23453 23454 23455 23456 23457 23458 23459 23460 23461 23462 23463 23464 23465 23466 23467 23468 23469 23470 23471 23472 23473 23474 23475 23476 23477 23478 23479 23480 23481 23482 23483 23484 23485 23486 23487 23488 23489 23490 23491 23492 23493 23494 23495 23496 23497 23498 23499 23500 23501 23502 23503 23504 23505 23506 23507 23508 23509 23510 23511 23512 23513 23514 23515 23516 23517 23518 23519 23520 23521 23522 23523 23524 23525 23526 23527 23528 23529 23530 23531 23532 23533 23534 23535 23536 23537 23538 23539 23540 23541 23542 23543 23544 23545 23546 23547 23548 23549 23550 23551 23552 23553 23554 23555 23556 23557 23558 23559 23560 23561 23562 23563 23564 23565 23566 23567 23568 23569 23570 23571 23572 23573 23574 23575 23576 23577 23578 23579 23580 23581 23582 23583 23584 23585 23586 23587 23588 23589 23590 23591 23592 23593 23594 23595 23596 23597 23598 23599 23600 23601 23602 23603 23604 23605 23606 23607 23608 23609 23610 23611 23612 23613 23614 23615 23616 23617 23618 23619 23620 23621 23622 23623 23624 23625 23626 23627 23628 23629 23630 23631 23632 23633 23634 23635 23636 23637 23638 23639 23640 23641 23642 23643 23644 23645 23646 23647 23648 23649 23650 23651 23652 23653 23654 23655 23656 23657 23658 23659 23660 23661 23662 23663 23664 23665 23666 23667 23668 23669 23670 23671 23672 23673 23674 23675 23676 23677 23678 23679 23680 23681 23682 23683 23684 23685 23686 23687 23688 23689 23690 23691 23692 23693 23694 23695 23696 23697 23698 23699 23700 23701 23702 23703 23704 23705 23706 23707 23708 23709 23710 23711 23712 23713 23714 23715 23716 23717 23718 23719 23720 23721 23722 23723 23724 23725 23726 23727 23728 23729 23730 23731 23732 23733 23734 23735 23736 23737 23738 23739 23740 23741 23742 23743 23744 23745 23746 23747 23748 23749 23750 23751 23752 23753 23754 23755 23756 23757 23758 23759 23760 23761 23762 23763 23764 23765 23766 23767 23768 23769 23770 23771 23772 23773 23774 23775 23776 23777 23778 23779 23780 23781 23782 23783 23784 23785 23786 23787 23788 23789 23790 23791 23792 23793 23794 23795 23796 23797 23798 23799 23800 23801 23802 23803 23804 23805 23806 23807 23808 23809 23810 23811 23812 23813 23814 23815 23816 23817 23818 23819 23820 23821 23822 23823 23824 23825 23826 23827 23828 23829 23830 23831 23832 23833 23834 23835 23836 23837 23838 23839 23840 23841 23842 23843 23844 23845 23846 23847 23848 23849 23850 23851 23852 23853 23854 23855 23856 23857 23858 23859 23860 23861 23862 23863 23864 23865 23866 23867 23868 23869 23870 23871 23872 23873 23874 23875 23876 23877 23878 23879 23880 23881 23882 23883 23884 23885 23886 23887 23888 23889 23890 23891 23892 23893 23894 23895 23896 23897 23898 23899 23900 23901 23902 23903 23904 23905 23906 23907 23908 23909 23910 23911 23912 23913 23914 23915 23916 23917 23918 23919 23920 23921 23922 23923 23924 23925 23926 23927 23928 23929 23930 23931 23932 23933 23934 23935 23936 23937 23938 23939 23940 23941 23942 23943 23944 23945 23946 23947 23948 23949 23950 23951 23952 23953 23954 23955 23956 23957 23958 23959 23960 23961 23962 23963 23964 23965 23966 23967 23968 23969 23970 23971 23972 23973 23974 23975 23976 23977 23978 23979 23980 23981 23982 23983 23984 23985 23986 23987 23988 23989 23990 23991 23992 23993 23994 23995 23996 23997 23998 23999 24000 24001 24002 24003 24004 24005 24006 24007 24008 24009 24010 24011 24012 24013 24014 24015 24016 24017 24018 24019 24020 24021 24022 24023 24024 24025 24026 24027 24028 24029 24030 24031 24032 24033 24034 24035 24036 24037 24038 24039 24040 24041 24042 24043 24044 24045 24046 24047 24048 24049 24050 24051 24052 24053 24054 24055 24056 24057 24058 24059 24060 24061 24062 24063 24064 24065 24066 24067 24068 24069 24070 24071 24072 24073 24074 24075 24076 24077 24078 24079 24080 24081 24082 24083 24084 24085 24086 24087 24088 24089 24090 24091 24092 24093 24094 24095 24096 24097 24098 24099 24100 24101 24102 24103 24104 24105 24106 24107 24108 24109 24110 24111 24112 24113 24114 24115 24116 24117 24118 24119 24120 24121 24122 24123 24124 24125 24126 24127 24128 24129 24130 24131 24132 24133 24134 24135 24136 24137 24138 24139 24140 24141 24142 24143 24144 24145 24146 24147 24148 24149 24150 24151 24152 24153 24154 24155 24156 24157 24158 24159 24160 24161 24162 24163 24164 24165 24166 24167 24168 24169 24170 24171 24172 24173 24174 24175 24176 24177 24178 24179 24180 24181 24182 24183 24184 24185 24186 24187 24188 24189 24190 24191 24192 24193 24194 24195 24196 24197 24198 24199 24200 24201 24202 24203 24204 24205 24206 24207 24208 24209 24210 24211 24212 24213 24214 24215 24216 24217 24218 24219 24220 24221 24222 24223 24224 24225 24226 24227 24228 24229 24230 24231 24232 24233 24234 24235 24236 24237 24238 24239 24240 24241 24242 24243 24244 24245 24246 24247 24248 24249 24250 24251 24252 24253 24254 24255 24256 24257 24258 24259 24260 24261 24262 24263 24264 24265 24266 24267 24268 24269 24270 24271 24272 24273 24274 24275 24276 24277 24278 24279 24280 24281 24282 24283 24284 24285 24286 24287 24288 24289 24290 24291 24292 24293 24294 24295 24296 24297 24298 24299 24300 24301 24302 24303 24304 24305 24306 24307 24308 24309 24310 24311 24312 24313 24314 24315 24316 24317 24318 24319 24320 24321 24322 24323 24324 24325 24326 24327 24328 24329 24330 24331 24332 24333 24334 24335 24336 24337 24338 24339 24340 24341 24342 24343 24344 24345 24346 24347 24348 24349 24350 24351 24352 24353 24354 24355 24356 24357 24358 24359 24360 24361 24362 24363 24364 24365 24366 24367 24368 24369 24370 24371 24372 24373 24374 24375 24376 24377 24378 24379 24380 24381 24382 24383 24384 24385 24386 24387 24388 24389 24390 24391 24392 24393 24394 24395 24396 24397 24398 24399 24400 24401 24402 24403 24404 24405 24406 24407 24408 24409 24410 24411 24412 24413 24414 24415 24416 24417 24418 24419 24420 24421 24422 24423 24424 24425 24426 24427 24428 24429 24430 24431 24432 24433 24434 24435 24436 24437 24438 24439 24440 24441 24442 24443 24444 24445 24446 24447 24448 24449 24450 24451 24452 24453 24454 24455 24456 24457 24458 24459 24460 24461 24462 24463 24464 24465 24466 24467 24468 24469 24470 24471 24472 24473 24474 24475 24476 24477 24478 24479 24480 24481 24482 24483 24484 24485 24486 24487 24488 24489 24490 24491 24492 24493 24494 24495 24496 24497 24498 24499 24500 24501 24502 24503 24504 24505 24506 24507 24508 24509 24510 24511 24512 24513 24514 24515 24516 24517 24518 24519 24520 24521 24522 24523 24524 24525 24526 24527 24528 24529 24530 24531 24532 24533 24534 24535 24536 24537 24538 24539 24540 24541 24542 24543 24544 24545 24546 24547 24548 24549 24550 24551 24552 24553 24554 24555 24556 24557 24558 24559 24560 24561 24562 24563 24564 24565 24566 24567 24568 24569 24570 24571 24572 24573 24574 24575 24576 24577 24578 24579 24580 24581 24582 24583 24584 24585 24586 24587 24588 24589 24590 24591 24592 24593 24594 24595 24596 24597 24598 24599 24600 24601 24602 24603 24604 24605 24606 24607 24608 24609 24610 24611 24612 24613 24614 24615 24616 24617 24618 24619 24620 24621 24622 24623 24624 24625 24626 24627 24628 24629 24630 24631 24632 24633 24634 24635 24636 24637 24638 24639 24640 24641 24642 24643 24644 24645 24646 24647 24648 24649 24650 24651 24652 24653 24654 24655 24656 24657 24658 24659 24660 24661 24662 24663 24664 24665 24666 24667 24668 24669 24670 24671 24672 24673 24674 24675 24676 24677 24678 24679 24680 24681 24682 24683 24684 24685 24686 24687 24688 24689 24690 24691 24692 24693 24694 24695 24696 24697 24698 24699 24700 24701 24702 24703 24704 24705 24706 24707 24708 24709 24710 24711 24712 24713 24714 24715 24716 24717 24718 24719 24720 24721 24722 24723 24724 24725 24726 24727 24728 24729 24730 24731 24732 24733 24734 24735 24736 24737 24738 24739 24740 24741 24742 24743 24744 24745 24746 24747 24748 24749 24750 24751 24752 24753 24754 24755 24756 24757 24758 24759 24760 24761 24762 24763 24764 24765 24766 24767 24768 24769 24770 24771 24772 24773 24774 24775 24776 24777 24778 24779 24780 24781 24782 24783 24784 24785 24786 24787 24788 24789 24790 24791 24792 24793 24794 24795 24796 24797 24798 24799 24800 24801 24802 24803 24804 24805 24806 24807 24808 24809 24810 24811 24812 24813 24814 24815 24816 24817 24818 24819 24820 24821 24822 24823 24824 24825 24826 24827 24828 24829 24830 24831 24832 24833 24834 24835 24836 24837 24838 24839 24840 24841 24842 24843 24844 24845 24846 24847 24848 24849 24850 24851 24852 24853 24854 24855 24856 24857 24858 24859 24860 24861 24862 24863 24864 24865 24866 24867 24868 24869 24870 24871 24872 24873 24874 24875 24876 24877 24878 24879 24880 24881 24882 24883 24884 24885 24886 24887 24888 24889 24890 24891 24892 24893 24894 24895 24896 24897 24898 24899 24900 24901 24902 24903 24904 24905 24906 24907 24908 24909 24910 24911 24912 24913 24914 24915 24916 24917 24918 24919 24920 24921 24922 24923 24924 24925 24926 24927 24928 24929 24930 24931 24932 24933 24934 24935 24936 24937 24938 24939 24940 24941 24942 24943 24944 24945 24946 24947 24948 24949 24950 24951 24952 24953 24954 24955 24956 24957 24958 24959 24960 24961 24962 24963 24964 24965 24966 24967 24968 24969 24970 24971 24972 24973 24974 24975 24976 24977 24978 24979 24980 24981 24982 24983 24984 24985 24986 24987 24988 24989 24990 24991 24992 24993 24994 24995 24996 24997 24998 24999 25000 25001 25002 25003 25004 25005 25006 25007 25008 25009 25010 25011 25012 25013 25014 25015 25016 25017 25018 25019 25020 25021 25022 25023 25024 25025 25026 25027 25028 25029 25030 25031 25032 25033 25034 25035 25036 25037 25038 25039 25040 25041 25042 25043 25044 25045 25046 25047 25048 25049 25050 25051 25052 25053 25054 25055 25056 25057 25058 25059 25060 25061 25062 25063 25064 25065 25066 25067 25068 25069 25070 25071 25072 25073 25074 25075 25076 25077 25078 25079 25080 25081 25082 25083 25084 25085 25086 25087 25088 25089 25090 25091 25092 25093 25094 25095 25096 25097 25098 25099 25100 25101 25102 25103 25104 25105 25106 25107 25108 25109 25110 25111 25112 25113 25114 25115 25116 25117 25118 25119 25120 25121 25122 25123 25124 25125 25126 25127 25128 25129 25130 25131 25132 25133 25134 25135 25136 25137 25138 25139 25140 25141 25142 25143 25144 25145 25146 25147 25148 25149 25150 25151 25152 25153 25154 25155 25156 25157 25158 25159 25160 25161 25162 25163 25164 25165 25166 25167 25168 25169 25170 25171 25172 25173 25174 25175 25176 25177 25178 25179 25180 25181 25182 25183 25184 25185 25186 25187 25188 25189 25190 25191 25192 25193 25194 25195 25196 25197 25198 25199 25200 25201 25202 25203 25204 25205 25206 25207 25208 25209 25210 25211 25212 25213 25214 25215 25216 25217 25218 25219 25220 25221 25222 25223 25224 25225 25226 25227 25228 25229 25230 25231 25232 25233 25234 25235 25236 25237 25238 25239 25240 25241 25242 25243 25244 25245 25246 25247 25248 25249 25250 25251 25252 25253 25254 25255 25256 25257 25258 25259 25260 25261 25262 25263 25264 25265 25266 25267 25268 25269 25270 25271 25272 25273 25274 25275 25276 25277 25278 25279 25280 25281 25282 25283 25284 25285 25286 25287 25288 25289 25290 25291 25292 25293 25294 25295 25296 25297 25298 25299 25300 25301 25302 25303 25304 25305 25306 25307 25308 25309 25310 25311 25312 25313 25314 25315 25316 25317 25318 25319 25320 25321 25322 25323 25324 25325 25326 25327 25328 25329 25330 25331 25332 25333 25334 25335 25336 25337 25338 25339 25340 25341 25342 25343 25344 25345 25346 25347 25348 25349 25350 25351 25352 25353 25354 25355 25356 25357 25358 25359 25360 25361 25362 25363 25364 25365 25366 25367 25368 25369 25370 25371 25372 25373 25374 25375 25376 25377 25378 25379 25380 25381 25382 25383 25384 25385 25386 25387 25388 25389 25390 25391 25392 25393 25394 25395 25396 25397 25398 25399 25400 25401 25402 25403 25404 25405 25406 25407 25408 25409 25410 25411 25412 25413 25414 25415 25416 25417 25418 25419 25420 25421 25422 25423 25424 25425 25426 25427 25428 25429 25430 25431 25432 25433 25434 25435 25436 25437 25438 25439 25440 25441 25442 25443 25444 25445 25446 25447 25448 25449 25450 25451 25452 25453 25454 25455 25456 25457 25458 25459 25460 25461 25462 25463 25464 25465 25466 25467 25468 25469 25470 25471 25472 25473 25474 25475 25476 25477 25478 25479 25480 25481 25482 25483 25484 25485 25486 25487 25488 25489 25490 25491 25492 25493 25494 25495 25496 25497 25498 25499 25500 25501 25502 25503 25504 25505 25506 25507 25508 25509 25510 25511 25512 25513 25514 25515 25516 25517 25518 25519 25520 25521 25522 25523 25524 25525 25526 25527 25528 25529 25530 25531 25532 25533 25534 25535 25536 25537 25538 25539 25540 25541 25542 25543 25544 25545 25546 25547 25548 25549 25550 25551 25552 25553 25554 25555 25556 25557 25558 25559 25560 25561 25562 25563 25564 25565 25566 25567 25568 25569 25570 25571 25572 25573 25574 25575 25576 25577 25578 25579 25580 25581 25582 25583 25584 25585 25586 25587 25588 25589 25590 25591 25592 25593 25594 25595 25596 25597 25598 25599 25600 25601 25602 25603 25604 25605 25606 25607 25608 25609 25610 25611 25612 25613 25614 25615 25616 25617 25618 25619 25620 25621 25622 25623 25624 25625 25626 25627 25628 25629 25630 25631 25632 25633 25634 25635 25636 25637 25638 25639 25640 25641 25642 25643 25644 25645 25646 25647 25648 25649 25650 25651 25652 25653 25654 25655 25656 25657 25658 25659 25660 25661 25662 25663 25664 25665 25666 25667 25668 25669 25670 25671 25672 25673 25674 25675 25676 25677 25678 25679 25680 25681 25682 25683 25684 25685 25686 25687 25688 25689 25690 25691 25692 25693 25694 25695 25696 25697 25698 25699 25700 25701 25702 25703 25704 25705 25706 25707 25708 25709 25710 25711 25712 25713 25714 25715 25716 25717 25718 25719 25720 25721 25722 25723 25724 25725 25726 25727 25728 25729 25730 25731 25732 25733 25734 25735 25736 25737 25738 25739 25740 25741 25742 25743 25744 25745 25746 25747 25748 25749 25750 25751 25752 25753 25754 25755 25756 25757 25758 25759 25760 25761 25762 25763 25764 25765 25766 25767 25768 25769 25770 25771 25772 25773 25774 25775 25776 25777 25778 25779 25780 25781 25782 25783 25784 25785 25786 25787 25788 25789 25790 25791 25792 25793 25794 25795 25796 25797 25798 25799 25800 25801 25802 25803 25804 25805 25806 25807 25808 25809 25810 25811 25812 25813 25814 25815 25816 25817 25818 25819 25820 25821 25822 25823 25824 25825 25826 25827 25828 25829 25830 25831 25832 25833 25834 25835 25836 25837 25838 25839 25840 25841 25842 25843 25844 25845 25846 25847 25848 25849 25850 25851 25852 25853 25854 25855 25856 25857 25858 25859 25860 25861 25862 25863 25864 25865 25866 25867 25868 25869 25870 25871 25872 25873 25874 25875 25876 25877 25878 25879 25880 25881 25882 25883 25884 25885 25886 25887 25888 25889 25890 25891 25892 25893 25894 25895 25896 25897 25898 25899 25900 25901 25902 25903 25904 25905 25906 25907 25908 25909 25910 25911 25912 25913 25914 25915 25916 25917 25918 25919 25920 25921 25922 25923 25924 25925 25926 25927 25928 25929 25930 25931 25932 25933 25934 25935 25936 25937 25938 25939 25940 25941 25942 25943 25944 25945 25946 25947 25948 25949 25950 25951 25952 25953 25954 25955 25956 25957 25958 25959 25960 25961 25962 25963 25964 25965 25966 25967 25968 25969 25970 25971 25972 25973 25974 25975 25976 25977 25978 25979 25980 25981 25982 25983 25984 25985 25986 25987 25988 25989 25990 25991 25992 25993 25994 25995 25996 25997 25998 25999 26000 26001 26002 26003 26004 26005 26006 26007 26008 26009 26010 26011 26012 26013 26014 26015 26016 26017 26018 26019 26020 26021 26022 26023 26024 26025 26026 26027 26028 26029 26030 26031 26032 26033 26034 26035 26036 26037 26038 26039 26040 26041 26042 26043 26044 26045 26046 26047 26048 26049 26050 26051 26052 26053 26054 26055 26056 26057 26058 26059 26060 26061 26062 26063 26064 26065 26066 26067 26068 26069 26070 26071 26072 26073 26074 26075 26076 26077 26078 26079 26080 26081 26082 26083 26084 26085 26086 26087 26088 26089 26090 26091 26092 26093 26094 26095 26096 26097 26098 26099 26100 26101 26102 26103 26104 26105 26106 26107 26108 26109 26110 26111 26112 26113 26114 26115 26116 26117 26118 26119 26120 26121 26122 26123 26124 26125 26126 26127 26128 26129 26130 26131 26132 26133 26134 26135 26136 26137 26138 26139 26140 26141 26142 26143 26144 26145 26146 26147 26148 26149 26150 26151 26152 26153 26154 26155 26156 26157 26158 26159 26160 26161 26162 26163 26164 26165 26166 26167 26168 26169 26170 26171 26172 26173 26174 26175 26176 26177 26178 26179 26180 26181 26182 26183 26184 26185 26186 26187 26188 26189 26190 26191 26192 26193 26194 26195 26196 26197 26198 26199 26200 26201 26202 26203 26204 26205 26206 26207 26208 26209 26210 26211 26212 26213 26214 26215 26216 26217 26218 26219 26220 26221 26222 26223 26224 26225 26226 26227 26228 26229 26230 26231 26232 26233 26234 26235 26236 26237 26238 26239 26240 26241 26242 26243 26244 26245 26246 26247 26248 26249 26250 26251 26252 26253 26254 26255 26256 26257 26258 26259 26260 26261 26262 26263 26264 26265 26266 26267 26268 26269 26270 26271 26272 26273 26274 26275 26276 26277 26278 26279 26280 26281 26282 26283 26284 26285 26286 26287 26288 26289 26290 26291 26292 26293 26294 26295 26296 26297 26298 26299 26300 26301 26302 26303 26304 26305 26306 26307 26308 26309 26310 26311 26312 26313 26314 26315 26316 26317 26318 26319 26320 26321 26322 26323 26324 26325 26326 26327 26328 26329 26330 26331 26332 26333 26334 26335 26336 26337 26338 26339 26340 26341 26342 26343 26344 26345 26346 26347 26348 26349 26350 26351 26352 26353 26354 26355 26356 26357 26358 26359 26360 26361 26362 26363 26364 26365 26366 26367 26368 26369 26370 26371 26372 26373 26374 26375 26376 26377 26378 26379 26380 26381 26382 26383 26384 26385 26386 26387 26388 26389 26390 26391 26392 26393 26394 26395 26396 26397 26398 26399 26400 26401 26402 26403 26404 26405 26406 26407 26408 26409 26410 26411 26412 26413 26414 26415 26416 26417 26418 26419 26420 26421 26422 26423 26424 26425 26426 26427 26428 26429 26430 26431 26432 26433 26434 26435 26436 26437 26438 26439 26440 26441 26442 26443 26444 26445 26446 26447 26448 26449 26450 26451 26452 26453 26454 26455 26456 26457 26458 26459 26460 26461 26462 26463 26464 26465 26466 26467 26468 26469 26470 26471 26472 26473 26474 26475 26476 26477 26478 26479 26480 26481 26482 26483 26484 26485 26486 26487 26488 26489 26490 26491 26492 26493 26494 26495 26496 26497 26498 26499 26500 26501 26502 26503 26504 26505 26506 26507 26508 26509 26510 26511 26512 26513 26514 26515 26516 26517 26518 26519 26520 26521 26522 26523 26524 26525 26526 26527 26528 26529 26530 26531 26532 26533 26534 26535 26536 26537 26538 26539 26540 26541 26542 26543 26544 26545 26546 26547 26548 26549 26550 26551 26552 26553 26554 26555 26556 26557 26558 26559 26560 26561 26562 26563 26564 26565 26566 26567 26568 26569 26570 26571 26572 26573 26574 26575 26576 26577 26578 26579 26580 26581 26582 26583 26584 26585 26586 26587 26588 26589 26590 26591 26592 26593 26594 26595 26596 26597 26598 26599 26600 26601 26602 26603 26604 26605 26606 26607 26608 26609 26610 26611 26612 26613 26614 26615 26616 26617 26618 26619 26620 26621 26622 26623 26624 26625 26626 26627 26628 26629 26630 26631 26632 26633 26634 26635 26636 26637 26638 26639 26640 26641 26642 26643 26644 26645 26646 26647 26648 26649 26650 26651 26652 26653 26654 26655 26656 26657 26658 26659 26660 26661 26662 26663 26664 26665 26666 26667 26668 26669 26670 26671 26672 26673 26674 26675 26676 26677 26678 26679 26680 26681 26682 26683 26684 26685 26686 26687 26688 26689 26690 26691 26692 26693 26694 26695 26696 26697 26698 26699 26700 26701 26702 26703 26704 26705 26706 26707 26708 26709 26710 26711 26712 26713 26714 26715 26716 26717 26718 26719 26720 26721 26722 26723 26724 26725 26726 26727 26728 26729 26730 26731 26732 26733 26734 26735 26736 26737 26738 26739 26740 26741 26742 26743 26744 26745 26746 26747 26748 26749 26750 26751 26752 26753 26754 26755 26756 26757 26758 26759 26760 26761 26762 26763 26764 26765 26766 26767 26768 26769 26770 26771 26772 26773 26774 26775 26776 26777 26778 26779 26780 26781 26782 26783 26784 26785 26786 26787 26788 26789 26790 26791 26792 26793 26794 26795 26796 26797 26798 26799 26800 26801 26802 26803 26804 26805 26806 26807 26808 26809 26810 26811 26812 26813 26814 26815 26816 26817 26818 26819 26820 26821 26822 26823 26824 26825 26826 26827 26828 26829 26830 26831 26832 26833 26834 26835 26836 26837 26838 26839 26840 26841 26842 26843 26844 26845 26846 26847 26848 26849 26850 26851 26852 26853 26854 26855 26856 26857 26858 26859 26860 26861 26862 26863 26864 26865 26866 26867 26868 26869 26870 26871 26872 26873 26874 26875 26876 26877 26878 26879 26880 26881 26882 26883 26884 26885 26886 26887 26888 26889 26890 26891 26892 26893 26894 26895 26896 26897 26898 26899 26900 26901 26902 26903 26904 26905 26906 26907 26908 26909 26910 26911 26912 26913 26914 26915 26916 26917 26918 26919 26920 26921 26922 26923 26924 26925 26926 26927 26928 26929 26930 26931 26932 26933 26934 26935 26936 26937 26938 26939 26940 26941 26942 26943 26944 26945 26946 26947 26948 26949 26950 26951 26952 26953 26954 26955 26956 26957 26958 26959 26960 26961 26962 26963 26964 26965 26966 26967 26968 26969 26970 26971 26972 26973 26974 26975 26976 26977 26978 26979 26980 26981 26982 26983 26984 26985 26986 26987 26988 26989 26990 26991 26992 26993 26994 26995 26996 26997 26998 26999 27000 27001 27002 27003 27004 27005 27006 27007 27008 27009 27010 27011 27012 27013 27014 27015 27016 27017 27018 27019 27020 27021 27022 27023 27024 27025 27026 27027 27028 27029 27030 27031 27032 27033 27034 27035 27036 27037 27038 27039 27040 27041 27042 27043 27044 27045 27046 27047 27048 27049 27050 27051 27052 27053 27054 27055 27056 27057 27058 27059 27060 27061 27062 27063 27064 27065 27066 27067 27068 27069 27070 27071 27072 27073 27074 27075 27076 27077 27078 27079 27080 27081 27082 27083 27084 27085 27086 27087 27088 27089 27090 27091 27092 27093 27094 27095 27096 27097 27098 27099 27100 27101 27102 27103 27104 27105 27106 27107 27108 27109 27110 27111 27112 27113 27114 27115 27116 27117 27118 27119 27120 27121 27122 27123 27124 27125 27126 27127 27128 27129 27130 27131 27132 27133 27134 27135 27136 27137 27138 27139 27140 27141 27142 27143 27144 27145 27146 27147 27148 27149 27150 27151 27152 27153 27154 27155 27156 27157 27158 27159 27160 27161 27162 27163 27164 27165 27166 27167 27168 27169 27170 27171 27172 27173 27174 27175 27176 27177 27178 27179 27180 27181 27182 27183 27184 27185 27186 27187 27188 27189 27190 27191 27192 27193 27194 27195 27196 27197 27198 27199 27200 27201 27202 27203 27204 27205 27206 27207 27208 27209 27210 27211 27212 27213 27214 27215 27216 27217 27218 27219 27220 27221 27222 27223 27224 27225 27226 27227 27228 27229 27230 27231 27232 27233 27234 27235 27236 27237 27238 27239 27240 27241 27242 27243 27244 27245 27246 27247 27248 27249 27250 27251 27252 27253 27254 27255 27256 27257 27258 27259 27260 27261 27262 27263 27264 27265 27266 27267 27268 27269 27270 27271 27272 27273 27274 27275 27276 27277 27278 27279 27280 27281 27282 27283 27284 27285 27286 27287 27288 27289 27290 27291 27292 27293 27294 27295 27296 27297 27298 27299 27300 27301 27302 27303 27304 27305 27306 27307 27308 27309 27310 27311 27312 27313 27314 27315 27316 27317 27318 27319 27320 27321 27322 27323 27324 27325 27326 27327 27328 27329 27330 27331 27332 27333 27334 27335 27336 27337 27338 27339 27340 27341 27342 27343 27344 27345 27346 27347 27348 27349 27350 27351 27352 27353 27354 27355 27356 27357 27358 27359 27360 27361 27362 27363 27364 27365 27366 27367 27368 27369 27370 27371 27372 27373 27374 27375 27376 27377 27378 27379 27380 27381 27382 27383 27384 27385 27386 27387 27388 27389 27390 27391 27392 27393 27394 27395 27396 27397 27398 27399 27400 27401 27402 27403 27404 27405 27406 27407 27408 27409 27410 27411 27412 27413 27414 27415 27416 27417 27418 27419 27420 27421 27422 27423 27424 27425 27426 27427 27428 27429 27430 27431 27432 27433 27434 27435 27436 27437 27438 27439 27440 27441 27442 27443 27444 27445 27446 27447 27448 27449 27450 27451 27452 27453 27454 27455 27456 27457 27458 27459 27460 27461 27462 27463 27464 27465 27466 27467 27468 27469 27470 27471 27472 27473 27474 27475 27476 27477 27478 27479 27480 27481 27482 27483 27484 27485 27486 27487 27488 27489 27490 27491 27492 27493 27494 27495 27496 27497 27498 27499 27500 27501 27502 27503 27504 27505 27506 27507 27508 27509 27510 27511 27512 27513 27514 27515 27516 27517 27518 27519 27520 27521 27522 27523 27524 27525 27526 27527 27528 27529 27530 27531 27532 27533 27534 27535 27536 27537 27538 27539 27540 27541 27542 27543 27544 27545 27546 27547 27548 27549 27550 27551 27552 27553 27554 27555 27556 27557 27558 27559 27560 27561 27562 27563 27564 27565 27566 27567 27568 27569 27570 27571 27572 27573 27574 27575 27576 27577 27578 27579 27580 27581 27582 27583 27584 27585 27586 27587 27588 27589 27590 27591 27592 27593 27594 27595 27596 27597 27598 27599 27600 27601 27602 27603 27604 27605 27606 27607 27608 27609 27610 27611 27612 27613 27614 27615 27616 27617 27618 27619 27620 27621 27622 27623 27624 27625 27626 27627 27628 27629 27630 27631 27632 27633 27634 27635 27636 27637 27638 27639 27640 27641 27642 27643 27644 27645 27646 27647 27648 27649 27650 27651 27652 27653 27654 27655 27656 27657 27658 27659 27660 27661 27662 27663 27664 27665 27666 27667 27668 27669 27670 27671 27672 27673 27674 27675 27676 27677 27678 27679 27680 27681 27682 27683 27684 27685 27686 27687 27688 27689 27690 27691 27692 27693 27694 27695 27696 27697 27698 27699 27700 27701 27702 27703 27704 27705 27706 27707 27708 27709 27710 27711 27712 27713 27714 27715 27716 27717 27718 27719 27720 27721 27722 27723 27724 27725 27726 27727 27728 27729 27730 27731 27732 27733 27734 27735 27736 27737 27738 27739 27740 27741 27742 27743 27744 27745 27746 27747 27748 27749 27750 27751 27752 27753 27754 27755 27756 27757 27758 27759 27760 27761 27762 27763 27764 27765 27766 27767 27768 27769 27770 27771 27772 27773 27774 27775 27776 27777 27778 27779 27780 27781 27782 27783 27784 27785 27786 27787 27788 27789 27790 27791 27792 27793 27794 27795 27796 27797 27798 27799 27800 27801 27802 27803 27804 27805 27806 27807 27808 27809 27810 27811 27812 27813 27814 27815 27816 27817 27818 27819 27820 27821 27822 27823 27824 27825 27826 27827 27828 27829 27830 27831 27832 27833 27834 27835 27836 27837 27838 27839 27840 27841 27842 27843 27844 27845 27846 27847 27848 27849 27850 27851 27852 27853 27854 27855 27856 27857 27858 27859 27860 27861 27862 27863 27864 27865 27866 27867 27868 27869 27870 27871 27872 27873 27874 27875 27876 27877 27878 27879 27880 27881 27882 27883 27884 27885 27886 27887 27888 27889 27890 27891 27892 27893 27894 27895 27896 27897 27898 27899 27900 27901 27902 27903 27904 27905 27906 27907 27908 27909 27910 27911 27912 27913 27914 27915 27916 27917 27918 27919 27920 27921 27922 27923 27924 27925 27926 27927 27928 27929 27930 27931 27932 27933 27934 27935 27936 27937 27938 27939 27940 27941 27942 27943 27944 27945 27946 27947 27948 27949 27950 27951 27952 27953 27954 27955 27956 27957 27958 27959 27960 27961 27962 27963 27964 27965 27966 27967 27968 27969 27970 27971 27972 27973 27974 27975 27976 27977 27978 27979 27980 27981 27982 27983 27984 27985 27986 27987 27988 27989 27990 27991 27992 27993 27994 27995 27996 27997 27998 27999 28000 28001 28002 28003 28004 28005 28006 28007 28008 28009 28010 28011 28012 28013 28014 28015 28016 28017 28018 28019 28020 28021 28022 28023 28024 28025 28026 28027 28028 28029 28030 28031 28032 28033 28034 28035 28036 28037 28038 28039 28040 28041 28042 28043 28044 28045 28046 28047 28048 28049 28050 28051 28052 28053 28054 28055 28056 28057 28058 28059 28060 28061 28062 28063 28064 28065 28066 28067 28068 28069 28070 28071 28072 28073 28074 28075 28076 28077 28078 28079 28080 28081 28082 28083 28084 28085 28086 28087 28088 28089 28090 28091 28092 28093 28094 28095 28096 28097 28098 28099 28100 28101 28102 28103 28104 28105 28106 28107 28108 28109 28110 28111 28112 28113 28114 28115 28116 28117 28118 28119 28120 28121 28122 28123 28124 28125 28126 28127 28128 28129 28130 28131 28132 28133 28134 28135 28136 28137 28138 28139 28140 28141 28142 28143 28144 28145 28146 28147 28148 28149 28150 28151 28152 28153 28154 28155 28156 28157 28158 28159 28160 28161 28162 28163 28164 28165 28166 28167 28168 28169 28170 28171 28172 28173 28174 28175 28176 28177 28178 28179 28180 28181 28182 28183 28184 28185 28186 28187 28188 28189 28190 28191 28192 28193 28194 28195 28196 28197 28198 28199 28200 28201 28202 28203 28204 28205 28206 28207 28208 28209 28210 28211 28212 28213 28214 28215 28216 28217 28218 28219 28220 28221 28222 28223 28224 28225 28226 28227 28228 28229 28230 28231 28232 28233 28234 28235 28236 28237 28238 28239 28240 28241 28242 28243 28244 28245 28246 28247 28248 28249 28250 28251 28252 28253 28254 28255 28256 28257 28258 28259 28260 28261 28262 28263 28264 28265 28266 28267 28268 28269 28270 28271 28272 28273 28274 28275 28276 28277 28278 28279 28280 28281 28282 28283 28284 28285 28286 28287 28288 28289 28290 28291 28292 28293 28294 28295 28296 28297 28298 28299 28300 28301 28302 28303 28304 28305 28306 28307 28308 28309 28310 28311 28312 28313 28314 28315 28316 28317 28318 28319 28320 28321 28322 28323 28324 28325 28326 28327 28328 28329 28330 28331 28332 28333 28334 28335 28336 28337 28338 28339 28340 28341 28342 28343 28344 28345 28346 28347 28348 28349 28350 28351 28352 28353 28354 28355 28356 28357 28358 28359 28360 28361 28362 28363 28364 28365 28366 28367 28368 28369 28370 28371 28372 28373 28374 28375 28376 28377 28378 28379 28380 28381 28382 28383 28384 28385 28386 28387 28388 28389 28390 28391 28392 28393 28394 28395 28396 28397 28398 28399 28400 28401 28402 28403 28404 28405 28406 28407 28408 28409 28410 28411 28412 28413 28414 28415 28416 28417 28418 28419 28420 28421 28422 28423 28424 28425 28426 28427 28428 28429 28430 28431 28432 28433 28434 28435 28436 28437 28438 28439 28440 28441 28442 28443 28444 28445 28446 28447 28448 28449 28450 28451 28452 28453 28454 28455 28456 28457 28458 28459 28460 28461 28462 28463 28464 28465 28466 28467 28468 28469 28470 28471 28472 28473 28474 28475 28476 28477 28478 28479 28480 28481 28482 28483 28484 28485 28486 28487 28488 28489 28490 28491 28492 28493 28494 28495 28496 28497 28498 28499 28500 28501 28502 28503 28504 28505 28506 28507 28508 28509 28510 28511 28512 28513 28514 28515 28516 28517 28518 28519 28520 28521 28522 28523 28524 28525 28526 28527 28528 28529 28530 28531 28532 28533 28534 28535 28536 28537 28538 28539 28540 28541 28542 28543 28544 28545 28546 28547 28548 28549 28550 28551 28552 28553 28554 28555 28556 28557 28558 28559 28560 28561 28562 28563 28564 28565 28566 28567 28568 28569 28570 28571 28572 28573 28574 28575 28576 28577 28578 28579 28580 28581 28582 28583 28584 28585 28586 28587 28588 28589 28590 28591 28592 28593 28594 28595 28596 28597 28598 28599 28600 28601 28602 28603 28604 28605 28606 28607 28608 28609 28610 28611 28612 28613 28614 28615 28616 28617 28618 28619 28620 28621 28622 28623 28624 28625 28626 28627 28628 28629 28630 28631 28632 28633 28634 28635 28636 28637 28638 28639 28640 28641 28642 28643 28644 28645 28646 28647 28648 28649 28650 28651 28652 28653 28654 28655 28656 28657 28658 28659 28660 28661 28662 28663 28664 28665 28666 28667 28668 28669 28670 28671 28672 28673 28674 28675 28676 28677 28678 28679 28680 28681 28682 28683 28684 28685 28686 28687 28688 28689 28690 28691 28692 28693 28694 28695 28696 28697 28698 28699 28700 28701 28702 28703 28704 28705 28706 28707 28708 28709 28710 28711 28712 28713 28714 28715 28716 28717 28718 28719 28720 28721 28722 28723 28724 28725 28726 28727 28728 28729 28730 28731 28732 28733 28734 28735 28736 28737 28738 28739 28740 28741 28742 28743 28744 28745 28746 28747 28748 28749 28750 28751 28752 28753 28754 28755 28756 28757 28758 28759 28760 28761 28762 28763 28764 28765 28766 28767 28768 28769 28770 28771 28772 28773 28774 28775 28776 28777 28778 28779 28780 28781 28782 28783 28784 28785 28786 28787 28788 28789 28790 28791 28792 28793 28794 28795 28796 28797 28798 28799 28800 28801 28802 28803 28804 28805 28806 28807 28808 28809 28810 28811 28812 28813 28814 28815 28816 28817 28818 28819 28820 28821 28822 28823 28824 28825 28826 28827 28828 28829 28830 28831 28832 28833 28834 28835 28836 28837 28838 28839 28840 28841 28842 28843 28844 28845 28846 28847 28848 28849 28850 28851 28852 28853 28854 28855 28856 28857 28858 28859 28860 28861 28862 28863 28864 28865 28866 28867 28868 28869 28870 28871 28872 28873 28874 28875 28876 28877 28878 28879 28880 28881 28882 28883 28884 28885 28886 28887 28888 28889 28890 28891 28892 28893 28894 28895 28896 28897 28898 28899 28900 28901 28902 28903 28904 28905 28906 28907 28908 28909 28910 28911 28912 28913 28914 28915 28916 28917 28918 28919 28920 28921 28922 28923 28924 28925 28926 28927 28928 28929 28930 28931 28932 28933 28934 28935 28936 28937 28938 28939 28940 28941 28942 28943 28944 28945 28946 28947 28948 28949 28950 28951 28952 28953 28954 28955 28956 28957 28958 28959 28960 28961 28962 28963 28964 28965 28966 28967 28968 28969 28970 28971 28972 28973 28974 28975 28976 28977 28978 28979 28980 28981 28982 28983 28984 28985 28986 28987 28988 28989 28990 28991 28992 28993 28994 28995 28996 28997 28998 28999 29000 29001 29002 29003 29004 29005 29006 29007 29008 29009 29010 29011 29012 29013 29014 29015 29016 29017 29018 29019 29020 29021 29022 29023 29024 29025 29026 29027 29028 29029 29030 29031 29032 29033 29034 29035 29036 29037 29038 29039 29040 29041 29042 29043 29044 29045 29046 29047 29048 29049 29050 29051 29052 29053 29054 29055 29056 29057 29058 29059 29060 29061 29062 29063 29064 29065 29066 29067 29068 29069 29070 29071 29072 29073 29074 29075 29076 29077 29078 29079 29080 29081 29082 29083 29084 29085 29086 29087 29088 29089 29090 29091 29092 29093 29094 29095 29096 29097 29098 29099 29100 29101 29102 29103 29104 29105 29106 29107 29108 29109 29110 29111 29112 29113 29114 29115 29116 29117 29118 29119 29120 29121 29122 29123 29124 29125 29126 29127 29128 29129 29130 29131 29132 29133 29134 29135 29136 29137 29138 29139 29140 29141 29142 29143 29144 29145 29146 29147 29148 29149 29150 29151 29152 29153 29154 29155 29156 29157 29158 29159 29160 29161 29162 29163 29164 29165 29166 29167 29168 29169 29170 29171 29172 29173 29174 29175 29176 29177 29178 29179 29180 29181 29182 29183 29184 29185 29186 29187 29188 29189 29190 29191 29192 29193 29194 29195 29196 29197 29198 29199 29200 29201 29202 29203 29204 29205 29206 29207 29208 29209 29210 29211 29212 29213 29214 29215 29216 29217 29218 29219 29220 29221 29222 29223 29224 29225 29226 29227 29228 29229 29230 29231 29232 29233 29234 29235 29236 29237 29238 29239 29240 29241 29242 29243 29244 29245 29246 29247 29248 29249 29250 29251 29252 29253 29254 29255 29256 29257 29258 29259 29260 29261 29262 29263 29264 29265 29266 29267 29268 29269 29270 29271 29272 29273 29274 29275 29276 29277 29278 29279 29280 29281 29282 29283 29284 29285 29286 29287 29288 29289 29290 29291 29292 29293 29294 29295 29296 29297 29298 29299 29300 29301 29302 29303 29304 29305 29306 29307 29308 29309 29310 29311 29312 29313 29314 29315 29316 29317 29318 29319 29320 29321 29322 29323 29324 29325 29326 29327 29328 29329 29330 29331 29332 29333 29334 29335 29336 29337 29338 29339 29340 29341 29342 29343 29344 29345 29346 29347 29348 29349 29350 29351 29352 29353 29354 29355 29356 29357 29358 29359 29360 29361 29362 29363 29364 29365 29366 29367 29368 29369 29370 29371 29372 29373 29374 29375 29376 29377 29378 29379 29380 29381 29382 29383 29384 29385 29386 29387 29388 29389 29390 29391 29392 29393 29394 29395 29396 29397 29398 29399 29400 29401 29402 29403 29404 29405 29406 29407 29408 29409 29410 29411 29412 29413 29414 29415 29416 29417 29418 29419 29420 29421 29422 29423 29424 29425 29426 29427 29428 29429 29430 29431 29432 29433 29434 29435 29436 29437 29438 29439 29440 29441 29442 29443 29444 29445 29446 29447 29448 29449 29450 29451 29452 29453 29454 29455 29456 29457 29458 29459 29460 29461 29462 29463 29464 29465 29466 29467 29468 29469 29470 29471 29472 29473 29474 29475 29476 29477 29478 29479 29480 29481 29482 29483 29484 29485 29486 29487 29488 29489 29490 29491 29492 29493 29494 29495 29496 29497 29498 29499 29500 29501 29502 29503 29504 29505 29506 29507 29508 29509 29510 29511 29512 29513 29514 29515 29516 29517 29518 29519 29520 29521 29522 29523 29524 29525 29526 29527 29528 29529 29530 29531 29532 29533 29534 29535 29536 29537 29538 29539 29540 29541 29542 29543 29544 29545 29546 29547 29548 29549 29550 29551 29552 29553 29554 29555 29556 29557 29558 29559 29560 29561 29562 29563 29564 29565 29566 29567 29568 29569 29570 29571 29572 29573 29574 29575 29576 29577 29578 29579 29580 29581 29582 29583 29584 29585 29586 29587 29588 29589 29590 29591 29592 29593 29594 29595 29596 29597 29598 29599 29600 29601 29602 29603 29604 29605 29606 29607 29608 29609 29610 29611 29612 29613 29614 29615 29616 29617 29618 29619 29620 29621 29622 29623 29624 29625 29626 29627 29628 29629 29630 29631 29632 29633 29634 29635 29636 29637 29638 29639 29640 29641 29642 29643 29644 29645 29646 29647 29648 29649 29650 29651 29652 29653 29654 29655 29656 29657 29658 29659 29660 29661 29662 29663 29664 29665 29666 29667 29668 29669 29670 29671 29672 29673 29674 29675 29676 29677 29678 29679 29680 29681 29682 29683 29684 29685 29686 29687 29688 29689 29690 29691 29692 29693 29694 29695 29696 29697 29698 29699 29700 29701 29702 29703 29704 29705 29706 29707 29708 29709 29710 29711 29712 29713 29714 29715 29716 29717 29718 29719 29720 29721 29722 29723 29724 29725 29726 29727 29728 29729 29730 29731 29732 29733 29734 29735 29736 29737 29738 29739 29740 29741 29742 29743 29744 29745 29746 29747 29748 29749 29750 29751 29752 29753 29754 29755 29756 29757 29758 29759 29760 29761 29762 29763 29764 29765 29766 29767 29768 29769 29770 29771 29772 29773 29774 29775 29776 29777 29778 29779 29780 29781 29782 29783 29784 29785 29786 29787 29788 29789 29790 29791 29792 29793 29794 29795 29796 29797 29798 29799 29800 29801 29802 29803 29804 29805 29806 29807 29808 29809 29810 29811 29812 29813 29814 29815 29816 29817 29818 29819 29820 29821 29822 29823 29824 29825 29826 29827 29828 29829 29830 29831 29832 29833 29834 29835 29836 29837 29838 29839 29840 29841 29842 29843 29844 29845 29846 29847 29848 29849 29850 29851 29852 29853 29854 29855 29856 29857 29858 29859 29860 29861 29862 29863 29864 29865 29866 29867 29868 29869 29870 29871 29872 29873 29874 29875 29876 29877 29878 29879 29880 29881 29882 29883 29884 29885 29886 29887 29888 29889 29890 29891 29892 29893 29894 29895 29896 29897 29898 29899 29900 29901 29902 29903 29904 29905 29906 29907 29908 29909 29910 29911 29912 29913 29914 29915 29916 29917 29918 29919 29920 29921 29922 29923 29924 29925 29926 29927 29928 29929 29930 29931 29932 29933 29934 29935 29936 29937 29938 29939 29940 29941 29942 29943 29944 29945 29946 29947 29948 29949 29950 29951 29952 29953 29954 29955 29956 29957 29958 29959 29960 29961 29962 29963 29964 29965 29966 29967 29968 29969 29970 29971 29972 29973 29974 29975 29976 29977 29978 29979 29980 29981 29982 29983 29984 29985 29986 29987 29988 29989 29990 29991 29992 29993 29994 29995 29996 29997 29998 29999 30000 30001 30002 30003 30004 30005 30006 30007 30008 30009 30010 30011 30012 30013 30014 30015 30016 30017 30018 30019 30020 30021 30022 30023 30024 30025 30026 30027 30028 30029 30030 30031 30032 30033 30034 30035 30036 30037 30038 30039 30040 30041 30042 30043 30044 30045 30046 30047 30048 30049 30050 30051 30052 30053 30054 30055 30056 30057 30058 30059 30060 30061 30062 30063 30064 30065 30066 30067 30068 30069 30070 30071 30072 30073 30074 30075 30076 30077 30078 30079 30080 30081 30082 30083 30084 30085 30086 30087 30088 30089 30090 30091 30092 30093 30094 30095 30096 30097 30098 30099 30100 30101 30102 30103 30104 30105 30106 30107 30108 30109 30110 30111 30112 30113 30114 30115 30116 30117 30118 30119 30120 30121 30122 30123 30124 30125 30126 30127 30128 30129 30130 30131 30132 30133 30134 30135 30136 30137 30138 30139 30140 30141 30142 30143 30144 30145 30146 30147 30148 30149 30150 30151 30152 30153 30154 30155 30156 30157 30158 30159 30160 30161 30162 30163 30164 30165 30166 30167 30168 30169 30170 30171 30172 30173 30174 30175 30176 30177 30178 30179 30180 30181 30182 30183 30184 30185 30186 30187 30188 30189 30190 30191 30192 30193 30194 30195 30196 30197 30198 30199 30200 30201 30202 30203 30204 30205 30206 30207 30208 30209 30210 30211 30212 30213 30214 30215 30216 30217 30218 30219 30220 30221 30222 30223 30224 30225 30226 30227 30228 30229 30230 30231 30232 30233 30234 30235 30236 30237 30238 30239 30240 30241 30242 30243 30244 30245 30246 30247 30248 30249 30250 30251 30252 30253 30254 30255 30256 30257 30258 30259 30260 30261 30262 30263 30264 30265 30266 30267 30268 30269 30270 30271 30272 30273 30274 30275 30276 30277 30278 30279 30280 30281 30282 30283 30284 30285 30286 30287 30288 30289 30290 30291 30292 30293 30294 30295 30296 30297 30298 30299 30300 30301 30302 30303 30304 30305 30306 30307 30308 30309 30310 30311 30312 30313 30314 30315 30316 30317 30318 30319 30320 30321 30322 30323 30324 30325 30326 30327 30328 30329 30330 30331 30332 30333 30334 30335 30336 30337 30338 30339 30340 30341 30342 30343 30344 30345 30346 30347 30348 30349 30350 30351 30352 30353 30354 30355 30356 30357 30358 30359 30360 30361 30362 30363 30364 30365 30366 30367 30368 30369 30370 30371 30372 30373 30374 30375 30376 30377 30378 30379 30380 30381 30382 30383 30384 30385 30386 30387 30388 30389 30390 30391 30392 30393 30394 30395 30396 30397 30398 30399 30400 30401 30402 30403 30404 30405 30406 30407 30408 30409 30410 30411 30412 30413 30414 30415 30416 30417 30418 30419 30420 30421 30422 30423 30424 30425 30426 30427 30428 30429 30430 30431 30432 30433 30434 30435 30436 30437 30438 30439 30440 30441 30442 30443 30444 30445 30446 30447 30448 30449 30450 30451 30452 30453 30454 30455 30456 30457 30458 30459 30460 30461 30462 30463 30464 30465 30466 30467 30468 30469 30470 30471 30472 30473 30474 30475 30476 30477 30478 30479 30480 30481 30482 30483 30484 30485 30486 30487 30488 30489 30490 30491 30492 30493 30494 30495 30496 30497 30498 30499 30500 30501 30502 30503 30504 30505 30506 30507 30508 30509 30510 30511 30512 30513 30514 30515 30516 30517 30518 30519 30520 30521 30522 30523 30524 30525 30526 30527 30528 30529 30530 30531 30532 30533 30534 30535 30536 30537 30538 30539 30540 30541 30542 30543 30544 30545 30546 30547 30548 30549 30550 30551 30552 30553 30554 30555 30556 30557 30558 30559 30560 30561 30562 30563 30564 30565 30566 30567 30568 30569 30570 30571 30572 30573 30574 30575 30576 30577 30578 30579 30580 30581 30582 30583 30584 30585 30586 30587 30588 30589 30590 30591 30592 30593 30594 30595 30596 30597 30598 30599 30600 30601 30602 30603 30604 30605 30606 30607 30608 30609 30610 30611 30612 30613 30614 30615 30616 30617 30618 30619 30620 30621 30622 30623 30624 30625 30626 30627 30628 30629 30630 30631 30632 30633 30634 30635 30636 30637 30638 30639 30640 30641 30642 30643 30644 30645 30646 30647 30648 30649 30650 30651 30652 30653 30654 30655 30656 30657 30658 30659 30660 30661 30662 30663 30664 30665 30666 30667 30668 30669 30670 30671 30672 30673 30674 30675 30676 30677 30678 30679 30680 30681 30682 30683 30684 30685 30686 30687 30688 30689 30690 30691 30692 30693 30694 30695 30696 30697 30698 30699 30700 30701 30702 30703 30704 30705 30706 30707 30708 30709 30710 30711 30712 30713 30714 30715 30716 30717 30718 30719 30720 30721 30722 30723 30724 30725 30726 30727 30728 30729 30730 30731 30732 30733 30734 30735 30736 30737 30738 30739 30740 30741 30742 30743 30744 30745 30746 30747 30748 30749 30750 30751 30752 30753 30754 30755 30756 30757 30758 30759 30760 30761 30762 30763 30764 30765 30766 30767 30768 30769 30770 30771 30772 30773 30774 30775 30776 30777 30778 30779 30780 30781 30782 30783 30784 30785 30786 30787 30788 30789 30790 30791 30792 30793 30794 30795 30796 30797 30798 30799 30800 30801 30802 30803 30804 30805 30806 30807 30808 30809 30810 30811 30812 30813 30814 30815 30816 30817 30818 30819 30820 30821 30822 30823 30824 30825 30826 30827 30828 30829 30830 30831 30832 30833 30834 30835 30836 30837 30838 30839 30840 30841 30842 30843 30844 30845 30846 30847 30848 30849 30850 30851 30852 30853 30854 30855 30856 30857 30858 30859 30860 30861 30862 30863 30864 30865 30866 30867 30868 30869 30870 30871 30872 30873 30874 30875 30876 30877 30878 30879 30880 30881 30882 30883 30884 30885 30886 30887 30888 30889 30890 30891 30892 30893 30894 30895 30896 30897 30898 30899 30900 30901 30902 30903 30904 30905 30906 30907 30908 30909 30910 30911 30912 30913 30914 30915 30916 30917 30918 30919 30920 30921 30922 30923 30924 30925 30926 30927 30928 30929 30930 30931 30932 30933 30934 30935 30936 30937 30938 30939 30940 30941 30942 30943 30944 30945 30946 30947 30948 30949 30950 30951 30952 30953 30954 30955 30956 30957 30958 30959 30960 30961 30962 30963 30964 30965 30966 30967 30968 30969 30970 30971 30972 30973 30974 30975 30976 30977 30978 30979 30980 30981 30982 30983 30984 30985 30986 30987 30988 30989 30990 30991 30992 30993 30994 30995 30996 30997 30998 30999 31000 31001 31002 31003 31004 31005 31006 31007 31008 31009 31010 31011 31012 31013 31014 31015 31016 31017 31018 31019 31020 31021 31022 31023 31024 31025 31026 31027 31028 31029 31030 31031 31032 31033 31034 31035 31036 31037 31038 31039 31040 31041 31042 31043 31044 31045 31046 31047 31048 31049 31050 31051 31052 31053 31054 31055 31056 31057 31058 31059 31060 31061 31062 31063 31064 31065 31066 31067 31068 31069 31070 31071 31072 31073 31074 31075 31076 31077 31078 31079 31080 31081 31082 31083 31084 31085 31086 31087 31088 31089 31090 31091 31092 31093 31094 31095 31096 31097 31098 31099 31100 31101 31102 31103 31104 31105 31106 31107 31108 31109 31110 31111 31112 31113 31114 31115 31116 31117 31118 31119 31120 31121 31122 31123 31124 31125 31126 31127 31128 31129 31130 31131 31132 31133 31134 31135 31136 31137 31138 31139 31140 31141 31142 31143 31144 31145 31146 31147 31148 31149 31150 31151 31152 31153 31154 31155 31156 31157 31158 31159 31160 31161 31162 31163 31164 31165 31166 31167 31168 31169 31170 31171 31172 31173 31174 31175 31176 31177 31178 31179 31180 31181 31182 31183 31184 31185 31186 31187 31188 31189 31190 31191 31192 31193 31194 31195 31196 31197 31198 31199 31200 31201 31202 31203 31204 31205 31206 31207 31208 31209 31210 31211 31212 31213 31214 31215 31216 31217 31218 31219 31220 31221 31222 31223 31224 31225 31226 31227 31228 31229 31230 31231 31232 31233 31234 31235 31236 31237 31238 31239 31240 31241 31242 31243 31244 31245 31246 31247 31248 31249 31250 31251 31252 31253 31254 31255 31256 31257 31258 31259 31260 31261 31262 31263 31264 31265 31266 31267 31268 31269 31270 31271 31272 31273 31274 31275 31276 31277 31278 31279 31280 31281 31282 31283 31284 31285 31286 31287 31288 31289 31290 31291 31292 31293 31294 31295 31296 31297 31298 31299 31300 31301 31302 31303 31304 31305 31306 31307 31308 31309 31310 31311 31312 31313 31314 31315 31316 31317 31318 31319 31320 31321 31322 31323 31324 31325 31326 31327 31328 31329 31330 31331 31332 31333 31334 31335 31336 31337 31338 31339 31340 31341 31342 31343 31344 31345 31346 31347 31348 31349 31350 31351 31352 31353 31354 31355 31356 31357 31358 31359 31360 31361 31362 31363 31364 31365 31366 31367 31368 31369 31370 31371 31372 31373 31374 31375 31376 31377 31378 31379 31380 31381 31382 31383 31384 31385 31386 31387 31388 31389 31390 31391 31392 31393 31394 31395 31396 31397 31398 31399 31400 31401 31402 31403 31404 31405 31406 31407 31408 31409 31410 31411 31412 31413 31414 31415 31416 31417 31418 31419 31420 31421 31422 31423 31424 31425 31426 31427 31428 31429 31430 31431 31432 31433 31434 31435 31436 31437 31438 31439 31440 31441 31442 31443 31444 31445 31446 31447 31448 31449 31450 31451 31452 31453 31454 31455 31456 31457 31458 31459 31460 31461 31462 31463 31464 31465 31466 31467 31468 31469 31470 31471 31472 31473 31474 31475 31476 31477 31478 31479 31480 31481 31482 31483 31484 31485 31486 31487 31488 31489 31490 31491 31492 31493 31494 31495 31496 31497 31498 31499 31500 31501 31502 31503 31504 31505 31506 31507 31508 31509 31510 31511 31512 31513 31514 31515 31516 31517 31518 31519 31520 31521 31522 31523 31524 31525 31526 31527 31528 31529 31530 31531 31532 31533 31534 31535 31536 31537 31538 31539 31540 31541 31542 31543 31544 31545 31546 31547 31548 31549 31550 31551 31552 31553 31554 31555 31556 31557 31558 31559 31560 31561 31562 31563 31564 31565 31566 31567 31568 31569 31570 31571 31572 31573 31574 31575 31576 31577 31578 31579 31580 31581 31582 31583 31584 31585 31586 31587 31588 31589 31590 31591 31592 31593 31594 31595 31596 31597 31598 31599 31600 31601 31602 31603 31604 31605 31606 31607 31608 31609 31610 31611 31612 31613 31614 31615 31616 31617 31618 31619 31620 31621 31622 31623 31624 31625 31626 31627 31628 31629 31630 31631 31632 31633 31634 31635 31636 31637 31638 31639 31640 31641 31642 31643 31644 31645 31646 31647 31648 31649 31650 31651 31652 31653 31654 31655 31656 31657 31658 31659 31660 31661 31662 31663 31664 31665 31666 31667 31668 31669 31670 31671 31672 31673 31674 31675 31676 31677 31678 31679 31680 31681 31682 31683 31684 31685 31686 31687 31688 31689 31690 31691 31692 31693 31694 31695 31696 31697 31698 31699 31700 31701 31702 31703 31704 31705 31706 31707 31708 31709 31710 31711 31712 31713 31714 31715 31716 31717 31718 31719 31720 31721 31722 31723 31724 31725 31726 31727 31728 31729 31730 31731 31732 31733 31734 31735 31736 31737 31738 31739 31740 31741 31742 31743 31744 31745 31746 31747 31748 31749 31750 31751 31752 31753 31754 31755 31756 31757 31758 31759 31760 31761 31762 31763 31764 31765 31766 31767 31768 31769 31770 31771 31772 31773 31774 31775 31776 31777 31778 31779 31780 31781 31782 31783 31784 31785 31786 31787 31788 31789 31790 31791 31792 31793 31794 31795 31796 31797 31798 31799 31800 31801 31802 31803 31804 31805 31806 31807 31808 31809 31810 31811 31812 31813 31814 31815 31816 31817 31818 31819 31820 31821 31822 31823 31824 31825 31826 31827 31828 31829 31830 31831 31832 31833 31834 31835 31836 31837 31838 31839 31840 31841 31842 31843 31844 31845 31846 31847 31848 31849 31850 31851 31852 31853 31854 
</DataArray>
<DataArray type="UInt32" Name="offsets" format="ascii">
3 6 9 12 15 18 21 24 27 30 33 36 39 42 44 47 50 52 55 58 61 64 67 69 72 75 78 81 84 87 90 92 95 98 101 104 106 109 112 115 118 121 124 126 129 132 135 138 140 143 146 149 152 155 158 161 163 166 169 171 174 176 179 181 184 187 190 193 196 199 202 205 208 211 214 217 220 223 225 228 230 233 236 239 242 245 248 250 253 256 258 261 264 267 269 272 275 278 280 283 285 288 291 294 297 300 302 305 307 310 313 316 318 321 324 327 330 333 336 338 341 344 347 350 353 356 359 362 364 367 370 373 376 379 382 385 388 391 393 396 399 402 405 408 411 414 417 420 423 426 429 432 435 438 441 443 446 449 451 454 456 459 462 465 467 470 473 475 478 481 484 487 490 493 496 499 502 505 508 511 514 517 519 521 524 527 530 533 535 538 540 543 546 548 550 553 556 559 562 565 568 570 573 576 579 582 585 588 591 594 597 600 603 606 609 612 615 618 621 624 627 630 633 636 639 642 644 647 650 652 655 658 661 664 666 669 672 675 678 680 683 686 689 691 694 697 700 703 706 709 712 715 718 721 723 726 729 731 734 737 740 743 746 749 751 754 757 760 763 765 768 770 773 776 779 782 784 787 790 793 796 799 802 805 808 811 814 817 820 823 826 829 832 834 837 840 842 845 848 851 854 856 859 862 865 868 871 874 877 880 883 885 888 891 894 897 900 903 906 908 911 913 916 919 922 925 928 931 934 937 940 943 946 949 952 955 958 960 963 966 969 971 974 977 980 983 985 987 990 992 995 998 1001 1004 1006 1009 1012 1014 1016 1019 1021 1024 1027 1030 1033 1036 1039 1042 1045 1048 1051 1053 1056 1058 1061 1064 1067 1069 1072 1075 1078 1081 1084 1087 1090 1093 1096 1099 1102 1105 1108 1111 1113 1116 1119 1122 1125 1128 1131 1134 1137 1140 1143 1146 1148 1151 1154 1157 1160 1163 1166 1169 1172 1175 1178 1181 1184 1187 1190 1193 1196 1198 1201 1204 1207 1210 1213 1216 1219 1222 1225 1228 1231 1234 1237 1240 1243 1246 1249 1252 1254 1257 1260 1262 1265 1268 1271 1274 1277 1280 1282 1285 1288 1290 1293 1296 1299 1302 1304 1307 1310 1313 1315 1318 1320 1323 1325 1328 1331 1334 1336 1339 1342 1345 1348 1351 1354 1357 1360 1362 1365 1368 1371 1374 1377 1380 1383 1386 1389 1392 1394 1397 1400 1403 1406 1409 1412 1415 1418 1421 1424 1427 1430 1433 1435 1437 1440 1443 1446 1449 1452 1455 1458 1461 1464 1467 1469 1471 1474 1476 1478 1481 1484 1487 1490 1492 1495 1498 1501 1503 1506 1509 1512 1515 1518 1521 1524 1527 1530 1533 1536 1539 1542 1545 1548 1551 1554 1557 1560 1563 1566 1569 1572 1575 1578 1581 1584 1586 1589 1592 1595 1597 1600 1603 1606 1609 1612 1615 1618 1621 1624 1627 1630 1633 1636 1639 1642 1645 1648 1651 1654 1657 1660 1663 1666 1669 1671 1674 1677 1680 1683 1686 1689 1692 1695 1698 1701 1704 1707 1710 1713 1716 1719 1721 1724 1727 1730 1733 1736 1738 1741 1743 1746 1749 1752 1755 1758 1761 1764 1767 1769 1772 1775 1778 1781 1784 1787 1790 1793 1796 1798 1801 1804 1807 1809 1812 1815 1818 1820 1823 1826 1829 1832 1835 1838 1841 1844 1847 1850 1853 1856 1858 1861 1864 1867 1869 1871 1874 1877 1880 1883 1885 1888 1891 1894 1897 1900 1903 1906 1908 1911 1914 1916 1919 1922 1925 1928 1931 1934 1937 1940 1943 1946 1949 1952 1954 1957 1959 1962 1964 1967 1970 1973 1975 1978 1981 1983 1986 1989 1991 1994 1997 2000 2003 2006 2009 2012 2015 2018 2021 2023 2025 2028 2031 2034 2037 2040 2043 2046 2049 2052 2055 2058 2061 2064 2067 2070 2072 2075 2078 2081 2084 2087 2089 2092 2095 2098 2100 2103 2106 2108 2111 2114 2117 2120 2123 2126 2129 2132 2135 2138 2141 2144 2147 2149 2152 2155 2158 2161 2164 2167 2170 2173 2176 2179 2181 2184 2187 2190 2193 2195 2198 2201 2203 2206 2209 2212 2215 2218 2221 2224 2227 2230 2233 2236 2239 2241 2244 2246 2249 2252 2254 2257 2259 2262 2265 2268 2271 2273 2276 2279 2282 2285 2288 2291 2294 2297 2300 2303 2306 2308 2310 2313 2316 2319 2321 2324 2327 2330 2333 2336 2338 2341 2344 2347 2350 2353 2356 2359 2362 2365 2368 2371 2374 2377 2380 2382 2385 2388 2390 2393 2396 2399 2402 2405 2408 2411 2413 2416 2419 2421 2424 2427 2430 2433 2436 2439 2442 2445 2448 2451 2454 2457 2460 2463 2466 2469 2472 2475 2478 2481 2484 2487 2490 2493 2496 2498 2501 2504 2506 2509 2512 2515 2518 2521 2524 2527 2529 2532 2535 2538 2540 2543 2546 2549 2551 2554 2557 2560 2563 2566 2568 2570 2573 2576 2579 2582 2585 2588 2591 2594 2597 2600 2603 2606 2609 2612 2615 2617 2619 2621 2624 2626 2629 2632 2635 2638 2641 2644 2646 2649 2651 2654 2656 2659 2662 2665 2668 2670 2673 2676 2678 2681 2684 2687 2690 2692 2694 2697 2700 2703 2706 2709 2712 2715 2717 2720 2723 2726 2729 2732 2735 2738 2741 2744 2747 2749 2752 2755 2758 2761 2764 2767 2770 2773 2776 2779 2782 2784 2787 2790 2793 2796 2798 2801 2804 2807 2810 2812 2815 2818 2821 2824 2827 2829 2832 2835 2838 2840 2843 2846 2849 2852 2855 2858 2861 2864 2867 2870 2873 2876 2879 2882 2885 2887 2890 2893 2896 2899 2902 2905 2908 2911 2913 2916 2919 2922 2925 2928 2930 2932 2935 2938 2940 2943 2946 2949 2951 2954 2957 2960 2963 2966 2968 2970 2973 2976 2979 2981 2983 2985 2988 2991 2994 2997 3000 3002 3005 3007 3010 3013 3016 3019 3022 3025 3028 3031 3034 3037 3039 3042 3045 3048 3051 3053 3056 3058 3061 3064 3067 3070 3073 3076 3078 3081 3084 3087 3090 3093 3095 3098 3101 3104 3107 3110 3112 3115 3118 3120 3123 3126 3129 3131 3134 3137 3139 3142 3145 3148 3151 3154 3157 3159 3162 3164 3167 3170 3173 3176 3179 3181 3184 3187 3190 3193 3196 3199 3202 3205 3208 3210 3213 3216 3219 3222 3225 3228 3230 3233 3236 3238 3241 3244 3247 3250 3253 3256 3259 3261 3264 3267 3270 3273 3276 3279 3282 3285 3288 3290 3293 3295 3298 3300 3303 3306 3309 3312 3315 3318 3321 3324 3327 3330 3333 3335 3338 3341 3344 3347 3349 3352 3355 3358 3361 3363 3366 3369 3372 3375 3378 3381 3384 3387 3390 3393 3395 3398 3400 3403 3406 3409 3412 3415 3417 3420 3423 3426 3429 3432 3435 3438 3441 3443 3446 3449 3452 3455 3458 3461 3464 3466 3469 3471 3474 3477 3480 3483 3486 3489 3492 3495 3498 3500 3503 3506 3508 3511 3514 3516 3519 3521 3524 3527 3530 3533 3536 3539 3542 3544 3547 3549 3552 3555 3558 3561 3564 3567 3570 3573 3576 3579 3582 3585 3588 3591 3594 3597 3600 3603 3606 3608 3611 3614 3617 3619 3621 3623 3626 3629 3632 3635 3638 3640 3643 3646 3649 3652 3655 3658 3661 3664 3667 3670 3673 3676 3679 3681 3684 3686 3688 3691 3694 3697 3700 3703 3706 3708 3711 3713 3716 3719 3722 3725 3727 3730 3733 3736 3739 3742 3745 3748 3751 3754 3757 3760 3762 3765 3768 3771 3773 3775 3778 3781 3783 3785 3787 3790 3792 3795 3798 3801 3804 3806 3809 3812 3815 3817 3820 3822 3825 3827 3830 3832 3834 3837 3840 3842 3845 3847 3850 3853 3856 3858 3861 3863 3865 3868 3871 3873 3876 3879 3881 3883 3885 3888 3891 3893 3896 3899 3901 3904 3907 3909 3911 3914 3916 3919 3922 3924 3926 3929 3932 3935 3938 3941 3944 3946 3949 3951 3954 3956 3959 3962 3965 3968 3971 3973 3976 3979 3982 3985 3988 3990 3993 3996 3998 4000 4003 4005 4008 4011 4014 4016 4019 4022 4025 4028 4031 4033 4036 4039 4041 4043 4046 4048 4051 4054 4057 4059 4062 4065 4067 4070 4073 4076 4078 4081 4083 4085 4087 4090 4093 4096 4098 4101 4104 4106 4109 4112 4115 4117 4119 4122 4125 4128 4130 4133 4136 4139 4141 4143 4146 4148 4151 4153 4155 4158 4160 4163 4166 4168 4170 4172 4175 4178 4181 4183 4186 4189 4192 4195 4198 4201 4204 4207 4209 4212 4215 4217 4219 4222 4225 4228 4231 4234 4237 4240 4243 4246 4249 4252 4255 4258 4261 4263 4265 4268 4271 4273 4276 4279 4282 4285 4288 4291 4293 4295 4298 4301 4304 4307 4310 4313 4316 4319 4322 4325 4328 4331 4334 4337 4340 4343 4346 4349 4352 4355 4358 4361 4364 4367 4370 4373 4376 4379 4382 4385 4388 4391 4394 4397 4400 4403 4406 4409 4412 4415 4418 4421 4424 4427 4430 4433 4436 4439 4442 4445 4448 4450 4453 4456 4459 4462 4465 4468 4471 4474 4477 4480 4483 4486 4489 4492 4495 4498 4501 4504 4507 4510 4513 4516 4519 4522 4525 4528 4530 4533 4535 4538 4541 4544 4547 4550 4553 4556 4559 4562 4565 4568 4571 4574 4577 4580 4583 4586 4589 4592 4595 4598 4601 4604 4607 4610 4613 4615 4618 4621 4624 4626 4629 4632 4635 4638 4641 4644 4647 4650 4653 4655 4658 4661 4664 4667 4670 4673 4676 4679 4682 4685 4688 4691 4694 4697 4700 4703 4706 4709 4712 4715 4718 4721 4724 4727 4730 4733 4736 4739 4742 4745 4748 4751 4753 4756 4759 4762 4765 4768 4771 4774 4776 4779 4782 4785 4788 4790 4793 4796 4799 4802 4804 4807 4810 4813 4816 4819 4822 4825 4828 4831 4834 4837 4840 4843 4846 4849 4852 4855 4858 4861 4864 4867 4870 4873 4875 4878 4881 4884 4887 4889 4892 4895 4897 4900 4903 4906 4908 4910 4913 4916 4918 4921 4924 4926 4929 4932 4935 4938 4941 4944 4947 4950 4953 4956 4959 4962 4965 4968 4971 4974 4977 4979 4982 4985 4987 4990 4993 4995 4998 5001 5004 5007 5010 5013 5016 5019 5022 5025 5028 5031 5034 5037 5040 5043 5046 5049 5052 5055 5058 5061 5064 5066 5068 5071 5074 5076 5079 5082 5085 5087 5090 5093 5096 5099 5102 5105 5107 5110 5113 5116 5118 5121 5124 5127 5130 5133 5136 5139 5142 5145 5147 5149 5152 5155 5158 5161 5164 5167 5169 5172 5175 5178 5181 5184 5187 5190 5193 5195 5197 5199 5202 5205 5208 5211 5214 5216 5219 5222 5225 5227 5230 5233 5235 5238 5241 5243 5246 5249 5252 5255 5258 5261 5264 5267 5270 5273 5275 5277 5280 5282 5285 5287 5290 5293 5296 5298 5301 5304 5306 5309 5312 5315 5318 5321 5324 5327 5330 5333 5336 5339 5342 5344 5347 5350 5353 5356 5359 5362 5364 5367 5370 5373 5376 5379 5381 5384 5387 5390 5393 5395 5398 5401 5404 5406 5409 5412 5415 5417 5420 5423 5426 5429 5432 5435 5438 5441 5443 5446 5449 5452 5455 5458 5461 5464 5466 5469 5472 5474 5477 5480 5483 5486 5489 5492 5494 5497 5499 5502 5505 5507 5509 5512 5515 5518 5521 5524 5526 5529 5531 5533 5535 5538 5541 5543 5545 5548 5551 5554 5557 5559 5562 5565 5568 5571 5574 5577 5580 5583 5586 5589 5592 5594 5597 5600 5602 5605 5608 5611 5614 5617 5620 5623 5626 5629 5632 5635 5638 5641 5644 5647 5650 5653 5655 5658 5661 5664 5667 5670 5673 5676 5679 5682 5685 5688 5691 5693 5696 5699 5702 5705 5708 5711 5714 5716 5719 5722 5724 5727 5730 5733 5736 5738 5741 5743 5746 5749 5751 5754 5757 5760 5762 5765 5768 5771 5774 5777 5780 5783 5785 5788 5791 5794 5797 5799 5801 5804 5807 5810 5813 5816 5818 5821 5824 5827 5830 5833 5835 5838 5841 5844 5847 5850 5852 5855 5858 5861 5864 5867 5870 5873 5876 5879 5882 5885 5888 5891 5894 5897 5900 5903 5906 5909 5912 5915 5918 5921 5924 5926 5929 5932 5934 5936 5939 5942 5945 5948 5951 5953 5956 5959 5962 5965 5968 5971 5974 5977 5980 5983 5986 5989 5992 5995 5998 6001 6004 6007 6009 6012 6015 6018 6021 6024 6027 6030 6033 6036 6039 6042 6045 6048 6051 6054 6057 6060 6063 6066 6069 6072 6075 6078 6081 6084 6087 6090 6093 6096 6099 6101 6104 6107 6110 6112 6115 6118 6121 6124 6127 6130 6132 6135 6138 6141 6144 6147 6149 6152 6155 6158 6161 6164 6167 6170 6173 6175 6178 6181 6184 6187 6190 6193 6196 6199 6202 6205 6208 6211 6213 6216 6219 6222 6225 6228 6231 6233 6236 6238 6241 6244 6247 6249 6252 6255 6258 6261 6264 6267 6270 6272 6275 6278 6281 6284 6287 6290 6292 6295 6298 6301 6304 6307 6310 6313 6316 6319 6322 6325 6328 6331 6334 6336 6339 6341 6344 6347 6350 6353 6356 6359 6362 6365 6368 6371 6374 6377 6380 6383 6386 6389 6392 6395 6398 6401 6403 6406 6409 6412 6415 6418 6421 6424 6427 6430 6432 6435 6437 6440 6443 6446 6449 6452 6455 6457 6460 6462 6465 6468 6471 6474 6477 6479 6482 6485 6488 6491 6494 6497 6500 6503 6506 6509 6512 6515 6518 6521 6524 6527 6530 6533 6536 6538 6541 6544 6547 6550 6553 6556 6559 6562 6565 6568 6571 6574 6577 6580 6583 6586 6589 6592 6595 6598 6601 6604 6607 6609 6611 6614 6617 6620 6622 6625 6628 6631 6634 6637 6640 6643 6646 6649 6652 6655 6658 6661 6664 6667 6670 6673 6676 6679 6682 6685 6688 6691 6694 6697 6700 6703 6706 6709 6712 6715 6718 6721 6724 6727 6730 6733 6736 6739 6742 6745 6747 6750 6753 6755 6758 6761 6764 6767 6769 6772 6774 6777 6779 6782 6785 6788 6791 6794 6797 6800 6803 6806 6809 6812 6815 6818 6821 6824 6827 6830 6833 6836 6839 6842 6845 6848 6850 6853 6856 6858 6861 6864 6866 6869 6872 6875 6878 6880 6883 6886 6888 6891 6894 6897 6900 6903 6906 6908 6911 6914 6917 6920 6923 6926 6929 6932 6935 6937 6940 6943 6946 6949 6952 6955 6958 6961 6964 6967 6970 6973 6976 6979 6982 6985 6988 6991 6994 6997 6999 7002 7005 7008 7011 7014 7017 7019 7022 7025 7028 7031 7034 7036 7039 7042 7045 7048 7051 7053 7056 7059 7062 7065 7068 7071 7074 7077 7080 7083 7086 7089 7092 7095 7098 7100 7103 7106 7108 7111 7113 7116 7119 7122 7125 7127 7129 7132 7134 7136 7139 7142 7145 7148 7151 7154 7156 7159 7162 7165 7168 7171 7174 7177 7180 7182 7184 7187 7190 7192 7194 7197 7200 7203 7206 7209 7211 7214 7216 7218 7221 7224 7227 7230 7233 7236 7239 7242 7245 7248 7250 7252 7255 7258 7261 7264 7266 7268 7271 7274 7277 7280 7283 7286 7289 7292 7294 7297 7300 7303 7306 7309 7312 7315 7318 7321 7324 7327 7330 7333 7335 7338 7340 7343 7346 7349 7352 7355 7358 7361 7364 7367 7370 7372 7375 7378 7380 7383 7386 7389 7392 7395 7398 7401 7404 7407 7410 7412 7414 7417 7419 7422 7425 7428 7431 7434 7437 7439 7442 7445 7448 7451 7454 7456 7459 7461 7464 7467 7469 7472 7475 7478 7481 7484 7487 7490 7493 7495 7497 7500 7503 7506 7508 7511 7514 7517 7520 7523 7526 7528 7531 7534 7537 7540 7543 7545 7548 7551 7553 7556 7559 7562 7565 7567 7570 7573 7575 7577 7580 7583 7586 7588 7591 7593 7595 7598 7601 7604 7607 7609 7612 7615 7618 7621 7624 7626 7629 7632 7634 7637 7640 7643 7646 7648 7651 7654 7656 7659 7662 7664 7667 7669 7672 7675 7678 7681 7684 7687 7689 7692 7695 7698 7701 7704 7707 7710 7713 7716 7719 7721 7724 7727 7729 7732 7735 7738 7741 7744 7747 7750 7752 7755 7758 7761 7764 7767 7770 7773 7775 7778 7781 7784 7787 7790 7793 7796 7799 7802 7804 7807 7810 7813 7816 7819 7822 7825 7828 7831 7834 7837 7840 7843 7845 7847 7850 7853 7856 7859 7862 7865 7867 7870 7872 7875 7878 7880 7883 7886 7889 7892 7894 7897 7900 7903 7906 7909 7912 7915 7918 7921 7924 7927 7930 7933 7936 7939 7942 7945 7948 7951 7954 7957 7960 7963 7966 7969 7972 7975 7978 7981 7984 7987 7989 7992 7995 7998 8001 8004 8007 8010 8013 8016 8019 8022 8025 8027 8030 8033 8036 8039 8042 8045 8048 8051 8054 8057 8059 8062 8065 8068 8071 8073 8076 8078 8081 8084 8087 8090 8092 8095 8098 8101 8104 8107 8110 8113 8116 8119 8122 8125 8128 8131 8134 8137 8140 8143 8146 8149 8152 8155 8158 8161 8164 8167 8170 8173 8175 8178 8181 8184 8187 8190 8193 8196 8199 8202 8205 8208 8211 8214 8216 8219 8222 8224 8227 8230 8233 8236 8239 8242 8244 8247 8250 8253 8256 8259 8262 8265 8268 8271 8274 8277 8280 8283 8286 8288 8291 8294 8296 8299 8302 8305 8308 8311 8313 8316 8319 8322 8325 8328 8331 8334 8337 8340 8343 8346 8349 8352 8355 8358 8361 8364 8367 8370 8373 8376 8379 8382 8385 8387 8390 8393 8396 8399 8402 8404 8407 8410 8413 8415 8418 8421 8424 8427 8430 8433 8436 8439 8442 8445 8448 8451 8454 8457 8460 8463 8466 8469 8472 8475 8477 8480 8483 8486 8489 8491 8494 8497 8500 8503 8506 8509 8512 8515 8518 8521 8524 8527 8530 8533 8535 8538 8540 8543 8546 8549 8551 8554 8557 8560 8562 8565 8568 8571 8574 8577 8579 8582 8585 8587 8590 8593 8596 8598 8601 8603 8606 8609 8612 8615 8618 8621 8624 8627 8630 8633 8636 8639 8642 8645 8647 8650 8653 8655 8658 8661 8664 8667 8670 8673 8676 8679 8681 8684 8686 8689 8692 8694 8697 8700 8703 8706 8709 8712 8715 8718 8720 8722 8725 8728 8731 8734 8737 8740 8743 8746 8749 8752 8755 8758 8761 8764 8767 8769 8772 8775 8777 8780 8783 8786 8788 8791 8794 8797 8800 8803 8806 8809 8811 8813 8816 8819 8822 8825 8828 8831 8833 8836 8839 8842 8845 8848 8851 8854 8857 8860 8863 8866 8869 8872 8875 8878 8881 8884 8887 8890 8892 8895 8898 8901 8903 8906 8909 8912 8914 8917 8920 8923 8926 8928 8931 8934 8936 8939 8942 8945 8948 8951 8954 8957 8960 8963 8966 8969 8972 8975 8978 8981 8984 8987 8990 8993 8996 8998 9000 9003 9006 9009 9012 9014 9017 9020 9023 9026 9029 9032 9035 9037 9040 9043 9046 9049 9052 9055 9058 9061 9064 9067 9070 9073 9076 9079 9082 9085 9088 9091 9093 9096 9099 9102 9105 9108 9111 9114 9116 9119 9121 9124 9126 9129 9132 9135 9138 9140 9143 9146 9149 9152 9154 9157 9160 9163 9166 9169 9172 9175 9178 9181 9184 9187 9190 9193 9196 9198 9201 9204 9207 9210 9213 9216 9219 9222 9224 9227 9230 9233 9236 9239 9241 9243 9246 9249 9252 9255 9258 9261 9263 9266 9269 9272 9274 9277 9280 9283 9285 9288 9291 9294 9297 9300 9303 9306 9309 9312 9315 9318 9321 9324 9327 9330 9332 9335 9338 9341 9344 9347 9349 9352 9355 9358 9361 9364 9367 9370 9373 9376 9379 9382 9385 9388 9391 9394 9397 9400 9403 9406 9409 9412 9415 9418 9421 9424 9426 9429 9432 9435 9438 9441 9443 9446 9449 9451 9454 9457 9460 9463 9466 9469 9471 9474 9477 9480 9483 9485 9488 9490 9493 9496 9499 9502 9505 9508 9511 9514 9517 9519 9522 9525 9528 9531 9534 9537 9539 9542 9545 9548 9551 9554 9557 9559 9562 9565 9568 9570 9573 9576 9579 9582 9585 9588 9591 9594 9597 9599 9602 9605 9607 9610 9613 9616 9619 9622 9625 9628 9630 9633 9636 9639 9642 9645 9648 9650 9653 9656 9659 9662 9665 9668 9670 9673 9676 9679 9682 9685 9688 9691 9694 9697 9700 9703 9706 9709 9712 9715 9718 9721 9723 9726 9729 9732 9735 9738 9740 9743 9745 9748 9751 9754 9757 9760 9763 9766 9769 9772 9774 9777 9780 9782 9785 9788 9791 9794 9797 9800 9803 9806 9809 9812 9815 9818 9821 9824 9827 9830 9833 9836 9839 9841 9844 9847 9850 9853 9856 9859 9862 9865 9868 9871 9874 9877 9880 9883 9886 9889 9892 9895 9898 9901 9904 9906 9909 9912 9915 9918 9920 9922 9925 9928 9931 9933 9936 9939 9942 9944 9947 9950 9953 9955 9958 9961 9963 9966 9969 9972 9975 9978 9981 9984 9987 9990 9993 9996 9999 10002 10005 10008 10011 10014 10017 10020 10023 10026 10029 10032 10035 10038 10041 10044 10047 10050 10053 10056 10059 10062 10065 10068 10071 10074 10077 10080 10083 10086 10089 10092 10095 10098 10101 10104 10107 10110 10113 10116 10119 10122 10124 10127 10130 10133 10136 10139 10142 10144 10146 10149 10152 10155 10158 10161 10164 10167 10170 10173 10176 10179 10182 10185 10188 10191 10194 10197 10200 10203 10206 10209 10212 10215 10218 10220 10223 10226 10229 10232 10235 10238 10241 10244 10247 10249 10252 10255 10258 10261 10264 10267 10270 10272 10275 10278 10281 10284 10287 10290 10293 10296 10299 10302 10305 10307 10310 10313 10316 10319 10322 10325 10328 10331 10334 10337 10340 10343 10346 10349 10351 10354 10357 10359 10362 10365 10368 10371 10374 10377 10380 10382 10385 10388 10390 10393 10396 10399 10402 10405 10408 10411 10414 10417 10420 10423 10426 10429 10432 10435 10438 10441 10444 10447 10450 10453 10456 10459 10462 10465 10468 10471 10474 10477 10480 10483 10486 10489 10492 10495 10498 10501 10504 10507 10510 10513 10516 10519 10522 10525 10528 10531 10534 10536 10539 10542 10545 10548 10551 10554 10557 10560 10563 10566 10569 10572 10575 10578 10581 10584 10587 10590 10593 10596 10599 10602 10604 10607 10609 10612 10615 10618 10620 10623 10626 10629 10632 10635 10638 10641 10643 10646 10649 10651 10654 10657 10660 10663 10666 10668 10671 10674 10677 10680 10683 10686 10689 10692 10695 10698 10700 10703 10706 10709 10712 10715 10718 10721 10724 10727 10730 10733 10736 10739 10742 10745 10748 10751 10754 10756 10759 10762 10765 10768 10771 10774 10777 10780 10783 10786 10788 10791 10794 10797 10799 10802 10805 10808 10811 10814 10816 10819 10822 10825 10827 10830 10833 10836 10839 10842 10845 10848 10851 10854 10857 10860 10863 10865 10867 10870 10873 10876 10879 10882 10885 10888 10891 10894 10896 10899 10902 10905 10908 10910 10913 10916 10919 10922 10925 10928 10931 10934 10937 10940 10943 10946 10949 10951 10954 10956 10959 10962 10965 10968 10971 10974 10977 10980 10983 10986 10989 10992 10995 10998 11000 11003 11005 11008 11011 11014 11017 11020 11023 11026 11029 11032 11034 11037 11040 11043 11046 11049 11052 11055 11058 11061 11063 11066 11069 11072 11074 11077 11079 11082 11085 11088 11091 11094 11097 11100 11102 11105 11108 11111 11113 11116 11119 11122 11125 11128 11131 11134 11137 11140 11143 11146 11148 11151 11154 11156 11159 11162 11165 11167 11169 11172 11175 11178 11180 11183 11186 11189 11192 11195 11197 11200 11202 11205 11208 11211 11214 11217 11220 11223 11226 11228 11231 11234 11236 11239 11242 11245 11248 11250 11253 11255 11258 11261 11264 11267 11270 11273 11276 11279 11282 11285 11287 11290 11293 11296 11299 11302 11305 11308 11311 11314 11317 11320 11323 11326 11329 11332 11335 11338 11341 11344 11346 11349 11352 11355 11358 11360 11362 11365 11368 11371 11374 11377 11380 11383 11386 11388 11391 11394 11397 11400 11402 11405 11408 11410 11413 11416 11419 11421 11424 11426 11428 11431 11434 11437 11440 11443 11446 11449 11452 11455 11458 11461 11464 11467 11470 11473 11476 11479 11482 11485 11488 11491 11494 11497 11500 11503 11506 11509 11512 11515 11518 11520 11523 11525 11528 11531 11533 11536 11539 11541 11544 11547 11550 11552 11555 11558 11561 11564 11566 11569 11571 11573 11576 11578 11581 11584 11586 11589 11591 11594 11597 11599 11602 11604 11607 11610 11612 11615 11618 11620 11623 11626 11629 11631 11634 11637 11640 11643 11646 11649 11651 11654 11657 11660 11663 11666 11668 11670 11673 11676 11679 11681 11684 11687 11690 11693 11696 11699 11702 11705 11708 11711 11714 11717 11720 11723 11726 11728 11731 11734 11737 11739 11742 11745 11748 11751 11754 11756 11758 11760 11763 11766 11768 11770 11773 11776 11779 11782 11784 11787 11790 11792 11794 11797 11800 11802 11805 11807 11810 11812 11815 11818 11820 11823 11826 11829 11832 11834 11837 11840 11843 11846 11849 11852 11855 11858 11861 11864 11867 11870 11873 11876 11879 11882 11885 11888 11891 11894 11897 11900 11903 11906 11909 11912 11914 11917 11919 11922 11924 11926 11929 11931 11934 11936 11939 11942 11944 11947 11950 11952 11955 11958 11961 11964 11967 11970 11972 11975 11978 11981 11984 11987 11990 11993 11996 11999 12002 12005 12008 12011 12014 12017 12020 12023 12026 12029 12032 12035 12038 12041 12044 12047 12050 12053 12056 12059 12061 12064 12066 12069 12072 12075 12078 12081 12084 12086 12089 12092 12094 12096 12099 12102 12105 12108 12111 12114 12117 12120 12123 12126 12129 12132 12135 12137 12140 12143 12146 12149 12152 12155 12158 12161 12163 12166 12169 12172 12175 12178 12181 12184 12187 12190 12193 12196 12199 12202 12205 12208 12211 12213 12216 12219 12222 12225 12228 12231 12234 12237 12240 12243 12246 12249 12252 12255 12258 12261 12264 12267 12270 12273 12276 12279 12282 12285 12288 12291 12294 12297 12300 12303 12306 12309 12312 12315 12318 12321 12324 12327 12330 12333 12336 12339 12342 12345 12348 12351 12354 12357 12360 12363 12366 12369 12372 12375 12378 12381 12384 12387 12390 12393 12396 12399 12402 12405 12408 12411 12414 12417 12420 12423 12426 12429 12432 12435 12438 12441 12444 12447 12450 12453 12456 12459 12461 12464 12466 12469 12472 12474 12477 12480 12483 12486 12489 12492 12495 12497 12500 12503 12506 12508 12510 12513 12516 12518 12521 12524 12527 12530 12533 12536 12538 12541 12543 12546 12549 12552 12555 12557 12560 12563 12566 12569 12572 12575 12578 12581 12584 12587 12590 12593 12596 12599 12602 12605 12608 12611 12613 12616 12619 12621 12624 12626 12629 12632 12634 12637 12640 12643 12646 12649 12652 12655 12657 12660 12663 12665 12668 12670 12673 12675 12678 12680 12683 12686 12689 12692 12695 12698 12701 12703 12706 12709 12712 12715 12718 12721 12723 12725 12728 12731 12734 12736 12739 12742 12745 12748 12751 12753 12756 12759 12762 12765 12768 12771 12774 12776 12779 12782 12785 12787 12790 12792 12795 12797 12799 12802 12805 12807 12810 12813 12815 12818 12821 12824 12826 12829 12832 12835 12838 12841 12844 12847 12849 12852 12855 12858 12861 12864 12867 12870 12873 12876 12879 12882 12884 12887 12889 12892 12894 12897 12899 12902 12905 12908 12911 12914 12916 12919 12922 12924 12927 12930 12933 12935 12938 12941 12944 12947 12950 12952 12954 12957 12960 12963 12966 12968 12971 12973 12975 12978 12981 12984 12987 12990 12992 12995 12998 13001 13004 13007 13009 13012 13015 13018 13021 13024 13027 13029 13032 13034 13037 13039 13042 13045 13048 13051 13054 13057 13060 13063 13066 13069 13072 13075 13078 13081 13084 13087 13090 13093 13096 13099 13102 13104 13107 13109 13112 13115 13118 13121 13124 13126 13129 13132 13134 13137 13140 13143 13146 13149 13152 13155 13158 13161 13164 13167 13170 13173 13176 13179 13181 13184 13187 13190 13193 13196 13199 13202 13205 13208 13211 13214 13217 13220 13223 13226 13229 13231 13234 13237 13240 13243 13246 13249 13252 13255 13257 13260 13263 13265 13268 13271 13274 13276 13279 13282 13285 13287 13290 13293 13296 13299 13302 13305 13308 13311 13314 13317 13320 13323 13326 13329 13332 13335 13337 13340 13343 13346 13348 13351 13354 13357 13359 13362 13365 13368 13371 13374 13377 13380 13383 13386 13389 13392 13395 13398 13401 13403 13406 13409 13412 13415 13418 13420 13423 13426 13429 13432 13435 13438 13441 13444 13447 13450 13453 13456 13459 13462 13464 13467 13470 13473 13476 13478 13481 13484 13487 13490 13493 13495 13497 13499 13502 13505 13508 13511 13514 13517 13520 13523 13526 13529 13532 13535 13538 13541 13544 13547 13550 13553 13556 13559 13562 13565 13568 13571 13574 13576 13579 13582 13585 13588 13591 13593 13596 13599 13602 13605 13608 13611 13614 13617 13620 13623 13626 13629 13632 13635 13638 13641 13644 13647 13650 13653 13656 13659 13662 13665 13668 13671 13674 13677 13680 13683 13686 13689 13692 13695 13698 13701 13704 13707 13710 13713 13716 13719 13722 13725 13728 13730 13733 13736 13739 13742 13745 13748 13751 13754 13757 13760 13763 13766 13769 13772 13775 13778 13781 13784 13787 13790 13793 13796 13799 13802 13805 13808 13811 13814 13817 13820 13823 13826 13829 13832 13835 13838 13841 13844 13847 13850 13853 13856 13859 13862 13865 13867 13870 13872 13875 13878 13881 13884 13887 13890 13893 13896 13898 13900 13902 13905 13908 13910 13913 13915 13917 13920 13923 13926 13929 13932 13934 13936 13939 13942 13945 13947 13950 13953 13956 13959 13961 13964 13967 13970 13973 13975 13977 13980 13983 13986 13989 13992 13995 13998 14001 14003 14005 14008 14011 14013 14016 14019 14022 14024 14027 14029 14032 14034 14037 14040 14042 14044 14046 14049 14052 14055 14058 14061 14064 14067 14070 14072 14075 14078 14081 14084 14086 14088 14091 14094 14097 14100 14103 14106 14109 14112 14114 14117 14120 14123 14126 14128 14131 14134 14137 14140 14143 14146 14149 14152 14155 14158 14161 14164 14167 14169 14172 14175 14178 14180 14183 14186 14188 14191 14193 14196 14199 14202 14205 14208 14211 14214 14217 14220 14223 14226 14229 14232 14235 14238 14241 14244 14247 14250 14253 14256 14259 14262 14265 14268 14271 14274 14277 14280 14283 14286 14289 14292 14295 14298 14301 14304 14307 14310 14313 14316 14319 14321 14324 14327 14330 14333 14336 14339 14342 14345 14348 14351 14354 14357 14360 14362 14365 14368 14371 14374 14377 14380 14383 14386 14389 14392 14395 14398 14401 14404 14407 14410 14413 14416 14419 14422 14425 14428 14431 14434 14437 14440 14443 14446 14449 14452 14455 14458 14461 14464 14467 14470 14473 14476 14479 14482 14485 14488 14491 14494 14497 14499 14502 14505 14508 14511 14513 14515 14518 14521 14524 14526 14529 14532 14534 14537 14540 14543 14546 14549 14552 14555 14558 14561 14564 14567 14570 14573 14576 14579 14582 14585 14588 14591 14594 14597 14600 14603 14606 14609 14612 14615 14618 14621 14623 14626 14629 14632 14635 14637 14640 14643 14646 14648 14651 14654 14657 14660 14663 14666 14669 14672 14675 14677 14680 14682 14685 14688 14691 14693 14696 14699 14702 14705 14708 14711 14714 14717 14720 14723 14726 14728 14731 14734 14737 14739 14742 14745 14747 14750 14753 14755 14758 14761 14764 14767 14770 14772 14775 14777 14779 14782 14785 14788 14791 14794 14797 14800 14803 14806 14809 14812 14815 14818 14821 14824 14827 14830 14833 14836 14839 14842 14845 14848 14851 14853 14855 14858 14861 14863 14866 14869 14872 14875 14878 14880 14883 14886 14889 14892 14894 14897 14900 14902 14905 14908 14911 14914 14917 14920 14922 14924 14927 14930 14932 14934 14937 14939 14942 14945 14948 14950 14952 14954 14957 14960 14963 14966 14969 14971 14974 14976 14979 14982 14985 14987 14990 14993 14996 14999 15002 15005 15008 15010 15012 15015 15017 15020 15023 15026 15029 15031 15034 15037 15040 15042 15044 15047 15050 15053 15056 15059 15062 15065 15068 15071 15074 15077 15080 15082 15085 15088 15091 15094 15097 15100 15103 15106 15109 15112 15115 15118 15121 15124 15127 15130 15133 15136 15138 15141 15144 15147 15150 15153 15156 15158 15161 15164 15167 15170 15173 15176 15179 15182 15185 15188 15191 15194 15197 15199 15202 15205 15208 15211 15213 15216 15219 15222 15224 15227 15230 15233 15236 15239 15242 15245 15247 15250 15253 15256 15259 15262 15265 15268 15271 15274 15277 15280 15283 15286 15289 15292 15295 15298 15301 15304 15307 15310 15313 15316 15319 15322 15325 15328 15331 15334 15337 15340 15343 15346 15349 15351 15353 15356 15359 15362 15365 15368 15371 15374 15377 15380 15383 15386 15389 15392 15395 15398 15401 15404 15407 15410 15413 15416 15418 15421 15424 15427 15430 15433 15436 15439 15441 15444 15446 15449 15452 15455 15457 15460 15463 15465 15468 15471 15474 15477 15480 15483 15486 15489 15492 15495 15498 15501 15504 15506 15509 15512 15515 15517 15520 15522 15525 15528 15531 15534 15537 15540 15543 15546 15549 15551 15554 15556 15559 15561 15564 15567 15570 15572 15575 15578 15581 15584 15586 15589 15592 15594 15597 15600 15603 15606 15609 15612 15615 15618 15621 15624 15627 15630 15633 15636 15639 15641 15644 15647 15650 15653 15656 15659 15661 15664 15667 15670 15672 15675 15678 15681 15683 15686 15689 15691 15693 15696 15699 15701 15704 15706 15709 15712 15715 15718 15721 15724 15726 15729 15731 15734 15737 15740 15743 15746 15749 15751 15754 15757 15760 15763 15766 15769 15772 15775 15778 15781 15784 15787 15790 15793 15795 15798 15801 15804 15807 15809 15812 15815 15818 15820 15823 15826 15829 15832 15835 15838 15841 15844 15847 15850 15853 15856 15858 15861 15863 15866 15869 15872 15875 15878 15881 15884 15887 15890 15893 15896 15899 15901 15904 15907 15910 15913 15915 15918 15921 15924 15927 15929 15931 15934 15937 15939 15942 15944 15946 15949 15951 15954 15956 15959 15962 15965 15968 15971 15974 15977 15980 15983 15986 15989 15992 15994 15997 16000 16003 16006 16008 16010 16013 16016 16019 16022 16025 16028 16031 16034 16037 16039 16042 16045 16047 16050 16053 16056 16058 16061 16064 16067 16070 16073 16076 16079 16082 16085 16088 16091 16094 16097 16100 16103 16106 16109 16112 16115 16118 16121 16124 16127 16129 16132 16135 16138 16141 16144 16147 16150 16153 16156 16159 16162 16165 16168 16171 16174 16177 16180 16183 16186 16189 16192 16194 16197 16200 16203 16206 16209 16212 16215 16218 16221 16224 16226 16229 16232 16234 16237 16240 16243 16246 16248 16251 16254 16257 16260 16263 16265 16268 16271 16274 16277 16280 16283 16286 16289 16292 16295 16298 16301 16304 16307 16310 16313 16316 16319 16322 16325 16327 16330 16332 16335 16338 16340 16343 16346 16349 16352 16355 16358 16361 16364 16367 16370 16373 16376 16379 16382 16385 16388 16391 16394 16397 16400 16403 16406 16409 16412 16415 16418 16421 16424 16427 16430 16433 16436 16439 16442 16445 16448 16450 16453 16455 16458 16461 16464 16467 16470 16473 16476 16479 16481 16484 16486 16489 16492 16495 16498 16501 16504 16507 16510 16513 16516 16519 16522 16525 16528 16531 16534 16537 16540 16543 16546 16548 16550 16553 16556 16558 16560 16563 16566 16569 16572 16574 16577 16580 16583 16586 16589 16592 16595 16598 16601 16604 16607 16610 16613 16616 16619 16622 16625 16628 16631 16634 16637 16640 16643 16646 16649 16652 16655 16658 16661 16664 16666 16669 16671 16674 16677 16680 16682 16685 16688 16691 16694 16697 16700 16703 16706 16709 16712 16715 16718 16721 16724 16727 16730 16733 16736 16739 16742 16744 16747 16750 16753 16756 16758 16761 16764 16766 16769 16772 16775 16778 16781 16783 16785 16788 16791 16794 16796 16799 16802 16805 16808 16811 16814 16817 16820 16822 16825 16828 16831 16834 16837 16840 16843 16846 16849 16852 16855 16858 16861 16864 16867 16870 16873 16875 16878 16881 16884 16887 16890 16893 16896 16899 16902 16905 16908 16911 16914 16916 16919 16922 16925 16928 16931 16934 16937 16940 16943 16946 16949 16951 16954 16957 16960 16963 16966 16969 16972 16975 16978 16981 16984 16987 16989 16992 16995 16998 17001 17004 17007 17010 17013 17016 17019 17021 17024 17027 17030 17032 17035 17037 17040 17043 17046 17049 17052 17054 17057 17060 17063 17066 17069 17072 17075 17077 17080 17082 17085 17088 17090 17093 17096 17099 17102 17104 17107 17109 17112 17115 17118 17121 17124 17126 17128 17131 17134 17137 17140 17143 17146 17149 17152 17155 17158 17161 17163 17166 17168 17171 17174 17177 17180 17182 17185 17188 17191 17194 17197 17200 17203 17205 17207 17210 17212 17215 17218 17220 17223 17226 17229 17232 17235 17237 17240 17243 17246 17249 17252 17255 17258 17261 17264 17266 17269 17271 17274 17277 17279 17282 17285 17288 17291 17294 17297 17299 17302 17305 17308 17311 17313 17316 17319 17322 17324 17326 17329 17332 17335 17338 17340 17343 17346 17349 17351 17354 17357 17360 17363 17366 17369 17372 17375 17378 17381 17383 17386 17389 17392 17395 17398 17400 17403 17406 17409 17412 17415 17418 17421 17424 17426 17429 17432 17435 17438 17441 17444 17447 17450 17453 17456 17459 17462 17464 17467 17469 17471 17474 17477 17479 17481 17484 17487 17490 17493 17496 17498 17501 17503 17506 17509 17512 17514 17516 17519 17522 17525 17528 17531 17534 17537 17540 17543 17546 17549 17552 17555 17558 17561 17564 17567 17570 17573 17576 17579 17582 17585 17588 17591 17594 17597 17600 17603 17606 17609 17612 17615 17618 17621 17624 17627 17630 17633 17636 17639 17642 17645 17647 17650 17653 17656 17659 17661 17664 17667 17670 17673 17676 17679 17682 17685 17687 17690 17693 17696 17698 17701 17704 17706 17709 17712 17715 17718 17721 17724 17727 17730 17732 17735 17738 17740 17743 17746 17749 17752 17755 17758 17760 17763 17766 17768 17771 17774 17777 17780 17782 17785 17788 17791 17794 17797 17800 17803 17806 17809 17812 17814 17817 17820 17823 17826 17829 17832 17835 17838 17841 17844 17846 17849 17852 17855 17858 17861 17864 17867 17870 17873 17876 17879 17882 17885 17888 17891 17894 17897 17900 17903 17906 17909 17912 17915 17918 17921 17924 17927 17930 17933 17936 17939 17941 17943 17946 17949 17951 17954 17957 17960 17963 17965 17968 17971 17974 17977 17979 17981 17984 17987 17990 17993 17995 17998 18001 18004 18007 18010 18013 18016 18019 18022 18025 18028 18030 18033 18036 18039 18041 18044 18047 18050 18053 18056 18059 18061 18064 18067 18070 18072 18074 18077 18080 18083 18086 18089 18092 18095 18097 18100 18103 18106 18108 18111 18113 18116 18119 18122 18125 18128 18131 18134 18137 18140 18143 18146 18149 18152 18155 18158 18161 18164 18167 18170 18173 18176 18179 18182 18185 18188 18191 18194 18197 18199 18202 18205 18208 18211 18214 18217 18220 18223 18226 18228 18231 18234 18237 18240 18243 18246 18249 18252 18255 18258 18261 18264 18266 18269 18272 18275 18278 18281 18284 18287 18290 18293 18295 18297 18300 18303 18306 18309 18312 18314 18317 18320 18323 18325 18328 18330 18333 18336 18339 18342 18345 18348 18351 18354 18357 18360 18363 18366 18369 18372 18375 18378 18381 18384 18387 18390 18393 18396 18399 18402 18405 18407 18410 18413 18415 18418 18421 18424 18427 18430 18433 18435 18438 18441 18444 18447 18450 18453 18456 18459 18462 18465 18468 18471 18474 18477 18480 18483 18486 18489 18492 18495 18498 18501 18504 18507 18509 18512 18515 18517 18520 18523 18526 18529 18532 18535 18538 18541 18543 18546 18549 18552 18555 18558 18561 18564 18567 18570 18573 18576 18579 18582 18585 18588 18591 18594 18597 18600 18603 18606 18609 18612 18615 18618 18621 18624 18626 18629 18632 18635 18638 18640 18642 18645 18648 18650 18653 18656 18659 18662 18665 18668 18671 18674 18676 18678 18681 18684 18687 18689 18692 18695 18698 18701 18704 18707 18710 18712 18715 18718 18720 18723 18726 18729 18732 18735 18738 18741 18744 18746 18749 18752 18755 18758 18761 18763 18766 18769 18771 18774 18777 18779 18782 18785 18788 18791 18793 18795 18797 18800 18803 18806 18809 18812 18814 18817 18820 18822 18825 18828 18831 18834 18837 18840 18843 18846 18849 18852 18855 18858 18861 18864 18866 18869 18871 18874 18877 18880 18883 18886 18888 18891 18894 18897 18900 18903 18906 18909 18911 18913 18916 18919 18922 18925 18928 18931 18934 18937 18940 18943 18946 18949 18952 18955 18958 18961 18964 18967 18969 18972 18975 18978 18980 18983 18986 18989 18992 18995 18998 19001 19004 19006 19009 19011 19014 19017 19020 19023 19026 19029 19032 19035 19038 19041 19043 19046 19049 19052 19055 19058 19061 19064 19067 19070 19073 19076 19079 19082 19085 19088 19091 19093 19095 19098 19101 19104 19106 19109 19112 19115 19118 19120 19123 19126 19129 19132 19134 19137 19140 19143 19146 19149 19152 19155 19158 19160 19163 19166 19169 19171 19174 19177 19180 19183 19186 19189 19192 19195 19198 19201 19204 19207 19210 19213 19216 19219 19222 19225 19227 19230 19233 19236 19239 19241 19244 19247 19250 19253 19256 19259 19262 19265 19268 19271 19274 19277 19280 19283 19286 19289 19292 19294 19297 19299 19302 19305 19308 19311 19313 19316 19319 19321 19324 19326 19328 19331 19334 19337 19340 19343 19346 19348 19351 19353 19356 19359 19362 19365 19368 19371 19374 19376 19379 19382 19385 19388 19391 19393 19396 19399 19402 19404 19407 19410 19412 19415 19418 19421 19424 19427 19430 19433 19436 19438 19441 19444 19446 19449 19452 19455 19458 19461 19464 19467 19470 19473 19476 19479 19482 19485 19488 19491 19494 19497 19500 19503 19506 19509 19512 19515 19518 19521 19524 19527 19530 19533 19536 19539 19541 19544 19547 19550 19553 19556 19559 19562 19564 19567 19569 19572 19575 19578 19581 19583 19586 19589 19592 19595 19597 19600 19603 19606 19609 19612 19614 19617 19620 19623 19626 19629 19632 19635 19638 19641 19644 19646 19648 19651 19654 19657 19659 19662 19665 19668 19671 19673 19676 19679 19682 19685 19688 19691 19694 19696 19698 19700 19703 19706 19709 19712 19715 19718 19721 19724 19727 19730 19733 19736 19738 19741 19743 19746 19749 19752 19755 19758 19761 19764 19767 19770 19773 19776 19779 19782 19785 19788 19790 19793 19796 19799 19802 19805 19808 19810 19813 19816 19819 19822 19825 19828 19831 19834 19837 19840 19843 19846 19849 19852 19855 19858 19861 19864 19867 19870 19873 19876 19879 19882 19885 19887 19890 19893 19895 19898 19901 19904 19906 19909 19911 19913 19916 19919 19922 19924 19927 19930 19933 19936 19939 19942 19944 19947 19950 19953 19955 19957 19960 19962 19965 19968 19971 19974 19977 19980 19983 19985 19988 19991 19994 19997 20000 20003 20005 20008 20011 20014 20017 20020 20022 20025 20028 20031 20034 20037 20040 20043 20046 20049 20052 20055 20058 20061 20064 20067 20070 20073 20076 20079 20082 20085 20088 20091 20094 20097 20100 20103 20106 20108 20111 20114 20117 20119 20122 20125 20128 20131 20134 20136 20139 20142 20144 20147 20149 20152 20155 20158 20161 20164 20167 20170 20173 20176 20179 20182 20185 20188 20191 20193 20196 20199 20201 20204 20207 20210 20213 20216 20219 20222 20225 20228 20231 20234 20237 20240 20243 20245 20248 20251 20254 20257 20260 20262 20265 20268 20271 20274 20277 20280 20283 20286 20289 20292 20295 20298 20301 20304 20307 20310 20313 20316 20319 20322 20325 20328 20331 20334 20337 20340 20343 20346 20349 20352 20355 20358 20361 20364 20367 20370 20373 20376 20379 20382 20385 20388 20391 20394 20397 20400 20403 20406 20409 20412 20415 20418 20421 20424 20427 20430 20433 20436 20439 20442 20445 20448 20451 20454 20457 20460 20463 20465 20468 20470 20473 20476 20479 20482 20485 20488 20491 20493 20496 20499 20502 20504 20507 20509 20512 20515 20518 20520 20523 20526 20528 20531 20534 20537 20540 20543 20546 20548 20551 20554 20557 20560 20563 20566 20569 20572 20575 20578 20581 20584 20587 20590 20593 20596 20599 20601 20604 20607 20610 20613 20616 20618 20621 20624 20626 20629 20632 20634 20636 20639 20642 20645 20648 20651 20654 20657 20660 20662 20665 20668 20671 20674 20677 20680 20683 20686 20689 20692 20695 20698 20701 20704 20707 20710 20713 20716 20719 20722 20725 20728 20731 20734 20737 20740 20743 20746 20749 20752 20755 20758 20761 20764 20767 20770 20773 20776 20779 20782 20785 20788 20791 20794 20797 20800 20803 20806 20809 20812 20815 20818 20821 20824 20827 20830 20832 20835 20838 20841 20844 20847 20850 20852 20855 20858 20861 20863 20865 20868 20871 20874 20877 20880 20883 20886 20889 20892 20895 20898 20901 20904 20907 20910 20913 20915 20918 20921 20924 20927 20930 20933 20936 20938 20941 20944 20947 20950 20952 20955 20958 20961 20964 20967 20970 20972 20975 20978 20981 20984 20987 20990 20992 20995 20998 21001 21004 21007 21010 21012 21015 21018 21021 21024 21027 21030 21033 21036 21039 21042 21045 21048 21051 21054 21057 21060 21063 21066 21069 21071 21074 21077 21080 21082 21085 21088 21090 21093 21096 21098 21101 21104 21107 21110 21113 21116 21119 21122 21125 21128 21131 21134 21137 21140 21143 21146 21149 21152 21155 21157 21160 21162 21165 21167 21170 21173 21175 21178 21180 21183 21186 21189 21191 21194 21197 21199 21202 21205 21207 21209 21211 21213 21216 21219 21221 21223 21226 21229 21232 21235 21237 21239 21242 21245 21247 21249 21252 21255 21257 21259 21262 21265 21268 21271 21274 21277 21280 21283 21286 21289 21292 21295 21298 21301 21304 21307 21310 21313 21316 21319 21322 21325 21328 21331 21334 21337 21340 21343 21345 21348 21350 21353 21356 21358 21361 21364 21367 21369 21372 21375 21378 21381 21384 21387 21390 21393 21396 21399 21401 21404 21407 21410 21413 21416 21419 21422 21425 21428 21431 21434 21436 21439 21442 21445 21448 21451 21454 21457 21460 21463 21466 21469 21471 21474 21477 21480 21483 21486 21489 21492 21495 21498 21500 21503 21506 21508 21511 21513 21516 21519 21522 21524 21527 21530 21533 21536 21538 21541 21544 21547 21550 21553 21556 21559 21562 21565 21568 21571 21574 21577 21580 21583 21586 21589 21592 21595 21598 21601 21604 21607 21610 21613 21616 21619 21622 21625 21627 21630 21633 21636 21638 21641 21644 21647 21650 21653 21655 21658 21661 21664 21667 21669 21672 21675 21678 21680 21683 21686 21689 21692 21694 21697 21700 21702 21705 21708 21711 21713 21716 21719 21722 21725 21727 21729 21731 21734 21737 21740 21743 21746 21748 21751 21754 21757 21760 21763 21766 21769 21772 21774 21777 21780 21783 21786 21789 21792 21795 21797 21800 21803 21806 21809 21812 21815 21817 21820 21823 21825 21827 21830 21833 21836 21839 21842 21845 21848 21851 21854 21856 21859 21862 21865 21868 21871 21874 21876 21879 21882 21885 21888 21891 21894 21897 21900 21903 21906 21909 21912 21915 21918 21921 21924 21927 21930 21933 21936 21939 21942 21945 21948 21951 21954 21957 21960 21963 21966 21969 21972 21974 21977 21980 21983 21986 21989 21992 21995 21998 22001 22004 22006 22009 22012 22015 22018 22021 22024 22027 22030 22033 22035 22037 22040 22042 22045 22048 22051 22054 22056 22059 22062 22065 22068 22071 22074 22076 22079 22082 22085 22088 22091 22094 22097 22099 22102 22105 22108 22111 22113 22116 22119 22122 22124 22127 22130 22133 22136 22139 22142 22144 22147 22150 22153 22156 22159 22162 22165 22168 22171 22174 22177 22179 22182 22185 22188 22191 22194 22197 22200 22203 22206 22209 22212 22215 22218 22221 22224 22227 22230 22233 22236 22239 22242 22245 22248 22251 22254 22257 22260 22263 22266 22269 22272 22275 22278 22281 22284 22287 22290 22293 22296 22299 22302 22305 22308 22311 22314 22316 22319 22322 22325 22328 22331 22334 22337 22340 22343 22346 22349 22352 22355 22358 22361 22364 22367 22370 22373 22376 22379 22382 22385 22387 22390 22393 22396 22399 22402 22405 22408 22411 22414 22417 22419 22422 22425 22428 22431 22434 22436 22439 22441 22444 22447 22450 22453 22456 22459 22462 22465 22468 22471 22474 22477 22480 22483 22486 22489 22491 22494 22497 22500 22503 22506 22509 22512 22514 22517 22520 22523 22526 22529 22532 22535 22538 22541 22544 22547 22550 22553 22556 22559 22561 22564 22567 22570 22573 22576 22579 22582 22585 22588 22591 22594 22597 22600 22603 22606 22609 22612 22614 22617 22619 22622 22625 22627 22630 22633 22635 22638 22641 22644 22646 22649 22651 22654 22656 22659 22662 22665 22667 22670 22673 22676 22679 22682 22685 22688 22690 22693 22696 22699 22702 22705 22708 22711 22714 22717 22720 22723 22726 22728 22730 22733 22736 22739 22742 22744 22747 22750 22753 22755 22758 22760 22763 22766 22769 22772 22774 22777 22780 22783 22786 22789 22791 22794 22796 22798 22801 22804 22807 22810 22813 22816 22818 22821 22824 22826 22828 22831 22834 22837 22839 22842 22845 22847 22849 22852 22854 22857 22860 22863 22866 22868 22871 22874 22877 22880 22883 22886 22889 22892 22895 22898 22901 22904 22907 22910 22913 22916 22919 22922 22925 22928 22931 22934 22937 22940 22943 22946 22949 22951 22954 22957 22959 22962 22964 22967 22970 22972 22975 22978 22981 22983 22986 22988 22991 22994 22997 23000 23003 23006 23009 23012 23015 23018 23021 23024 23027 23030 23033 23036 23039 23042 23045 23048 23050 23053 23055 23058 23061 23064 23067 23070 23073 23076 23079 23082 23085 23088 23091 23094 23097 23100 23103 23106 23109 23112 23115 23118 23121 23124 23127 23130 23133 23136 23139 23142 23145 23148 23151 23154 23157 23160 23163 23166 23169 23172 23175 23178 23181 23184 23187 23190 23193 23196 23199 23202 23205 23208 23211 23214 23217 23220 23223 23226 23229 23232 23235 23238 23241 23244 23247 23250 23253 23256 23259 23262 23265 23267 23270 23273 23276 23279 23282 23285 23288 23291 23294 23296 23299 23302 23305 23307 23310 23312 23314 23317 23320 23323 23326 23328 23331 23334 23337 23340 23343 23346 23349 23352 23355 23358 23361 23364 23367 23370 23373 23376 23379 23382 23385 23388 23391 23394 23397 23400 23403 23406 23409 23412 23415 23418 23421 23423 23426 23429 23431 23434 23437 23440 23442 23445 23448 23451 23454 23457 23460 23462 23465 23467 23470 23473 23476 23479 23482 23484 23487 23490 23492 23495 23498 23501 23504 23507 23510 23513 23516 23519 23522 23525 23527 23530 23533 23536 23538 23541 23544 23546 23549 23552 23554 23557 23560 23563 23566 23569 23572 23575 23577 23579 23582 23585 23588 23591 23594 23597 23599 23602 23605 23608 23611 23614 23617 23620 23623 23626 23629 23632 23635 23638 23641 23644 23647 23650 23653 23656 23659 23661 23664 23666 23669 23672 23675 23678 23680 23683 23686 23689 23692 23695 23698 23701 23703 23706 23709 23712 23715 23718 23721 23724 23727 23730 23733 23736 23739 23741 23743 23746 23749 23752 23755 23758 23761 23764 23767 23770 23773 23775 23778 23781 23784 23787 23790 23793 23796 23799 23802 23805 23808 23811 23814 23816 23819 23822 23825 23828 23831 23834 23837 23840 23843 23845 23848 23851 23854 23856 23858 23861 23864 23867 23870 23873 23875 23878 23881 23884 23887 23889 23892 23895 23898 23900 23903 23906 23908 23911 23914 23917 23920 23922 23925 23928 23930 23933 23935 23938 23941 23944 23947 23949 23952 23955 23958 23961 23964 23966 23969 23971 23973 23975 23978 23981 23984 23987 23990 23993 23995 23998 24001 24004 24007 24009 24012 24014 24017 24020 24023 24026 24029 24032 24035 24038 24040 24043 24045 24048 24051 24053 24056 24058 24061 24064 24067 24069 24071 24074 24076 24079 24082 24085 24087 24089 24092 24095 24098 24101 24104 24107 24110 24113 24116 24119 24121 24123 24126 24128 24131 24134 24137 24139 24142 24144 24146 24149 24152 24155 24157 24160 24163 24166 24169 24172 24174 24177 24180 24182 24185 24188 24191 24193 24196 24199 24202 24204 24207 24210 24213 24216 24219 24222 24225 24228 24231 24233 24236 24239 24242 24244 24246 24249 24252 24255 24258 24261 24264 24267 24269 24272 24275 24278 24281 24284 24287 24290 24293 24296 24299 24302 24305 24308 24311 24314 24317 24320 24323 24326 24329 24331 24334 24336 24339 24341 24344 24347 24349 24352 24355 24357 24360 24363 24366 24369 24372 24375 24378 24381 24384 24387 24390 24393 24396 24399 24402 24405 24408 24411 24414 24417 24420 24423 24426 24429 24432 24435 24438 24441 24444 24447 24450 24453 24456 24459 24462 24465 24468 24471 24474 24477 24480 24482 24485 24488 24491 24493 24496 24499 24502 24505 24508 24511 24514 24517 24520 24523 24526 24529 24532 24535 24538 24541 24544 24547 24550 24553 24556 24559 24562 24565 24568 24571 24574 24576 24579 24582 24585 24588 24591 24594 24597 24600 24603 24605 24608 24611 24614 24617 24620 24622 24624 24627 24630 24633 24636 24639 24642 24645 24648 24651 24654 24657 24660 24663 24666 24669 24672 24675 24677 24680 24683 24686 24689 24692 24695 24698 24700 24703 24706 24708 24711 24713 24716 24719 24721 24724 24727 24730 24732 24735 24738 24741 24743 24746 24748 24750 24753 24756 24758 24761 24764 24767 24769 24772 24774 24777 24780 24783 24786 24789 24792 24794 24797 24800 24803 24805 24808 24811 24814 24816 24819 24822 24825 24828 24831 24834 24836 24839 24842 24844 24847 24850 24853 24856 24859 24862 24865 24868 24871 24874 24877 24880 24883 24886 24889 24892 24894 24897 24900 24903 24906 24909 24912 24915 24917 24920 24923 24926 24929 24932 24935 24938 24941 24944 24947 24950 24953 24955 24958 24961 24964 24967 24970 24973 24976 24979 24982 24985 24988 24991 24993 24996 24999 25002 25005 25008 25011 25014 25017 25019 25022 25025 25028 25030 25033 25036 25039 25041 25044 25047 25050 25053 25056 25058 25061 25064 25066 25069 25072 25075 25078 25081 25084 25087 25090 25093 25096 25099 25102 25105 25107 25109 25112 25114 25117 25120 25123 25126 25129 25132 25135 25138 25140 25143 25145 25148 25151 25154 25157 25159 25162 25165 25168 25171 25174 25177 25180 25183 25186 25189 25192 25195 25198 25201 25204 25207 25210 25213 25216 25219 25222 25225 25228 25231 25234 25237 25240 25243 25246 25249 25252 25255 25258 25261 25264 25267 25270 25273 25276 25279 25282 25285 25288 25291 25294 25297 25300 25303 25306 25308 25311 25314 25316 25319 25322 25325 25328 25331 25334 25337 25340 25342 25344 25347 25350 25353 25355 25357 25360 25363 25366 25369 25372 25374 25377 25380 25383 25386 25389 25392 25395 25398 25401 25404 25407 25409 25412 25415 25418 25421 25424 25427 25430 25432 25435 25438 25441 25444 25447 25450 25452 25455 25458 25460 25462 25465 25468 25471 25474 25476 25479 25482 25485 25488 25491 25494 25497 25500 25502 25505 25508 25511 25514 25517 25520 25523 25526 25529 25532 25535 25538 25540 25543 25546 25548 25551 25554 25557 25560 25563 25565 25567 25570 25573 25576 25579 25582 25585 25588 25591 25594 25597 25600 25603 25606 25609 25612 25615 25618 25621 25623 25626 25629 25632 25635 25638 25641 25644 25647 25650 25653 25656 25659 25662 25665 25668 25671 25673 25676 25679 25682 25685 25687 25690 25693 25695 25698 25701 25704 25706 25709 25712 25715 25718 25721 25724 25727 25730 25733 25736 25739 25742 25745 25748 25751 25754 25757 25760 25763 25766 25769 25772 25775 25778 25780 25783 25786 25789 25792 25795 25798 25800 25803 25805 25807 25810 25812 25815 25818 25821 25823 25826 25829 25832 25834 25837 25839 25842 25845 25847 25849 25852 25855 25858 25861 25864 25867 25870 25872 25874 25876 25879 25881 25884 25887 25890 25893 25896 25899 25902 25905 25908 25910 25913 25915 25918 25921 25924 25927 25930 25933 25936 25938 25941 25944 25946 25949 25952 25954 25957 25960 25962 25964 25967 25970 25973 25975 25978 25980 25982 25985 25988 25990 25992 25995 25997 26000 26003 26006 26009 26012 26015 26018 26020 26022 26025 26028 26031 26034 26037 26040 26042 26045 26047 26050 26053 26055 26058 26061 26064 26066 26069 26071 26074 26077 26080 26083 26086 26088 26091 26094 26097 26100 26103 26106 26109 26111 26113 26116 26119 26122 26125 26127 26130 26132 26134 26137 26140 26143 26146 26149 26152 26155 26157 26160 26163 26166 26169 26171 26174 26177 26180 26183 26186 26189 26192 26195 26197 26200 26203 26206 26209 26212 26215 26217 26219 26222 26225 26228 26231 26234 26237 26240 26243 26246 26249 26251 26253 26256 26258 26261 26263 26266 26269 26272 26275 26278 26281 26283 26286 26289 26292 26295 26298 26301 26304 26307 26310 26313 26315 26318 26321 26323 26326 26329 26332 26335 26338 26341 26344 26347 26350 26352 26355 26358 26361 26363 26366 26369 26372 26375 26377 26380 26383 26386 26388 26391 26394 26397 26399 26402 26404 26407 26409 26412 26415 26418 26420 26423 26425 26428 26431 26434 26437 26440 26443 26446 26449 26452 26454 26457 26459 26462 26464 26467 26470 26473 26476 26479 26482 26485 26488 26491 26494 26497 26500 26503 26506 26508 26511 26514 26517 26520 26523 26525 26528 26531 26534 26537 26540 26543 26546 26549 26552 26555 26558 26561 26564 26567 26569 26572 26575 26577 26580 26583 26586 26589 26591 26594 26597 26600 26603 26606 26609 26611 26613 26616 26619 26622 26625 26628 26630 26633 26636 26639 26642 26645 26647 26650 26653 26656 26658 26660 26663 26665 26668 26671 26674 26677 26680 26683 26685 26687 26690 26693 26696 26698 26701 26704 26707 26710 26713 26716 26719 26722 26725 26728 26730 26733 26736 26739 26741 26744 26747 26749 26752 26755 26758 26761 26763 26766 26768 26771 26773 26776 26779 26782 26785 26788 26791 26794 26797 26799 26802 26805 26807 26810 26813 26816 26819 26821 26823 26826 26829 26832 26835 26838 26841 26844 26847 26849 26852 26854 26857 26860 26863 26866 26869 26872 26875 26878 26880 26883 26886 26889 26892 26895 26897 26899 26902 26905 26908 26911 26914 26917 26920 26923 26926 26929 26932 26935 26938 26941 26944 26947 26950 26953 26956 26959 26962 26965 26967 26970 26973 26976 26979 26982 26985 26987 26990 26993 26996 26999 27001 27004 27007 27010 27013 27016 27018 27021 27024 27027 27030 27033 27036 27039 27042 27045 27048 27050 27053 27055 27058 27061 27064 27067 27070 27073 27076 27079 27082 27085 27087 27090 27093 27095 27098 27101 27104 27107 27110 27113 27116 27119 27122 27125 27128 27131 27134 27137 27140 27143 27146 27149 27152 27154 27156 27159 27162 27165 27168 27171 27174 27177 27179 27182 27185 27188 27191 27194 27197 27200 27203 27206 27209 27212 27215 27218 27221 27224 27227 27230 27233 27236 27238 27241 27244 27247 27250 27252 27255 27258 27261 27264 27267 27269 27272 27275 27278 27281 27284 27287 27290 27292 27295 27298 27301 27303 27306 27309 27312 27315 27318 27321 27324 27327 27330 27333 27336 27339 27342 27345 27348 27351 27354 27357 27360 27363 27366 27369 27371 27374 27377 27380 27383 27386 27389 27392 27395 27398 27400 27403 27406 27409 27412 27415 27418 27421 27424 27427 27430 27433 27436 27438 27441 27443 27446 27449 27452 27455 27458 27461 27464 27467 27470 27473 27476 27479 27482 27485 27488 27491 27493 27496 27499 27502 27505 27508 27510 27513 27516 27519 27522 27525 27528 27531 27534 27537 27540 27542 27545 27548 27551 27554 27557 27559 27562 27565 27568 27571 27574 27577 27580 27583 27586 27589 27591 27594 27596 27599 27602 27605 27608 27610 27613 27616 27618 27620 27623 27626 27629 27632 27635 27638 27640 27643 27646 27648 27651 27654 27656 27659 27661 27664 27667 27670 27673 27676 27679 27682 27685 27688 27690 27693 27695 27698 27701 27704 27707 27710 27713 27715 27718 27721 27723 27726 27729 27732 27735 27737 27740 27743 27745 27747 27750 27753 27756 27759 27762 27765 27768 27771 27774 27777 27780 27783 27786 27789 27791 27794 27797 27800 27803 27805 27808 27811 27814 27817 27819 27822 27825 27828 27831 27834 27836 27839 27842 27845 27848 27851 27853 27856 27858 27861 27864 27866 27868 27870 27873 27876 27879 27882 27884 27887 27890 27892 27895 27897 27900 27903 27906 27908 27911 27914 27916 27919 27922 27925 27928 27930 27933 27936 27939 27942 27945 27947 27950 27952 27955 27958 27960 27963 27966 27969 27972 27974 27977 27979 27982 27985 27988 27990 27992 27995 27998 28000 28003 28006 28009 28012 28014 28016 28019 28022 28025 28027 28030 28032 28035 28038 28040 28043 28045 28047 28050 28052 28055 28058 28061 28064 28067 28070 28072 28074 28077 28079 28081 28084 28087 28089 28092 28094 28097 28100 28102 28105 28108 28110 28113 28116 28119 28122 28125 28127 28129 28131 28134 28137 28140 28142 28145 28148 28151 28154 28157 28160 28162 28165 28167 28170 28173 28176 28179 28181 28184 28187 28190 28193 28196 28199 28202 28205 28208 28211 28214 28217 28220 28223 28226 28229 28232 28235 28238 28241 28244 28247 28249 28252 28255 28258 28261 28264 28266 28269 28272 28275 28278 28281 28283 28286 28289 28292 28295 28297 28300 28303 28305 28308 28311 28314 28317 28319 28322 28325 28328 28330 28333 28336 28339 28342 28344 28347 28349 28352 28355 28358 28361 28364 28367 28370 28373 28376 28379 28382 28385 28388 28391 28394 28397 28400 28403 28406 28409 28412 28415 28418 28421 28424 28427 28430 28433 28436 28439 28442 28445 28448 28451 28454 28456 28459 28462 28465 28468 28471 28474 28477 28480 28483 28486 28489 28492 28495 28498 28501 28504 28507 28510 28513 28516 28519 28522 28525 28528 28531 28534 28537 28540 28543 28546 28549 28552 28555 28558 28561 28564 28567 28570 28573 28575 28578 28581 28584 28586 28589 28592 28595 28597 28600 28603 28606 28609 28611 28614 28617 28620 28623 28626 28629 28631 28634 28636 28639 28642 28645 28647 28649 28652 28655 28658 28661 28664 28666 28669 28672 28674 28677 28680 28683 28685 28688 28690 28693 28696 28699 28702 28705 28708 28711 28714 28717 28719 28722 28725 28728 28731 28734 28737 28740 28743 28746 28749 28752 28755 28758 28761 28764 28767 28770 28773 28776 28779 28782 28785 28787 28790 28793 28796 28799 28802 28805 28808 28811 28813 28816 28819 28822 28825 28828 28831 28834 28837 28840 28843 28845 28848 28851 28854 28856 28859 28862 28865 28868 28871 28874 28877 28879 28882 28885 28888 28891 28894 28897 28899 28902 28905 28908 28910 28913 28916 28919 28921 28924 28927 28930 28933 28935 28938 28941 28944 28947 28950 28953 28956 28959 28962 28964 28967 28970 28972 28975 28978 28980 28983 28986 28989 28992 28995 28998 29001 29004 29006 29009 29012 29015 29018 29020 29023 29026 29029 29031 29034 29037 29040 29043 29046 29049 29052 29055 29058 29061 29064 29067 29070 29073 29076 29078 29081 29084 29087 29090 29093 29096 29099 29102 29105 29108 29110 29113 29116 29119 29122 29124 29127 29130 29133 29136 29139 29142 29145 29148 29151 29154 29157 29160 29163 29166 29169 29172 29175 29178 29181 29184 29187 29190 29193 29196 29199 29202 29205 29208 29211 29213 29216 29219 29222 29225 29228 29231 29233 29236 29239 29242 29245 29247 29250 29253 29256 29259 29262 29265 29268 29270 29272 29274 29277 29280 29283 29286 29289 29292 29295 29298 29301 29303 29306 29309 29312 29314 29317 29320 29323 29325 29328 29330 29333 29335 29338 29341 29344 29347 29350 29353 29356 29359 29362 29365 29368 29371 29374 29376 29379 29382 29385 29388 29391 29394 29397 29400 29403 29406 29409 29412 29415 29418 29420 29423 29426 29429 29432 29435 29437 29440 29443 29445 29448 29451 29454 29457 29460 29463 29466 29469 29472 29475 29478 29481 29483 29486 29489 29492 29495 29498 29501 29504 29507 29510 29513 29516 29518 29521 29524 29527 29529 29532 29535 29538 29541 29544 29546 29549 29552 29555 29558 29561 29563 29565 29568 29571 29574 29577 29580 29583 29586 29589 29592 29595 29598 29600 29603 29606 29608 29611 29614 29617 29619 29622 29625 29627 29629 29632 29635 29637 29640 29643 29646 29648 29651 29653 29655 29658 29661 29664 29667 29670 29672 29675 29677 29680 29683 29686 29689 29692 29695 29698 29701 29704 29707 29710 29713 29716 29719 29722 29725 29728 29731 29733 29736 29739 29742 29745 29747 29750 29753 29756 29758 29761 29764 29767 29769 29772 29775 29778 29781 29784 29787 29790 29793 29796 29799 29802 29804 29807 29810 29813 29816 29819 29822 29825 29827 29830 29833 29835 29838 29841 29844 29847 29849 29851 29854 29857 29860 29863 29866 29869 29871 29874 29877 29879 29882 29885 29887 29890 29893 29896 29899 29902 29905 29908 29910 29912 29915 29918 29921 29924 29927 29929 29931 29934 29937 29940 29943 29946 29949 29952 29955 29958 29961 29964 29967 29969 29972 29975 29978 29981 29984 29986 29989 29991 29994 29997 30000 30003 30006 30009 30012 30015 30018 30021 30024 30027 30030 30033 30036 30038 30041 30044 30047 30049 30051 30054 30057 30060 30063 30066 30069 30071 30074 30077 30080 30082 30085 30088 30091 30093 30095 30098 30101 30104 30107 30109 30111 30114 30117 30120 30123 30126 30129 30132 30135 30138 30140 30142 30145 30148 30151 30154 30156 30159 30162 30164 30167 30170 30173 30176 30178 30181 30184 30187 30190 30193 30196 30199 30201 30204 30207 30209 30211 30214 30217 30220 30223 30226 30229 30232 30234 30237 30239 30242 30245 30248 30251 30253 30256 30259 30261 30263 30266 30269 30272 30274 30277 30280 30283 30286 30289 30292 30295 30298 30300 30303 30306 30309 30312 30315 30318 30321 30324 30327 30329 30332 30335 30338 30341 30344 30347 30350 30353 30356 30359 30361 30364 30367 30370 30373 30376 30379 30382 30385 30388 30390 30393 30396 30399 30402 30405 30407 30410 30413 30416 30419 30422 30425 30428 30431 30434 30437 30440 30443 30445 30448 30451 30454 30457 30460 30463 30466 30468 30471 30473 30476 30479 30481 30484 30487 30489 30492 30495 30497 30500 30503 30506 30509 30512 30515 30517 30520 30523 30526 30528 30531 30534 30537 30540 30543 30546 30549 30552 30555 30558 30560 30563 30566 30568 30571 30574 30577 30580 30583 30586 30589 30592 30594 30597 30600 30603 30606 30609 30611 30614 30617 30620 30622 30624 30627 30629 30631 30634 30637 30640 30642 30645 30648 30650 30653 30656 30659 30662 30665 30668 30671 30674 30677 30680 30683 30686 30689 30692 30695 30698 30701 30704 30707 30710 30713 30716 30719 30721 30724 30727 30730 30733 30735 30738 30741 30744 30746 30749 30752 30755 30757 30760 30763 30766 30768 30770 30773 30776 30779 30782 30785 30788 30791 30794 30797 30800 30803 30806 30809 30812 30815 30818 30821 30824 30827 30830 30833 30836 30839 30842 30845 30848 30850 30853 30856 30859 30862 30864 30867 30870 30873 30876 30878 30881 30883 30885 30888 30891 30893 30896 30898 30901 30904 30907 30909 30912 30915 30918 30921 30923 30926 30929 30931 30934 30937 30940 30943 30946 30949 30951 30954 30956 30959 30962 30965 30968 30970 30973 30976 30979 30982 30985 30987 30989 30992 30995 30998 31000 31003 31005 31008 31011 31014 31017 31020 31023 31026 31029 31032 31035 31038 31040 31043 31046 31048 31051 31054 31056 31059 31061 31064 31067 31069 31071 31073 31075 31078 31081 31084 31087 31090 31093 31095 31098 31101 31104 31107 31110 31112 31115 31118 31121 31124 31127 31130 31132 31135 31138 31141 31143 31146 31149 31152 31155 31158 31161 31164 31167 31170 31173 31176 31178 31181 31184 31187 31190 31193 31196 31199 31201 31204 31206 31209 31211 31214 31216 31219 31222 31224 31227 31230 31233 31236 31239 31241 31244 31247 31249 31252 31255 31258 31261 31264 31267 31270 31273 31275 31278 31281 31284 31287 31290 31293 31296 31299 31302 31305 31308 31311 31314 31317 31320 31323 31325 31327 31330 31333 31336 31339 31342 31345 31348 31351 31353 31356 31359 31362 31365 31367 31370 31373 31376 31379 31382 31385 31388 31391 31394 31397 31399 31402 31405 31408 31411 31414 31417 31419 31422 31425 31428 31430 31433 31436 31439 31442 31445 31448 31451 31453 31455 31458 31461 31464 31467 31470 31473 31476 31479 31482 31485 31487 31490 31493 31495 31498 31501 31504 31507 31510 31513 31515 31518 31521 31524 31527 31530 31532 31535 31538 31541 31543 31546 31549 31552 31554 31557 31559 31562 31565 31568 31571 31573 31576 31579 31582 31585 31588 31591 31594 31597 31600 31603 31606 31609 31612 31615 31618 31620 31623 31626 31629 31632 31635 31638 31641 31644 31647 31650 31653 31656 31658 31661 31664 31667 31669 31671 31674 31676 31678 31681 31684 31687 31690 31693 31696 31699 31702 31705 31708 31711 31714 31717 31719 31722 31725 31728 31731 31734 31737 31740 31743 31746 31749 31752 31755 31758 31761 31764 31767 31770 31773 31776 31779 31782 31785 31788 31790 31793 31796 31799 31802 31805 31808 31811 31814 31816 31819 31822 31825 31828 31831 31834 31836 31839 31841 31843 31846 31849 31852 31855 
</DataArray>
<DataArray type="UInt32" Name="types" format="ascii">
5 5 5 5 5 5 5 5 5 5 5 5 5 5 3 5 5 3 5 5 5 5 5 3 5 5 5 5 5 5 5 3 5 5 5 5 3 5 5 5 5 5 5 3 5 5 5 5 3 5 5 5 5 5 5 5 3 5 5 3 5 3 5 3 5 5 5 5 5 5 5 5 5 5 5 5 5 5 3 5 3 5 5 5 5 5 5 3 5 5 3 5 5 5 3 5 5 5 3 5 3 5 5 5 5 5 3 5 3 5 5 5 3 5 5 5 5 5 5 3 5 5 5 5 5 5 5 5 3 5 5 5 5 5 5 5 5 5 3 5 5 5 5 5 5 5 5 5 5 5 5 5 5 5 5 3 5 5 3 5 3 5 5 5 3 5 5 3 5 5 5 5 5 5 5 5 5 5 5 5 5 5 3 3 5 5 5 5 3 5 3 5 5 3 3 5 5 5 5 5 5 3 5 5 5 5 5 5 5 5 5 5 5 5 5 5 5 5 5 5 5 5 5 5 5 5 3 5 5 3 5 5 5 5 3 5 5 5 5 3 5 5 5 3 5 5 5 5 5 5 5 5 5 5 3 5 5 3 5 5 5 5 5 5 3 5 5 5 5 3 5 3 5 5 5 5 3 5 5 5 5 5 5 5 5 5 5 5 5 5 5 5 5 3 5 5 3 5 5 5 5 3 5 5 5 5 5 5 5 5 5 3 5 5 5 5 5 5 5 3 5 3 5 5 5 5 5 5 5 5 5 5 5 5 5 5 5 3 5 5 5 3 5 5 5 5 3 3 5 3 5 5 5 5 3 5 5 3 3 5 3 5 5 5 5 5 5 5 5 5 5 3 5 3 5 5 5 3 5 5 5 5 5 5 5 5 5 5 5 5 5 5 3 5 5 5 5 5 5 5 5 5 5 5 3 5 5 5 5 5 5 5 5 5 5 5 5 5 5 5 5 3 5 5 5 5 5 5 5 5 5 5 5 5 5 5 5 5 5 5 3 5 5 3 5 5 5 5 5 5 3 5 5 3 5 5 5 5 3 5 5 5 3 5 3 5 3 5 5 5 3 5 5 5 5 5 5 5 5 3 5 5 5 5 5 5 5 5 5 5 3 5 5 5 5 5 5 5 5 5 5 5 5 5 3 3 5 5 5 5 5 5 5 5 5 5 3 3 5 3 3 5 5 5 5 3 5 5 5 3 5 5 5 5 5 5 5 5 5 5 5 5 5 5 5 5 5 5 5 5 5 5 5 5 5 5 5 3 5 5 5 3 5 5 5 5 5 5 5 5 5 5 5 5 5 5 5 5 5 5 5 5 5 5 5 5 3 5 5 5 5 5 5 5 5 5 5 5 5 5 5 5 5 3 5 5 5 5 5 3 5 3 5 5 5 5 5 5 5 5 3 5 5 5 5 5 5 5 5 5 3 5 5 5 3 5 5 5 3 5 5 5 5 5 5 5 5 5 5 5 5 3 5 5 5 3 3 5 5 5 5 3 5 5 5 5 5 5 5 3 5 5 3 5 5 5 5 5 5 5 5 5 5 5 5 3 5 3 5 3 5 5 5 3 5 5 3 5 5 3 5 5 5 5 5 5 5 5 5 5 3 3 5 5 5 5 5 5 5 5 5 5 5 5 5 5 5 3 5 5 5 5 5 3 5 5 5 3 5 5 3 5 5 5 5 5 5 5 5 5 5 5 5 5 3 5 5 5 5 5 5 5 5 5 5 3 5 5 5 5 3 5 5 3 5 5 5 5 5 5 5 5 5 5 5 5 3 5 3 5 5 3 5 3 5 5 5 5 3 5 5 5 5 5 5 5 5 5 5 5 3 3 5 5 5 3 5 5 5 5 5 3 5 5 5 5 5 5 5 5 5 5 5 5 5 5 3 5 5 3 5 5 5 5 5 5 5 3 5 5 3 5 5 5 5 5 5 5 5 5 5 5 5 5 5 5 5 5 5 5 5 5 5 5 5 5 3 5 5 3 5 5 5 5 5 5 5 3 5 5 5 3 5 5 5 3 5 5 5 5 5 3 3 5 5 5 5 5 5 5 5 5 5 5 5 5 5 5 3 3 3 5 3 5 5 5 5 5 5 3 5 3 5 3 5 5 5 5 3 5 5 3 5 5 5 5 3 3 5 5 5 5 5 5 5 3 5 5 5 5 5 5 5 5 5 5 3 5 5 5 5 5 5 5 5 5 5 5 3 5 5 5 5 3 5 5 5 5 3 5 5 5 5 5 3 5 5 5 3 5 5 5 5 5 5 5 5 5 5 5 5 5 5 5 3 5 5 5 5 5 5 5 5 3 5 5 5 5 5 3 3 5 5 3 5 5 5 3 5 5 5 5 5 3 3 5 5 5 3 3 3 5 5 5 5 5 3 5 3 5 5 5 5 5 5 5 5 5 5 3 5 5 5 5 3 5 3 5 5 5 5 5 5 3 5 5 5 5 5 3 5 5 5 5 5 3 5 5 3 5 5 5 3 5 5 3 5 5 5 5 5 5 3 5 3 5 5 5 5 5 3 5 5 5 5 5 5 5 5 5 3 5 5 5 5 5 5 3 5 5 3 5 5 5 5 5 5 5 3 5 5 5 5 5 5 5 5 5 3 5 3 5 3 5 5 5 5 5 5 5 5 5 5 5 3 5 5 5 5 3 5 5 5 5 3 5 5 5 5 5 5 5 5 5 5 3 5 3 5 5 5 5 5 3 5 5 5 5 5 5 5 5 3 5 5 5 5 5 5 5 3 5 3 5 5 5 5 5 5 5 5 5 3 5 5 3 5 5 3 5 3 5 5 5 5 5 5 5 3 5 3 5 5 5 5 5 5 5 5 5 5 5 5 5 5 5 5 5 5 5 3 5 5 5 3 3 3 5 5 5 5 5 3 5 5 5 5 5 5 5 5 5 5 5 5 5 3 5 3 3 5 5 5 5 5 5 3 5 3 5 5 5 5 3 5 5 5 5 5 5 5 5 5 5 5 3 5 5 5 3 3 5 5 3 3 3 5 3 5 5 5 5 3 5 5 5 3 5 3 5 3 5 3 3 5 5 3 5 3 5 5 5 3 5 3 3 5 5 3 5 5 3 3 3 5 5 3 5 5 3 5 5 3 3 5 3 5 5 3 3 5 5 5 5 5 5 3 5 3 5 3 5 5 5 5 5 3 5 5 5 5 5 3 5 5 3 3 5 3 5 5 5 3 5 5 5 5 5 3 5 5 3 3 5 3 5 5 5 3 5 5 3 5 5 5 3 5 3 3 3 5 5 5 3 5 5 3 5 5 5 3 3 5 5 5 3 5 5 5 3 3 5 3 5 3 3 5 3 5 5 3 3 3 5 5 5 3 5 5 5 5 5 5 5 5 3 5 5 3 3 5 5 5 5 5 5 5 5 5 5 5 5 5 5 3 3 5 5 3 5 5 5 5 5 5 3 3 5 5 5 5 5 5 5 5 5 5 5 5 5 5 5 5 5 5 5 5 5 5 5 5 5 5 5 5 5 5 5 5 5 5 5 5 5 5 5 5 5 5 5 5 5 5 5 5 5 5 5 3 5 5 5 5 5 5 5 5 5 5 5 5 5 5 5 5 5 5 5 5 5 5 5 5 5 5 3 5 3 5 5 5 5 5 5 5 5 5 5 5 5 5 5 5 5 5 5 5 5 5 5 5 5 5 5 3 5 5 5 3 5 5 5 5 5 5 5 5 5 3 5 5 5 5 5 5 5 5 5 5 5 5 5 5 5 5 5 5 5 5 5 5 5 5 5 5 5 5 5 5 5 5 3 5 5 5 5 5 5 5 3 5 5 5 5 3 5 5 5 5 3 5 5 5 5 5 5 5 5 5 5 5 5 5 5 5 5 5 5 5 5 5 5 5 3 5 5 5 5 3 5 5 3 5 5 5 3 3 5 5 3 5 5 3 5 5 5 5 5 5 5 5 5 5 5 5 5 5 5 5 5 3 5 5 3 5 5 3 5 5 5 5 5 5 5 5 5 5 5 5 5 5 5 5 5 5 5 5 5 5 5 3 3 5 5 3 5 5 5 3 5 5 5 5 5 5 3 5 5 5 3 5 5 5 5 5 5 5 5 5 3 3 5 5 5 5 5 5 3 5 5 5 5 5 5 5 5 3 3 3 5 5 5 5 5 3 5 5 5 3 5 5 3 5 5 3 5 5 5 5 5 5 5 5 5 5 3 3 5 3 5 3 5 5 5 3 5 5 3 5 5 5 5 5 5 5 5 5 5 5 5 3 5 5 5 5 5 5 3 5 5 5 5 5 3 5 5 5 5 3 5 5 5 3 5 5 5 3 5 5 5 5 5 5 5 5 3 5 5 5 5 5 5 5 3 5 5 3 5 5 5 5 5 5 3 5 3 5 5 3 3 5 5 5 5 5 3 5 3 3 3 5 5 3 3 5 5 5 5 3 5 5 5 5 5 5 5 5 5 5 5 3 5 5 3 5 5 5 5 5 5 5 5 5 5 5 5 5 5 5 5 5 3 5 5 5 5 5 5 5 5 5 5 5 5 3 5 5 5 5 5 5 5 3 5 5 3 5 5 5 5 3 5 3 5 5 3 5 5 5 3 5 5 5 5 5 5 5 3 5 5 5 5 3 3 5 5 5 5 5 3 5 5 5 5 5 3 5 5 5 5 5 3 5 5 5 5 5 5 5 5 5 5 5 5 5 5 5 5 5 5 5 5 5 5 5 5 3 5 5 3 3 5 5 5 5 5 3 5 5 5 5 5 5 5 5 5 5 5 5 5 5 5 5 5 5 3 5 5 5 5 5 5 5 5 5 5 5 5 5 5 5 5 5 5 5 5 5 5 5 5 5 5 5 5 5 5 3 5 5 5 3 5 5 5 5 5 5 3 5 5 5 5 5 3 5 5 5 5 5 5 5 5 3 5 5 5 5 5 5 5 5 5 5 5 5 3 5 5 5 5 5 5 3 5 3 5 5 5 3 5 5 5 5 5 5 5 3 5 5 5 5 5 5 3 5 5 5 5 5 5 5 5 5 5 5 5 5 5 3 5 3 5 5 5 5 5 5 5 5 5 5 5 5 5 5 5 5 5 5 5 5 3 5 5 5 5 5 5 5 5 5 3 5 3 5 5 5 5 5 5 3 5 3 5 5 5 5 5 3 5 5 5 5 5 5 5 5 5 5 5 5 5 5 5 5 5 5 5 3 5 5 5 5 5 5 5 5 5 5 5 5 5 5 5 5 5 5 5 5 5 5 5 3 3 5 5 5 3 5 5 5 5 5 5 5 5 5 5 5 5 5 5 5 5 5 5 5 5 5 5 5 5 5 5 5 5 5 5 5 5 5 5 5 5 5 5 5 5 5 3 5 5 3 5 5 5 5 3 5 3 5 3 5 5 5 5 5 5 5 5 5 5 5 5 5 5 5 5 5 5 5 5 5 5 5 3 5 5 3 5 5 3 5 5 5 5 3 5 5 3 5 5 5 5 5 5 3 5 5 5 5 5 5 5 5 5 3 5 5 5 5 5 5 5 5 5 5 5 5 5 5 5 5 5 5 5 5 3 5 5 5 5 5 5 3 5 5 5 5 5 3 5 5 5 5 5 3 5 5 5 5 5 5 5 5 5 5 5 5 5 5 5 3 5 5 3 5 3 5 5 5 5 3 3 5 3 3 5 5 5 5 5 5 3 5 5 5 5 5 5 5 5 3 3 5 5 3 3 5 5 5 5 5 3 5 3 3 5 5 5 5 5 5 5 5 5 5 3 3 5 5 5 5 3 3 5 5 5 5 5 5 5 5 3 5 5 5 5 5 5 5 5 5 5 5 5 5 3 5 3 5 5 5 5 5 5 5 5 5 5 3 5 5 3 5 5 5 5 5 5 5 5 5 5 3 3 5 3 5 5 5 5 5 5 3 5 5 5 5 5 3 5 3 5 5 3 5 5 5 5 5 5 5 5 3 3 5 5 5 3 5 5 5 5 5 5 3 5 5 5 5 5 3 5 5 3 5 5 5 5 3 5 5 3 3 5 5 5 3 5 3 3 5 5 5 5 3 5 5 5 5 5 3 5 5 3 5 5 5 5 3 5 5 3 5 5 3 5 3 5 5 5 5 5 5 3 5 5 5 5 5 5 5 5 5 5 3 5 5 3 5 5 5 5 5 5 5 3 5 5 5 5 5 5 5 3 5 5 5 5 5 5 5 5 5 3 5 5 5 5 5 5 5 5 5 5 5 5 5 3 3 5 5 5 5 5 5 3 5 3 5 5 3 5 5 5 5 3 5 5 5 5 5 5 5 5 5 5 5 5 5 5 5 5 5 5 5 5 5 5 5 5 5 5 5 5 5 5 5 3 5 5 5 5 5 5 5 5 5 5 5 5 3 5 5 5 5 5 5 5 5 5 5 3 5 5 5 5 3 5 3 5 5 5 5 3 5 5 5 5 5 5 5 5 5 5 5 5 5 5 5 5 5 5 5 5 5 5 5 5 5 5 5 3 5 5 5 5 5 5 5 5 5 5 5 5 5 3 5 5 3 5 5 5 5 5 5 3 5 5 5 5 5 5 5 5 5 5 5 5 5 5 3 5 5 3 5 5 5 5 5 3 5 5 5 5 5 5 5 5 5 5 5 5 5 5 5 5 5 5 5 5 5 5 5 5 3 5 5 5 5 5 3 5 5 5 3 5 5 5 5 5 5 5 5 5 5 5 5 5 5 5 5 5 5 5 5 3 5 5 5 5 3 5 5 5 5 5 5 5 5 5 5 5 5 5 5 3 5 3 5 5 5 3 5 5 5 3 5 5 5 5 5 3 5 5 3 5 5 5 3 5 3 5 5 5 5 5 5 5 5 5 5 5 5 5 5 3 5 5 3 5 5 5 5 5 5 5 5 3 5 3 5 5 3 5 5 5 5 5 5 5 5 3 3 5 5 5 5 5 5 5 5 5 5 5 5 5 5 5 3 5 5 3 5 5 5 3 5 5 5 5 5 5 5 3 3 5 5 5 5 5 5 3 5 5 5 5 5 5 5 5 5 5 5 5 5 5 5 5 5 5 5 3 5 5 5 3 5 5 5 3 5 5 5 5 3 5 5 3 5 5 5 5 5 5 5 5 5 5 5 5 5 5 5 5 5 5 5 5 3 3 5 5 5 5 3 5 5 5 5 5 5 5 3 5 5 5 5 5 5 5 5 5 5 5 5 5 5 5 5 5 5 3 5 5 5 5 5 5 5 3 5 3 5 3 5 5 5 5 3 5 5 5 5 3 5 5 5 5 5 5 5 5 5 5 5 5 5 5 3 5 5 5 5 5 5 5 5 3 5 5 5 5 5 3 3 5 5 5 5 5 5 3 5 5 5 3 5 5 5 3 5 5 5 5 5 5 5 5 5 5 5 5 5 5 5 3 5 5 5 5 5 3 5 5 5 5 5 5 5 5 5 5 5 5 5 5 5 5 5 5 5 5 5 5 5 5 5 3 5 5 5 5 5 3 5 5 3 5 5 5 5 5 5 3 5 5 5 5 3 5 3 5 5 5 5 5 5 5 5 5 3 5 5 5 5 5 5 3 5 5 5 5 5 5 3 5 5 5 3 5 5 5 5 5 5 5 5 5 3 5 5 3 5 5 5 5 5 5 5 3 5 5 5 5 5 5 3 5 5 5 5 5 5 3 5 5 5 5 5 5 5 5 5 5 5 5 5 5 5 5 5 3 5 5 5 5 5 3 5 3 5 5 5 5 5 5 5 5 5 3 5 5 3 5 5 5 5 5 5 5 5 5 5 5 5 5 5 5 5 5 5 5 3 5 5 5 5 5 5 5 5 5 5 5 5 5 5 5 5 5 5 5 5 5 3 5 5 5 5 3 3 5 5 5 3 5 5 5 3 5 5 5 3 5 5 3 5 5 5 5 5 5 5 5 5 5 5 5 5 5 5 5 5 5 5 5 5 5 5 5 5 5 5 5 5 5 5 5 5 5 5 5 5 5 5 5 5 5 5 5 5 5 5 5 5 5 5 5 5 3 5 5 5 5 5 5 3 3 5 5 5 5 5 5 5 5 5 5 5 5 5 5 5 5 5 5 5 5 5 5 5 5 3 5 5 5 5 5 5 5 5 5 3 5 5 5 5 5 5 5 3 5 5 5 5 5 5 5 5 5 5 5 3 5 5 5 5 5 5 5 5 5 5 5 5 5 5 3 5 5 3 5 5 5 5 5 5 5 3 5 5 3 5 5 5 5 5 5 5 5 5 5 5 5 5 5 5 5 5 5 5 5 5 5 5 5 5 5 5 5 5 5 5 5 5 5 5 5 5 5 5 5 5 5 5 5 5 5 5 5 3 5 5 5 5 5 5 5 5 5 5 5 5 5 5 5 5 5 5 5 5 5 5 3 5 3 5 5 5 3 5 5 5 5 5 5 5 3 5 5 3 5 5 5 5 5 3 5 5 5 5 5 5 5 5 5 5 3 5 5 5 5 5 5 5 5 5 5 5 5 5 5 5 5 5 5 3 5 5 5 5 5 5 5 5 5 5 3 5 5 5 3 5 5 5 5 5 3 5 5 5 3 5 5 5 5 5 5 5 5 5 5 5 5 3 3 5 5 5 5 5 5 5 5 5 3 5 5 5 5 3 5 5 5 5 5 5 5 5 5 5 5 5 5 3 5 3 5 5 5 5 5 5 5 5 5 5 5 5 5 5 3 5 3 5 5 5 5 5 5 5 5 5 3 5 5 5 5 5 5 5 5 5 3 5 5 5 3 5 3 5 5 5 5 5 5 5 3 5 5 5 3 5 5 5 5 5 5 5 5 5 5 5 3 5 5 3 5 5 5 3 3 5 5 5 3 5 5 5 5 5 3 5 3 5 5 5 5 5 5 5 5 3 5 5 3 5 5 5 5 3 5 3 5 5 5 5 5 5 5 5 5 5 3 5 5 5 5 5 5 5 5 5 5 5 5 5 5 5 5 5 5 5 3 5 5 5 5 3 3 5 5 5 5 5 5 5 5 3 5 5 5 5 3 5 5 3 5 5 5 3 5 3 3 5 5 5 5 5 5 5 5 5 5 5 5 5 5 5 5 5 5 5 5 5 5 5 5 5 5 5 5 5 5 3 5 3 5 5 3 5 5 3 5 5 5 3 5 5 5 5 3 5 3 3 5 3 5 5 3 5 3 5 5 3 5 3 5 5 3 5 5 3 5 5 5 3 5 5 5 5 5 5 3 5 5 5 5 5 3 3 5 5 5 3 5 5 5 5 5 5 5 5 5 5 5 5 5 5 5 3 5 5 5 3 5 5 5 5 5 3 3 3 5 5 3 3 5 5 5 5 3 5 5 3 3 5 5 3 5 3 5 3 5 5 3 5 5 5 5 3 5 5 5 5 5 5 5 5 5 5 5 5 5 5 5 5 5 5 5 5 5 5 5 5 5 5 3 5 3 5 3 3 5 3 5 3 5 5 3 5 5 3 5 5 5 5 5 5 3 5 5 5 5 5 5 5 5 5 5 5 5 5 5 5 5 5 5 5 5 5 5 5 5 5 5 5 5 5 3 5 3 5 5 5 5 5 5 3 5 5 3 3 5 5 5 5 5 5 5 5 5 5 5 5 5 3 5 5 5 5 5 5 5 5 3 5 5 5 5 5 5 5 5 5 5 5 5 5 5 5 5 3 5 5 5 5 5 5 5 5 5 5 5 5 5 5 5 5 5 5 5 5 5 5 5 5 5 5 5 5 5 5 5 5 5 5 5 5 5 5 5 5 5 5 5 5 5 5 5 5 5 5 5 5 5 5 5 5 5 5 5 5 5 5 5 5 5 5 5 5 5 5 5 5 5 5 5 5 5 5 5 5 5 5 3 5 3 5 5 3 5 5 5 5 5 5 5 3 5 5 5 3 3 5 5 3 5 5 5 5 5 5 3 5 3 5 5 5 5 3 5 5 5 5 5 5 5 5 5 5 5 5 5 5 5 5 5 5 3 5 5 3 5 3 5 5 3 5 5 5 5 5 5 5 3 5 5 3 5 3 5 3 5 3 5 5 5 5 5 5 5 3 5 5 5 5 5 5 3 3 5 5 5 3 5 5 5 5 5 3 5 5 5 5 5 5 5 3 5 5 5 3 5 3 5 3 3 5 5 3 5 5 3 5 5 5 3 5 5 5 5 5 5 5 3 5 5 5 5 5 5 5 5 5 5 5 3 5 3 5 3 5 3 5 5 5 5 5 3 5 5 3 5 5 5 3 5 5 5 5 5 3 3 5 5 5 5 3 5 3 3 5 5 5 5 5 3 5 5 5 5 5 3 5 5 5 5 5 5 3 5 3 5 3 5 5 5 5 5 5 5 5 5 5 5 5 5 5 5 5 5 5 5 5 5 3 5 3 5 5 5 5 5 3 5 5 3 5 5 5 5 5 5 5 5 5 5 5 5 5 5 5 3 5 5 5 5 5 5 5 5 5 5 5 5 5 5 5 5 3 5 5 5 5 5 5 5 5 3 5 5 3 5 5 5 3 5 5 5 3 5 5 5 5 5 5 5 5 5 5 5 5 5 5 5 5 3 5 5 5 3 5 5 5 3 5 5 5 5 5 5 5 5 5 5 5 5 5 5 3 5 5 5 5 5 3 5 5 5 5 5 5 5 5 5 5 5 5 5 5 3 5 5 5 5 3 5 5 5 5 5 3 3 3 5 5 5 5 5 5 5 5 5 5 5 5 5 5 5 5 5 5 5 5 5 5 5 5 5 3 5 5 5 5 5 3 5 5 5 5 5 5 5 5 5 5 5 5 5 5 5 5 5 5 5 5 5 5 5 5 5 5 5 5 5 5 5 5 5 5 5 5 5 5 5 5 5 5 5 5 5 3 5 5 5 5 5 5 5 5 5 5 5 5 5 5 5 5 5 5 5 5 5 5 5 5 5 5 5 5 5 5 5 5 5 5 5 5 5 5 5 5 5 5 5 5 5 3 5 3 5 5 5 5 5 5 5 5 3 3 3 5 5 3 5 3 3 5 5 5 5 5 3 3 5 5 5 3 5 5 5 5 3 5 5 5 5 3 3 5 5 5 5 5 5 5 5 3 3 5 5 3 5 5 5 3 5 3 5 3 5 5 3 3 3 5 5 5 5 5 5 5 5 3 5 5 5 5 3 3 5 5 5 5 5 5 5 5 3 5 5 5 5 3 5 5 5 5 5 5 5 5 5 5 5 5 5 3 5 5 5 3 5 5 3 5 3 5 5 5 5 5 5 5 5 5 5 5 5 5 5 5 5 5 5 5 5 5 5 5 5 5 5 5 5 5 5 5 5 5 5 5 5 5 5 5 5 5 5 3 5 5 5 5 5 5 5 5 5 5 5 5 5 3 5 5 5 5 5 5 5 5 5 5 5 5 5 5 5 5 5 5 5 5 5 5 5 5 5 5 5 5 5 5 5 5 5 5 5 5 5 5 5 5 5 5 5 5 5 3 5 5 5 5 3 3 5 5 5 3 5 5 3 5 5 5 5 5 5 5 5 5 5 5 5 5 5 5 5 5 5 5 5 5 5 5 5 5 5 5 5 5 3 5 5 5 5 3 5 5 5 3 5 5 5 5 5 5 5 5 5 3 5 3 5 5 5 3 5 5 5 5 5 5 5 5 5 5 5 3 5 5 5 3 5 5 3 5 5 3 5 5 5 5 5 3 5 3 3 5 5 5 5 5 5 5 5 5 5 5 5 5 5 5 5 5 5 5 5 5 5 5 5 3 3 5 5 3 5 5 5 5 5 3 5 5 5 5 3 5 5 3 5 5 5 5 5 5 3 3 5 5 3 3 5 3 5 5 5 3 3 3 5 5 5 5 5 3 5 3 5 5 5 3 5 5 5 5 5 5 5 3 3 5 3 5 5 5 5 3 5 5 5 3 3 5 5 5 5 5 5 5 5 5 5 5 5 3 5 5 5 5 5 5 5 5 5 5 5 5 5 5 5 5 5 5 3 5 5 5 5 5 5 3 5 5 5 5 5 5 5 5 5 5 5 5 5 3 5 5 5 5 3 5 5 5 3 5 5 5 5 5 5 5 3 5 5 5 5 5 5 5 5 5 5 5 5 5 5 5 5 5 5 5 5 5 5 5 5 5 5 5 5 5 5 5 5 5 5 3 3 5 5 5 5 5 5 5 5 5 5 5 5 5 5 5 5 5 5 5 5 5 3 5 5 5 5 5 5 5 3 5 3 5 5 5 3 5 5 3 5 5 5 5 5 5 5 5 5 5 5 5 5 3 5 5 5 3 5 3 5 5 5 5 5 5 5 5 5 3 5 3 5 3 5 5 5 3 5 5 5 5 3 5 5 3 5 5 5 5 5 5 5 5 5 5 5 5 5 5 5 3 5 5 5 5 5 5 3 5 5 5 3 5 5 5 3 5 5 3 3 5 5 3 5 3 5 5 5 5 5 5 3 5 3 5 5 5 5 5 5 3 5 5 5 5 5 5 5 5 5 5 5 5 5 5 3 5 5 5 5 3 5 5 5 3 5 5 5 5 5 5 5 5 5 5 5 5 3 5 3 5 5 5 5 5 5 5 5 5 5 5 5 3 5 5 5 5 3 5 5 5 5 3 3 5 5 3 5 3 3 5 3 5 3 5 5 5 5 5 5 5 5 5 5 5 5 3 5 5 5 5 3 3 5 5 5 5 5 5 5 5 5 3 5 5 3 5 5 5 3 5 5 5 5 5 5 5 5 5 5 5 5 5 5 5 5 5 5 5 5 5 5 5 3 5 5 5 5 5 5 5 5 5 5 5 5 5 5 5 5 5 5 5 5 5 3 5 5 5 5 5 5 5 5 5 5 3 5 5 3 5 5 5 5 3 5 5 5 5 5 3 5 5 5 5 5 5 5 5 5 5 5 5 5 5 5 5 5 5 5 5 3 5 3 5 5 3 5 5 5 5 5 5 5 5 5 5 5 5 5 5 5 5 5 5 5 5 5 5 5 5 5 5 5 5 5 5 5 5 5 5 5 5 3 5 3 5 5 5 5 5 5 5 5 3 5 3 5 5 5 5 5 5 5 5 5 5 5 5 5 5 5 5 5 5 5 5 3 3 5 5 3 3 5 5 5 5 3 5 5 5 5 5 5 5 5 5 5 5 5 5 5 5 5 5 5 5 5 5 5 5 5 5 5 5 5 5 5 3 5 3 5 5 5 3 5 5 5 5 5 5 5 5 5 5 5 5 5 5 5 5 5 5 5 5 3 5 5 5 5 3 5 5 3 5 5 5 5 5 3 3 5 5 5 3 5 5 5 5 5 5 5 5 3 5 5 5 5 5 5 5 5 5 5 5 5 5 5 5 5 5 3 5 5 5 5 5 5 5 5 5 5 5 5 5 3 5 5 5 5 5 5 5 5 5 5 5 3 5 5 5 5 5 5 5 5 5 5 5 5 3 5 5 5 5 5 5 5 5 5 5 3 5 5 5 3 5 3 5 5 5 5 5 3 5 5 5 5 5 5 5 3 5 3 5 5 3 5 5 5 5 3 5 3 5 5 5 5 5 3 3 5 5 5 5 5 5 5 5 5 5 5 3 5 3 5 5 5 5 3 5 5 5 5 5 5 5 3 3 5 3 5 5 3 5 5 5 5 5 3 5 5 5 5 5 5 5 5 5 3 5 3 5 5 3 5 5 5 5 5 5 3 5 5 5 5 3 5 5 5 3 3 5 5 5 5 3 5 5 5 3 5 5 5 5 5 5 5 5 5 5 3 5 5 5 5 5 3 5 5 5 5 5 5 5 5 3 5 5 5 5 5 5 5 5 5 5 5 5 3 5 3 3 5 5 3 3 5 5 5 5 5 3 5 3 5 5 5 3 3 5 5 5 5 5 5 5 5 5 5 5 5 5 5 5 5 5 5 5 5 5 5 5 5 5 5 5 5 5 5 5 5 5 5 5 5 5 5 5 5 5 5 5 3 5 5 5 5 3 5 5 5 5 5 5 5 5 3 5 5 5 3 5 5 3 5 5 5 5 5 5 5 5 3 5 5 3 5 5 5 5 5 5 3 5 5 3 5 5 5 5 3 5 5 5 5 5 5 5 5 5 5 3 5 5 5 5 5 5 5 5 5 5 3 5 5 5 5 5 5 5 5 5 5 5 5 5 5 5 5 5 5 5 5 5 5 5 5 5 5 5 5 5 5 5 3 3 5 5 3 5 5 5 5 3 5 5 5 5 3 3 5 5 5 5 3 5 5 5 5 5 5 5 5 5 5 5 3 5 5 5 3 5 5 5 5 5 5 3 5 5 5 3 3 5 5 5 5 5 5 5 3 5 5 5 3 5 3 5 5 5 5 5 5 5 5 5 5 5 5 5 5 5 5 5 5 5 5 5 5 5 5 5 5 5 5 3 5 5 5 5 5 5 5 5 5 3 5 5 5 5 5 5 5 5 5 5 5 5 3 5 5 5 5 5 5 5 5 5 3 3 5 5 5 5 5 3 5 5 5 3 5 3 5 5 5 5 5 5 5 5 5 5 5 5 5 5 5 5 5 5 5 5 5 5 5 5 5 3 5 5 3 5 5 5 5 5 5 3 5 5 5 5 5 5 5 5 5 5 5 5 5 5 5 5 5 5 5 5 5 5 5 5 3 5 5 3 5 5 5 5 5 5 5 5 3 5 5 5 5 5 5 5 5 5 5 5 5 5 5 5 5 5 5 5 5 5 5 5 5 5 5 5 3 5 5 5 5 3 3 5 5 3 5 5 5 5 5 5 5 5 3 3 5 5 5 3 5 5 5 5 5 5 5 3 5 5 3 5 5 5 5 5 5 5 5 3 5 5 5 5 5 3 5 5 3 5 5 3 5 5 5 5 3 3 3 5 5 5 5 5 3 5 5 3 5 5 5 5 5 5 5 5 5 5 5 5 5 5 3 5 3 5 5 5 5 5 3 5 5 5 5 5 5 5 3 3 5 5 5 5 5 5 5 5 5 5 5 5 5 5 5 5 5 5 3 5 5 5 3 5 5 5 5 5 5 5 5 3 5 3 5 5 5 5 5 5 5 5 5 5 3 5 5 5 5 5 5 5 5 5 5 5 5 5 5 5 5 3 3 5 5 5 3 5 5 5 5 3 5 5 5 5 3 5 5 5 5 5 5 5 5 3 5 5 5 3 5 5 5 5 5 5 5 5 5 5 5 5 5 5 5 5 5 5 3 5 5 5 5 3 5 5 5 5 5 5 5 5 5 5 5 5 5 5 5 5 5 3 5 3 5 5 5 5 3 5 5 3 5 3 3 5 5 5 5 5 5 3 5 3 5 5 5 5 5 5 5 3 5 5 5 5 5 3 5 5 5 3 5 5 3 5 5 5 5 5 5 5 5 3 5 5 3 5 5 5 5 5 5 5 5 5 5 5 5 5 5 5 5 5 5 5 5 5 5 5 5 5 5 5 5 5 5 5 3 5 5 5 5 5 5 5 3 5 3 5 5 5 5 3 5 5 5 5 3 5 5 5 5 5 3 5 5 5 5 5 5 5 5 5 5 3 3 5 5 5 3 5 5 5 5 3 5 5 5 5 5 5 5 3 3 3 5 5 5 5 5 5 5 5 5 5 5 5 3 5 3 5 5 5 5 5 5 5 5 5 5 5 5 5 5 5 3 5 5 5 5 5 5 3 5 5 5 5 5 5 5 5 5 5 5 5 5 5 5 5 5 5 5 5 5 5 5 5 5 3 5 5 3 5 5 5 3 5 3 3 5 5 5 3 5 5 5 5 5 5 3 5 5 5 3 3 5 3 5 5 5 5 5 5 5 3 5 5 5 5 5 5 3 5 5 5 5 5 3 5 5 5 5 5 5 5 5 5 5 5 5 5 5 5 5 5 5 5 5 5 5 5 5 5 5 5 5 3 5 5 5 3 5 5 5 5 5 3 5 5 3 5 3 5 5 5 5 5 5 5 5 5 5 5 5 5 5 3 5 5 3 5 5 5 5 5 5 5 5 5 5 5 5 5 5 3 5 5 5 5 5 3 5 5 5 5 5 5 5 5 5 5 5 5 5 5 5 5 5 5 5 5 5 5 5 5 5 5 5 5 5 5 5 5 5 5 5 5 5 5 5 5 5 5 5 5 5 5 5 5 5 5 5 5 5 5 5 5 5 5 5 5 5 5 5 5 5 5 5 3 5 3 5 5 5 5 5 5 5 3 5 5 5 3 5 3 5 5 5 3 5 5 3 5 5 5 5 5 5 3 5 5 5 5 5 5 5 5 5 5 5 5 5 5 5 5 5 3 5 5 5 5 5 3 5 5 3 5 5 3 3 5 5 5 5 5 5 5 5 3 5 5 5 5 5 5 5 5 5 5 5 5 5 5 5 5 5 5 5 5 5 5 5 5 5 5 5 5 5 5 5 5 5 5 5 5 5 5 5 5 5 5 5 5 5 5 5 5 5 5 5 5 5 5 5 5 3 5 5 5 5 5 5 3 5 5 5 3 3 5 5 5 5 5 5 5 5 5 5 5 5 5 5 5 5 3 5 5 5 5 5 5 5 3 5 5 5 5 3 5 5 5 5 5 5 3 5 5 5 5 5 5 3 5 5 5 5 5 5 3 5 5 5 5 5 5 5 5 5 5 5 5 5 5 5 5 5 5 5 3 5 5 5 3 5 5 3 5 5 3 5 5 5 5 5 5 5 5 5 5 5 5 5 5 5 5 5 5 5 3 5 3 5 3 5 5 3 5 3 5 5 5 3 5 5 3 5 5 3 3 3 3 5 5 3 3 5 5 5 5 3 3 5 5 3 3 5 5 3 3 5 5 5 5 5 5 5 5 5 5 5 5 5 5 5 5 5 5 5 5 5 5 5 5 5 5 5 5 3 5 3 5 5 3 5 5 5 3 5 5 5 5 5 5 5 5 5 5 3 5 5 5 5 5 5 5 5 5 5 5 3 5 5 5 5 5 5 5 5 5 5 5 3 5 5 5 5 5 5 5 5 5 3 5 5 3 5 3 5 5 5 3 5 5 5 5 3 5 5 5 5 5 5 5 5 5 5 5 5 5 5 5 5 5 5 5 5 5 5 5 5 5 5 5 5 5 3 5 5 5 3 5 5 5 5 5 3 5 5 5 5 3 5 5 5 3 5 5 5 5 3 5 5 3 5 5 5 3 5 5 5 5 3 3 3 5 5 5 5 5 3 5 5 5 5 5 5 5 5 3 5 5 5 5 5 5 5 3 5 5 5 5 5 5 3 5 5 3 3 5 5 5 5 5 5 5 5 5 3 5 5 5 5 5 5 3 5 5 5 5 5 5 5 5 5 5 5 5 5 5 5 5 5 5 5 5 5 5 5 5 5 5 5 5 5 5 5 5 3 5 5 5 5 5 5 5 5 5 5 3 5 5 5 5 5 5 5 5 5 3 3 5 3 5 5 5 5 3 5 5 5 5 5 5 3 5 5 5 5 5 5 5 3 5 5 5 5 3 5 5 5 3 5 5 5 5 5 5 3 5 5 5 5 5 5 5 5 5 5 5 3 5 5 5 5 5 5 5 5 5 5 5 5 5 5 5 5 5 5 5 5 5 5 5 5 5 5 5 5 5 5 5 5 5 5 5 5 5 5 5 5 5 5 5 5 5 3 5 5 5 5 5 5 5 5 5 5 5 5 5 5 5 5 5 5 5 5 5 5 5 3 5 5 5 5 5 5 5 5 5 5 3 5 5 5 5 5 3 5 3 5 5 5 5 5 5 5 5 5 5 5 5 5 5 5 5 3 5 5 5 5 5 5 5 3 5 5 5 5 5 5 5 5 5 5 5 5 5 5 5 3 5 5 5 5 5 5 5 5 5 5 5 5 5 5 5 5 5 3 5 3 5 5 3 5 5 3 5 5 5 3 5 3 5 3 5 5 5 3 5 5 5 5 5 5 5 3 5 5 5 5 5 5 5 5 5 5 5 5 3 3 5 5 5 5 3 5 5 5 3 5 3 5 5 5 5 3 5 5 5 5 5 3 5 3 3 5 5 5 5 5 5 3 5 5 3 3 5 5 5 3 5 5 3 3 5 3 5 5 5 5 3 5 5 5 5 5 5 5 5 5 5 5 5 5 5 5 5 5 5 5 5 5 5 5 5 5 5 5 3 5 5 3 5 3 5 5 3 5 5 5 3 5 3 5 5 5 5 5 5 5 5 5 5 5 5 5 5 5 5 5 5 5 5 3 5 3 5 5 5 5 5 5 5 5 5 5 5 5 5 5 5 5 5 5 5 5 5 5 5 5 5 5 5 5 5 5 5 5 5 5 5 5 5 5 5 5 5 5 5 5 5 5 5 5 5 5 5 5 5 5 5 5 5 5 5 5 5 5 5 5 5 5 5 5 5 5 3 5 5 5 5 5 5 5 5 5 3 5 5 5 3 5 3 3 5 5 5 5 3 5 5 5 5 5 5 5 5 5 5 5 5 5 5 5 5 5 5 5 5 5 5 5 5 5 5 5 5 5 5 5 3 5 5 3 5 5 5 3 5 5 5 5 5 5 3 5 3 5 5 5 5 5 3 5 5 3 5 5 5 5 5 5 5 5 5 5 5 3 5 5 5 3 5 5 3 5 5 3 5 5 5 5 5 5 5 3 3 5 5 5 5 5 5 3 5 5 5 5 5 5 5 5 5 5 5 5 5 5 5 5 5 5 5 5 3 5 3 5 5 5 5 3 5 5 5 5 5 5 5 3 5 5 5 5 5 5 5 5 5 5 5 5 3 3 5 5 5 5 5 5 5 5 5 5 3 5 5 5 5 5 5 5 5 5 5 5 5 5 3 5 5 5 5 5 5 5 5 5 3 5 5 5 3 3 5 5 5 5 5 3 5 5 5 5 3 5 5 5 3 5 5 3 5 5 5 5 3 5 5 3 5 3 5 5 5 5 3 5 5 5 5 5 3 5 3 3 3 5 5 5 5 5 5 3 5 5 5 5 3 5 3 5 5 5 5 5 5 5 5 3 5 3 5 5 3 5 3 5 5 5 3 3 5 3 5 5 5 3 3 5 5 5 5 5 5 5 5 5 5 3 3 5 3 5 5 5 3 5 3 3 5 5 5 3 5 5 5 5 5 3 5 5 3 5 5 5 3 5 5 5 3 5 5 5 5 5 5 5 5 5 3 5 5 5 3 3 5 5 5 5 5 5 5 3 5 5 5 5 5 5 5 5 5 5 5 5 5 5 5 5 5 5 5 5 3 5 3 5 3 5 5 3 5 5 3 5 5 5 5 5 5 5 5 5 5 5 5 5 5 5 5 5 5 5 5 5 5 5 5 5 5 5 5 5 5 5 5 5 5 5 5 5 5 5 5 5 3 5 5 5 3 5 5 5 5 5 5 5 5 5 5 5 5 5 5 5 5 5 5 5 5 5 5 5 5 5 5 5 3 5 5 5 5 5 5 5 5 5 3 5 5 5 5 5 3 3 5 5 5 5 5 5 5 5 5 5 5 5 5 5 5 5 5 3 5 5 5 5 5 5 5 3 5 5 3 5 3 5 5 3 5 5 5 3 5 5 5 3 5 3 3 5 5 3 5 5 5 3 5 3 5 5 5 5 5 5 3 5 5 5 3 5 5 5 3 5 5 5 5 5 5 3 5 5 3 5 5 5 5 5 5 5 5 5 5 5 5 5 5 5 5 3 5 5 5 5 5 5 5 3 5 5 5 5 5 5 5 5 5 5 5 5 3 5 5 5 5 5 5 5 5 5 5 5 5 3 5 5 5 5 5 5 5 5 3 5 5 5 3 5 5 5 3 5 5 5 5 5 3 5 5 3 5 5 5 5 5 5 5 5 5 5 5 5 5 3 3 5 3 5 5 5 5 5 5 5 5 3 5 3 5 5 5 5 3 5 5 5 5 5 5 5 5 5 5 5 5 5 5 5 5 5 5 5 5 5 5 5 5 5 5 5 5 5 5 5 5 5 5 5 5 5 5 5 5 5 5 5 5 5 5 5 5 5 3 5 5 3 5 5 5 5 5 5 5 5 3 3 5 5 5 3 3 5 5 5 5 5 3 5 5 5 5 5 5 5 5 5 5 5 3 5 5 5 5 5 5 5 3 5 5 5 5 5 5 3 5 5 3 3 5 5 5 5 3 5 5 5 5 5 5 5 5 3 5 5 5 5 5 5 5 5 5 5 5 5 3 5 5 3 5 5 5 5 5 3 3 5 5 5 5 5 5 5 5 5 5 5 5 5 5 5 5 5 5 3 5 5 5 5 5 5 5 5 5 5 5 5 5 5 5 5 3 5 5 5 5 3 5 5 3 5 5 5 3 5 5 5 5 5 5 5 5 5 5 5 5 5 5 5 5 5 5 5 5 5 5 5 5 3 5 5 5 5 5 5 3 5 3 3 5 3 5 5 5 3 5 5 5 3 5 3 5 5 3 3 5 5 5 5 5 5 5 3 3 3 5 3 5 5 5 5 5 5 5 5 5 3 5 3 5 5 5 5 5 5 5 3 5 5 3 5 5 3 5 5 3 3 5 5 5 3 5 3 3 5 5 3 3 5 3 5 5 5 5 5 5 5 3 3 5 5 5 5 5 5 3 5 3 5 5 3 5 5 5 3 5 3 5 5 5 5 5 3 5 5 5 5 5 5 5 3 3 5 5 5 5 3 5 3 3 5 5 5 5 5 5 5 3 5 5 5 5 3 5 5 5 5 5 5 5 5 3 5 5 5 5 5 5 3 3 5 5 5 5 5 5 5 5 5 5 3 3 5 3 5 3 5 5 5 5 5 5 3 5 5 5 5 5 5 5 5 5 5 3 5 5 3 5 5 5 5 5 5 5 5 5 3 5 5 5 3 5 5 5 5 3 5 5 5 3 5 5 5 3 5 3 5 3 5 5 5 3 5 3 5 5 5 5 5 5 5 5 5 3 5 3 5 3 5 5 5 5 5 5 5 5 5 5 5 5 5 5 3 5 5 5 5 5 3 5 5 5 5 5 5 5 5 5 5 5 5 5 5 3 5 5 3 5 5 5 5 3 5 5 5 5 5 5 3 3 5 5 5 5 5 3 5 5 5 5 5 3 5 5 5 3 3 5 3 5 5 5 5 5 5 3 3 5 5 5 3 5 5 5 5 5 5 5 5 5 5 3 5 5 5 3 5 5 3 5 5 5 5 3 5 3 5 3 5 5 5 5 5 5 5 5 3 5 5 3 5 5 5 5 3 3 5 5 5 5 5 5 5 5 3 5 3 5 5 5 5 5 5 5 5 3 5 5 5 5 5 3 3 5 5 5 5 5 5 5 5 5 5 5 5 5 5 5 5 5 5 5 5 5 5 3 5 5 5 5 5 5 3 5 5 5 5 3 5 5 5 5 5 3 5 5 5 5 5 5 5 5 5 5 3 5 3 5 5 5 5 5 5 5 5 5 5 3 5 5 3 5 5 5 5 5 5 5 5 5 5 5 5 5 5 5 5 5 5 5 3 3 5 5 5 5 5 5 5 3 5 5 5 5 5 5 5 5 5 5 5 5 5 5 5 5 5 5 5 3 5 5 5 5 3 5 5 5 5 5 3 5 5 5 5 5 5 5 3 5 5 5 3 5 5 5 5 5 5 5 5 5 5 5 5 5 5 5 5 5 5 5 5 5 5 3 5 5 5 5 5 5 5 5 5 3 5 5 5 5 5 5 5 5 5 5 5 5 3 5 3 5 5 5 5 5 5 5 5 5 5 5 5 5 5 5 5 3 5 5 5 5 5 3 5 5 5 5 5 5 5 5 5 5 3 5 5 5 5 5 3 5 5 5 5 5 5 5 5 5 5 3 5 3 5 5 5 5 3 5 5 3 3 5 5 5 5 5 5 3 5 5 3 5 5 3 5 3 5 5 5 5 5 5 5 5 5 3 5 3 5 5 5 5 5 5 3 5 5 3 5 5 5 5 3 5 5 3 3 5 5 5 5 5 5 5 5 5 5 5 5 5 5 3 5 5 5 5 3 5 5 5 5 3 5 5 5 5 5 3 5 5 5 5 5 3 5 3 5 5 3 3 3 5 5 5 5 3 5 5 3 5 3 5 5 5 3 5 5 3 5 5 5 5 3 5 5 5 5 5 3 5 3 5 5 3 5 5 5 5 3 5 3 5 5 5 3 3 5 5 3 5 5 5 5 3 3 5 5 5 3 5 3 5 5 3 5 3 3 5 3 5 5 5 5 5 5 3 3 5 3 3 5 5 3 5 3 5 5 3 5 5 3 5 5 5 5 5 3 3 3 5 5 5 3 5 5 5 5 5 5 3 5 3 5 5 5 5 3 5 5 5 5 5 5 5 5 5 5 5 5 5 5 5 5 5 5 5 5 5 5 3 5 5 5 5 5 3 5 5 5 5 5 3 5 5 5 5 3 5 5 3 5 5 5 5 3 5 5 5 3 5 5 5 5 3 5 3 5 5 5 5 5 5 5 5 5 5 5 5 5 5 5 5 5 5 5 5 5 5 5 5 5 5 5 5 5 5 5 5 5 5 5 3 5 5 5 5 5 5 5 5 5 5 5 5 5 5 5 5 5 5 5 5 5 5 5 5 5 5 5 5 5 5 5 5 5 5 5 5 5 5 5 3 5 5 5 3 5 5 5 3 5 5 5 5 3 5 5 5 5 5 5 3 5 3 5 5 5 3 3 5 5 5 5 5 3 5 5 3 5 5 5 3 5 3 5 5 5 5 5 5 5 5 5 3 5 5 5 5 5 5 5 5 5 5 5 5 5 5 5 5 5 5 5 5 5 5 3 5 5 5 5 5 5 5 5 3 5 5 5 5 5 5 5 5 5 5 3 5 5 5 3 5 5 5 5 5 5 5 3 5 5 5 5 5 5 3 5 5 5 3 5 5 5 3 5 5 5 5 3 5 5 5 5 5 5 5 5 5 3 5 5 3 5 5 3 5 5 5 5 5 5 5 5 3 5 5 5 5 3 5 5 5 3 5 5 5 5 5 5 5 5 5 5 5 5 5 5 5 3 5 5 5 5 5 5 5 5 5 5 3 5 5 5 5 3 5 5 5 5 5 5 5 5 5 5 5 5 5 5 5 5 5 5 5 5 5 5 5 5 5 5 5 5 5 3 5 5 5 5 5 5 3 5 5 5 5 3 5 5 5 5 5 5 5 3 3 3 5 5 5 5 5 5 5 5 5 3 5 5 5 3 5 5 5 3 5 3 5 3 5 5 5 5 5 5 5 5 5 5 5 5 5 3 5 5 5 5 5 5 5 5 5 5 5 5 5 5 3 5 5 5 5 5 3 5 5 3 5 5 5 5 5 5 5 5 5 5 5 5 3 5 5 5 5 5 5 5 5 5 5 5 3 5 5 5 3 5 5 5 5 5 3 5 5 5 5 5 3 3 5 5 5 5 5 5 5 5 5 5 5 3 5 5 3 5 5 5 3 5 5 3 3 5 5 3 5 5 5 3 5 3 3 5 5 5 5 5 3 5 3 5 5 5 5 5 5 5 5 5 5 5 5 5 5 5 5 5 5 3 5 5 5 5 3 5 5 5 3 5 5 5 3 5 5 5 5 5 5 5 5 5 5 5 3 5 5 5 5 5 5 5 3 5 5 3 5 5 5 5 3 3 5 5 5 5 5 5 3 5 5 3 5 5 3 5 5 5 5 5 5 5 3 3 5 5 5 5 5 3 3 5 5 5 5 5 5 5 5 5 5 5 5 3 5 5 5 5 5 3 5 3 5 5 5 5 5 5 5 5 5 5 5 5 5 5 5 3 5 5 5 3 3 5 5 5 5 5 5 3 5 5 5 3 5 5 5 3 3 5 5 5 5 3 3 5 5 5 5 5 5 5 5 5 3 3 5 5 5 5 3 5 5 3 5 5 5 5 3 5 5 5 5 5 5 5 3 5 5 3 3 5 5 5 5 5 5 5 3 5 3 5 5 5 5 3 5 5 3 3 5 5 5 3 5 5 5 5 5 5 5 5 3 5 5 5 5 5 5 5 5 5 3 5 5 5 5 5 5 5 5 5 5 3 5 5 5 5 5 5 5 5 5 3 5 5 5 5 5 3 5 5 5 5 5 5 5 5 5 5 5 5 3 5 5 5 5 5 5 5 3 5 3 5 5 3 5 5 3 5 5 3 5 5 5 5 5 5 3 5 5 5 3 5 5 5 5 5 5 5 5 5 5 3 5 5 3 5 5 5 5 5 5 5 5 3 5 5 5 5 5 3 5 5 5 3 3 5 3 3 5 5 5 3 5 5 3 5 5 5 5 5 5 5 5 5 5 5 5 5 5 5 5 5 5 5 5 5 5 5 3 5 5 5 5 3 5 5 5 3 5 5 5 3 5 5 5 3 3 5 5 5 5 5 5 5 5 5 5 5 5 5 5 5 5 5 5 5 5 5 5 5 5 5 5 3 5 5 5 5 3 5 5 5 5 3 5 3 3 5 5 3 5 3 5 5 5 3 5 5 5 5 3 5 5 3 5 5 5 5 5 5 3 5 3 5 5 5 5 3 5 5 5 5 5 3 3 5 5 5 3 5 3 5 5 5 5 5 5 5 5 5 5 5 3 5 5 3 5 5 3 5 3 5 5 3 3 3 3 5 5 5 5 5 5 3 5 5 5 5 5 3 5 5 5 5 5 5 3 5 5 5 3 5 5 5 5 5 5 5 5 5 5 5 3 5 5 5 5 5 5 5 3 5 3 5 3 5 3 5 5 3 5 5 5 5 5 3 5 5 3 5 5 5 5 5 5 5 5 3 5 5 5 5 5 5 5 5 5 5 5 5 5 5 5 5 3 3 5 5 5 5 5 5 5 5 3 5 5 5 5 3 5 5 5 5 5 5 5 5 5 5 3 5 5 5 5 5 5 3 5 5 5 3 5 5 5 5 5 5 5 3 3 5 5 5 5 5 5 5 5 5 5 3 5 5 3 5 5 5 5 5 5 3 5 5 5 5 5 3 5 5 5 3 5 5 5 3 5 3 5 5 5 5 3 5 5 5 5 5 5 5 5 5 5 5 5 5 5 5 3 5 5 5 5 5 5 5 5 5 5 5 5 3 5 5 5 3 3 5 3 3 5 5 5 5 5 5 5 5 5 5 5 5 5 3 5 5 5 5 5 5 5 5 5 5 5 5 5 5 5 5 5 5 5 5 5 5 5 3 5 5 5 5 5 5 5 5 3 5 5 5 5 5 5 3 5 3 3 5 5 5 5 
</DataArray>
</Cells>
<PointData Scalars="" Vectors="displacement," Tensors="">
<DataArray type="Float64" Name="displacement" NumberOfComponents="3" format="ascii">
-0.034997639310003791 -9.8175045748185852e-08 0 -0.033973713173338117 -0.00020172448943436545 0 -0.034998528368601088 -5.1292923295812179e-07 0 -0.034997639310003791 -9.8175045748185852e-08 0 -0.033973713173338117 -0.00020172448943436545 0 -0.031891612627775331 -9.0212370514653027e-07 0 -0.031891612627775331 -9.0212370514653027e-07 0 -0.032740002717606777 4.8130197499407621e-06 0 -0.029508377509852302 0.0001785782310578561 0 -0.033973713173338117 -0.00020172448943436545 0 -0.031891612627775331 -9.0212370514653027e-07 0 -0.032740002717606777 4.8130197499407621e-06 0 -0.033632664842166017 0.00033542319919150699 0 -0.034320203511612683 0.00026536478239280032 0 -0.033737375770561552 0.00083021479495656229 0 -0.033632664842166017 0.00033542319919150699 0 -0.034284299117012126 -8.2560707604135912e-05 0 -0.034320203511612683 0.00026536478239280032 0 -0.032740002717606777 4.8130197499407621e-06 0 -0.033632664842166017 0.00033542319919150699 0 -0.032189646792450725 0.00047375863661546034 0 -0.033973713173338117 -0.00020172448943436545 0 -0.032740002717606777 4.8130197499407621e-06 0 -0.034284299117012126 -8.2560707604135912e-05 0 -0.032740002717606777 4.8130197499407621e-06 0 -0.033632664842166017 0.00033542319919150699 0 -0.034284299117012126 -8.2560707604135912e-05 0 -0.033973713173338117 -0.00020172448943436545 0 -0.034284299117012126 -8.2560707604135912e-05 0 -0.034998528368601088 -5.1292923295812179e-07 0 -0.034284299117012126 -8.2560707604135912e-05 0 -0.034998528368601088 -5.1292923295812179e-07 0 -0.034830809325131197 -7.1488676945681182e-05 0 -0.034998528368601088 -5.1292923295812179e-07 0 -0.034830809325131197 -7.1488676945681182e-05 0 -0.035000433492870651 1.1349889784442487e-07 0 -0.034830809325131197 -7.1488676945681182e-05 0 -0.035000433492870651 1.1349889784442487e-07 0 -0.034960622381482391 -1.4971729234443835e-06 0 -0.035000433492870651 1.1349889784442487e-07 0 -0.034960622381482391 -1.4971729234443835e-06 0 -0.0350043100690565 -2.8231350870305728e-06 0 -0.034020963132831351 0.00043818394072825536 0 -0.033867918319943312 0.00042981197810494263 0 -0.034830809325131197 -7.1488676945681182e-05 0 -0.034960622381482391 -1.4971729234443835e-06 0 -0.03497182488170985 6.7463380191155306e-05 0 -0.034960622381482391 -1.4971729234443835e-06 0 -0.03497182488170985 6.7463380191155306e-05 0 -0.0350043100690565 -2.8231350870305728e-06 0 -0.033517736239155001 0.00086025886591344677 0 -0.033867918319943312 0.00042981197810494263 0 -0.031771664158980022 0.0018276680991026219 0 -0.031947510080890043 0.0017741328860604348 0 -0.031749561041008137 0.0019630215095492241 0 -0.031759692889811009 0.0017515174592141673 0 -0.031912065906613718 0.0016274952960927762 0 -0.03171643933475693 0.0014855028054904728 0 -0.031771664158980022 0.0018276680991026219 0 -0.031759692889811009 0.0017515174592141673 0 -0.031947510080890043 0.0017741328860604348 0 -0.031759692889811009 0.0017515174592141673 0 -0.031947510080890043 0.0017741328860604348 0 -0.031912065906613718 0.0016274952960927762 0 -0.031947510080890043 0.0017741328860604348 0 -0.031912065906613718 0.0016274952960927762 0 -0.032135729442033509 0.0016358574848597427 0 -0.033517736239155001 0.00086025886591344677 0 -0.033457468044438311 0.00099231211777986634 0 -0.031930780026025188 0.0014909384160815924 0 -0.031912065906613718 0.0016274952960927762 0 -0.032135729442033509 0.0016358574848597427 0 -0.031930780026025188 0.0014909384160815924 0 -0.032135729442033509 0.0016358574848597427 0 -0.032097391341076101 0.0015149221039715065 0 -0.031930780026025188 0.0014909384160815924 0 -0.031912065906613718 0.0016274952960927762 0 -0.03171643933475693 0.0014855028054904728 0 -0.034830809325131197 -7.1488676945681182e-05 0 -0.03497182488170985 6.7463380191155306e-05 0 -0.034776629278773862 0.00028676536804654454 0 -0.034284299117012126 -8.2560707604135912e-05 0 -0.034830809325131197 -7.1488676945681182e-05 0 -0.034320203511612683 0.00026536478239280032 0 -0.034830809325131197 -7.1488676945681182e-05 0 -0.034776629278773862 0.00028676536804654454 0 -0.034320203511612683 0.00026536478239280032 0 -0.034776629278773862 0.00028676536804654454 0 -0.034320203511612683 0.00026536478239280032 0 -0.034241838086739723 0.00088009790665985737 0 -0.033457468044438311 0.00099231211777986634 0 -0.033396861211591355 0.0011295492396454681 0 -0.034320203511612683 0.00026536478239280032 0 -0.034241838086739723 0.00088009790665985737 0 -0.033737375770561552 0.00083021479495656229 0 -0.032432063519866286 0.0016603412063840946 0 -0.032097391341076101 0.0015149221039715065 0 -0.032173925490077242 0.0014807128045306172 0 -0.032097391341076101 0.0015149221039715065 0 -0.032173925490077242 0.0014807128045306172 0 -0.031965206975612503 0.0013554798819712648 0 -0.032135729442033509 0.0016358574848597427 0 -0.032432063519866286 0.0016603412063840946 0 -0.032097391341076101 0.0015149221039715065 0 -0.03181240723039002 0.0013549810249371039 0 -0.031607906828440786 0.0013518798239933385 0 -0.032173925490077242 0.0014807128045306172 0 -0.031643649266920648 0.0012702686064970142 0 -0.032255186722921526 0.00099711726445328658 0 -0.032173925490077242 0.0014807128045306172 0 -0.031643649266920648 0.0012702686064970142 0 -0.031197670295364365 0.0015578883146475111 0 -0.032173925490077242 0.0014807128045306172 0 -0.032670443784844148 0.0014132591254429378 0 -0.032255186722921526 0.00099711726445328658 0 -0.032432063519866286 0.0016603412063840946 0 -0.032173925490077242 0.0014807128045306172 0 -0.032670443784844148 0.0014132591254429378 0 -0.031930780026025188 0.0014909384160815924 0 -0.03171643933475693 0.0014855028054904728 0 -0.031650875102437442 0.0012105108382414241 0 -0.031930780026025188 0.0014909384160815924 0 -0.031965206975612503 0.0013554798819712648 0 -0.031650875102437442 0.0012105108382414241 0 -0.031607906828440786 0.0013518798239933385 0 -0.031358172973273764 0.001312755043330277 0 -0.031930780026025188 0.0014909384160815924 0 -0.032097391341076101 0.0015149221039715065 0 -0.031965206975612503 0.0013554798819712648 0 -0.031643649266920648 0.0012702686064970142 0 -0.031197670295364365 0.0015578883146475111 0 -0.031239040481442978 0.00099779197804247669 0 -0.031197670295364365 0.0015578883146475111 0 -0.030900033562138992 0.0013134962558839455 0 -0.031239040481442978 0.00099779197804247669 0 -0.031197670295364365 0.0015578883146475111 0 -0.030900033562138992 0.0013134962558839455 0 -0.030867039719870388 0.001296860087429644 0 -0.030992203363254093 0.0013557608843692175 0 -0.030885912377766347 0.0013434385654792684 0 -0.030151167519992604 0.0015083814135238159 0 -0.030302690713112455 0.00169593354993124 0 -0.030700692993466186 0.0013556371524182139 0 -0.030900033562138992 0.0013134962558839455 0 -0.031239040481442978 0.00099779197804247669 0 -0.030700692993466186 0.0013556371524182139 0 -0.030151167519992604 0.0015083814135238159 0 -0.030127540907142064 0.0015856628962178593 0 -0.030302690713112455 0.00169593354993124 0 -0.030151167519992604 0.0015083814135238159 0 -0.030127540907142064 0.0015856628962178593 0 -0.030271758186373489 0.0015643418307161887 0 -0.032670443784844148 0.0014132591254429378 0 -0.032255186722921526 0.00099711726445328658 0 -0.033251641875208592 0.001432306454312149 0 -0.030469578175390696 0.0018002359862411017 0 -0.030999520076697817 0.0015946761990149629 0 -0.031500994969313113 0.0018793728029789436 0 -0.030469578175390696 0.0018002359862411017 0 -0.030598330934208478 0.0012483021926913017 0 -0.030999520076697817 0.0015946761990149629 0 -0.031444492464038742 0.0014359331246624372 0 -0.032004875620025297 0.001539640752605606 0 -0.031643649266920648 0.0012702686064970142 0 -0.031239040481442978 0.00099779197804247669 0 -0.032255186722921526 0.00099711726445328658 0 -0.030151167519992604 0.0015083814135238159 0 -0.030469578175390696 0.0018002359862411017 0 -0.030271758186373489 0.0015643418307161887 0 -0.030992203363254093 0.0013557608843692175 0 -0.031444492464038742 0.0014359331246624372 0 -0.030469578175390696 0.0018002359862411017 0 -0.030271758186373489 0.0015643418307161887 0 -0.030598330934208478 0.0012483021926913017 0 -0.030274288384565678 0.0012775997154735178 0 -0.030247996897177252 0.0012233842693211666 0 -0.030127540907142064 0.0015856628962178593 0 -0.030271758186373489 0.0015643418307161887 0 -0.030598330934208478 0.0012483021926913017 0 -0.030247996897177252 0.0012233842693211666 0 -0.030022891659525222 0.0010654012610709152 0 -0.029834735555825973 0.0015730502692933698 0 -0.029581502006874979 0.0015457680606342599 0 -0.029739232295318125 0.0017724894514871432 0 -0.030598330934208478 0.0012483021926913017 0 -0.03137641371324295 0.0011582671354553407 0 -0.030999520076697817 0.0015946761990149629 0 -0.03137641371324295 0.0011582671354553407 0 -0.030999520076697817 0.0015946761990149629 0 -0.031363447702900719 0.0015961259143721809 0 -0.03137641371324295 0.0011582671354553407 0 -0.031363447702900719 0.0015961259143721809 0 -0.031599831358759579 0.001496571030813275 0 -0.031563218619154849 0.0016394387919891405 0 -0.031363447702900719 0.0015961259143721809 0 -0.031599831358759579 0.001496571030813275 0 -0.031563218619154849 0.0016394387919891405 0 -0.031363447702900719 0.0015961259143721809 0 -0.031500994969313113 0.0018793728029789436 0 -0.030999520076697817 0.0015946761990149629 0 -0.031363447702900719 0.0015961259143721809 0 -0.031500994969313113 0.0018793728029789436 0 -0.031500994969313113 0.0018793728029789436 0 -0.031969496502648645 0.0015807480352246636 0 -0.032356733556278328 0.0016025148765294477 0 -0.031500994969313113 0.0018793728029789436 0 -0.031969496502648645 0.0015807480352246636 0 -0.0317229116274267 0.0015968289375864974 0 -0.031563218619154849 0.0016394387919891405 0 -0.031500994969313113 0.0018793728029789436 0 -0.0317229116274267 0.0015968289375864974 0 -0.031563218619154849 0.0016394387919891405 0 -0.0317229116274267 0.0015968289375864974 0 -0.031599831358759579 0.001496571030813275 0 -0.0317229116274267 0.0015968289375864974 0 -0.031599831358759579 0.001496571030813275 0 -0.03184552425824784 0.001434641843727475 0 -0.031969496502648645 0.0015807480352246636 0 -0.03184552425824784 0.001434641843727475 0 -0.032088167346653408 0.0012859882640599673 0 -0.031969496502648645 0.0015807480352246636 0 -0.0317229116274267 0.0015968289375864974 0 -0.03184552425824784 0.001434641843727475 0 -0.028849102309839197 0.0006978829633387081 0 -0.0285285554360909 0.00077853484215195483 0 -0.03137641371324295 0.0011582671354553407 0 -0.03184552425824784 0.001434641843727475 0 -0.032088167346653408 0.0012859882640599673 0 -0.030022891659525222 0.0010654012610709152 0 -0.028849102309839197 0.0006978829633387081 0 -0.029581502006874979 0.0015457680606342599 0 -0.02931485794915744 0.0015129251822548805 0 -0.029524502034174459 0.0017525704049167659 0 -0.03137641371324295 0.0011582671354553407 0 -0.031599831358759579 0.001496571030813275 0 -0.03184552425824784 0.001434641843727475 0 -0.027868668352990775 9.4406267980401233e-05 0 -0.027662873142352617 8.9170796903265262e-05 0 -0.027593947622517798 -6.133631479327433e-05 0 -0.026043921669725564 -0.00016566124492170564 0 -0.026124353872900387 -0.00026417231664789228 0 -0.026156964260349889 -9.5393856547905303e-05 0 -0.026043921669725564 -0.00016566124492170564 0 -0.026082595586347668 -3.6167274061438258e-05 0 -0.025900166811797437 -0.00016106644873670379 0 -0.026043921669725564 -0.00016566124492170564 0 -0.026124353872900387 -0.00026417231664789228 0 -0.026082595586347668 -3.6167274061438258e-05 0 -0.028849102309839197 0.0006978829633387081 0 -0.027699655938224505 0.00029087952420513906 0 -0.026082595586347668 -3.6167274061438258e-05 0 -0.026107049370479512 -0.0001266973398265029 0 -0.025900166811797437 -0.00016106644873670379 0 -0.027662873142352617 8.9170796903265262e-05 0 -0.027206489752918287 5.179390130111722e-08 0 -0.027593947622517798 -6.133631479327433e-05 0 -0.027699655938224505 0.00029087952420513906 0 -0.027204493994379141 7.9486625932185897e-07 0 -0.026082595586347668 -3.6167274061438258e-05 0 -0.027201473427526796 2.326548192322542e-07 0 -0.026107049370479512 -0.0001266973398265029 0 -0.027659267358951658 2.8023943156778681e-06 0 -0.029508377509852302 0.0001785782310578561 0 -0.029425779988352795 0.00024388451477631027 0 -0.027206489752918287 5.179390130111722e-08 0 -0.027653034631869935 -4.9880953847811698e-08 0 -0.027593947622517798 -6.133631479327433e-05 0 -0.027658957254460367 1.4023526105869908e-06 0 -0.029013215935023848 0.00030015367998128888 0 -0.027653034631869935 -4.9880953847811698e-08 0 -0.027593947622517798 -6.133631479327433e-05 0 -0.027597251638117805 -0.00014952213361063316 0 -0.032088167346653408 0.0012859882640599673 0 -0.032356733556278328 0.0016025148765294477 0 -0.032255975724007423 0.0016678982864173496 0 -0.027868668352990775 9.4406267980401233e-05 0 -0.027593947622517798 -6.133631479327433e-05 0 -0.027597251638117805 -0.00014952213361063316 0 -0.028849102309839197 0.0006978829633387081 0 -0.029013215935023848 0.00030015367998128888 0 -0.031969496502648645 0.0015807480352246636 0 -0.032088167346653408 0.0012859882640599673 0 -0.032356733556278328 0.0016025148765294477 0 -0.029013215935023848 0.00030015367998128888 0 -0.031380185884851919 -0.00019127046779860154 0 -0.031891612627775331 -9.0212370514653027e-07 0 -0.027659267358951658 2.8023943156778681e-06 0 -0.029508377509852302 0.0001785782310578561 0 -0.032740002717606777 4.8130197499407621e-06 0 -0.029508377509852302 0.0001785782310578561 0 -0.032189646792450725 0.00047375863661546034 0 -0.032356733556278328 0.0016025148765294477 0 -0.032255975724007423 0.0016678982864173496 0 -0.032659592291976111 0.00098631494918803358 0 -0.032356733556278328 0.0016025148765294477 0 -0.032659592291976111 0.00098631494918803358 0 -0.032845183726913113 0.0013864233802233646 0 -0.029508377509852302 0.0001785782310578561 0 -0.029905248312837612 0.00066765627908564325 0 -0.032189646792450725 0.00047375863661546034 0 -0.029030521940692576 0.00030834655140797931 0 -0.029013215935023848 0.00030015367998128888 0 -0.033632664842166017 0.00033542319919150699 0 -0.032659592291976111 0.00098631494918803358 0 -0.033202391331294358 0.0011060088733574722 0 -0.032159027703389596 -0.00035749988736967524 0 -0.031380185884851919 -0.00019127046779860154 0 -0.033632664842166017 0.00033542319919150699 0 -0.033737375770561552 0.00083021479495656229 0 -0.033202391331294358 0.0011060088733574722 0 -0.034241838086739723 0.00088009790665985737 0 -0.033737375770561552 0.00083021479495656229 0 -0.033483237927607684 0.0011342305798542176 0 -0.033737375770561552 0.00083021479495656229 0 -0.033483237927607684 0.0011342305798542176 0 -0.033202391331294358 0.0011060088733574722 0 -0.033396861211591355 0.0011295492396454681 0 -0.033364229491890593 0.0011968057687531224 0 -0.032670443784844148 0.0014132591254429378 0 -0.033251641875208592 0.001432306454312149 0 -0.033237520384323191 0.0014570559875164801 0 -0.032432063519866286 0.0016603412063840946 0 -0.032670443784844148 0.0014132591254429378 0 -0.033237520384323191 0.0014570559875164801 0 -0.034241838086739723 0.00088009790665985737 0 -0.033483237927607684 0.0011342305798542176 0 -0.033237520384323191 0.0014570559875164801 0 -0.033483237927607684 0.0011342305798542176 0 -0.033237520384323191 0.0014570559875164801 0 -0.033083990979125941 0.0013466160855570087 0 -0.033251641875208592 0.001432306454312149 0 -0.033237520384323191 0.0014570559875164801 0 -0.033083990979125941 0.0013466160855570087 0 -0.033251641875208592 0.001432306454312149 0 -0.032356733556278328 0.0016025148765294477 0 -0.032845183726913113 0.0013864233802233646 0 -0.032004875620025297 0.001539640752605606 0 -0.032155981021611393 0.0015672498397456462 0 -0.033251641875208592 0.001432306454312149 0 -0.033083990979125941 0.0013466160855570087 0 -0.032845183726913113 0.0013864233802233646 0 -0.032659592291976111 0.00098631494918803358 0 -0.032845183726913113 0.0013864233802233646 0 -0.032953423298658698 0.0012136019951149257 0 -0.032659592291976111 0.00098631494918803358 0 -0.032953423298658698 0.0012136019951149257 0 -0.033202391331294358 0.0011060088733574722 0 -0.033083990979125941 0.0013466160855570087 0 -0.032953423298658698 0.0012136019951149257 0 -0.033202391331294358 0.0011060088733574722 0 -0.033483237927607684 0.0011342305798542176 0 -0.033083990979125941 0.0013466160855570087 0 -0.033202391331294358 0.0011060088733574722 0 -0.033083990979125941 0.0013466160855570087 0 -0.032845183726913113 0.0013864233802233646 0 -0.032953423298658698 0.0012136019951149257 0 -0.03444351798850559 -8.2563009073724196e-05 0 -0.034726110268159326 6.7384946499007877e-05 0 -0.034418280027027015 0.00013297961615426382 0 -0.034726110268159326 6.7384946499007877e-05 0 -0.034853120947446692 -7.3225791322498702e-05 0 -0.034871285642774856 1.2050335972085647e-05 0 -0.033785735134622755 0.00025581235678435679 0 -0.033556001052421472 0.0003539727918133204 0 -0.03444351798850559 -8.2563009073724196e-05 0 -0.034726110268159326 6.7384946499007877e-05 0 -0.034853120947446692 -7.3225791322498702e-05 0 -0.034726110268159326 6.7384946499007877e-05 0 -0.03487615856167358 7.862125627378494e-05 0 -0.034871285642774856 1.2050335972085647e-05 0 -0.034726110268159326 6.7384946499007877e-05 0 -0.034823242186919873 0.00013816232680821978 0 -0.03487615856167358 7.862125627378494e-05 0 -0.034726110268159326 6.7384946499007877e-05 0 -0.034640688411216911 0.00018544151797599142 0 -0.034823242186919873 0.00013816232680821978 0 -0.034726110268159326 6.7384946499007877e-05 0 -0.034418280027027015 0.00013297961615426382 0 -0.034640688411216911 0.00018544151797599142 0 -0.034418280027027015 0.00013297961615426382 0 -0.034640688411216911 0.00018544151797599142 0 -0.034369171337074338 0.00025912503032769307 0 -0.034640688411216911 0.00018544151797599142 0 -0.034436702308867889 0.00043911334570593977 0 -0.034906240380770448 0.00014944127492108261 0 -0.034640688411216911 0.00018544151797599142 0 -0.034436702308867889 0.00043911334570593977 0 -0.034369171337074338 0.00025912503032769307 0 -0.03501332843574391 3.5933216789405427e-05 0 -0.03499984584812825 1.255509285763976e-07 0 -0.03500006882244288 -8.1627749397347583e-09 0 -0.034649684136086691 0.00018551453930406461 0 -0.034695511023657366 0.00018448763571281447 0 -0.03501332843574391 3.5933216789405427e-05 0 -0.03499984584812825 1.255509285763976e-07 0 -0.034906240380770448 0.00014944127492108261 0 -0.034906240380770448 0.00014944127492108261 0 -0.034823242186919873 0.00013816232680821978 0 -0.034947361805168414 8.3003866104107885e-05 0 -0.034640688411216911 0.00018544151797599142 0 -0.034906240380770448 0.00014944127492108261 0 -0.034823242186919873 0.00013816232680821978 0 -0.034823242186919873 0.00013816232680821978 0 -0.034947361805168414 8.3003866104107885e-05 0 -0.03487615856167358 7.862125627378494e-05 0 -0.034947361805168414 8.3003866104107885e-05 0 -0.034935340221858728 6.1457706627547889e-05 0 -0.03487615856167358 7.862125627378494e-05 0 -0.03499984584812825 1.255509285763976e-07 0 -0.034906240380770448 0.00014944127492108261 0 -0.034999897531912204 8.3129828112742681e-08 0 -0.034906240380770448 0.00014944127492108261 0 -0.034947361805168414 8.3003866104107885e-05 0 -0.034999897531912204 8.3129828112742681e-08 0 -0.034947361805168414 8.3003866104107885e-05 0 -0.034999897531912204 8.3129828112742681e-08 0 -0.034975994933356312 4.5976168958145714e-05 0 -0.034947361805168414 8.3003866104107885e-05 0 -0.034975994933356312 4.5976168958145714e-05 0 -0.034935340221858728 6.1457706627547889e-05 0 -0.034975994933356312 4.5976168958145714e-05 0 -0.034935340221858728 6.1457706627547889e-05 0 -0.034956661210922065 3.4184978652175375e-05 0 -0.034956661210922065 3.4184978652175375e-05 0 -0.034911987957279289 3.2211326996735022e-05 0 -0.034909494217736793 -2.8741645760447907e-05 0 -0.034935340221858728 6.1457706627547889e-05 0 -0.034956661210922065 3.4184978652175375e-05 0 -0.034911987957279289 3.2211326996735022e-05 0 -0.034935340221858728 6.1457706627547889e-05 0 -0.03487615856167358 7.862125627378494e-05 0 -0.034911987957279289 3.2211326996735022e-05 0 -0.03487615856167358 7.862125627378494e-05 0 -0.034911987957279289 3.2211326996735022e-05 0 -0.034871285642774856 1.2050335972085647e-05 0 -0.034911987957279289 3.2211326996735022e-05 0 -0.034871285642774856 1.2050335972085647e-05 0 -0.034909494217736793 -2.8741645760447907e-05 0 -0.034853120947446692 -7.3225791322498702e-05 0 -0.034871285642774856 1.2050335972085647e-05 0 -0.034909494217736793 -2.8741645760447907e-05 0 -0.033556001052421472 0.0003539727918133204 0 -0.033269998931521341 0.00055091283202700196 0 -0.034909494217736793 -2.8741645760447907e-05 0 -0.034949625955944197 -9.9834264587151999e-06 0 -0.034971600004745834 1.7836939885310781e-05 0 -0.034853120947446692 -7.3225791322498702e-05 0 -0.034909494217736793 -2.8741645760447907e-05 0 -0.034949625955944197 -9.9834264587151999e-06 0 -0.034746407777800747 0.00042201524367529249 0 -0.034559217587113646 0.00053561329623227222 0 -0.034956661210922065 3.4184978652175375e-05 0 -0.034909494217736793 -2.8741645760447907e-05 0 -0.034991908410070723 9.0747062174268518e-06 0 -0.033269998931521341 0.00055091283202700196 0 -0.032793429984804966 0.00090588864214536074 0 -0.034949625955944197 -9.9834264587151999e-06 0 -0.034971600004745834 1.7836939885310781e-05 0 -0.034991945104615244 1.8794359524135038e-05 0 -0.031619283655374475 0.00069212857397357101 0 -0.031030188672207696 0.00085971420099330688 0 -0.031165598986940778 0.0010087533914329896 0 -0.034971600004745834 1.7836939885310781e-05 0 -0.034991945104615244 1.8794359524135038e-05 0 -0.034999059460132528 3.5002806828689798e-05 0 -0.032793429984804966 0.00090588864214536074 0 -0.032655462505590045 0.00083292354243733155 0 -0.031177841644347854 0.0012713073691352987 0 -0.031148111296971689 0.0010666897543653406 0 -0.031165598986940778 0.0010087533914329896 0 -0.034991908410070723 9.0747062174268518e-06 0 -0.034993296903477383 2.3168744712102473e-05 0 -0.034993507356659355 2.2567069011273658e-05 0 -0.034559217587113646 0.00053561329623227222 0 -0.033220874996355697 0.00077700153311507133 0 -0.034956661210922065 3.4184978652175375e-05 0 -0.034991908410070723 9.0747062174268518e-06 0 -0.034983027366321341 2.9177767138335822e-05 0 -0.034991908410070723 9.0747062174268518e-06 0 -0.034993296903477383 2.3168744712102473e-05 0 -0.034983027366321341 2.9177767138335822e-05 0 -0.034975994933356312 4.5976168958145714e-05 0 -0.034956661210922065 3.4184978652175375e-05 0 -0.034983027366321341 2.9177767138335822e-05 0 -0.034975994933356312 4.5976168958145714e-05 0 -0.034983027366321341 2.9177767138335822e-05 0 -0.034991467475039791 2.776451968788493e-05 0 -0.034975994933356312 4.5976168958145714e-05 0 -0.035000000613632495 1.6096776755924039e-08 0 -0.034991467475039791 2.776451968788493e-05 0 -0.034999897531912204 8.3129828112742681e-08 0 -0.034975994933356312 4.5976168958145714e-05 0 -0.035000000613632495 1.6096776755924039e-08 0 -0.035000000613632495 1.6096776755924039e-08 0 -0.034991467475039791 2.776451968788493e-05 0 -0.034994286742428202 1.9625443778717132e-05 0 -0.034993296903477383 2.3168744712102473e-05 0 -0.034983027366321341 2.9177767138335822e-05 0 -0.034991467475039791 2.776451968788493e-05 0 -0.034993296903477383 2.3168744712102473e-05 0 -0.034991467475039791 2.776451968788493e-05 0 -0.034994286742428202 1.9625443778717132e-05 0 -0.034994286742428202 1.9625443778717132e-05 0 -0.034989951865277709 2.1113301803788398e-05 0 -0.034993507356659355 2.2567069011273658e-05 0 -0.034994286742428202 1.9625443778717132e-05 0 -0.034999961847278063 1.2835451454210364e-08 0 -0.034989951865277709 2.1113301803788398e-05 0 -0.035000000613632495 1.6096776755924039e-08 0 -0.034994286742428202 1.9625443778717132e-05 0 -0.034999961847278063 1.2835451454210364e-08 0 -0.034999961847278063 1.2835451454210364e-08 0 -0.034984036080783293 1.1041344427388216e-05 0 -0.034989951865277709 2.1113301803788398e-05 0 -0.03499999734028067 9.6710242779168954e-10 0 -0.034999997878198644 -1.1099874678437624e-09 0 -0.034998368304806453 9.5688151853514478e-08 0 -0.034998341629907698 -6.1093527648439994e-08 0 -0.033867918319943312 0.00042981197810494263 0 -0.033867918319943312 0.00042981197810494263 0 -0.033536234844764826 0.0006672227524872719 0 -0.031771664158980022 0.0018276680991026219 0 -0.031759692889811009 0.0017515174592141673 0 -0.031649880566046062 0.0018219245319293783 0 -0.031771664158980022 0.0018276680991026219 0 -0.031749561041008137 0.0019630215095492241 0 -0.031649880566046062 0.0018219245319293783 0 -0.031759692889811009 0.0017515174592141673 0 -0.031348123649456529 0.0016444646014098275 0 -0.031481566014479913 0.0014813025250950292 0 -0.031759692889811009 0.0017515174592141673 0 -0.031649880566046062 0.0018219245319293783 0 -0.031559400294924468 0.001698968256738367 0 -0.032396081883394205 0.0008609537024107059 0 -0.033220874996355697 0.00077700153311507133 0 -0.034993296903477383 2.3168744712102473e-05 0 -0.034994286742428202 1.9625443778717132e-05 0 -0.034993507356659355 2.2567069011273658e-05 0 -0.033536234844764826 0.0006672227524872719 0 -0.033220874996355697 0.00077700153311507133 0 -0.031204572964593471 0.0014564358255416358 0 -0.031348123649456529 0.0016444646014098275 0 -0.031481566014479913 0.0014813025250950292 0 -0.031177841644347854 0.0012713073691352987 0 -0.031332215614653026 0.0012837380283693808 0 -0.031481566014479913 0.0014813025250950292 0 -0.032793429984804966 0.00090588864214536074 0 -0.03231617774197254 0.00093693651647640025 0 -0.032793429984804966 0.00090588864214536074 0 -0.033220874996355697 0.00077700153311507133 0 -0.031177841644347854 0.0012713073691352987 0 -0.031332215614653026 0.0012837380283693808 0 -0.031148111296971689 0.0010666897543653406 0 -0.031332215614653026 0.0012837380283693808 0 -0.031481566014479913 0.0014813025250950292 0 -0.03151538890184561 0.001307298771106325 0 -0.031759692889811009 0.0017515174592141673 0 -0.03171643933475693 0.0014855028054904728 0 -0.031481566014479913 0.0014813025250950292 0 -0.03171643933475693 0.0014855028054904728 0 -0.031481566014479913 0.0014813025250950292 0 -0.03151538890184561 0.001307298771106325 0 -0.03171643933475693 0.0014855028054904728 0 -0.031650875102437442 0.0012105108382414241 0 -0.03151538890184561 0.001307298771106325 0 -0.030867039719870388 0.001296860087429644 0 -0.031148111296971689 0.0010666897543653406 0 -0.030935994379354202 0.001264667918654943 0 -0.031358172973273764 0.001312755043330277 0 -0.031258262046514509 0.001283890921601472 0 -0.031650875102437442 0.0012105108382414241 0 -0.03151538890184561 0.001307298771106325 0 -0.031148111296971689 0.0010666897543653406 0 -0.031332215614653026 0.0012837380283693808 0 -0.03151538890184561 0.001307298771106325 0 -0.031148111296971689 0.0010666897543653406 0 -0.031148111296971689 0.0010666897543653406 0 -0.030935994379354202 0.001264667918654943 0 -0.031226090647337546 0.0011798199722522899 0 -0.030900033562138992 0.0013134962558839455 0 -0.030867039719870388 0.001296860087429644 0 -0.030935994379354202 0.001264667918654943 0 -0.030900033562138992 0.0013134962558839455 0 -0.030935994379354202 0.001264667918654943 0 -0.030700692993466186 0.0013556371524182139 0 -0.030302690713112455 0.00169593354993124 0 -0.030700692993466186 0.0013556371524182139 0 -0.030488608315976353 0.0020450266297580783 0 -0.030700692993466186 0.0013556371524182139 0 -0.031164881963089985 0.0013826953080783731 0 -0.031169804283415623 0.0017448765392021461 0 -0.030700692993466186 0.0013556371524182139 0 -0.031169804283415623 0.0017448765392021461 0 -0.030488608315976353 0.0020450266297580783 0 -0.030935994379354202 0.001264667918654943 0 -0.030700692993466186 0.0013556371524182139 0 -0.031164881963089985 0.0013826953080783731 0 -0.031164881963089985 0.0013826953080783731 0 -0.031169804283415623 0.0017448765392021461 0 -0.031449243921722311 0.0015388190496801912 0 -0.031169804283415623 0.0017448765392021461 0 -0.031449243921722311 0.0015388190496801912 0 -0.03165458014804947 0.0018398898634282652 0 -0.031449243921722311 0.0015388190496801912 0 -0.031767621896346243 0.0014678312718318521 0 -0.03165458014804947 0.0018398898634282652 0 -0.031449243921722311 0.0015388190496801912 0 -0.031462918115703849 0.001273258334594164 0 -0.031767621896346243 0.0014678312718318521 0 -0.031164881963089985 0.0013826953080783731 0 -0.031449243921722311 0.0015388190496801912 0 -0.031462918115703849 0.001273258334594164 0 -0.031462918115703849 0.001273258334594164 0 -0.031407941303395873 0.0010133550937417165 0 -0.031802964426671576 0.0010121956651472088 0 -0.031462918115703849 0.001273258334594164 0 -0.031226090647337546 0.0011798199722522899 0 -0.031407941303395873 0.0010133550937417165 0 -0.031164881963089985 0.0013826953080783731 0 -0.031462918115703849 0.001273258334594164 0 -0.031226090647337546 0.0011798199722522899 0 -0.030935994379354202 0.001264667918654943 0 -0.031164881963089985 0.0013826953080783731 0 -0.031226090647337546 0.0011798199722522899 0 -0.031226090647337546 0.0011798199722522899 0 -0.031223272175861044 0.0010675850841421011 0 -0.031407941303395873 0.0010133550937417165 0 -0.031148111296971689 0.0010666897543653406 0 -0.031226090647337546 0.0011798199722522899 0 -0.031223272175861044 0.0010675850841421011 0 -0.031148111296971689 0.0010666897543653406 0 -0.031223272175861044 0.0010675850841421011 0 -0.031165598986940778 0.0010087533914329896 0 -0.031223272175861044 0.0010675850841421011 0 -0.031165598986940778 0.0010087533914329896 0 -0.031407941303395873 0.0010133550937417165 0 -0.031619283655374475 0.00069212857397357101 0 -0.031165598986940778 0.0010087533914329896 0 -0.031407941303395873 0.0010133550937417165 0 -0.032233652854957898 0.00051265610788206863 0 -0.031619283655374475 0.00069212857397357101 0 -0.031862610811534478 0.00094142134110794106 0 -0.031701816959163374 0.00097626359717679272 0 -0.031895706467861072 0.00099904791915260893 0 -0.031619283655374475 0.00069212857397357101 0 -0.031407941303395873 0.0010133550937417165 0 -0.031862610811534478 0.00094142134110794106 0 -0.032233652854957898 0.00051265610788206863 0 -0.031862610811534478 0.00094142134110794106 0 -0.032350711669394704 0.00090012043682649026 0 -0.031895706467861072 0.00099904791915260893 0 -0.032281590858690187 0.0010583751861029029 0 -0.031802964426671576 0.0010121956651472088 0 -0.032073905414299261 0.0013731142514870841 0 -0.032228927080573268 0.0010612104803743258 0 -0.031802964426671576 0.0010121956651472088 0 -0.031767621896346243 0.0014678312718318521 0 -0.032073905414299261 0.0013731142514870841 0 -0.031462918115703849 0.001273258334594164 0 -0.031802964426671576 0.0010121956651472088 0 -0.031767621896346243 0.0014678312718318521 0 -0.031767621896346243 0.0014678312718318521 0 -0.03210422468159313 0.0016954947861601505 0 -0.03165458014804947 0.0018398898634282652 0 -0.03200549743025282 0.0016227160380641661 0 -0.032168199236677755 0.0017681033710184551 0 -0.031767621896346243 0.0014678312718318521 0 -0.032174963709867568 0.001891106219086674 0 -0.032073905414299261 0.0013731142514870841 0 -0.032174963709867568 0.001891106219086674 0 -0.032073905414299261 0.0013731142514870841 0 -0.032421936508343768 0.0014831360171969534 0 -0.032174963709867568 0.001891106219086674 0 -0.032421936508343768 0.0014831360171969534 0 -0.032596551966555198 0.0019060206368548965 0 -0.032421936508343768 0.0014831360171969534 0 -0.032596551966555198 0.0019060206368548965 0 -0.032842546621971086 0.0015529294424785174 0 -0.032727729804523376 0.0017375867712362126 0 -0.032812591727845813 0.001616360213106931 0 -0.032421936508343768 0.0014831360171969534 0 -0.032654431156577339 0.0011364935432959505 0 -0.032842546621971086 0.0015529294424785174 0 -0.032421936508343768 0.0014831360171969534 0 -0.032654431156577339 0.0011364935432959505 0 -0.032228927080573268 0.0010612104803743258 0 -0.032073905414299261 0.0013731142514870841 0 -0.032421936508343768 0.0014831360171969534 0 -0.032228927080573268 0.0010612104803743258 0 -0.032713114074961254 0.0011588021192180259 0 -0.032281590858690187 0.0010583751861029029 0 -0.032985847693719643 0.00033369904537558281 0 -0.032233652854957898 0.00051265610788206863 0 -0.032613614445567138 0.00066017837217387167 0 -0.032918125718434429 0.00091891444186969302 0 -0.032350711669394704 0.00090012043682649026 0 -0.032613614445567138 0.00066017837217387167 0 -0.032233652854957898 0.00051265610788206863 0 -0.032350711669394704 0.00090012043682649026 0 -0.032613614445567138 0.00066017837217387167 0 -0.032985847693719643 0.00033369904537558281 0 -0.032918125718434429 0.00091891444186969302 0 -0.032613614445567138 0.00066017837217387167 0 -0.032466993105709871 0.0021274828143681666 0 -0.032650986488772078 0.0020559662176986141 0 -0.032590618446793423 0.0020790247236459774 0 -0.032466993105709871 0.0021274828143681666 0 -0.032521333960629305 0.0020900512798398014 0 -0.032590618446793423 0.0020790247236459774 0 -0.032466993105709871 0.0021274828143681666 0 -0.032336518181254374 0.002065327001778328 0 -0.032140966642073034 0.0022828278352199451 0 -0.032466993105709871 0.0021274828143681666 0 -0.032140966642073034 0.0022828278352199451 0 -0.032514126462602287 0.0021316600934012477 0 -0.032466993105709871 0.0021274828143681666 0 -0.032336518181254374 0.002065327001778328 0 -0.032650986488772078 0.0020559662176986141 0 -0.032336518181254374 0.002065327001778328 0 -0.032404348289936026 0.0018990111939237257 0 -0.032650986488772078 0.0020559662176986141 0 -0.032399683408601304 0.0019557581144678355 0 -0.032503973838013643 0.0020332937455868473 0 -0.032596551966555198 0.0019060206368548965 0 -0.032543091492309585 0.0020943230659225699 0 -0.032686932887033254 0.0020451252328397645 0 -0.03210422468159313 0.0016954947861601505 0 -0.032404348289936026 0.0018990111939237257 0 -0.032048219175350799 0.0020113226161719241 0 -0.032168199236677755 0.0017681033710184551 0 -0.032399683408601304 0.0019557581144678355 0 -0.032174963709867568 0.001891106219086674 0 -0.032596551966555198 0.0019060206368548965 0 -0.032543091492309585 0.0020943230659225699 0 -0.032336518181254374 0.002065327001778328 0 -0.032404348289936026 0.0018990111939237257 0 -0.032048219175350799 0.0020113226161719241 0 -0.032048219175350799 0.0020113226161719241 0 -0.031690781104988033 0.0022753623130286047 0 -0.03165458014804947 0.0018398898634282652 0 -0.03210422468159313 0.0016954947861601505 0 -0.032048219175350799 0.0020113226161719241 0 -0.03165458014804947 0.0018398898634282652 0 -0.032048219175350799 0.0020113226161719241 0 -0.032140966642073034 0.0022828278352199451 0 -0.031690781104988033 0.0022753623130286047 0 -0.032336518181254374 0.002065327001778328 0 -0.032048219175350799 0.0020113226161719241 0 -0.032140966642073034 0.0022828278352199451 0 -0.028347607639180209 0.0018107266285762611 0 -0.029499934891085506 0.0022343654084521513 0 -0.025330067849641636 0.0019847981985259945 0 -0.02767311245589215 0.0013161919066715655 0 -0.028264360083760688 0.0027324572979305355 0 -0.02767311245589215 0.0013161919066715655 0 -0.029221802073344651 0.002049104038166963 0 -0.029232173913582939 0.00080444766987801354 0 -0.02767311245589215 0.0013161919066715655 0 -0.029221802073344651 0.002049104038166963 0 -0.028264360083760688 0.0027324572979305355 0 -0.029221802073344651 0.002049104038166963 0 -0.030004592799512293 0.0019163559026198209 0 -0.029232173913582939 0.00080444766987801354 0 -0.029038437108633953 0.0018819174582243687 0 -0.028655861953832806 0.0017394513367649505 0 -0.029221802073344651 0.002049104038166963 0 -0.029891126679161498 0.0025557276686192947 0 -0.030004592799512293 0.0019163559026198209 0 -0.029499934891085506 0.0022343654084521513 0 -0.030057057072368224 0.0023136560316374235 0 -0.029221802073344651 0.002049104038166963 0 -0.028264360083760688 0.0027324572979305355 0 -0.029891126679161498 0.0025557276686192947 0 -0.031690781104988033 0.0022753623130286047 0 -0.03165458014804947 0.0018398898634282652 0 -0.031190736491273727 0.0022068997243559524 0 -0.031169804283415623 0.0017448765392021461 0 -0.03165458014804947 0.0018398898634282652 0 -0.031190736491273727 0.0022068997243559524 0 -0.029891126679161498 0.0025557276686192947 0 -0.030488608315976353 0.0020450266297580783 0 -0.030238860461983017 0.0021240550306874158 0 -0.030057057072368224 0.0023136560316374235 0 -0.030158170875851379 0.0022589314146420274 0 -0.031169804283415623 0.0017448765392021461 0 -0.031190736491273727 0.0022068997243559524 0 -0.030488608315976353 0.0020450266297580783 0 -0.030488608315976353 0.0020450266297580783 0 -0.030238860461983017 0.0021240550306874158 0 -0.030140398546575319 0.0020217914523748782 0 -0.029891126679161498 0.0025557276686192947 0 -0.030238860461983017 0.0021240550306874158 0 -0.030004592799512293 0.0019163559026198209 0 -0.030238860461983017 0.0021240550306874158 0 -0.030004592799512293 0.0019163559026198209 0 -0.030089086109109531 0.0020150214714586851 0 -0.030004592799512293 0.0019163559026198209 0 -0.030089086109109531 0.0020150214714586851 0 -0.030042261027408992 0.0020171479645151426 0 -0.030238860461983017 0.0021240550306874158 0 -0.030089086109109531 0.0020150214714586851 0 -0.030060839711330101 0.0020766951175284561 0 -0.030073740436083202 0.0020705073026538404 0 -0.029981190483719375 0.002143480652611857 0 -0.030087868304661015 0.0021299457901465713 0 -0.030060839711330101 0.0020766951175284561 0 -0.030073740436083202 0.0020705073026538404 0 -0.029981190483719375 0.002143480652611857 0 -0.030089086109109531 0.0020150214714586851 0 -0.030060839711330101 0.0020766951175284561 0 -0.030073740436083202 0.0020705073026538404 0 -0.030089086109109531 0.0020150214714586851 0 -0.030073740436083202 0.0020705073026538404 0 -0.030042261027408992 0.0020171479645151426 0 -0.030042261027408992 0.0020171479645151426 0 -0.030083127397865204 0.002077359647687657 0 -0.030008568466467919 0.002032126528884457 0 -0.030073740436083202 0.0020705073026538404 0 -0.030042261027408992 0.0020171479645151426 0 -0.030083127397865204 0.002077359647687657 0 -0.030073740436083202 0.0020705073026538404 0 -0.030083127397865204 0.002077359647687657 0 -0.030087868304661015 0.0021299457901465713 0 -0.02975583676402407 0.0021872108538414925 0 -0.029492973851440514 0.0021289027172153468 0 -0.030008568466467919 0.002032126528884457 0 -0.030083127397865204 0.002077359647687657 0 -0.030180956845406805 0.0021747125859026399 0 -0.030008568466467919 0.002032126528884457 0 -0.030083127397865204 0.002077359647687657 0 -0.030180956845406805 0.0021747125859026399 0 -0.030087868304661015 0.0021299457901465713 0 -0.029437205484846882 0.0019856829731511021 0 -0.02961475495326861 0.0019591384030088056 0 -0.029616083283097408 0.0022237724968164124 0 -0.02975583676402407 0.0021872108538414925 0 -0.029492973851440514 0.0021289027172153468 0 -0.029981190483719375 0.002143480652611857 0 -0.030027804730719559 0.0022528846561436569 0 -0.029709705637925563 0.0023176090608308325 0 -0.029437205484846882 0.0019856829731511021 0 -0.028876774636930978 0.0020407383950953669 0 -0.030180956845406805 0.0021747125859026399 0 -0.030027804730719559 0.0022528846561436569 0 -0.0296846305848231 0.0025762018681368504 0 -0.029981190483719375 0.002143480652611857 0 -0.030027804730719559 0.0022528846561436569 0 -0.030087868304661015 0.0021299457901465713 0 -0.030180956845406805 0.0021747125859026399 0 -0.030027804730719559 0.0022528846561436569 0 -0.030087868304661015 0.0021299457901465713 0 -0.029616083283097408 0.0022237724968164124 0 -0.029492973851440514 0.0021289027172153468 0 -0.029192934855083466 0.0024182722488151074 0 -0.028607291144647728 0.0021748890799758798 0 -0.029009441488631989 0.0021775221129015105 0 -0.029492973851440514 0.0021289027172153468 0 -0.029192934855083466 0.0024182722488151074 0 -0.029108650948851327 0.0023044399694734869 0 -0.028404600074690412 0.0023855666928821696 0 -0.029066268122240651 0.0025738678503027224 0 -0.029637139409979692 0.0023410983957425362 0 -0.028680448736400209 0.0026555482145088874 0 -0.028404600074690412 0.0023855666928821696 0 -0.029066268122240651 0.0025738678503027224 0 -0.028404600074690412 0.0023855666928821696 0 -0.028475410412184796 0.0027036451355706248 0 -0.028058000574180609 0.0027797118377593335 0 -0.028680448736400209 0.0026555482145088874 0 -0.028404600074690412 0.0023855666928821696 0 -0.028475410412184796 0.0027036451355706248 0 -0.028475410412184796 0.0027036451355706248 0 -0.028738027768421964 0.0030449358006965771 0 -0.028058000574180609 0.0027797118377593335 0 -0.028680448736400209 0.0026555482145088874 0 -0.028475410412184796 0.0027036451355706248 0 -0.028738027768421964 0.0030449358006965771 0 -0.028680448736400209 0.0026555482145088874 0 -0.028738027768421964 0.0030449358006965771 0 -0.029066268122240651 0.0025738678503027224 0 -0.027003759329060458 0.0035264565476315155 0 -0.026202978796730888 0.0032286519082607807 0 -0.026990734862307617 0.0030495128017713857 0 -0.027656203430844496 0.0028170827908029095 0 -0.027495282591222598 0.0024959484880283859 0 -0.028738027768421964 0.0030449358006965771 0 -0.029066268122240651 0.0025738678503027224 0 -0.029830755916551668 0.0026130465974100762 0 -0.027003759329060458 0.0035264565476315155 0 -0.026202978796730888 0.0032286519082607807 0 -0.026124642266241727 0.0038362860604278029 0 -0.029616083283097408 0.0022237724968164124 0 -0.029192934855083466 0.0024182722488151074 0 -0.029637139409979692 0.0023410983957425362 0 -0.029066268122240651 0.0025738678503027224 0 -0.029637139409979692 0.0023410983957425362 0 -0.029830755916551668 0.0026130465974100762 0 -0.029616083283097408 0.0022237724968164124 0 -0.02975583676402407 0.0021872108538414925 0 -0.029637139409979692 0.0023410983957425362 0 -0.029964565194617411 0.0022643533885572747 0 -0.029830755916551668 0.0026130465974100762 0 -0.03022105251945334 0.0023343320526254233 0 -0.02975583676402407 0.0021872108538414925 0 -0.029637139409979692 0.0023410983957425362 0 -0.029964565194617411 0.0022643533885572747 0 -0.027495282591222598 0.0024959484880283859 0 -0.026834550334166356 0.0018705252561821172 0 -0.029637139409979692 0.0023410983957425362 0 -0.029964565194617411 0.0022643533885572747 0 -0.029830755916551668 0.0026130465974100762 0 -0.020812256087086051 0.00044051329274090689 0 -0.020603206029670258 0.0005523215307469022 0 -0.026202978796730888 0.0032286519082607807 0 -0.026124642266241727 0.0038362860604278029 0 -0.02533676321320525 0.0034670811132115459 0 -0.016604635429453826 -0.00097400280844523617 0 -0.016533288460429719 -0.00099610273096882953 0 -0.016556469515723989 -0.0010611490530699078 0 -0.016533288460429719 -0.00099610273096882953 0 -0.016306842110625362 -0.0010727975361387288 0 -0.016440230806761567 -0.0011090959105227024 0 -0.016533288460429719 -0.00099610273096882953 0 -0.016440230806761567 -0.0011090959105227024 0 -0.016556469515723989 -0.0010611490530699078 0 -0.02533676321320525 0.0034670811132115459 0 -0.025187775333852799 0.0041569778359814777 0 -0.024454312977439191 0.0037320496333884796 0 -0.026124642266241727 0.0038362860604278029 0 -0.02533676321320525 0.0034670811132115459 0 -0.025187775333852799 0.0041569778359814777 0 -0.03022105251945334 0.0023343320526254233 0 -0.030112301713026483 0.0021116526918011696 0 -0.030279479239672297 0.0020655848438058781 0 -0.029964565194617411 0.0022643533885572747 0 -0.03022105251945334 0.0023343320526254233 0 -0.030112301713026483 0.0021116526918011696 0 -0.02975583676402407 0.0021872108538414925 0 -0.029964565194617411 0.0022643533885572747 0 -0.030008568466467919 0.002032126528884457 0 -0.029964565194617411 0.0022643533885572747 0 -0.030112301713026483 0.0021116526918011696 0 -0.030008568466467919 0.002032126528884457 0 -0.030112301713026483 0.0021116526918011696 0 -0.030008568466467919 0.002032126528884457 0 -0.030080457811378376 0.0019718901337036701 0 -0.030004592799512293 0.0019163559026198209 0 -0.030042261027408992 0.0020171479645151426 0 -0.030080457811378376 0.0019718901337036701 0 -0.030042261027408992 0.0020171479645151426 0 -0.030008568466467919 0.002032126528884457 0 -0.030080457811378376 0.0019718901337036701 0 -0.030112301713026483 0.0021116526918011696 0 -0.030080457811378376 0.0019718901337036701 0 -0.030279479239672297 0.0020655848438058781 0 -0.02767311245589215 0.0013161919066715655 0 -0.029232173913582939 0.00080444766987801354 0 -0.027774978783832255 -0.00062283724061921292 0 -0.028655861953832806 0.0017394513367649505 0 -0.027488969386643119 0.0014049011492749321 0 -0.02767311245589215 0.0013161919066715655 0 -0.024940470131476242 -0.00010562430767479267 0 -0.027774978783832255 -0.00062283724061921292 0 -0.025330067849641636 0.0019847981985259945 0 -0.02767311245589215 0.0013161919066715655 0 -0.024940470131476242 -0.00010562430767479267 0 -0.025330067849641636 0.0019847981985259945 0 -0.024940470131476242 -0.00010562430767479267 0 -0.021532111794597436 0.00054010880794952507 0 -0.025008433698438918 0.00074645925968823076 0 -0.024651458409541405 0.000305005195611466 0 -0.024940470131476242 -0.00010562430767479267 0 -0.025807750111797544 -0.0022184668015333112 0 -0.022561418002258624 -0.0011838733329033301 0 -0.026974047028934547 -0.0028232449030809841 0 -0.023816363617068917 -0.0050823699420853036 0 -0.022561418002258624 -0.0011838733329033301 0 -0.03022105251945334 0.0023343320526254233 0 -0.030472685701245034 0.0022098639822057818 0 -0.030279479239672297 0.0020655848438058781 0 -0.024940470131476242 -0.00010562430767479267 0 -0.025807750111797544 -0.0022184668015333112 0 -0.027774978783832255 -0.00062283724061921292 0 -0.025008433698438918 0.00074645925968823076 0 -0.027488969386643119 0.0014049011492749321 0 -0.026834550334166356 0.0018705252561821172 0 -0.025008433698438918 0.00074645925968823076 0 -0.025187775333852799 0.0041569778359814777 0 -0.024234087362155717 0.0044902661901393866 0 -0.024454312977439191 0.0037320496333884796 0 -0.020603206029670258 0.0005523215307469022 0 -0.020164439184686956 0.00037907505400854708 0 -0.016155219124210488 -0.00084032682867853201 0 -0.016306842110625362 -0.0010727975361387288 0 -0.016071138246403951 -0.0012934785607734134 0 -0.016533288460429719 -0.00099610273096882953 0 -0.016155219124210488 -0.00084032682867853201 0 -0.016306842110625362 -0.0010727975361387288 0 -0.016155219124210488 -0.00084032682867853201 0 -0.01584102714387333 -0.0011746794033984681 0 -0.015676412825595155 -0.0009884139498569798 0 -0.016155219124210488 -0.00084032682867853201 0 -0.01584102714387333 -0.0011746794033984681 0 -0.016071138246403951 -0.0012934785607734134 0 -0.020164439184686956 0.00037907505400854708 0 -0.020094857991297902 -0.00042426024474532669 0 -0.016155219124210488 -0.00084032682867853201 0 -0.015674476850976699 -0.00063773926743753665 0 -0.015676412825595155 -0.0009884139498569798 0 -0.024234087362155717 0.0044902661901393866 0 -0.024454312977439191 0.0037320496333884796 0 -0.023567468272180397 0.0040126787910960389 0 -0.025008433698438918 0.00074645925968823076 0 -0.020094857991297902 -0.00042426024474532669 0 -0.020094857991297902 -0.00042426024474532669 0 -0.019034368332486295 -0.001081713748196081 0 -0.015674476850976699 -0.00063773926743753665 0 -0.015676412825595155 -0.0009884139498569798 0 -0.015359374384994618 -0.0011537225784100514 0 -0.020094857991297902 -0.00042426024474532669 0 -0.016434448147109728 -0.0021072517429188225 0 -0.015674476850976699 -0.00063773926743753665 0 -0.015359374384994618 -0.0011537225784100514 0 -0.014938458915279782 -0.0011230583933741977 0 -0.015676412825595155 -0.0009884139498569798 0 -0.015359374384994618 -0.0011537225784100514 0 -0.01554541822951719 -0.0013214100592416824 0 -0.01584102714387333 -0.0011746794033984681 0 -0.015676412825595155 -0.0009884139498569798 0 -0.01554541822951719 -0.0013214100592416824 0 -0.015359374384994618 -0.0011537225784100514 0 -0.014938458915279782 -0.0011230583933741977 0 -0.015063520038644522 -0.0019120625238082784 0 -0.016348189545139519 -0.0027747654354609319 0 -0.016386965037554907 -0.0024161912536593963 0 -0.016051390554347178 -0.0025685535095674849 0 -0.016971073022311337 -0.0023072761786877612 0 -0.016348189545139519 -0.0027747654354609319 0 -0.016386965037554907 -0.0024161912536593963 0 -0.016971073022311337 -0.0023072761786877612 0 -0.016386965037554907 -0.0024161912536593963 0 -0.016441556501635025 -0.0021549046393320704 0 -0.016386965037554907 -0.0024161912536593963 0 -0.016129322389059231 -0.0023035978857646319 0 -0.016051390554347178 -0.0025685535095674849 0 -0.016386965037554907 -0.0024161912536593963 0 -0.016441556501635025 -0.0021549046393320704 0 -0.016129322389059231 -0.0023035978857646319 0 -0.020139233155615627 -0.0015842374789654364 0 -0.021532111794597436 0.00054010880794952507 0 -0.016215687998710215 -0.0018853190222167368 0 -0.019034368332486295 -0.001081713748196081 0 -0.018293208770252426 -0.0011222417175645815 0 -0.020075594364564183 -0.0038371472196978467 0 -0.020139233155615627 -0.0015842374789654364 0 -0.016215687998710215 -0.0018853190222167368 0 -0.026640727301500022 0.00099532033476411146 0 -0.024735682332259541 -1.1718654144821603e-05 0 -0.020075594364564183 -0.0038371472196978467 0 -0.020139233155615627 -0.0015842374789654364 0 -0.022561418002258624 -0.0011838733329033301 0 -0.023816363617068917 -0.0050823699420853036 0 -0.020075594364564183 -0.0038371472196978467 0 -0.022561418002258624 -0.0011838733329033301 0 -0.020139233155615627 -0.0015842374789654364 0 -0.022561418002258624 -0.0011838733329033301 0 -0.021532111794597436 0.00054010880794952507 0 -0.028347607639180209 0.0018107266285762611 0 -0.026640727301500022 0.00099532033476411146 0 -0.024940470131476242 -0.00010562430767479267 0 -0.022561418002258624 -0.0011838733329033301 0 -0.021532111794597436 0.00054010880794952507 0 -0.032514126462602287 0.0021316600934012477 0 -0.032521333960629305 0.0020900512798398014 0 -0.032482907388204828 0.0016395813058971995 0 -0.032466993105709871 0.0021274828143681666 0 -0.032514126462602287 0.0021316600934012477 0 -0.032521333960629305 0.0020900512798398014 0 -0.026675533415135292 0.00079269493342171366 0 -0.026112669506590493 0.0010125816193650447 0 -0.026165979826182583 0.00051326237784761659 0 -0.026675533415135292 0.00079269493342171366 0 -0.026165979826182583 0.00051326237784761659 0 -0.026647210560380687 0.00032090807378905387 0 -0.026675533415135292 0.00079269493342171366 0 -0.026647210560380687 0.00032090807378905387 0 -0.027327549324193842 0.00034533358733630207 0 -0.026675533415135292 0.00079269493342171366 0 -0.027241851481906405 0.00099178711569866684 0 -0.027327549324193842 0.00034533358733630207 0 -0.027241851481906405 0.00099178711569866684 0 -0.02642286516533375 0.0013990084867156357 0 -0.0273616044188578 0.0016240223914267046 0 -0.026675533415135292 0.00079269493342171366 0 -0.027241851481906405 0.00099178711569866684 0 -0.02642286516533375 0.0013990084867156357 0 -0.026675533415135292 0.00079269493342171366 0 -0.02642286516533375 0.0013990084867156357 0 -0.026112669506590493 0.0010125816193650447 0 -0.02642286516533375 0.0013990084867156357 0 -0.02583760004631095 0.0014428135711595123 0 -0.026112669506590493 0.0010125816193650447 0 -0.02583760004631095 0.0014428135711595123 0 -0.025839881066904522 0.0010656894962393238 0 -0.025537724964660512 0.00097625772617457849 0 -0.02583760004631095 0.0014428135711595123 0 -0.025839881066904522 0.0010656894962393238 0 -0.026112669506590493 0.0010125816193650447 0 -0.02583760004631095 0.0014428135711595123 0 -0.025537724964660512 0.00097625772617457849 0 -0.025553696933038859 0.0019530458505237723 0 -0.023542911436629316 9.6699304015825918e-05 0 -0.022554487323032193 0.0006366285025892972 0 -0.023276895168909375 2.2808597458372908e-07 0 -0.023018898244766519 3.9566030855752756e-06 0 -0.021313736094870063 -5.0823405046128717e-08 0 -0.023276895168909375 2.2808597458372908e-07 0 -0.023018898244766519 3.9566030855752756e-06 0 -0.025376348744109472 2.8154617054141675e-05 0 -0.025537724964660512 0.00097625772617457849 0 -0.02578296257149254 0.00054083355842095976 0 -0.025641202921905741 0.00042785799712371191 0 -0.026112669506590493 0.0010125816193650447 0 -0.025876084978779204 0.00083552673583095591 0 -0.026165979826182583 0.00051326237784761659 0 -0.025839881066904522 0.0010656894962393238 0 -0.025537724964660512 0.00097625772617457849 0 -0.025876084978779204 0.00083552673583095591 0 -0.025839881066904522 0.0010656894962393238 0 -0.026112669506590493 0.0010125816193650447 0 -0.025876084978779204 0.00083552673583095591 0 -0.025537724964660512 0.00097625772617457849 0 -0.025876084978779204 0.00083552673583095591 0 -0.02578296257149254 0.00054083355842095976 0 -0.025876084978779204 0.00083552673583095591 0 -0.02578296257149254 0.00054083355842095976 0 -0.026165979826182583 0.00051326237784761659 0 -0.02578296257149254 0.00054083355842095976 0 -0.025900289761196515 0.00015635279948073911 0 -0.025641202921905741 0.00042785799712371191 0 -0.02578296257149254 0.00054083355842095976 0 -0.026165979826182583 0.00051326237784761659 0 -0.025900289761196515 0.00015635279948073911 0 -0.026165979826182583 0.00051326237784761659 0 -0.025900289761196515 0.00015635279948073911 0 -0.026332233529630156 0.00013896620538107318 0 -0.023542911436629316 9.6699304015825918e-05 0 -0.023953173719948619 -0.00018636778759222641 0 -0.023276895168909375 2.2808597458372908e-07 0 -0.025241427481014399 -3.7865204026196893e-07 0 -0.025376348744109472 2.8154617054141675e-05 0 -0.025537724964660512 0.00097625772617457849 0 -0.025641202921905741 0.00042785799712371191 0 -0.025376348744109472 2.8154617054141675e-05 0 -0.025900289761196515 0.00015635279948073911 0 -0.025641202921905741 0.00042785799712371191 0 -0.025376348744109472 2.8154617054141675e-05 0 -0.027201473427526796 2.326548192322542e-07 0 -0.025241427481014399 -3.7865204026196893e-07 0 -0.026107049370479512 -0.0001266973398265029 0 -0.025241427481014399 -3.7865204026196893e-07 0 -0.025665565545016155 -7.093873691584397e-05 0 -0.026107049370479512 -0.0001266973398265029 0 -0.025241427481014399 -3.7865204026196893e-07 0 -0.025665565545016155 -7.093873691584397e-05 0 -0.025376348744109472 2.8154617054141675e-05 0 -0.025665565545016155 -7.093873691584397e-05 0 -0.025376348744109472 2.8154617054141675e-05 0 -0.025900166811797437 -0.00016106644873670379 0 -0.025900289761196515 0.00015635279948073911 0 -0.025376348744109472 2.8154617054141675e-05 0 -0.025900166811797437 -0.00016106644873670379 0 -0.025665565545016155 -7.093873691584397e-05 0 -0.026107049370479512 -0.0001266973398265029 0 -0.025900166811797437 -0.00016106644873670379 0 -0.025900289761196515 0.00015635279948073911 0 -0.026156964260349889 -9.5393856547905303e-05 0 -0.026332233529630156 0.00013896620538107318 0 -0.025900289761196515 0.00015635279948073911 0 -0.025900166811797437 -0.00016106644873670379 0 -0.026156964260349889 -9.5393856547905303e-05 0 -0.026043921669725564 -0.00016566124492170564 0 -0.025900166811797437 -0.00016106644873670379 0 -0.026156964260349889 -9.5393856547905303e-05 0 -0.026156964260349889 -9.5393856547905303e-05 0 -0.026332233529630156 0.00013896620538107318 0 -0.026633119616622031 -0.00011161488665416584 0 -0.026124353872900387 -0.00026417231664789228 0 -0.026156964260349889 -9.5393856547905303e-05 0 -0.026633119616622031 -0.00011161488665416584 0 -0.026332233529630156 0.00013896620538107318 0 -0.026647210560380687 0.00032090807378905387 0 -0.026633119616622031 -0.00011161488665416584 0 -0.026165979826182583 0.00051326237784761659 0 -0.026332233529630156 0.00013896620538107318 0 -0.026647210560380687 0.00032090807378905387 0 -0.0285285554360909 0.00077853484215195483 0 -0.028710596084281451 0.0011276796480026087 0 -0.029524502034174459 0.0017525704049167659 0 -0.029739232295318125 0.0017724894514871432 0 -0.029740957122970951 0.0019675953184800222 0 -0.026647210560380687 0.00032090807378905387 0 -0.026633119616622031 -0.00011161488665416584 0 -0.027327549324193842 0.00034533358733630207 0 -0.029581502006874979 0.0015457680606342599 0 -0.029524502034174459 0.0017525704049167659 0 -0.029739232295318125 0.0017724894514871432 0 -0.029834735555825973 0.0015730502692933698 0 -0.029739232295318125 0.0017724894514871432 0 -0.029965046582940944 0.0018798312034333431 0 -0.030127540907142064 0.0015856628962178593 0 -0.029834735555825973 0.0015730502692933698 0 -0.029965046582940944 0.0018798312034333431 0 -0.029965046582940944 0.0018798312034333431 0 -0.029740957122970951 0.0019675953184800222 0 -0.029908345023244333 0.0021143933303075868 0 -0.029739232295318125 0.0017724894514871432 0 -0.029965046582940944 0.0018798312034333431 0 -0.029740957122970951 0.0019675953184800222 0 -0.030302690713112455 0.00169593354993124 0 -0.030488608315976353 0.0020450266297580783 0 -0.030200080424974064 0.0018380270118312479 0 -0.030127540907142064 0.0015856628962178593 0 -0.030302690713112455 0.00169593354993124 0 -0.030200080424974064 0.0018380270118312479 0 -0.030127540907142064 0.0015856628962178593 0 -0.029965046582940944 0.0018798312034333431 0 -0.030200080424974064 0.0018380270118312479 0 -0.029965046582940944 0.0018798312034333431 0 -0.030200080424974064 0.0018380270118312479 0 -0.030140398546575319 0.0020217914523748782 0 -0.030488608315976353 0.0020450266297580783 0 -0.030200080424974064 0.0018380270118312479 0 -0.030140398546575319 0.0020217914523748782 0 -0.030238860461983017 0.0021240550306874158 0 -0.030140398546575319 0.0020217914523748782 0 -0.030037786571888058 0.0021099624502667795 0 -0.030140398546575319 0.0020217914523748782 0 -0.030037786571888058 0.0021099624502667795 0 -0.029908345023244333 0.0021143933303075868 0 -0.030037786571888058 0.0021099624502667795 0 -0.029908345023244333 0.0021143933303075868 0 -0.029935194782857028 0.0021482266803399507 0 -0.030037786571888058 0.0021099624502667795 0 -0.029923411655792504 0.0021426589177753062 0 -0.029935194782857028 0.0021482266803399507 0 -0.030238860461983017 0.0021240550306874158 0 -0.030060839711330101 0.0020766951175284561 0 -0.030037786571888058 0.0021099624502667795 0 -0.030060839711330101 0.0020766951175284561 0 -0.030037786571888058 0.0021099624502667795 0 -0.029923411655792504 0.0021426589177753062 0 -0.028710596084281451 0.0011276796480026087 0 -0.029044869987232828 0.0015226369520231937 0 -0.027241851481906405 0.00099178711569866684 0 -0.027327549324193842 0.00034533358733630207 0 -0.028077032169741296 0.00090400826129845725 0 -0.029965046582940944 0.0018798312034333431 0 -0.030140398546575319 0.0020217914523748782 0 -0.029908345023244333 0.0021143933303075868 0 -0.029044869987232828 0.0015226369520231937 0 -0.029387123927556255 0.001898575491272195 0 -0.028077032169741296 0.00090400826129845725 0 -0.028143018665263288 0.0017292147672763338 0 -0.028939251206514513 0.0015835633036163845 0 -0.028077032169741296 0.00090400826129845725 0 -0.028143018665263288 0.0017292147672763338 0 -0.0273616044188578 0.0016240223914267046 0 -0.027241851481906405 0.00099178711569866684 0 -0.028077032169741296 0.00090400826129845725 0 -0.0273616044188578 0.0016240223914267046 0 -0.028143018665263288 0.0017292147672763338 0 -0.028031904152136026 0.002538264386671128 0 -0.0273616044188578 0.0016240223914267046 0 -0.028143018665263288 0.0017292147672763338 0 -0.028656710437030476 0.0020601393962244511 0 -0.028939251206514513 0.0015835633036163845 0 -0.027848964451104671 0.00233994207768505 0 -0.029043147515350563 0.0022837486313962976 0 -0.028459383723702356 0.0025939234492340867 0 -0.028077826439949757 0.002398449719614434 0 -0.029064318951057676 0.0023638734672691425 0 -0.028656710437030476 0.0020601393962244511 0 -0.028031904152136026 0.002538264386671128 0 -0.029538968693650299 0.0024175436556105431 0 -0.028143018665263288 0.0017292147672763338 0 -0.028656710437030476 0.0020601393962244511 0 -0.028031904152136026 0.002538264386671128 0 -0.028077826439949757 0.002398449719614434 0 -0.027489028390427175 0.0024117511447774996 0 -0.027848964451104671 0.00233994207768505 0 -0.027529516337182331 0.0027931416539417461 0 -0.02683440531047751 0.0024455977207861325 0 -0.029981190483719375 0.002143480652611857 0 -0.029923411655792504 0.0021426589177753062 0 -0.029709705637925563 0.0023176090608308325 0 -0.030060839711330101 0.0020766951175284561 0 -0.029981190483719375 0.002143480652611857 0 -0.029923411655792504 0.0021426589177753062 0 -0.028656710437030476 0.0020601393962244511 0 -0.028939251206514513 0.0015835633036163845 0 -0.029538968693650299 0.0024175436556105431 0 -0.029387123927556255 0.001898575491272195 0 -0.029565406160198541 0.0021063204044254489 0 -0.029923411655792504 0.0021426589177753062 0 -0.029935194782857028 0.0021482266803399507 0 -0.029709705637925563 0.0023176090608308325 0 -0.028939251206514513 0.0015835633036163845 0 -0.029538968693650299 0.0024175436556105431 0 -0.029709705637925563 0.0023176090608308325 0 -0.030027804730719559 0.0022528846561436569 0 -0.029043147515350563 0.0022837486313962976 0 -0.0296846305848231 0.0025762018681368504 0 -0.029551875680996566 0.0023415836097481447 0 -0.029064318951057676 0.0023638734672691425 0 -0.030027804730719559 0.0022528846561436569 0 -0.029538968693650299 0.0024175436556105431 0 -0.029709705637925563 0.0023176090608308325 0 -0.028876774636930978 0.0020407383950953669 0 -0.027743994420137717 0.0020979802585123332 0 -0.029043147515350563 0.0022837486313962976 0 -0.0296846305848231 0.0025762018681368504 0 -0.029221561816582486 0.0026175348575463685 0 -0.028607291144647728 0.0021748890799758798 0 -0.027743994420137717 0.0020979802585123332 0 -0.029192934855083466 0.0024182722488151074 0 -0.029108650948851327 0.0023044399694734869 0 -0.028703188767791786 0.0024910886330862933 0 -0.028404600074690412 0.0023855666928821696 0 -0.027377854891360926 0.0026010508482679656 0 -0.028058000574180609 0.0027797118377593335 0 -0.0296846305848231 0.0025762018681368504 0 -0.029221561816582486 0.0026175348575463685 0 -0.028927794896919497 0.0030104314701897067 0 -0.027743994420137717 0.0020979802585123332 0 -0.027817535612454251 0.0024287656239744874 0 -0.029043147515350563 0.0022837486313962976 0 -0.029221561816582486 0.0026175348575463685 0 -0.028842229378396495 0.0026642121777518801 0 -0.029221561816582486 0.0026175348575463685 0 -0.028927794896919497 0.0030104314701897067 0 -0.028842229378396495 0.0026642121777518801 0 -0.029043147515350563 0.0022837486313962976 0 -0.028842229378396495 0.0026642121777518801 0 -0.028459383723702356 0.0025939234492340867 0 -0.028842229378396495 0.0026642121777518801 0 -0.028459383723702356 0.0025939234492340867 0 -0.028486176992194644 0.0028261016386741241 0 -0.028927794896919497 0.0030104314701897067 0 -0.028842229378396495 0.0026642121777518801 0 -0.028486176992194644 0.0028261016386741241 0 -0.027356998511007351 0.003109022569731037 0 -0.027128407567754167 0.0032369881482549271 0 -0.027578507376121171 0.0032497939403739774 0 -0.027377854891360926 0.0026010508482679656 0 -0.027173562642727477 0.0029832492882995321 0 -0.026924480311823085 0.0028659969729425763 0 -0.027377854891360926 0.0026010508482679656 0 -0.027173562642727477 0.0029832492882995321 0 -0.027386403148738293 0.0029599713127889784 0 -0.027743994420137717 0.0020979802585123332 0 -0.025560890453086328 0.0016541083868129862 0 -0.027173562642727477 0.0029832492882995321 0 -0.027356998511007351 0.003109022569731037 0 -0.027128407567754167 0.0032369881482549271 0 -0.027173562642727477 0.0029832492882995321 0 -0.027356998511007351 0.003109022569731037 0 -0.027386403148738293 0.0029599713127889784 0 -0.027356998511007351 0.003109022569731037 0 -0.027502022981745904 0.003084285567093511 0 -0.027386403148738293 0.0029599713127889784 0 -0.027356998511007351 0.003109022569731037 0 -0.027502022981745904 0.003084285567093511 0 -0.027578507376121171 0.0032497939403739774 0 -0.027502022981745904 0.003084285567093511 0 -0.027386403148738293 0.0029599713127889784 0 -0.027640612728445195 0.002933695163873493 0 -0.027377854891360926 0.0026010508482679656 0 -0.027386403148738293 0.0029599713127889784 0 -0.027640612728445195 0.002933695163873493 0 -0.028738027768421964 0.0030449358006965771 0 -0.027865137937288578 0.0030074330243392562 0 -0.028058000574180609 0.0027797118377593335 0 -0.027003759329060458 0.0035264565476315155 0 -0.027588257300385773 0.0032527454605376649 0 -0.027578507376121171 0.0032497939403739774 0 -0.028738027768421964 0.0030449358006965771 0 -0.027865137937288578 0.0030074330243392562 0 -0.027578507376121171 0.0032497939403739774 0 -0.027377854891360926 0.0026010508482679656 0 -0.027640612728445195 0.002933695163873493 0 -0.028058000574180609 0.0027797118377593335 0 -0.027656203430844496 0.0028170827908029095 0 -0.027632560075240755 0.0029227163922914009 0 -0.027640612728445195 0.002933695163873493 0 -0.027865137937288578 0.0030074330243392562 0 -0.028058000574180609 0.0027797118377593335 0 -0.027640612728445195 0.002933695163873493 0 -0.027643185582061389 0.0030706295102026237 0 -0.027865137937288578 0.0030074330243392562 0 -0.027502022981745904 0.003084285567093511 0 -0.027640612728445195 0.002933695163873493 0 -0.027643185582061389 0.0030706295102026237 0 -0.027643185582061389 0.0030706295102026237 0 -0.027865137937288578 0.0030074330243392562 0 -0.027578507376121171 0.0032497939403739774 0 -0.027502022981745904 0.003084285567093511 0 -0.027643185582061389 0.0030706295102026237 0 -0.027578507376121171 0.0032497939403739774 0 -0.027529516337182331 0.0027931416539417461 0 -0.028131674039710439 0.0031410372814082051 0 -0.027377425514809747 0.0032245183972049608 0 -0.027848964451104671 0.00233994207768505 0 -0.027529516337182331 0.0027931416539417461 0 -0.028064142852229801 0.0027556698902736899 0 -0.028927794896919497 0.0030104314701897067 0 -0.028486176992194644 0.0028261016386741241 0 -0.028131674039710439 0.0031410372814082051 0 -0.027848964451104671 0.00233994207768505 0 -0.028064142852229801 0.0027556698902736899 0 -0.028459383723702356 0.0025939234492340867 0 -0.028064142852229801 0.0027556698902736899 0 -0.028459383723702356 0.0025939234492340867 0 -0.028486176992194644 0.0028261016386741241 0 -0.028064142852229801 0.0027556698902736899 0 -0.028486176992194644 0.0028261016386741241 0 -0.028131674039710439 0.0031410372814082051 0 -0.027529516337182331 0.0027931416539417461 0 -0.028064142852229801 0.0027556698902736899 0 -0.028131674039710439 0.0031410372814082051 0 -0.018894981267643763 -7.5455974136903034e-05 0 -0.019035138395168089 -0.00014004595694279298 0 -0.018041402292295245 -0.00041780476097246112 0 -0.025560890453086328 0.0016541083868129862 0 -0.022102251307251738 0.0012754334779168694 0 -0.022276637996194771 0.0011778973172238037 0 -0.022102251307251738 0.0012754334779168694 0 -0.026907049435327998 0.0030483316004906195 0 -0.027128407567754167 0.0032369881482549271 0 -0.026359213000769405 0.0031180134821978986 0 -0.027923046333884934 0.0031445820093005065 0 -0.028033318976436558 0.0032542810311082851 0 -0.027628188100052194 0.0034691129350148649 0 -0.018027596456265282 -0.00025473424116604113 0 -0.018894981267643763 -7.5455974136903034e-05 0 -0.018041402292295245 -0.00041780476097246112 0 -0.028417969298461538 0.003063765465986456 0 -0.027923046333884934 0.0031445820093005065 0 -0.028033318976436558 0.0032542810311082851 0 -0.027173562642727477 0.0029832492882995321 0 -0.026924480311823085 0.0028659969729425763 0 -0.026907049435327998 0.0030483316004906195 0 -0.027173562642727477 0.0029832492882995321 0 -0.026907049435327998 0.0030483316004906195 0 -0.027128407567754167 0.0032369881482549271 0 -0.026924480311823085 0.0028659969729425763 0 -0.026907049435327998 0.0030483316004906195 0 -0.026359213000769405 0.0031180134821978986 0 -0.021010612062705835 0.0013081398431552538 0 -0.021028070644891012 0.0013008160501136767 0 -0.021139837276227879 0.0013409647215358654 0 -0.027923046333884934 0.0031445820093005065 0 -0.027628188100052194 0.0034691129350148649 0 -0.027377425514809747 0.0032245183972049608 0 -0.027628188100052194 0.0034691129350148649 0 -0.027377425514809747 0.0032245183972049608 0 -0.026870445730676769 0.0033627749324547812 0 -0.027817535612454251 0.0024287656239744874 0 -0.027692793365286104 0.0025493043723748636 0 -0.022102251307251738 0.0012754334779168694 0 -0.020917569966780718 0.001189235926114345 0 -0.017067790881181329 -0.00021051077177584382 0 -0.016795246045114034 -0.0002792775958303263 0 -0.016812098348823384 -0.00010385263632541571 0 -0.020917569966780718 0.001189235926114345 0 -0.02091960289499013 0.0011833016650162893 0 -0.022102251307251738 0.0012754334779168694 0 -0.02091960289499013 0.0011833016650162893 0 -0.016795246045114034 -0.0002792775958303263 0 -0.016706848913377228 -0.00020828348297893297 0 -0.016812098348823384 -0.00010385263632541571 0 -0.027377425514809747 0.0032245183972049608 0 -0.026870445730676769 0.0033627749324547812 0 -0.026956376829184062 0.0029468559483216842 0 -0.026870445730676769 0.0033627749324547812 0 -0.026655688756476229 0.003066982513127238 0 -0.02623776135990015 0.0031986708154414321 0 -0.016805763722871764 -0.00027679887836225031 0 -0.016676127653427207 -0.0002868335977392766 0 -0.016590086831115018 -0.00031341651675813911 0 -0.02091960289499013 0.0011833016650162893 0 -0.021149588547926756 0.0013825832775776576 0 -0.016620854258263255 -0.00022182703164967554 0 -0.016706848913377228 -0.00020828348297893297 0 -0.016645354250289734 -0.000140164331122483 0 -0.016620854258263255 -0.00022182703164967554 0 -0.016706848913377228 -0.00020828348297893297 0 -0.016676127653427207 -0.0002868335977392766 0 -0.016795246045114034 -0.0002792775958303263 0 -0.016706848913377228 -0.00020828348297893297 0 -0.016676127653427207 -0.0002868335977392766 0 -0.02091960289499013 0.0011833016650162893 0 -0.020178347507048194 0.0010165442137516059 0 -0.016620854258263255 -0.00022182703164967554 0 -0.016676127653427207 -0.0002868335977392766 0 -0.016590086831115018 -0.00031341651675813911 0 -0.026655688756476229 0.003066982513127238 0 -0.026481980131992256 0.002787294527219094 0 -0.02623776135990015 0.0031986708154414321 0 -0.026481980131992256 0.002787294527219094 0 -0.026096196011465553 0.0028032269687049013 0 -0.02623776135990015 0.0031986708154414321 0 -0.026655688756476229 0.003066982513127238 0 -0.026481980131992256 0.002787294527219094 0 -0.026956376829184062 0.0029468559483216842 0 -0.026481980131992256 0.002787294527219094 0 -0.026956376829184062 0.0029468559483216842 0 -0.02683440531047751 0.0024455977207861325 0 -0.027529516337182331 0.0027931416539417461 0 -0.026956376829184062 0.0029468559483216842 0 -0.02683440531047751 0.0024455977207861325 0 -0.027529516337182331 0.0027931416539417461 0 -0.027377425514809747 0.0032245183972049608 0 -0.026956376829184062 0.0029468559483216842 0 -0.026870445730676769 0.0033627749324547812 0 -0.026655688756476229 0.003066982513127238 0 -0.026956376829184062 0.0029468559483216842 0 -0.028031904152136026 0.002538264386671128 0 -0.02683440531047751 0.0024455977207861325 0 -0.0273616044188578 0.0016240223914267046 0 -0.02683440531047751 0.0024455977207861325 0 -0.026306667025524668 0.0020046097871132432 0 -0.026151378668110323 0.0024361669172560012 0 -0.026481980131992256 0.002787294527219094 0 -0.02683440531047751 0.0024455977207861325 0 -0.026151378668110323 0.0024361669172560012 0 -0.02683440531047751 0.0024455977207861325 0 -0.026746362398432828 0.0018698512633598654 0 -0.026306667025524668 0.0020046097871132432 0 -0.02642286516533375 0.0013990084867156357 0 -0.026306667025524668 0.0020046097871132432 0 -0.02600557215356062 0.0017837565301311563 0 -0.02642286516533375 0.0013990084867156357 0 -0.026746362398432828 0.0018698512633598654 0 -0.026306667025524668 0.0020046097871132432 0 -0.02683440531047751 0.0024455977207861325 0 -0.026746362398432828 0.0018698512633598654 0 -0.0273616044188578 0.0016240223914267046 0 -0.02642286516533375 0.0013990084867156357 0 -0.026746362398432828 0.0018698512633598654 0 -0.0273616044188578 0.0016240223914267046 0 -0.023018898244766519 3.9566030855752756e-06 0 -0.021313736094870063 -5.0823405046128717e-08 0 -0.020899816651266098 2.5941326677987706e-06 0 -0.02583760004631095 0.0014428135711595123 0 -0.025553696933038859 0.0019530458505237723 0 -0.02600557215356062 0.0017837565301311563 0 -0.02642286516533375 0.0013990084867156357 0 -0.02583760004631095 0.0014428135711595123 0 -0.02600557215356062 0.0017837565301311563 0 -0.026306667025524668 0.0020046097871132432 0 -0.02600557215356062 0.0017837565301311563 0 -0.025912069075536608 0.002118244700799775 0 -0.025553696933038859 0.0019530458505237723 0 -0.02600557215356062 0.0017837565301311563 0 -0.025912069075536608 0.002118244700799775 0 -0.025553696933038859 0.0019530458505237723 0 -0.025912069075536608 0.002118244700799775 0 -0.025714422576126765 0.0024295902095881582 0 -0.026306667025524668 0.0020046097871132432 0 -0.025912069075536608 0.002118244700799775 0 -0.026151378668110323 0.0024361669172560012 0 -0.026151378668110323 0.0024361669172560012 0 -0.025714422576126765 0.0024295902095881582 0 -0.025882336580000873 0.0026688422813050108 0 -0.025912069075536608 0.002118244700799775 0 -0.026151378668110323 0.0024361669172560012 0 -0.025714422576126765 0.0024295902095881582 0 -0.020899816651266098 2.5941326677987706e-06 0 -0.019350293459158018 3.952784572649353e-08 0 -0.018713786784619234 2.320440125158677e-05 0 -0.025553696933038859 0.0019530458505237723 0 -0.025714422576126765 0.0024295902095881582 0 -0.025603000593524928 0.0030249886004806627 0 -0.022554487323032193 0.0006366285025892972 0 -0.021004928954678211 0.0014815727558726032 0 -0.021313736094870063 -5.0823405046128717e-08 0 -0.020899816651266098 2.5941326677987706e-06 0 -0.019350293459158018 3.952784572649353e-08 0 -0.025714422576126765 0.0024295902095881582 0 -0.025603000593524928 0.0030249886004806627 0 -0.025773022591913695 0.0027904291449677497 0 -0.025603000593524928 0.0030249886004806627 0 -0.02577321162932358 0.0029755344582062804 0 -0.02623776135990015 0.0031986708154414321 0 -0.021004928954678211 0.0014815727558726032 0 -0.021149588547926756 0.0013825832775776576 0 -0.026151378668110323 0.0024361669172560012 0 -0.026096196011465553 0.0028032269687049013 0 -0.025882336580000873 0.0026688422813050108 0 -0.026481980131992256 0.002787294527219094 0 -0.026151378668110323 0.0024361669172560012 0 -0.026096196011465553 0.0028032269687049013 0 -0.025714422576126765 0.0024295902095881582 0 -0.025882336580000873 0.0026688422813050108 0 -0.025773022591913695 0.0027904291449677497 0 -0.026096196011465553 0.0028032269687049013 0 -0.025882336580000873 0.0026688422813050108 0 -0.025905235324665665 0.0028862981462677581 0 -0.025882336580000873 0.0026688422813050108 0 -0.025773022591913695 0.0027904291449677497 0 -0.025905235324665665 0.0028862981462677581 0 -0.025773022591913695 0.0027904291449677497 0 -0.02577321162932358 0.0029755344582062804 0 -0.025905235324665665 0.0028862981462677581 0 -0.025603000593524928 0.0030249886004806627 0 -0.025773022591913695 0.0027904291449677497 0 -0.02577321162932358 0.0029755344582062804 0 -0.02577321162932358 0.0029755344582062804 0 -0.025905235324665665 0.0028862981462677581 0 -0.02623776135990015 0.0031986708154414321 0 -0.026096196011465553 0.0028032269687049013 0 -0.025905235324665665 0.0028862981462677581 0 -0.02623776135990015 0.0031986708154414321 0 -0.016372472944970833 -0.00036401997127467574 0 -0.016590086831115018 -0.00031341651675813911 0 -0.016475765044422292 -0.00030575303117670973 0 -0.016590086831115018 -0.00031341651675813911 0 -0.01652407773260605 -0.000275210891312234 0 -0.016475765044422292 -0.00030575303117670973 0 -0.016620854258263255 -0.00022182703164967554 0 -0.016590086831115018 -0.00031341651675813911 0 -0.0165379569555624 -0.00022971377542558541 0 -0.016590086831115018 -0.00031341651675813911 0 -0.01652407773260605 -0.000275210891312234 0 -0.0165379569555624 -0.00022971377542558541 0 -0.01652407773260605 -0.000275210891312234 0 -0.016491340980244108 -0.00025583890868582443 0 -0.0165379569555624 -0.00022971377542558541 0 -0.016372472944970833 -0.00036401997127467574 0 -0.016475765044422292 -0.00030575303117670973 0 -0.016456407922858622 -0.00021107138361071425 0 -0.01652407773260605 -0.000275210891312234 0 -0.016491340980244108 -0.00025583890868582443 0 -0.016475765044422292 -0.00030575303117670973 0 -0.016491340980244108 -0.00025583890868582443 0 -0.016475765044422292 -0.00030575303117670973 0 -0.016456407922858622 -0.00021107138361071425 0 -0.016456407922858622 -0.00021107138361071425 0 -0.0164798010210702 -0.0001983611476750196 0 -0.016469476943116526 -0.00013747084886213832 0 -0.0164798010210702 -0.0001983611476750196 0 -0.016469476943116526 -0.00013747084886213832 0 -0.016491871453209586 -0.00015901394875010824 0 -0.016491340980244108 -0.00025583890868582443 0 -0.016456407922858622 -0.00021107138361071425 0 -0.0164798010210702 -0.0001983611476750196 0 -0.016491340980244108 -0.00025583890868582443 0 -0.0164798010210702 -0.0001983611476750196 0 -0.0165379569555624 -0.00022971377542558541 0 -0.0164798010210702 -0.0001983611476750196 0 -0.0165379569555624 -0.00022971377542558541 0 -0.016491871453209586 -0.00015901394875010824 0 -0.0165379569555624 -0.00022971377542558541 0 -0.016570474760112863 -0.00016586232961295351 0 -0.016491871453209586 -0.00015901394875010824 0 -0.016620854258263255 -0.00022182703164967554 0 -0.0165379569555624 -0.00022971377542558541 0 -0.016570474760112863 -0.00016586232961295351 0 -0.021004928954678211 0.0014815727558726032 0 -0.01981789571454691 -3.5352460704341826e-05 0 -0.018713786784619234 2.320440125158677e-05 0 -0.017386855998873362 1.5166690540469318e-07 0 -0.016466126174032841 -1.2884997176318461e-05 0 -0.016372472944970833 -0.00036401997127467574 0 -0.016456407922858622 -0.00021107138361071425 0 -0.016466126174032841 -1.2884997176318461e-05 0 -0.019350293459158018 3.952784572649353e-08 0 -0.018713786784619234 2.320440125158677e-05 0 -0.017386855998873362 1.5166690540469318e-07 0 -0.017386855998873362 1.5166690540469318e-07 0 -0.016466126174032841 -1.2884997176318461e-05 0 -0.015880499465891491 1.8654000217995799e-05 0 -0.016431381378376336 -0.00011520491597852093 0 -0.015880499465891491 1.8654000217995799e-05 0 -0.016593903044174102 -4.5930249074990331e-05 0 -0.016456407922858622 -0.00021107138361071425 0 -0.016466126174032841 -1.2884997176318461e-05 0 -0.016469476943116526 -0.00013747084886213832 0 -0.016469476943116526 -0.00013747084886213832 0 -0.016491871453209586 -0.00015901394875010824 0 -0.016431381378376336 -0.00011520491597852093 0 -0.016466126174032841 -1.2884997176318461e-05 0 -0.016469476943116526 -0.00013747084886213832 0 -0.016431381378376336 -0.00011520491597852093 0 -0.016570474760112863 -0.00016586232961295351 0 -0.016491871453209586 -0.00015901394875010824 0 -0.016431381378376336 -0.00011520491597852093 0 -0.016570474760112863 -0.00016586232961295351 0 -0.016565851308488616 -0.00011471828962147538 0 -0.016431381378376336 -0.00011520491597852093 0 -0.016565851308488616 -0.00011471828962147538 0 -0.016431381378376336 -0.00011520491597852093 0 -0.016593903044174102 -4.5930249074990331e-05 0 -0.016466126174032841 -1.2884997176318461e-05 0 -0.016431381378376336 -0.00011520491597852093 0 -0.015880499465891491 1.8654000217995799e-05 0 -0.015053611800151016 -3.3097631057406697e-06 0 -0.015275325908181741 -0.00012376127620074558 0 -0.015880499465891491 1.8654000217995799e-05 0 -0.015880499465891491 1.8654000217995799e-05 0 -0.016593903044174102 -4.5930249074990331e-05 0 -0.01685956207476335 0.0001034538333912717 0 -0.015053611800151016 -3.3097631057406697e-06 0 -0.015880499465891491 1.8654000217995799e-05 0 -0.014734517116602381 0.00027316217682562313 0 -0.015275325908181741 -0.00012376127620074558 0 -0.015880499465891491 1.8654000217995799e-05 0 -0.015028975921420305 -0.00021270324729831964 0 -0.01583986471268491 -5.6252625681673419e-05 0 -0.015853662317889906 -9.3416867021194113e-05 0 -0.015053611800151016 -3.3097631057406697e-06 0 -0.015275325908181741 -0.00012376127620074558 0 -0.015089288303974357 -0.00014630185155392001 0 -0.015422898416691222 -5.9138422485297384e-07 0 -0.015880499465891491 1.8654000217995799e-05 0 -0.015028975921420305 -0.00021270324729831964 0 -0.017386855998873362 1.5166690540469318e-07 0 -0.015422898416691222 -5.9138422485297384e-07 0 -0.015880499465891491 1.8654000217995799e-05 0 -0.017284114408873754 -0.0004199989635116287 0 -0.017668967643291116 -0.00013421343710590217 0 -0.017735163762793511 -0.00037920619250814147 0 -0.017284114408873754 -0.0004199989635116287 0 -0.01685956207476335 0.0001034538333912717 0 -0.017668967643291116 -0.00013421343710590217 0 -0.020917569966780718 0.001189235926114345 0 -0.018606762678945895 0.001138112093373105 0 -0.016812098348823384 -0.00010385263632541571 0 -0.016645354250289734 -0.000140164331122483 0 -0.016593903044174102 -4.5930249074990331e-05 0 -0.018606762678945895 0.001138112093373105 0 -0.017987225215407042 0.0010920390918879987 0 -0.017284114408873754 -0.0004199989635116287 0 -0.016593903044174102 -4.5930249074990331e-05 0 -0.01685956207476335 0.0001034538333912717 0 -0.016706848913377228 -0.00020828348297893297 0 -0.016812098348823384 -0.00010385263632541571 0 -0.016645354250289734 -0.000140164331122483 0 -0.016620854258263255 -0.00022182703164967554 0 -0.016570474760112863 -0.00016586232961295351 0 -0.016645354250289734 -0.000140164331122483 0 -0.016570474760112863 -0.00016586232961295351 0 -0.016565851308488616 -0.00011471828962147538 0 -0.016645354250289734 -0.000140164331122483 0 -0.016565851308488616 -0.00011471828962147538 0 -0.016645354250289734 -0.000140164331122483 0 -0.016593903044174102 -4.5930249074990331e-05 0 -0.015053611800151016 -3.3097631057406697e-06 0 -0.014734517116602381 0.00027316217682562313 0 -0.014770746899462412 -7.5161954147512011e-05 0 -0.014734517116602381 0.00027316217682562313 0 -0.014538786912606655 0.00010569704144505214 0 -0.014770746899462412 -7.5161954147512011e-05 0 -0.014425081391066403 -2.5017810296531575e-05 0 -0.014252631256164628 -9.7991834709429008e-05 0 -0.014283217439260731 0.00019039158517684265 0 -0.015853662317889906 -9.3416867021194113e-05 0 -0.015995052377271727 -0.00026171612181653228 0 -0.014734517116602381 0.00027316217682562313 0 -0.014538786912606655 0.00010569704144505214 0 -0.014283217439260731 0.00019039158517684265 0 -0.014538786912606655 0.00010569704144505214 0 -0.014425081391066403 -2.5017810296531575e-05 0 -0.014283217439260731 0.00019039158517684265 0 -0.014425081391066403 -2.5017810296531575e-05 0 -0.014770746899462412 -7.5161954147512011e-05 0 -0.014244735479438933 -0.00034006053146945584 0 -0.014425081391066403 -2.5017810296531575e-05 0 -0.014244735479438933 -0.00034006053146945584 0 -0.014252631256164628 -9.7991834709429008e-05 0 -0.014538786912606655 0.00010569704144505214 0 -0.014425081391066403 -2.5017810296531575e-05 0 -0.014770746899462412 -7.5161954147512011e-05 0 -0.014770746899462412 -7.5161954147512011e-05 0 -0.015089288303974357 -0.00014630185155392001 0 -0.015054780729914646 -0.00014927878072822906 0 -0.015053611800151016 -3.3097631057406697e-06 0 -0.014770746899462412 -7.5161954147512011e-05 0 -0.015089288303974357 -0.00014630185155392001 0 -0.014770746899462412 -7.5161954147512011e-05 0 -0.014244735479438933 -0.00034006053146945584 0 -0.015054780729914646 -0.00014927878072822906 0 -0.014244735479438933 -0.00034006053146945584 0 -0.013192722308845318 -0.00035780557314311895 0 -0.013726701609251938 -0.00013927753893328801 0 -0.014087148146928234 -0.00019068106421053383 0 -0.01396119650765815 -0.00013931279672723228 0 -0.015422898416691222 -5.9138422485297384e-07 0 -0.015028975921420305 -0.00021270324729831964 0 -0.013463712967267699 5.9234966973229937e-07 0 -0.015275325908181741 -0.00012376127620074558 0 -0.015028975921420305 -0.00021270324729831964 0 -0.015089288303974357 -0.00014630185155392001 0 -0.015028975921420305 -0.00021270324729831964 0 -0.015089288303974357 -0.00014630185155392001 0 -0.015054780729914646 -0.00014927878072822906 0 -0.01396119650765815 -0.00013931279672723228 0 -0.013460845702883082 -2.3961326735485281e-07 0 -0.015028975921420305 -0.00021270324729831964 0 -0.015054780729914646 -0.00014927878072822906 0 -0.013463712967267699 5.9234966973229937e-07 0 -0.013192722308845318 -0.00035780557314311895 0 -0.013455907819297376 -1.2414570678656244e-06 0 -0.012925337635998643 -0.00019022071985248438 0 -0.013455907819297376 -1.2414570678656244e-06 0 -0.012925337635998643 -0.00019022071985248438 0 -0.011700101869809403 1.1441729160960639e-06 0 -0.011695753978932412 6.1284959858664688e-08 0 -0.011961906899874194 2.193700957242567e-05 0 -0.011691459069404391 3.6937028942249984e-07 0 -0.01089616003745815 -0.00011214196715062766 0 -0.01062459277458715 6.4780301254065137e-05 0 -0.012925337635998643 -0.00019022071985248438 0 -0.011700101869809403 1.1441729160960639e-06 0 -0.013258023919229004 0.00033080301358952101 0 -0.011691459069404391 3.6937028942249984e-07 0 -0.01089616003745815 -0.00011214196715062766 0 -0.010183942182443246 -3.22692751614993e-07 0 -0.01089616003745815 -0.00011214196715062766 0 -0.01062459277458715 6.4780301254065137e-05 0 -0.010734858863151689 -5.2114283130211112e-05 0 -0.013192722308845318 -0.00035780557314311895 0 -0.012925337635998643 -0.00019022071985248438 0 -0.013508421263752681 1.3723019383619119e-05 0 -0.012925337635998643 -0.00019022071985248438 0 -0.013258023919229004 0.00033080301358952101 0 -0.013508421263752681 1.3723019383619119e-05 0 -0.013192722308845318 -0.00035780557314311895 0 -0.013508421263752681 1.3723019383619119e-05 0 -0.013726701609251938 -0.00013927753893328801 0 -0.013508421263752681 1.3723019383619119e-05 0 -0.013917083835264478 -8.9459884142457345e-06 0 -0.013857196022396446 0.00017539216794192612 0 -0.013508421263752681 1.3723019383619119e-05 0 -0.013726701609251938 -0.00013927753893328801 0 -0.013917083835264478 -8.9459884142457345e-06 0 -0.014244735479438933 -0.00034006053146945584 0 -0.013917083835264478 -8.9459884142457345e-06 0 -0.014132291375176893 -0.00010055072555649313 0 -0.014244735479438933 -0.00034006053146945584 0 -0.013726701609251938 -0.00013927753893328801 0 -0.013917083835264478 -8.9459884142457345e-06 0 -0.013917083835264478 -8.9459884142457345e-06 0 -0.013886973660806093 0.00019563505333215824 0 -0.014132291375176893 -0.00010055072555649313 0 -0.012185371891005213 -2.6733909818516969e-05 0 -0.013186500798929999 -4.2383152937788251e-05 0 -0.013886973660806093 0.00019563505333215824 0 -0.014166327410334561 6.2219830273142978e-06 0 -0.014132291375176893 -0.00010055072555649313 0 -0.012441058530827316 -0.00025191036438957824 0 -0.012739017779482708 0.00029795139731278117 0 -0.012977080867675036 -0.00022529502855635059 0 -0.013917083835264478 -8.9459884142457345e-06 0 -0.013857196022396446 0.00017539216794192612 0 -0.013886973660806093 0.00019563505333215824 0 -0.01219284842421842 -2.0086925524114532e-05 0 -0.012185371891005213 -2.6733909818516969e-05 0 -0.011961906899874194 2.193700957242567e-05 0 -0.012185371891005213 -2.6733909818516969e-05 0 -0.013258023919229004 0.00033080301358952101 0 -0.013508421263752681 1.3723019383619119e-05 0 -0.013857196022396446 0.00017539216794192612 0 -0.013258023919229004 0.00033080301358952101 0 -0.013857196022396446 0.00017539216794192612 0 -0.013887108330710808 0.00022552161967589741 0 -0.01062459277458715 6.4780301254065137e-05 0 -0.010743191348761921 -3.3977529503921742e-06 0 -0.010697849540333867 4.9173157693264999e-05 0 -0.010697849540333867 4.9173157693264999e-05 0 -0.010719376392134758 0.00013680051314755997 0 -0.010711052174652076 8.729798961577591e-05 0 -0.012185371891005213 -2.6733909818516969e-05 0 -0.011450169403317693 0.00020485612823232841 0 -0.010743191348761921 -3.3977529503921742e-06 0 -0.010697849540333867 4.9173157693264999e-05 0 -0.010830371152860252 7.5733480695952771e-05 0 -0.010697849540333867 4.9173157693264999e-05 0 -0.010830371152860252 7.5733480695952771e-05 0 -0.010719376392134758 0.00013680051314755997 0 -0.010830371152860252 7.5733480695952771e-05 0 -0.010719376392134758 0.00013680051314755997 0 -0.010798394021091321 0.00021188517601603506 0 -0.010719376392134758 0.00013680051314755997 0 -0.010682895670721546 0.00018183019526613175 0 -0.010613602687562892 0.00028828420416082023 0 -0.010719376392134758 0.00013680051314755997 0 -0.010682895670721546 0.00018183019526613175 0 -0.010711052174652076 8.729798961577591e-05 0 -0.010711052174652076 8.729798961577591e-05 0 -0.010688281619145206 0.00019354993212157434 0 -0.010734858863151689 -5.2114283130211112e-05 0 -0.010682895670721546 0.00018183019526613175 0 -0.010711052174652076 8.729798961577591e-05 0 -0.010688281619145206 0.00019354993212157434 0 -0.010328165641065805 0.00010506828105740759 0 -0.010180152153312517 4.7000213883532413e-08 0 -0.0099023230038951769 -2.2271988126969903e-05 0 -0.0096639620584610605 1.0329815630694627e-06 0 -0.010175220226860094 -1.083589322772791e-06 0 -0.0099023230038951769 -2.2271988126969903e-05 0 -0.0096639620584610605 1.0329815630694627e-06 0 -0.0098030500515339063 0.0001062005577640828 0 -0.0096575947926425196 6.8434014283224339e-08 0 -0.0090627351666908561 -2.4586514006723569e-05 0 -0.01089616003745815 -0.00011214196715062766 0 -0.010183942182443246 -3.22692751614993e-07 0 -0.010734858863151689 -5.2114283130211112e-05 0 -0.010688281619145206 0.00019354993212157434 0 -0.010183942182443246 -3.22692751614993e-07 0 -0.010734858863151689 -5.2114283130211112e-05 0 -0.010697849540333867 4.9173157693264999e-05 0 -0.010711052174652076 8.729798961577591e-05 0 -0.010734858863151689 -5.2114283130211112e-05 0 -0.01062459277458715 6.4780301254065137e-05 0 -0.010697849540333867 4.9173157693264999e-05 0 -0.010734858863151689 -5.2114283130211112e-05 0 -0.013812758925556425 8.1764762353265217e-05 0 -0.0140367337048248 0.00011371772245508664 0 -0.013838650722811617 0.00036582370802625962 0 -0.013661355043912658 0.00029074667616660902 0 -0.013812758925556425 8.1764762353265217e-05 0 -0.013838650722811617 0.00036582370802625962 0 -0.013812758925556425 8.1764762353265217e-05 0 -0.013576691932900498 9.7754689836958349e-05 0 -0.013522981537550395 -0.00019245527386284241 0 -0.013661355043912658 0.00029074667616660902 0 -0.013812758925556425 8.1764762353265217e-05 0 -0.013576691932900498 9.7754689836958349e-05 0 -0.013812758925556425 8.1764762353265217e-05 0 -0.0140367337048248 0.00011371772245508664 0 -0.014088721927515592 -8.3878797606574265e-05 0 -0.0140367337048248 0.00011371772245508664 0 -0.014164490797061285 5.5068646181751995e-05 0 -0.014088721927515592 -8.3878797606574265e-05 0 -0.014354291676224594 0.00026946228806787466 0 -0.014241775258442578 0.00034570037035248045 0 -0.013838650722811617 0.00036582370802625962 0 -0.0140367337048248 0.00011371772245508664 0 -0.014201824123207567 0.00023018737471982865 0 -0.013838650722811617 0.00036582370802625962 0 -0.012544113911872231 -0.00024180960629312969 0 -0.013123159813169591 -0.00022593140103098385 0 -0.0140367337048248 0.00011371772245508664 0 -0.014164490797061285 5.5068646181751995e-05 0 -0.014201824123207567 0.00023018737471982865 0 -0.012544113911872231 -0.00024180960629312969 0 -0.011988330136860809 -9.8167917717977482e-05 0 -0.0081621971831214741 -0.00031846260938409661 0 -0.007878102803969304 -0.00039714872634782808 0 -0.0081908868759182057 -0.00041135469340926784 0 -0.011988330136860809 -9.8167917717977482e-05 0 -0.011024406325752424 3.2194100526017181e-05 0 -0.0080124505881387816 -0.00023252242498529043 0 -0.0081621971831214741 -0.00031846260938409661 0 -0.007878102803969304 -0.00039714872634782808 0 -0.013912408689962135 0.0004224189200555538 0 -0.013709278108729728 0.00055603448389204423 0 -0.013598992744980481 0.00054719787154923092 0 -0.013912408689962135 0.0004224189200555538 0 -0.013598992744980481 0.00054719787154923092 0 -0.013466874464884022 0.00049507618562520477 0 -0.011988330136860809 -9.8167917717977482e-05 0 -0.013129827706365045 -5.8451133811260107e-05 0 -0.014241775258442578 0.00034570037035248045 0 -0.013838650722811617 0.00036582370802625962 0 -0.013466874464884022 0.00049507618562520477 0 -0.013661355043912658 0.00029074667616660902 0 -0.013838650722811617 0.00036582370802625962 0 -0.013466874464884022 0.00049507618562520477 0 -0.011024406325752424 3.2194100526017181e-05 0 -0.010154477134737546 9.4819870234156235e-05 0 -0.013709278108729728 0.00055603448389204423 0 -0.013598992744980481 0.00054719787154923092 0 -0.01349860803217307 0.00072530312321487337 0 -0.0081621971831214741 -0.00031846260938409661 0 -0.0083219147469973803 -0.00040977709158994077 0 -0.0081908868759182057 -0.00041135469340926784 0 -0.011414449055882216 -0.00028586921099698313 0 -0.010330991358538147 0.00010310307890716099 0 -0.013598992744980481 0.00054719787154923092 0 -0.01345969212647048 0.00059489232033598817 0 -0.01349860803217307 0.00072530312321487337 0 -0.013483469999930841 0.00041248980880450778 0 -0.013288774666880375 0.000255581340345332 0 -0.013035950792567665 0.00084129795782925782 0 -0.013379107842319415 0.00056479181496383831 0 -0.013483469999930841 0.00041248980880450778 0 -0.013090968250351245 0.00075458065775195547 0 -0.013598992744980481 0.00054719787154923092 0 -0.01345969212647048 0.00059489232033598817 0 -0.013466874464884022 0.00049507618562520477 0 -0.01345969212647048 0.00059489232033598817 0 -0.013329656581496966 0.00063591190029053848 0 -0.01349860803217307 0.00072530312321487337 0 -0.01345969212647048 0.00059489232033598817 0 -0.013329656581496966 0.00063591190029053848 0 -0.013379107842319415 0.00056479181496383831 0 -0.01345969212647048 0.00059489232033598817 0 -0.013379107842319415 0.00056479181496383831 0 -0.013466874464884022 0.00049507618562520477 0 -0.013329656581496966 0.00063591190029053848 0 -0.013379107842319415 0.00056479181496383831 0 -0.013090968250351245 0.00075458065775195547 0 -0.013661355043912658 0.00029074667616660902 0 -0.013483469999930841 0.00041248980880450778 0 -0.013466874464884022 0.00049507618562520477 0 -0.013379107842319415 0.00056479181496383831 0 -0.013483469999930841 0.00041248980880450778 0 -0.013466874464884022 0.00049507618562520477 0 -0.011055241605173198 -8.7204662748284394e-05 0 -0.010330991358538147 0.00010310307890716099 0 -0.011450169403317693 0.00020485612823232841 0 -0.010330991358538147 0.00010310307890716099 0 -0.012739017779482708 0.00029795139731278117 0 -0.013023491392033114 0.0004859264989612094 0 -0.013037451885292905 0.0008595509023372075 0 -0.010830371152860252 7.5733480695952771e-05 0 -0.010798394021091321 0.00021188517601603506 0 -0.010970477617327206 0.00024208272952809306 0 -0.013023491392033114 0.0004859264989612094 0 -0.013288774666880375 0.000255581340345332 0 -0.013037451885292905 0.0008595509023372075 0 -0.012739017779482708 0.00029795139731278117 0 -0.01308014691646708 0.00017564852721823452 0 -0.012977080867675036 -0.00022529502855635059 0 -0.012739017779482708 0.00029795139731278117 0 -0.013023491392033114 0.0004859264989612094 0 -0.01308014691646708 0.00017564852721823452 0 -0.013023491392033114 0.0004859264989612094 0 -0.01308014691646708 0.00017564852721823452 0 -0.013288774666880375 0.000255581340345332 0 -0.01308014691646708 0.00017564852721823452 0 -0.013320205836041887 5.836548554695748e-05 0 -0.012977080867675036 -0.00022529502855635059 0 -0.013661355043912658 0.00029074667616660902 0 -0.013473586997320947 0.00023036433811318252 0 -0.013576691932900498 9.7754689836958349e-05 0 -0.013661355043912658 0.00029074667616660902 0 -0.013483469999930841 0.00041248980880450778 0 -0.013473586997320947 0.00023036433811318252 0 -0.013483469999930841 0.00041248980880450778 0 -0.013473586997320947 0.00023036433811318252 0 -0.013288774666880375 0.000255581340345332 0 -0.013473586997320947 0.00023036433811318252 0 -0.013288774666880375 0.000255581340345332 0 -0.013320205836041887 5.836548554695748e-05 0 -0.01308014691646708 0.00017564852721823452 0 -0.013288774666880375 0.000255581340345332 0 -0.013320205836041887 5.836548554695748e-05 0 -0.013473586997320947 0.00023036433811318252 0 -0.013320205836041887 5.836548554695748e-05 0 -0.013576691932900498 9.7754689836958349e-05 0 -0.013320205836041887 5.836548554695748e-05 0 -0.013576691932900498 9.7754689836958349e-05 0 -0.013522981537550395 -0.00019245527386284241 0 -0.014170507304072214 -9.7108444343461703e-05 0 -0.014166327410334561 6.2219830273142978e-06 0 -0.014217032932794181 -0.00017172026333067274 0 -0.013642495182096865 -5.7938132807174661e-05 0 -0.013186500798929999 -4.2383152937788251e-05 0 -0.013320205836041887 5.836548554695748e-05 0 -0.013522981537550395 -0.00019245527386284241 0 -0.012977080867675036 -0.00022529502855635059 0 -0.014166327410334561 6.2219830273142978e-06 0 -0.014132291375176893 -0.00010055072555649313 0 -0.014217032932794181 -0.00017172026333067274 0 -0.014132291375176893 -0.00010055072555649313 0 -0.014217032932794181 -0.00017172026333067274 0 -0.014194602241801826 -0.00022522353543985967 0 -0.014217032932794181 -0.00017172026333067274 0 -0.014268026488895953 -0.00025976623989412901 0 -0.014247763161160516 -0.00023122490018212909 0 -0.014170507304072214 -9.7108444343461703e-05 0 -0.014217032932794181 -0.00017172026333067274 0 -0.014105435700411357 -0.00010213672211199857 0 -0.014176847472767989 -0.00018485234665471673 0 -0.014206448809232539 -0.00016839352147950999 0 -0.014268026488895953 -0.00025976623989412901 0 -0.014272072076248732 -0.00026584897751066557 0 -0.014247763161160516 -0.00023122490018212909 0 -0.014268026488895953 -0.00025976623989412901 0 -0.014273244139051344 -0.00027479835843263474 0 -0.014272072076248732 -0.00026584897751066557 0 -0.014170507304072214 -9.7108444343461703e-05 0 -0.014105435700411357 -0.00010213672211199857 0 -0.014088721927515592 -8.3878797606574265e-05 0 -0.013642495182096865 -5.7938132807174661e-05 0 -0.013802906480591043 -5.9602659798916616e-05 0 -0.013812758925556425 8.1764762353265217e-05 0 -0.013522981537550395 -0.00019245527386284241 0 -0.014088721927515592 -8.3878797606574265e-05 0 -0.014105435700411357 -0.00010213672211199857 0 -0.014088721927515592 -8.3878797606574265e-05 0 -0.014212148366583887 -7.1606980098102142e-05 0 -0.014206448809232539 -0.00016839352147950999 0 -0.014330403964663866 -0.00010217369300254863 0 -0.014164490797061285 5.5068646181751995e-05 0 -0.014088721927515592 -8.3878797606574265e-05 0 -0.014212148366583887 -7.1606980098102142e-05 0 -0.014268026488895953 -0.00025976623989412901 0 -0.014268585820165148 -0.00028458271924975781 0 -0.014235315231223684 -0.00025276341067003149 0 -0.014268585820165148 -0.00028458271924975781 0 -0.014290686482474248 -0.00029657554715426475 0 -0.014305304070657351 -0.00032442161195709988 0 -0.014268026488895953 -0.00025976623989412901 0 -0.014268585820165148 -0.00028458271924975781 0 -0.014273244139051344 -0.00027479835843263474 0 -0.014273244139051344 -0.00027479835843263474 0 -0.014290686482474248 -0.00029657554715426475 0 -0.014286404330016574 -0.00028585393213611529 0 -0.014268585820165148 -0.00028458271924975781 0 -0.014273244139051344 -0.00027479835843263474 0 -0.014290686482474248 -0.00029657554715426475 0 -0.014290686482474248 -0.00029657554715426475 0 -0.014297590973466749 -0.0002976753174887135 0 -0.014286404330016574 -0.00028585393213611529 0 -0.014297590973466749 -0.0002976753174887135 0 -0.014286404330016574 -0.00028585393213611529 0 -0.014293933609100919 -0.00030592052473383722 0 -0.014286404330016574 -0.00028585393213611529 0 -0.014272072076248732 -0.00026584897751066557 0 -0.014293933609100919 -0.00030592052473383722 0 -0.014273244139051344 -0.00027479835843263474 0 -0.014286404330016574 -0.00028585393213611529 0 -0.014272072076248732 -0.00026584897751066557 0 -0.014272072076248732 -0.00026584897751066557 0 -0.014257705114011856 -0.00027780385478404283 0 -0.014293933609100919 -0.00030592052473383722 0 -0.014272072076248732 -0.00026584897751066557 0 -0.014257705114011856 -0.00027780385478404283 0 -0.014247763161160516 -0.00023122490018212909 0 -0.01393870297150087 -0.00014496728469422322 0 -0.013976463311041951 -3.2136321453913979e-06 0 -0.013876965350863883 2.2196867419574092e-05 0 -0.014130896088610991 -0.00035055344501388612 0 -0.01419967034114538 -0.00044826814462410223 0 -0.01393870297150087 -0.00014496728469422322 0 -0.013815739099224743 -3.8006693649671158e-05 0 -0.013876965350863883 2.2196867419574092e-05 0 -0.01393870297150087 -0.00014496728469422322 0 -0.013815739099224743 -3.8006693649671158e-05 0 -0.013769926870715134 -9.6019321549933303e-05 0 -0.013815739099224743 -3.8006693649671158e-05 0 -0.013769926870715134 -9.6019321549933303e-05 0 -0.013735445364140772 -3.0312061756254953e-05 0 -0.014297590973466749 -0.0002976753174887135 0 -0.014293933609100919 -0.00030592052473383722 0 -0.014302987508077281 -0.00030494386123794859 0 -0.014244735479438933 -0.00034006053146945584 0 -0.014132291375176893 -0.00010055072555649313 0 -0.014194602241801826 -0.00022522353543985967 0 -0.014217032932794181 -0.00017172026333067274 0 -0.014194602241801826 -0.00022522353543985967 0 -0.014177338728082972 -0.00023609594614265437 0 -0.014244735479438933 -0.00034006053146945584 0 -0.014194602241801826 -0.00022522353543985967 0 -0.014177338728082972 -0.00023609594614265437 0 -0.014257705114011856 -0.00027780385478404283 0 -0.014177338728082972 -0.00023609594614265437 0 -0.014247763161160516 -0.00023122490018212909 0 -0.014217032932794181 -0.00017172026333067274 0 -0.014177338728082972 -0.00023609594614265437 0 -0.014247763161160516 -0.00023122490018212909 0 -0.01393870297150087 -0.00014496728469422322 0 -0.014177338728082972 -0.00023609594614265437 0 -0.014112479244215406 -1.7311153004543819e-05 0 -0.014130896088610991 -0.00035055344501388612 0 -0.014144873724718631 -0.00032910608968345106 0 -0.01393870297150087 -0.00014496728469422322 0 -0.014112479244215406 -1.7311153004543819e-05 0 -0.013976463311041951 -3.2136321453913979e-06 0 -0.014244735479438933 -0.00034006053146945584 0 -0.014177338728082972 -0.00023609594614265437 0 -0.014252631256164628 -9.7991834709429008e-05 0 -0.014177338728082972 -0.00023609594614265437 0 -0.014112479244215406 -1.7311153004543819e-05 0 -0.014252631256164628 -9.7991834709429008e-05 0 -0.014112479244215406 -1.7311153004543819e-05 0 -0.014283217439260731 0.00019039158517684265 0 -0.013992559753384495 0.00012535500806647173 0 -0.015995052377271727 -0.00026171612181653228 0 -0.016393758764278937 -0.00060142172537458601 0 -0.014112479244215406 -1.7311153004543819e-05 0 -0.014252631256164628 -9.7991834709429008e-05 0 -0.014283217439260731 0.00019039158517684265 0 -0.014112479244215406 -1.7311153004543819e-05 0 -0.013976463311041951 -3.2136321453913979e-06 0 -0.013992559753384495 0.00012535500806647173 0 -0.020917569966780718 0.001189235926114345 0 -0.019257786069097345 0.00056074360490282753 0 -0.017794747608442643 -0.00059646509262875126 0 -0.018041402292295245 -0.00041780476097246112 0 -0.017923555540407875 -0.00043145820151713936 0 -0.018057986723519839 -0.00042304013102191171 0 -0.018021810415485291 -0.00042364111085104725 0 -0.017935299967949229 -0.00044226858541699765 0 -0.018057986723519839 -0.00042304013102191171 0 -0.018021810415485291 -0.00042364111085104725 0 -0.017923555540407875 -0.00043145820151713936 0 -0.018021810415485291 -0.00042364111085104725 0 -0.018041402292295245 -0.00041780476097246112 0 -0.017923555540407875 -0.00043145820151713936 0 -0.017668967643291116 -0.00013421343710590217 0 -0.018057986723519839 -0.00042304013102191171 0 -0.017923555540407875 -0.00043145820151713936 0 -0.017794747608442643 -0.00059646509262875126 0 -0.017284114408873754 -0.0004199989635116287 0 -0.017735163762793511 -0.00037920619250814147 0 -0.017668967643291116 -0.00013421343710590217 0 -0.017923555540407875 -0.00043145820151713936 0 -0.017735163762793511 -0.00037920619250814147 0 -0.017794747608442643 -0.00059646509262875126 0 -0.017923555540407875 -0.00043145820151713936 0 -0.017735163762793511 -0.00037920619250814147 0 -0.017358333431155986 -0.001310062258886201 0 -0.017566940120554323 -0.0011635939182150059 0 -0.017107649672285376 -0.0012705457215232839 0 -0.01768989840836796 -0.0013268160764836081 0 -0.017358333431155986 -0.001310062258886201 0 -0.017146384733633342 -0.00150599109310791 0 -0.013862028546126955 2.8293436511414947e-05 0 -0.01388911525925393 3.0502546989733988e-05 0 -0.013918076359608291 1.6697397956952656e-05 0 -0.013862028546126955 2.8293436511414947e-05 0 -0.01388911525925393 3.0502546989733988e-05 0 -0.013876965350863883 2.2196867419574092e-05 0 -0.014242465421644049 -0.0005741402365503275 0 -0.01413601290475372 -0.00051315224653771105 0 -0.013815739099224743 -3.8006693649671158e-05 0 -0.013735445364140772 -3.0312061756254953e-05 0 -0.013876965350863883 2.2196867419574092e-05 0 -0.015903268126581251 -0.00070576668180915441 0 -0.015622031707854886 -0.00079332101260205584 0 -0.01768989840836796 -0.0013268160764836081 0 -0.017358333431155986 -0.001310062258886201 0 -0.017566940120554323 -0.0011635939182150059 0 -0.013976463311041951 -3.2136321453913979e-06 0 -0.013992559753384495 0.00012535500806647173 0 -0.013876965350863883 2.2196867419574092e-05 0 -0.016393758764278937 -0.00060142172537458601 0 -0.015903268126581251 -0.00070576668180915441 0 -0.018057986723519839 -0.00042304013102191171 0 -0.017680229047737368 -0.00065154611426337938 0 -0.0175436991675634 -0.00075041270039847413 0 -0.016393758764278937 -0.00060142172537458601 0 -0.017202557734242258 -0.00079390766502251129 0 -0.018173025404885496 -0.0011924944287105882 0 -0.01768989840836796 -0.0013268160764836081 0 -0.017566940120554323 -0.0011635939182150059 0 -0.013992559753384495 0.00012535500806647173 0 -0.013862028546126955 2.8293436511414947e-05 0 -0.013876965350863883 2.2196867419574092e-05 0 -0.018027596456265282 -0.00025473424116604113 0 -0.01787829820041183 -0.00036831629302188024 0 -0.017592943545166786 -0.00037980156031881005 0 -0.027128407567754167 0.0032369881482549271 0 -0.027588257300385773 0.0032527454605376649 0 -0.027578507376121171 0.0032497939403739774 0 -0.022276637996194771 0.0011778973172238037 0 -0.021846015602023153 0.00088057656436673899 0 -0.017935299967949229 -0.00044226858541699765 0 -0.017783749060797691 -0.00045294384073815371 0 -0.017680229047737368 -0.00065154611426337938 0 -0.018057986723519839 -0.00042304013102191171 0 -0.017935299967949229 -0.00044226858541699765 0 -0.017680229047737368 -0.00065154611426337938 0 -0.018041402292295245 -0.00041780476097246112 0 -0.017935299967949229 -0.00044226858541699765 0 -0.017968045320734032 -0.00038557094065043846 0 -0.018021810415485291 -0.00042364111085104725 0 -0.018041402292295245 -0.00041780476097246112 0 -0.017935299967949229 -0.00044226858541699765 0 -0.017935299967949229 -0.00044226858541699765 0 -0.01787829820041183 -0.00036831629302188024 0 -0.017968045320734032 -0.00038557094065043846 0 -0.017935299967949229 -0.00044226858541699765 0 -0.01787829820041183 -0.00036831629302188024 0 -0.017783749060797691 -0.00045294384073815371 0 -0.018027596456265282 -0.00025473424116604113 0 -0.018041402292295245 -0.00041780476097246112 0 -0.017968045320734032 -0.00038557094065043846 0 -0.018027596456265282 -0.00025473424116604113 0 -0.01787829820041183 -0.00036831629302188024 0 -0.017968045320734032 -0.00038557094065043846 0 -0.01787829820041183 -0.00036831629302188024 0 -0.017783749060797691 -0.00045294384073815371 0 -0.017592943545166786 -0.00037980156031881005 0 -0.017680229047737368 -0.00065154611426337938 0 -0.0175436991675634 -0.00075041270039847413 0 -0.017103659314589823 -0.00078649368290557116 0 -0.017592943545166786 -0.00037980156031881005 0 -0.017680229047737368 -0.00065154611426337938 0 -0.017170747983288971 -0.00045832509035312113 0 -0.021846015602023153 0.00088057656436673899 0 -0.020186673658060424 0.00021018458362068282 0 -0.018762580642861418 0.00029085375487595459 0 -0.020186673658060424 0.00021018458362068282 0 -0.017783749060797691 -0.00045294384073815371 0 -0.017592943545166786 -0.00037980156031881005 0 -0.017680229047737368 -0.00065154611426337938 0 -0.027003759329060458 0.0035264565476315155 0 -0.027588257300385773 0.0032527454605376649 0 -0.026990734862307617 0.0030495128017713857 0 -0.0175436991675634 -0.00075041270039847413 0 -0.017103659314589823 -0.00078649368290557116 0 -0.016846691781811932 -0.0010867229448071859 0 -0.017202557734242258 -0.00079390766502251129 0 -0.017067408363610426 -0.00084889172123875812 0 -0.017566940120554323 -0.0011635939182150059 0 -0.017107649672285376 -0.0012705457215232839 0 -0.016846691781811932 -0.0010867229448071859 0 -0.017358333431155986 -0.001310062258886201 0 -0.017107649672285376 -0.0012705457215232839 0 -0.017146384733633342 -0.00150599109310791 0 -0.017107649672285376 -0.0012705457215232839 0 -0.016842897445039091 -0.0014288843651189085 0 -0.016846691781811932 -0.0010867229448071859 0 -0.017107649672285376 -0.0012705457215232839 0 -0.017146384733633342 -0.00150599109310791 0 -0.016842897445039091 -0.0014288843651189085 0 -0.017146384733633342 -0.00150599109310791 0 -0.016842897445039091 -0.0014288843651189085 0 -0.016507792780055919 -0.0017265801681405927 0 -0.015622031707854886 -0.00079332101260205584 0 -0.015523444345413903 -0.00086251642914343695 0 -0.016613382865261268 -0.0014489053769185072 0 -0.016842897445039091 -0.0014288843651189085 0 -0.016507792780055919 -0.0017265801681405927 0 -0.016613382865261268 -0.0014489053769185072 0 -0.016484424506392686 -0.0015056167084183144 0 -0.016507792780055919 -0.0017265801681405927 0 -0.016613382865261268 -0.0014489053769185072 0 -0.016484424506392686 -0.0015056167084183144 0 -0.016533931274833137 -0.0013250203739288142 0 -0.016484424506392686 -0.0015056167084183144 0 -0.016533931274833137 -0.0013250203739288142 0 -0.016349536117992485 -0.0014426584561615604 0 -0.016484424506392686 -0.0015056167084183144 0 -0.01634922413892767 -0.0015839619502057154 0 -0.016507792780055919 -0.0017265801681405927 0 -0.016613382865261268 -0.0014489053769185072 0 -0.016842897445039091 -0.0014288843651189085 0 -0.016698106755826819 -0.001259872811373237 0 -0.016842897445039091 -0.0014288843651189085 0 -0.016698106755826819 -0.001259872811373237 0 -0.016846691781811932 -0.0010867229448071859 0 -0.016698106755826819 -0.001259872811373237 0 -0.01657375848731674 -0.0011333397104426497 0 -0.016846691781811932 -0.0010867229448071859 0 -0.016698106755826819 -0.001259872811373237 0 -0.016533931274833137 -0.0013250203739288142 0 -0.01657375848731674 -0.0011333397104426497 0 -0.016613382865261268 -0.0014489053769185072 0 -0.016698106755826819 -0.001259872811373237 0 -0.016533931274833137 -0.0013250203739288142 0 -0.016533931274833137 -0.0013250203739288142 0 -0.01657375848731674 -0.0011333397104426497 0 -0.01638359794799514 -0.0012608068822373346 0 -0.016650826022582197 -0.00094303752335747626 0 -0.016618543548165714 -0.00097107725007531678 0 -0.016606986587170653 -0.00095645794367573258 0 -0.016604635429453826 -0.00097400280844523617 0 -0.016650826022582197 -0.00094303752335747626 0 -0.016606986587170653 -0.00095645794367573258 0 -0.01657375848731674 -0.0011333397104426497 0 -0.016424464688422735 -0.0010878603625635872 0 -0.01638359794799514 -0.0012608068822373346 0 -0.020186673658060424 0.00021018458362068282 0 -0.019032976174985856 -4.8004012163924351e-05 0 -0.017103659314589823 -0.00078649368290557116 0 -0.016618543548165714 -0.00097107725007531678 0 -0.016846691781811932 -0.0010867229448071859 0 -0.01657375848731674 -0.0011333397104426497 0 -0.016555535801975094 -0.0010304011221533348 0 -0.016424464688422735 -0.0010878603625635872 0 -0.020812256087086051 0.00044051329274090689 0 -0.020186673658060424 0.00021018458362068282 0 -0.01657375848731674 -0.0011333397104426497 0 -0.016618543548165714 -0.00097107725007531678 0 -0.016555535801975094 -0.0010304011221533348 0 -0.016618543548165714 -0.00097107725007531678 0 -0.016555535801975094 -0.0010304011221533348 0 -0.016606986587170653 -0.00095645794367573258 0 -0.016555535801975094 -0.0010304011221533348 0 -0.016606986587170653 -0.00095645794367573258 0 -0.016424464688422735 -0.0010878603625635872 0 -0.01657375848731674 -0.0011333397104426497 0 -0.016618543548165714 -0.00097107725007531678 0 -0.016846691781811932 -0.0010867229448071859 0 -0.016606986587170653 -0.00095645794367573258 0 -0.015661538306678123 -0.0010318195242989261 0 -0.016077346210038975 -0.0011616664936843651 0 -0.016604635429453826 -0.00097400280844523617 0 -0.016606986587170653 -0.00095645794367573258 0 -0.016556469515723989 -0.0010611490530699078 0 -0.016606986587170653 -0.00095645794367573258 0 -0.016556469515723989 -0.0010611490530699078 0 -0.016537709995017861 -0.0010999235900908992 0 -0.016290046780626559 -0.0011569203942699909 0 -0.016046247070614202 -0.0012523865900865348 0 -0.016424464688422735 -0.0010878603625635872 0 -0.01620396597199511 -0.0012290883548445812 0 -0.016077346210038975 -0.0011616664936843651 0 -0.016606986587170653 -0.00095645794367573258 0 -0.016424464688422735 -0.0010878603625635872 0 -0.016077346210038975 -0.0011616664936843651 0 -0.016211519145497628 -0.0012373213104697018 0 -0.016061137411211918 -0.0013048256416479727 0 -0.016556469515723989 -0.0010611490530699078 0 -0.016537709995017861 -0.0010999235900908992 0 -0.016484330860985628 -0.0010914990656258731 0 -0.016440230806761567 -0.0011090959105227024 0 -0.016556469515723989 -0.0010611490530699078 0 -0.016329816143072915 -0.0013476949489605527 0 -0.015661538306678123 -0.0010318195242989261 0 -0.015533315811913296 -0.0013637083687932734 0 -0.015110287814472344 -0.0012931862965275414 0 -0.015661538306678123 -0.0010318195242989261 0 -0.015851098000942417 -0.0014263702990796308 0 -0.016077346210038975 -0.0011616664936843651 0 -0.015661538306678123 -0.0010318195242989261 0 -0.015533315811913296 -0.0013637083687932734 0 -0.015851098000942417 -0.0014263702990796308 0 -0.015851098000942417 -0.0014263702990796308 0 -0.015512828696409464 -0.0016993329249459597 0 -0.015844748076930738 -0.0017489264648867357 0 -0.015851098000942417 -0.0014263702990796308 0 -0.016027268974760346 -0.0015998859481944428 0 -0.015844748076930738 -0.0017489264648867357 0 -0.015533315811913296 -0.0013637083687932734 0 -0.015851098000942417 -0.0014263702990796308 0 -0.015512828696409464 -0.0016993329249459597 0 -0.016216668370027866 -0.0013718308266577111 0 -0.01638359794799514 -0.0012608068822373346 0 -0.01620396597199511 -0.0012290883548445812 0 -0.016216668370027866 -0.0013718308266577111 0 -0.01638359794799514 -0.0012608068822373346 0 -0.016349536117992485 -0.0014426584561615604 0 -0.016533931274833137 -0.0013250203739288142 0 -0.01638359794799514 -0.0012608068822373346 0 -0.016349536117992485 -0.0014426584561615604 0 -0.016424464688422735 -0.0010878603625635872 0 -0.01638359794799514 -0.0012608068822373346 0 -0.01620396597199511 -0.0012290883548445812 0 -0.01620396597199511 -0.0012290883548445812 0 -0.016077346210038975 -0.0011616664936843651 0 -0.016082513896172632 -0.0013260964558759482 0 -0.015851098000942417 -0.0014263702990796308 0 -0.016077346210038975 -0.0011616664936843651 0 -0.016082513896172632 -0.0013260964558759482 0 -0.015851098000942417 -0.0014263702990796308 0 -0.016082513896172632 -0.0013260964558759482 0 -0.016077870009942614 -0.0014526502112129228 0 -0.016216668370027866 -0.0013718308266577111 0 -0.01620396597199511 -0.0012290883548445812 0 -0.016082513896172632 -0.0013260964558759482 0 -0.016216668370027866 -0.0013718308266577111 0 -0.016082513896172632 -0.0013260964558759482 0 -0.016077870009942614 -0.0014526502112129228 0 -0.016216668370027866 -0.0013718308266577111 0 -0.016077870009942614 -0.0014526502112129228 0 -0.016197967370885767 -0.001522876830924556 0 -0.016077870009942614 -0.0014526502112129228 0 -0.016027268974760346 -0.0015998859481944428 0 -0.016197967370885767 -0.001522876830924556 0 -0.015851098000942417 -0.0014263702990796308 0 -0.016077870009942614 -0.0014526502112129228 0 -0.016027268974760346 -0.0015998859481944428 0 -0.016027268974760346 -0.0015998859481944428 0 -0.016197967370885767 -0.001522876830924556 0 -0.016165483351439181 -0.0016882642800870066 0 -0.016197967370885767 -0.001522876830924556 0 -0.01634922413892767 -0.0015839619502057154 0 -0.016165483351439181 -0.0016882642800870066 0 -0.016197967370885767 -0.001522876830924556 0 -0.016349536117992485 -0.0014426584561615604 0 -0.01634922413892767 -0.0015839619502057154 0 -0.016216668370027866 -0.0013718308266577111 0 -0.016197967370885767 -0.001522876830924556 0 -0.016349536117992485 -0.0014426584561615604 0 -0.016484424506392686 -0.0015056167084183144 0 -0.016349536117992485 -0.0014426584561615604 0 -0.01634922413892767 -0.0015839619502057154 0 -0.015654910003642466 -0.00091639783356694171 0 -0.015523444345413903 -0.00086251642914343695 0 -0.016150588044906038 -0.0018420375073820315 0 -0.016367155579212513 -0.0019441101882651502 0 -0.016455991850229473 -0.001764346278529361 0 -0.01634922413892767 -0.0015839619502057154 0 -0.016165483351439181 -0.0016882642800870066 0 -0.016507792780055919 -0.0017265801681405927 0 -0.015613818022295056 -0.00089243564387968407 0 -0.015523444345413903 -0.00086251642914343695 0 -0.016165483351439181 -0.0016882642800870066 0 -0.016150588044906038 -0.0018420375073820315 0 -0.016497669841907082 -0.0017468700077001634 0 -0.016027268974760346 -0.0015998859481944428 0 -0.016165483351439181 -0.0016882642800870066 0 -0.016025151279338855 -0.0017563118223344716 0 -0.016165483351439181 -0.0016882642800870066 0 -0.016025151279338855 -0.0017563118223344716 0 -0.016150588044906038 -0.0018420375073820315 0 -0.016027268974760346 -0.0015998859481944428 0 -0.016025151279338855 -0.0017563118223344716 0 -0.015844748076930738 -0.0017489264648867357 0 -0.016025151279338855 -0.0017563118223344716 0 -0.015980851963799399 -0.0018602353484540657 0 -0.015844748076930738 -0.0017489264648867357 0 -0.016025151279338855 -0.0017563118223344716 0 -0.015980851963799399 -0.0018602353484540657 0 -0.016150588044906038 -0.0018420375073820315 0 -0.015980851963799399 -0.0018602353484540657 0 -0.016150588044906038 -0.0018420375073820315 0 -0.015905627194699297 -0.0020903278542833592 0 -0.015100158898522379 -0.0009490546093420786 0 -0.015296088912244779 -0.0011604586031866639 0 -0.016150588044906038 -0.0018420375073820315 0 -0.016367155579212513 -0.0019441101882651502 0 -0.015905627194699297 -0.0020903278542833592 0 -0.014299306583617433 -0.00030562244409986411 0 -0.014294826068651583 -0.0003082148569231884 0 -0.014297237332351574 -0.00030930863227730831 0 -0.015342301596007716 -0.001602163390270568 0 -0.015622924189409613 -0.0019049028795688416 0 -0.015038804653874454 -0.0020522611782361529 0 -0.015395545274225314 -0.0013559028873037305 0 -0.015296088912244779 -0.0011604586031866639 0 -0.015512828696409464 -0.0016993329249459597 0 -0.015844748076930738 -0.0017489264648867357 0 -0.015905627194699297 -0.0020903278542833592 0 -0.015980851963799399 -0.0018602353484540657 0 -0.015844748076930738 -0.0017489264648867357 0 -0.015905627194699297 -0.0020903278542833592 0 -0.015304493056930185 -0.0021907950730988479 0 -0.015464018705730618 -0.0018706466908251149 0 -0.015583417740561071 -0.0025154865494428007 0 -0.015296088912244779 -0.0011604586031866639 0 -0.015171578750648068 -0.001357168729331066 0 -0.015502159052049273 -0.0019330476856256724 0 -0.015304493056930185 -0.0021907950730988479 0 -0.015038804653874454 -0.0020522611782361529 0 -0.015502159052049273 -0.0019330476856256724 0 -0.015304493056930185 -0.0021907950730988479 0 -0.015464018705730618 -0.0018706466908251149 0 -0.015464018705730618 -0.0018706466908251149 0 -0.014850069215927273 -0.001190510487537347 0 -0.015377109867595277 -0.00074479697339735202 0 -0.015502159052049273 -0.0019330476856256724 0 -0.015464018705730618 -0.0018706466908251149 0 -0.014850069215927273 -0.001190510487537347 0 -0.014294826068651583 -0.0003082148569231884 0 -0.014297237332351574 -0.00030930863227730831 0 -0.014293304074955293 -0.00031683158889893288 0 -0.013592510144739977 -0.0018300406919145335 0 -0.013008345405920805 -0.0016520872476558039 0 -0.015296088912244779 -0.0011604586031866639 0 -0.014804387449227917 -0.00077070740919064462 0 -0.014311009973037208 -0.00030932194170142565 0 -0.014322317346838807 -0.00032349767089765081 0 -0.014293304074955293 -0.00031683158889893288 0 -0.014297237332351574 -0.00030930863227730831 0 -0.014303975358267053 -0.00030715806646307769 0 -0.014293304074955293 -0.00031683158889893288 0 -0.014303975358267053 -0.00030715806646307769 0 -0.014311009973037208 -0.00030932194170142565 0 -0.014307129917734709 -0.0003058541601061615 0 -0.014303975358267053 -0.00030715806646307769 0 -0.014311009973037208 -0.00030932194170142565 0 -0.014293304074955293 -0.00031683158889893288 0 -0.014311009973037208 -0.00030932194170142565 0 -0.014306841318055678 -0.00030847640803431821 0 -0.014322317346838807 -0.00032349767089765081 0 -0.014311009973037208 -0.00030932194170142565 0 -0.014306841318055678 -0.00030847640803431821 0 -0.014304305191122713 -0.00030355699560562986 0 -0.014290686482474248 -0.00029657554715426475 0 -0.014297590973466749 -0.0002976753174887135 0 -0.014306841318055678 -0.00030847640803431821 0 -0.014297590973466749 -0.0002976753174887135 0 -0.014306841318055678 -0.00030847640803431821 0 -0.014304305191122713 -0.00030355699560562986 0 -0.014297590973466749 -0.0002976753174887135 0 -0.014304305191122713 -0.00030355699560562986 0 -0.014302987508077281 -0.00030494386123794859 0 -0.014311009973037208 -0.00030932194170142565 0 -0.014304305191122713 -0.00030355699560562986 0 -0.014307129917734709 -0.0003058541601061615 0 -0.014304305191122713 -0.00030355699560562986 0 -0.014307129917734709 -0.0003058541601061615 0 -0.014302987508077281 -0.00030494386123794859 0 -0.013769926870715134 -9.6019321549933303e-05 0 -0.013735445364140772 -3.0312061756254953e-05 0 -0.01361280408965704 -6.7400291967459702e-05 0 -0.014293933609100919 -0.00030592052473383722 0 -0.014302987508077281 -0.00030494386123794859 0 -0.014307696277453248 -0.00030633877259924355 0 -0.01388911525925393 3.0502546989733988e-05 0 -0.013918076359608291 1.6697397956952656e-05 0 -0.013959028150215361 4.323537652650104e-05 0 -0.014307129917734709 -0.0003058541601061615 0 -0.014302987508077281 -0.00030494386123794859 0 -0.014307696277453248 -0.00030633877259924355 0 -0.014242465421644049 -0.0005741402365503275 0 -0.014742867312732551 -0.00073277365039777517 0 -0.01419967034114538 -0.00044826814462410223 0 -0.014742867312732551 -0.00073277365039777517 0 -0.014742867312732551 -0.00073277365039777517 0 -0.015523444345413903 -0.00086251642914343695 0 -0.013918076359608291 1.6697397956952656e-05 0 -0.013959028150215361 4.323537652650104e-05 0 -0.014013013561564583 2.8375005710651599e-05 0 -0.015100158898522379 -0.0009490546093420786 0 -0.014742867312732551 -0.00073277365039777517 0 -0.016367155579212513 -0.0019441101882651502 0 -0.016776893054511383 -0.0018179667909021485 0 -0.016455991850229473 -0.001764346278529361 0 -0.014299306583617433 -0.00030562244409986411 0 -0.014303975358267053 -0.00030715806646307769 0 -0.014307696277453248 -0.00030633877259924355 0 -0.014299306583617433 -0.00030562244409986411 0 -0.014297237332351574 -0.00030930863227730831 0 -0.014303975358267053 -0.00030715806646307769 0 -0.014303975358267053 -0.00030715806646307769 0 -0.014307129917734709 -0.0003058541601061615 0 -0.014307696277453248 -0.00030633877259924355 0 -0.015029159540222308 -0.0017912642581500975 0 -0.015209351593072047 -0.0014555294238659884 0 -0.015481991009297169 -0.0016980833955608369 0 -0.014496851936474073 -0.0018750374453734378 0 -0.014964845856400613 -0.001778677919652032 0 -0.014879271512311724 -0.0019388725805316355 0 -0.014610020171359452 -0.0020096105496800369 0 -0.0148597995108239 -0.0017153725030515982 0 -0.014660680977219865 -0.0026008400607035842 0 -0.015063520038644522 -0.0019120625238082784 0 -0.014489469994991143 -0.0021340218423077429 0 -0.014610020171359452 -0.0020096105496800369 0 -0.015154790141750623 -0.0017490781373709233 0 -0.014938458915279782 -0.0011230583933741977 0 -0.015063520038644522 -0.0019120625238082784 0 -0.014489469994991143 -0.0021340218423077429 0 -0.014972318284438556 -0.0015535648642926491 0 -0.0148597995108239 -0.0017153725030515982 0 -0.015359374384994618 -0.0011537225784100514 0 -0.015209351593072047 -0.0014555294238659884 0 -0.01554541822951719 -0.0013214100592416824 0 -0.015209351593072047 -0.0014555294238659884 0 -0.01554541822951719 -0.0013214100592416824 0 -0.015481991009297169 -0.0016980833955608369 0 -0.01554541822951719 -0.0013214100592416824 0 -0.015481991009297169 -0.0016980833955608369 0 -0.015778775591787402 -0.001418641118450785 0 -0.014964845856400613 -0.001778677919652032 0 -0.014879271512311724 -0.0019388725805316355 0 -0.015433773685109699 -0.0016817629157598534 0 -0.014696203242954519 -0.0019385658503968315 0 -0.01555999990949853 -0.0015160168471568633 0 -0.014192223090994386 -0.0015739277818809824 0 -0.014776679214733657 -0.0012487614903099839 0 -0.014838024898872305 -0.0016826633081670672 0 -0.015481991009297169 -0.0016980833955608369 0 -0.015966470425311935 -0.0015848240830582327 0 -0.015778775591787402 -0.001418641118450785 0 -0.015154790141750623 -0.0017490781373709233 0 -0.01555999990949853 -0.0015160168471568633 0 -0.01584102714387333 -0.0011746794033984681 0 -0.01554541822951719 -0.0013214100592416824 0 -0.015778775591787402 -0.001418641118450785 0 -0.01584102714387333 -0.0011746794033984681 0 -0.015778775591787402 -0.001418641118450785 0 -0.016071138246403951 -0.0012934785607734134 0 -0.015966470425311935 -0.0015848240830582327 0 -0.015778775591787402 -0.001418641118450785 0 -0.016071138246403951 -0.0012934785607734134 0 -0.015966470425311935 -0.0015848240830582327 0 -0.016071138246403951 -0.0012934785607734134 0 -0.016329816143072915 -0.0013476949489605527 0 -0.016046247070614202 -0.0012523865900865348 0 -0.01555999990949853 -0.0015160168471568633 0 -0.01555999990949853 -0.0015160168471568633 0 -0.016061137411211918 -0.0013048256416479727 0 -0.016537709995017861 -0.0010999235900908992 0 -0.016400808502344415 -0.0011328017080596373 0 -0.016484330860985628 -0.0010914990656258731 0 -0.016306842110625362 -0.0010727975361387288 0 -0.016071138246403951 -0.0012934785607734134 0 -0.016329816143072915 -0.0013476949489605527 0 -0.016306842110625362 -0.0010727975361387288 0 -0.016440230806761567 -0.0011090959105227024 0 -0.016329816143072915 -0.0013476949489605527 0 -0.015661538306678123 -0.0010318195242989261 0 -0.014776679214733657 -0.0012487614903099839 0 -0.015110287814472344 -0.0012931862965275414 0 -0.014776679214733657 -0.0012487614903099839 0 -0.015110287814472344 -0.0012931862965275414 0 -0.014838024898872305 -0.0016826633081670672 0 -0.015342301596007716 -0.001602163390270568 0 -0.015110287814472344 -0.0012931862965275414 0 -0.014838024898872305 -0.0016826633081670672 0 -0.015533315811913296 -0.0013637083687932734 0 -0.015512828696409464 -0.0016993329249459597 0 -0.015110287814472344 -0.0012931862965275414 0 -0.015395545274225314 -0.0013559028873037305 0 -0.015357190075732361 -0.0013417558639929501 0 -0.015342301596007716 -0.001602163390270568 0 -0.015038804653874454 -0.0020522611782361529 0 -0.014838024898872305 -0.0016826633081670672 0 -0.015304493056930185 -0.0021907950730988479 0 -0.015038804653874454 -0.0020522611782361529 0 -0.014959917978061087 -0.0024575982089004465 0 -0.015038804653874454 -0.0020522611782361529 0 -0.014430956071347775 -0.0020104112834393754 0 -0.014572257527492298 -0.0024257453000993134 0 -0.015038804653874454 -0.0020522611782361529 0 -0.014838024898872305 -0.0016826633081670672 0 -0.014430956071347775 -0.0020104112834393754 0 -0.014192223090994386 -0.0015739277818809824 0 -0.014838024898872305 -0.0016826633081670672 0 -0.014430956071347775 -0.0020104112834393754 0 -0.014192223090994386 -0.0015739277818809824 0 -0.014430956071347775 -0.0020104112834393754 0 -0.014019547511132983 -0.0019735829398948982 0 -0.014430956071347775 -0.0020104112834393754 0 -0.014017897140213835 -0.002334521638400765 0 -0.014572257527492298 -0.0024257453000993134 0 -0.014430956071347775 -0.0020104112834393754 0 -0.014017897140213835 -0.002334521638400765 0 -0.014019547511132983 -0.0019735829398948982 0 -0.014017897140213835 -0.002334521638400765 0 -0.013700586339606973 -0.0024111943960893672 0 -0.01374842108576054 -0.002180200153130835 0 -0.014017897140213835 -0.002334521638400765 0 -0.014019547511132983 -0.0019735829398948982 0 -0.01374842108576054 -0.002180200153130835 0 -0.014696203242954519 -0.0019385658503968315 0 -0.014117050277273648 -0.0024058824068887109 0 -0.014496851936474073 -0.0018750374453734378 0 -0.014879271512311724 -0.0019388725805316355 0 -0.01432597399825988 -0.0021947289991333381 0 -0.014019547511132983 -0.0019735829398948982 0 -0.013622462550923939 -0.0018808265948044045 0 -0.01374842108576054 -0.002180200153130835 0 -0.014192223090994386 -0.0015739277818809824 0 -0.014019547511132983 -0.0019735829398948982 0 -0.013622462550923939 -0.0018808265948044045 0 -0.013963859273193128 -0.0029190935812581425 0 -0.013992423044177728 -0.0026243478526598082 0 -0.014229364348219744 -0.0026270244510158713 0 -0.013963859273193128 -0.0029190935812581425 0 -0.013992423044177728 -0.0026243478526598082 0 -0.013760123754143622 -0.0026108996212932723 0 -0.014017897140213835 -0.002334521638400765 0 -0.013700586339606973 -0.0024111943960893672 0 -0.013760123754143622 -0.0026108996212932723 0 -0.014017897140213835 -0.002334521638400765 0 -0.013992423044177728 -0.0026243478526598082 0 -0.013760123754143622 -0.0026108996212932723 0 -0.014017897140213835 -0.002334521638400765 0 -0.013992423044177728 -0.0026243478526598082 0 -0.014229364348219744 -0.0026270244510158713 0 -0.014229364348219744 -0.0026270244510158713 0 -0.014599885451805898 -0.0029830298538928253 0 -0.014572257527492298 -0.0024257453000993134 0 -0.014017897140213835 -0.002334521638400765 0 -0.014229364348219744 -0.0026270244510158713 0 -0.014572257527492298 -0.0024257453000993134 0 -0.010632065968512341 -0.0005771008832067124 0 -0.011731481868210242 -0.00075412309337974999 0 -0.010827911995836503 -0.0010185319918012952 0 -0.012002026245158132 -0.0016409118674406079 0 -0.011792873234934583 -0.0015888738905467084 0 -0.013963859273193128 -0.0029190935812581425 0 -0.014229364348219744 -0.0026270244510158713 0 -0.014599885451805898 -0.0029830298538928253 0 -0.014599885451805898 -0.0029830298538928253 0 -0.014572257527492298 -0.0024257453000993134 0 -0.014959917978061087 -0.0024575982089004465 0 -0.014959917978061087 -0.0024575982089004465 0 -0.015298023431598388 -0.0025222036784743941 0 -0.015165794754724602 -0.0027718549763827531 0 -0.015038804653874454 -0.0020522611782361529 0 -0.014572257527492298 -0.0024257453000993134 0 -0.014959917978061087 -0.0024575982089004465 0 -0.011792873234934583 -0.0015888738905467084 0 -0.013634009495600754 -0.0015885665849364506 0 -0.014599885451805898 -0.0029830298538928253 0 -0.014959917978061087 -0.0024575982089004465 0 -0.015165794754724602 -0.0027718549763827531 0 -0.014463281057195571 -0.0029544230659075857 0 -0.015080168934772507 -0.0030573197461108092 0 -0.015165794754724602 -0.0027718549763827531 0 -0.0077044408053048756 -0.0010129183713359017 0 -0.0077143005822570831 -0.0010037096325720577 0 -0.0077167154724652231 -0.0010148691222706368 0 -0.0076974209772162584 -0.00099902517438070449 0 -0.0077044408053048756 -0.0010129183713359017 0 -0.0077143005822570831 -0.0010037096325720577 0 -0.011792873234934583 -0.0015888738905467084 0 -0.011413459400992953 -0.0013794736939341298 0 -0.0077044408053048756 -0.0010129183713359017 0 -0.0076913600987840065 -0.001020644711577873 0 -0.0077040935639611768 -0.0010248771258629778 0 -0.0077044408053048756 -0.0010129183713359017 0 -0.0077167154724652231 -0.0010148691222706368 0 -0.0077040935639611768 -0.0010248771258629778 0 -0.0076974209772162584 -0.00099902517438070449 0 -0.0076913600987840065 -0.001020644711577873 0 -0.007676084923245851 -0.0010178743881293167 0 -0.0076974209772162584 -0.00099902517438070449 0 -0.0077044408053048756 -0.0010129183713359017 0 -0.0076913600987840065 -0.001020644711577873 0 -0.0076974209772162584 -0.00099902517438070449 0 -0.007676084923245851 -0.0010178743881293167 0 -0.0076690699016638796 -0.0010025703493705016 0 -0.011792873234934583 -0.0015888738905467084 0 -0.0096816969398889029 -0.0014314126618327561 0 -0.0076913600987840065 -0.001020644711577873 0 -0.007676084923245851 -0.0010178743881293167 0 -0.0076662059381977909 -0.0010372854704876733 0 -0.007676084923245851 -0.0010178743881293167 0 -0.0076561306422268027 -0.0010211798747467625 0 -0.0076662059381977909 -0.0010372854704876733 0 -0.0076561306422268027 -0.0010211798747467625 0 -0.0076662059381977909 -0.0010372854704876733 0 -0.0076316844311223033 -0.0010351832904816208 0 -0.0096816969398889029 -0.0014314126618327561 0 -0.0084442054786102866 -0.0012903098682109163 0 -0.010827911995836503 -0.0010185319918012952 0 -0.010483300752450032 -0.00097411674223017003 0 -0.0098704240970244918 -0.0013527634171866523 0 -0.0076561306422268027 -0.0010211798747467625 0 -0.0076690699016638796 -0.0010025703493705016 0 -0.0076312932240110059 -0.0010089863723383009 0 -0.007676084923245851 -0.0010178743881293167 0 -0.0076561306422268027 -0.0010211798747467625 0 -0.0076690699016638796 -0.0010025703493705016 0 -0.010632065968512341 -0.0005771008832067124 0 -0.010827911995836503 -0.0010185319918012952 0 -0.010483300752450032 -0.00097411674223017003 0 -0.014856559369481602 -0.00038033104424565936 0 -0.014560376451403413 -0.0001815430776751529 0 -0.014358831590290897 -0.00036739376214612961 0 -0.014560376451403413 -0.0001815430776751529 0 -0.014235315231223684 -0.00025276341067003149 0 -0.014701392202880983 0.00011366883570432574 0 -0.014856559369481602 -0.00038033104424565936 0 -0.014825412252916205 -8.067890353093982e-05 0 -0.014560376451403413 -0.0001815430776751529 0 -0.014235315231223684 -0.00025276341067003149 0 -0.014358831590290897 -0.00036739376214612961 0 -0.014305304070657351 -0.00032442161195709988 0 -0.014560376451403413 -0.0001815430776751529 0 -0.014235315231223684 -0.00025276341067003149 0 -0.014358831590290897 -0.00036739376214612961 0 -0.014268585820165148 -0.00028458271924975781 0 -0.014235315231223684 -0.00025276341067003149 0 -0.014305304070657351 -0.00032442161195709988 0 -0.014358831590290897 -0.00036739376214612961 0 -0.014305304070657351 -0.00032442161195709988 0 -0.014322317346838807 -0.00032349767089765081 0 -0.014290686482474248 -0.00029657554715426475 0 -0.014306841318055678 -0.00030847640803431821 0 -0.014305304070657351 -0.00032442161195709988 0 -0.014306841318055678 -0.00030847640803431821 0 -0.014305304070657351 -0.00032442161195709988 0 -0.014322317346838807 -0.00032349767089765081 0 -0.014358831590290897 -0.00036739376214612961 0 -0.014322317346838807 -0.00032349767089765081 0 -0.014293304074955293 -0.00031683158889893288 0 -0.014856559369481602 -0.00038033104424565936 0 -0.014358831590290897 -0.00036739376214612961 0 -0.014850069215927273 -0.001190510487537347 0 -0.014626786462087128 -0.00060699125021998566 0 -0.014804387449227917 -0.00077070740919064462 0 -0.014856559369481602 -0.00038033104424565936 0 -0.014850069215927273 -0.001190510487537347 0 -0.015377109867595277 -0.00074479697339735202 0 -0.015304493056930185 -0.0021907950730988479 0 -0.014959917978061087 -0.0024575982089004465 0 -0.015298023431598388 -0.0025222036784743941 0 -0.015304493056930185 -0.0021907950730988479 0 -0.015583417740561071 -0.0025154865494428007 0 -0.015298023431598388 -0.0025222036784743941 0 -0.015583417740561071 -0.0025154865494428007 0 -0.015298023431598388 -0.0025222036784743941 0 -0.015352633520025631 -0.0027970415909987028 0 -0.015583417740561071 -0.0025154865494428007 0 -0.015352633520025631 -0.0027970415909987028 0 -0.015628169809467667 -0.0031333935240429114 0 -0.015080168934772507 -0.0030573197461108092 0 -0.015352633520025631 -0.0027970415909987028 0 -0.015628169809467667 -0.0031333935240429114 0 -0.015298023431598388 -0.0025222036784743941 0 -0.015165794754724602 -0.0027718549763827531 0 -0.015352633520025631 -0.0027970415909987028 0 -0.015080168934772507 -0.0030573197461108092 0 -0.015165794754724602 -0.0027718549763827531 0 -0.015352633520025631 -0.0027970415909987028 0 -0.013008345405920805 -0.0016520872476558039 0 -0.010882443875693584 -0.00083755521369088749 0 -0.014856559369481602 -0.00038033104424565936 0 -0.015377109867595277 -0.00074479697339735202 0 -0.015198144293315148 0.00012618479006360853 0 -0.014856559369481602 -0.00038033104424565936 0 -0.014825412252916205 -8.067890353093982e-05 0 -0.015198144293315148 0.00012618479006360853 0 -0.014825412252916205 -8.067890353093982e-05 0 -0.015198144293315148 0.00012618479006360853 0 -0.014701392202880983 0.00011366883570432574 0 -0.010766739631184555 -0.00028303044228492877 0 -0.010770809359078381 -0.00033165043128560658 0 -0.01138922603774197 -0.00036935746303325015 0 -0.0077329536759595486 -0.0010070329238278833 0 -0.0077335885873540617 -0.001008734184935864 0 -0.0077275408329849473 -0.0010077757637894172 0 -0.010555885397123602 -0.00081478601016976722 0 -0.010407508153654462 -0.00079864871929309893 0 -0.010882443875693584 -0.00083755521369088749 0 -0.010555885397123602 -0.00081478601016976722 0 -0.0077143005822570831 -0.0010037096325720577 0 -0.0077329536759595486 -0.0010070329238278833 0 -0.0077275408329849473 -0.0010077757637894172 0 -0.0077143005822570831 -0.0010037096325720577 0 -0.0077275408329849473 -0.0010077757637894172 0 -0.0077167154724652231 -0.0010148691222706368 0 -0.011413459400992953 -0.0013794736939341298 0 -0.010882443875693584 -0.00083755521369088749 0 -0.0077304120053632661 -0.0010086551110056869 0 -0.0077275408329849473 -0.0010077757637894172 0 -0.0077167154724652231 -0.0010148691222706368 0 -0.0077167154724652231 -0.0010148691222706368 0 -0.0077155833072402868 -0.0010259487627682919 0 -0.0077040935639611768 -0.0010248771258629778 0 -0.0077304120053632661 -0.0010086551110056869 0 -0.0077167154724652231 -0.0010148691222706368 0 -0.0077155833072402868 -0.0010259487627682919 0 -0.010555885397123602 -0.00081478601016976722 0 -0.0074685969939076204 -0.0005958900986484868 0 -0.0075967467261096287 -0.0002370510357691775 0 -0.0076270804746820485 -0.00035425169302398068 0 -0.0076539538320847915 -0.00033869077363082281 0 -0.0075967467261096287 -0.0002370510357691775 0 -0.0077568526969161973 -0.00021732002691116304 0 -0.0076270804746820485 -0.00035425169302398068 0 -0.0077568526969161973 -0.00021732002691116304 0 -0.007878102803969304 -0.00039714872634782808 0 -0.0076270804746820485 -0.00035425169302398068 0 -0.01455747964827517 0.00017966671783494238 0 -0.014701392202880983 0.00011366883570432574 0 -0.014342840858441563 0.00011195817954798731 0 -0.010770809359078381 -0.00033165043128560658 0 -0.011449720798144025 -0.00042966507068807695 0 -0.01138922603774197 -0.00036935746303325015 0 -0.010555885397123602 -0.00081478601016976722 0 -0.010291762652627932 -0.00032063460506986371 0 -0.010882443875693584 -0.00083755521369088749 0 -0.012366082251574465 -0.00052761633398549829 0 -0.015198144293315148 0.00012618479006360853 0 -0.01455747964827517 0.00017966671783494238 0 -0.014701392202880983 0.00011366883570432574 0 -0.014825412252916205 -8.067890353093982e-05 0 -0.014560376451403413 -0.0001815430776751529 0 -0.014701392202880983 0.00011366883570432574 0 -0.014212148366583887 -7.1606980098102142e-05 0 -0.014701392202880983 0.00011366883570432574 0 -0.014342840858441563 0.00011195817954798731 0 -0.014330403964663866 -0.00010217369300254863 0 -0.014488797902229263 -1.8338004781791014e-05 0 -0.012544113911872231 -0.00024180960629312969 0 -0.012366082251574465 -0.00052761633398549829 0 -0.011988330136860809 -9.8167917717977482e-05 0 -0.010291762652627932 -0.00032063460506986371 0 -0.014116251560979868 0.00026019248799058145 0 -0.01455747964827517 0.00017966671783494238 0 -0.014342840858441563 0.00011195817954798731 0 -0.012013920734038753 -0.00045386073426557114 0 -0.012131165568328616 -0.00052569892976104171 0 -0.011449720798144025 -0.00042966507068807695 0 -0.012013920734038753 -0.00045386073426557114 0 -0.011449720798144025 -0.00042966507068807695 0 -0.01138922603774197 -0.00036935746303325015 0 -0.014164490797061285 5.5068646181751995e-05 0 -0.014201824123207567 0.00023018737471982865 0 -0.014342840858441563 0.00011195817954798731 0 -0.014164490797061285 5.5068646181751995e-05 0 -0.014212148366583887 -7.1606980098102142e-05 0 -0.014342840858441563 0.00011195817954798731 0 -0.012544113911872231 -0.00024180960629312969 0 -0.012851264139002032 -0.00033261551088881712 0 -0.0080124505881387816 -0.00023252242498529043 0 -0.0077568526969161973 -0.00021732002691116304 0 -0.007878102803969304 -0.00039714872634782808 0 -0.007237578576319138 -0.00028106815228294519 0 -0.0070913897820905208 -0.00022217811534168221 0 -0.0071942121939840425 -0.00038947134803691852 0 -0.007469257398583719 -0.00034626463998634684 0 -0.0071096112569640924 -0.00022110990727713573 0 -0.0072567410914708879 -0.00016584377549781857 0 -0.007469257398583719 -0.00034626463998634684 0 -0.0070389085628195097 -0.00022404595253956226 0 -0.0072567410914708879 -0.00016584377549781857 0 -0.0071690664804408546 -6.2556349863713557e-06 0 -0.0070389085628195097 -0.00022404595253956226 0 -0.0071690664804408546 -6.2556349863713557e-06 0 -0.0073831686554831138 -2.9726429410560569e-05 0 -0.0073432229261025175 0.0002864606085919643 0 -0.0072567410914708879 -0.00016584377549781857 0 -0.0071690664804408546 -6.2556349863713557e-06 0 -0.0073831686554831138 -2.9726429410560569e-05 0 -0.0073831686554831138 -2.9726429410560569e-05 0 -0.0075279885498612739 -0.00020899964433629466 0 -0.0076646134928423327 0.00013658957654535909 0 -0.0073831686554831138 -2.9726429410560569e-05 0 -0.0075279885498612739 -0.00020899964433629466 0 -0.0074007956970926813 -0.0001919263846952539 0 -0.0072567410914708879 -0.00016584377549781857 0 -0.0073831686554831138 -2.9726429410560569e-05 0 -0.0074007956970926813 -0.0001919263846952539 0 -0.0075279885498612739 -0.00020899964433629466 0 -0.0074007956970926813 -0.0001919263846952539 0 -0.007469257398583719 -0.00034626463998634684 0 -0.0071942121939840425 -0.00038947134803691852 0 -0.007469257398583719 -0.00034626463998634684 0 -0.0076270804746820485 -0.00035425169302398068 0 -0.0076742653730924888 -0.00016012633966973268 0 -0.0076224236784448764 -0.00021258145556504564 0 -0.0072567410914708879 -0.00016584377549781857 0 -0.0074007956970926813 -0.0001919263846952539 0 -0.007469257398583719 -0.00034626463998634684 0 -0.0075279885498612739 -0.00020899964433629466 0 -0.007469257398583719 -0.00034626463998634684 0 -0.0076270804746820485 -0.00035425169302398068 0 -0.0075279885498612739 -0.00020899964433629466 0 -0.0076270804746820485 -0.00035425169302398068 0 -0.0076539538320847915 -0.00033869077363082281 0 -0.0077155833072402868 -0.0010259487627682919 0 -0.0077005365827557768 -0.0010336415671340384 0 -0.0077040935639611768 -0.0010248771258629778 0 -0.0043368206178384964 -0.00053223391052280961 0 -0.0042006359233381987 -0.00017830408042838358 0 -0.0075279885498612739 -0.00020899964433629466 0 -0.0076539538320847915 -0.00033869077363082281 0 -0.0076646134928423327 0.00013658957654535909 0 -0.0074685969939076204 -0.0005958900986484868 0 -0.0042006359233381987 -0.00017830408042838358 0 -0.0077155833072402868 -0.0010259487627682919 0 -0.0077005365827557768 -0.0010336415671340384 0 -0.0077028280115135584 -0.0010318730707906975 0 -0.00036761978064484636 2.9025418706426079e-05 0 -0.00080675328349547352 -0.00010187133403580916 0 -0.00074777668202876367 0.00022118707508846983 0 -0.00058932943313924808 -0.00048343491416695143 0 -0.00036761978064484636 2.9025418706426079e-05 0 -0.00080675328349547352 -0.00010187133403580916 0 -0.00058932943313924808 -0.00048343491416695143 0 1.4201742386941306e-05 -0.00022707152157848764 0 -0.00036761978064484636 2.9025418706426079e-05 0 -0.00036761978064484636 2.9025418706426079e-05 0 -0.00074777668202876367 0.00022118707508846983 0 -0.00037126379555235629 0.00063504931727766925 0 -0.00019584514616190546 0.00024116302232952418 0 -0.00022131874987438321 -6.8777655780585727e-05 0 -0.00033965217975894896 3.2966863592189597e-05 0 -0.0042006359233381987 -0.00017830408042838358 0 -0.0019312081995931101 0.00026969375945457783 0 -0.00036761978064484636 2.9025418706426079e-05 0 8.6454492300280737e-05 0.0004451033118954999 0 -0.00037126379555235629 0.00063504931727766925 0 1.4201742386941306e-05 -0.00022707152157848764 0 -0.00036761978064484636 2.9025418706426079e-05 0 8.6454492300280737e-05 0.0004451033118954999 0 -0.00022131874987438321 -6.8777655780585727e-05 0 -0.00033965217975894896 3.2966863592189597e-05 0 -0.00036931366047845564 -0.00013104195473933195 0 -0.00033965217975894896 3.2966863592189597e-05 0 -0.00049972914664808763 2.9637899662315658e-06 0 -0.00042183897457669518 0.0001592381101900795 0 -0.00033965217975894896 3.2966863592189597e-05 0 -0.00049972914664808763 2.9637899662315658e-06 0 -0.00036931366047845564 -0.00013104195473933195 0 -0.0039545173230206079 2.893792318795642e-05 0 -0.0039313831672651654 8.2406103313847545e-05 0 -0.00049972914664808763 2.9637899662315658e-06 0 -0.00042183897457669518 0.0001592381101900795 0 -0.00069939856888969973 7.9923467820708577e-05 0 -0.00049972914664808763 2.9637899662315658e-06 0 -0.00067263378125016304 -0.00012174487906174006 0 -0.00069939856888969973 7.9923467820708577e-05 0 -0.0071690664804408546 -6.2556349863713557e-06 0 -0.0073432229261025175 0.0002864606085919643 0 -0.0069350660281809889 0.00011879831588794309 0 -0.0073432229261025175 0.0002864606085919643 0 -0.0069350660281809889 0.00011879831588794309 0 -0.0069930865091456405 0.00043808145065935618 0 -0.0073831686554831138 -2.9726429410560569e-05 0 -0.0076646134928423327 0.00013658957654535909 0 -0.0073432229261025175 0.0002864606085919643 0 -0.0042006359233381987 -0.00017830408042838358 0 -0.0039545173230206079 2.893792318795642e-05 0 -0.00019584514616190546 0.00024116302232952418 0 -0.00033965217975894896 3.2966863592189597e-05 0 -0.00042183897457669518 0.0001592381101900795 0 -0.0033688470214596131 -0.0008893241101203005 0 -0.0027316891221356421 -0.00039424929012865504 0 -0.0040568715323067491 -0.00065112691899228193 0 -0.002487998810485865 -0.0006232619990316899 0 -0.0036442744258331607 -0.00083510727070066173 0 -0.0033688470214596131 -0.0008893241101203005 0 -0.0029866045210292643 -0.00089571911543189766 0 -0.0027713753742281732 -0.00056238430303920026 0 -0.0033688470214596131 -0.0008893241101203005 0 -0.0027713753742281732 -0.00056238430303920026 0 -0.0027316891221356421 -0.00039424929012865504 0 -0.0033688470214596131 -0.0008893241101203005 0 -0.0028468947183988829 -0.0012889305925519003 0 -0.0039154197200227461 -0.001488419226956964 0 -0.00524086576150554 -0.0010160290919794895 0 -0.0057961503036281434 -0.0011624469287374827 0 -0.0033688470214596131 -0.0008893241101203005 0 -0.0028468947183988829 -0.0012889305925519003 0 -0.0029866045210292643 -0.00089571911543189766 0 -0.0076913600987840065 -0.001020644711577873 0 -0.0076662059381977909 -0.0010372854704876733 0 -0.0076878033971518227 -0.0010363574080045899 0 -0.00524086576150554 -0.0010160290919794895 0 -0.0047194454468535577 -0.00080413077591641761 0 -0.0028468947183988829 -0.0012889305925519003 0 -0.0019856391276651701 -0.00076633276381758405 0 -0.0024203581142104567 -0.00065911484587468316 0 -0.0028468947183988829 -0.0012889305925519003 0 -0.0029866045210292643 -0.00089571911543189766 0 -0.0024203581142104567 -0.00065911484587468316 0 -0.0028468947183988829 -0.0012889305925519003 0 -0.0019856391276651701 -0.00076633276381758405 0 -0.0015137678208654777 -0.00090031255628373447 0 -0.0024203581142104567 -0.00065911484587468316 0 -0.0027016684873543148 -0.00036553688617752618 0 -0.0011800507404168604 -0.00035717245282221142 0 -0.0029866045210292643 -0.00089571911543189766 0 -0.0027713753742281732 -0.00056238430303920026 0 -0.0024203581142104567 -0.00065911484587468316 0 -0.0027713753742281732 -0.00056238430303920026 0 -0.0024203581142104567 -0.00065911484587468316 0 -0.0027016684873543148 -0.00036553688617752618 0 -0.0024894842379512587 -0.00062266534000515717 0 -0.002487998810485865 -0.0006232619990316899 0 -0.0019856391276651701 -0.00076633276381758405 0 -0.0024203581142104567 -0.00065911484587468316 0 -0.0011800507404168604 -0.00035717245282221142 0 -0.002487998810485865 -0.0006232619990316899 0 -0.0018374138985519763 -0.00050576415306507897 0 -0.001785714737598106 -0.00042737865547720584 0 -0.0011800507404168604 -0.00035717245282221142 0 -0.0014950043163949702 -0.00018519287549603636 0 -0.0019856391276651701 -0.00076633276381758405 0 -0.0011800507404168604 -0.00035717245282221142 0 -0.0015137678208654777 -0.00090031255628373447 0 -0.0076913600987840065 -0.001020644711577873 0 -0.0076878033971518227 -0.0010363574080045899 0 -0.0077040935639611768 -0.0010248771258629778 0 -0.0077005365827557768 -0.0010336415671340384 0 -0.0076878033971518227 -0.0010363574080045899 0 -0.0077040935639611768 -0.0010248771258629778 0 -0.00058932943313924808 -0.00048343491416695143 0 -0.0011800507404168604 -0.00035717245282221142 0 -0.0015137678208654777 -0.00090031255628373447 0 -0.0043368206178384964 -0.00053223391052280961 0 -0.0047194454468535577 -0.00080413077591641761 0 -0.00058932943313924808 -0.00048343491416695143 0 -0.0011800507404168604 -0.00035717245282221142 0 -0.00080675328349547352 -0.00010187133403580916 0 -0.0011800507404168604 -0.00035717245282221142 0 -0.00080675328349547352 -0.00010187133403580916 0 -0.0011641076275012287 4.1890157033754571e-05 0 -0.00080675328349547352 -0.00010187133403580916 0 -0.00074777668202876367 0.00022118707508846983 0 -0.0011641076275012287 4.1890157033754571e-05 0 -0.00074777668202876367 0.00022118707508846983 0 -0.0011641076275012287 4.1890157033754571e-05 0 -0.0011052344739924554 0.0005198824983530003 0 -0.00074777668202876367 0.00022118707508846983 0 -0.0011052344739924554 0.0005198824983530003 0 -0.00037126379555235629 0.00063504931727766925 0 -0.0011641076275012287 4.1890157033754571e-05 0 -0.0016065026323168008 0.00020043168609609684 0 -0.0011052344739924554 0.0005198824983530003 0 -0.0011800507404168604 -0.00035717245282221142 0 -0.0011641076275012287 4.1890157033754571e-05 0 -0.0014950043163949702 -0.00018519287549603636 0 -0.0011641076275012287 4.1890157033754571e-05 0 -0.0014950043163949702 -0.00018519287549603636 0 -0.0016065026323168008 0.00020043168609609684 0 -0.001785714737598106 -0.00042737865547720584 0 -0.0014950043163949702 -0.00018519287549603636 0 -0.0016065026323168008 0.00020043168609609684 0 -0.002487998810485865 -0.0006232619990316899 0 -0.0020719838780035131 -5.3365791242171911e-06 0 -0.0023647192639427283 -0.00036924303695345809 0 -0.0029428834072920979 0.00038020672466120741 0 -0.003270114680654951 -0.00048229036979499971 0 -0.002686388917315586 -0.0011937365810324651 0 -0.003270114680654951 -0.00048229036979499971 0 -0.0037054367719535075 -0.0012329164262793895 0 -0.002686388917315586 -0.0011937365810324651 0 -0.0023647192639427283 -0.00036924303695345809 0 -0.003270114680654951 -0.00048229036979499971 0 -0.0029428834072920979 0.00038020672466120741 0 -0.0023550342383251255 0.00084318236726835217 0 -0.0028547378255645846 0.0010813699413189694 0 -0.0029428834072920979 0.00038020672466120741 0 -0.0028547378255645846 0.0010813699413189694 0 -0.0034302618890654506 0.00077430483692132008 0 -0.0023647192639427283 -0.00036924303695345809 0 -0.0029428834072920979 0.00038020672466120741 0 -0.001963128853796901 0.00045209437219506519 0 -0.0020719838780035131 -5.3365791242171911e-06 0 -0.0017076337420459016 0.00072588242366821039 0 -0.0029428834072920979 0.00038020672466120741 0 -0.0023550342383251255 0.00084318236726835217 0 -0.001963128853796901 0.00045209437219506519 0 -0.0023550342383251255 0.00084318236726835217 0 -0.001963128853796901 0.00045209437219506519 0 -0.0014737125865677374 0.0013641987699649261 0 -0.0017076337420459016 0.00072588242366821039 0 -0.0013853283054698958 0.0014684450191323807 0 -0.0016065026323168008 0.00020043168609609684 0 -0.0013672134597375429 0.00088906711403963093 0 -0.0011052344739924554 0.0005198824983530003 0 -0.0013672134597375429 0.00088906711403963093 0 -0.0011052344739924554 0.0005198824983530003 0 -0.00075043664587160256 0.00095820752280879396 0 -0.0011052344739924554 0.0005198824983530003 0 -0.00075043664587160256 0.00095820752280879396 0 -0.00037126379555235629 0.00063504931727766925 0 -0.0013672134597375429 0.00088906711403963093 0 -0.00075043664587160256 0.00095820752280879396 0 -0.0007211459573471992 0.0014135593034314481 0 -0.0007211459573471992 0.0014135593034314481 0 -0.00074191651912404899 0.0018563483971171667 0 -0.0011289729695880845 0.0015699176638139416 0 -0.0007211459573471992 0.0014135593034314481 0 -0.00074191651912404899 0.0018563483971171667 0 -0.00038168902405600193 0.0017453760869158015 0 -0.00074191651912404899 0.0018563483971171667 0 -0.0011289729695880845 0.0015699176638139416 0 -0.0009342746270457721 0.0022904741525024337 0 -0.0013853283054698958 0.0014684450191323807 0 -0.0012129898825418823 0.0019040006359829853 0 -0.0017226428474084838 0.002015203972199401 0 -0.0014737125865677374 0.0013641987699649261 0 -0.0009342746270457721 0.0022904741525024337 0 -0.0017226428474084838 0.002015203972199401 0 -0.0014737125865677374 0.0013641987699649261 0 -0.0018725832361218045 0.0016068598634244166 0 -0.0013672134597375429 0.00088906711403963093 0 -0.0007211459573471992 0.0014135593034314481 0 -0.0011289729695880845 0.0015699176638139416 0 -0.0014737125865677374 0.0013641987699649261 0 -0.0022525800559975474 0.0013745514234701798 0 -0.0018725832361218045 0.0016068598634244166 0 -0.0023550342383251255 0.00084318236726835217 0 -0.0014737125865677374 0.0013641987699649261 0 -0.0022525800559975474 0.0013745514234701798 0 -0.0023550342383251255 0.00084318236726835217 0 -0.0022525800559975474 0.0013745514234701798 0 -0.0028547378255645846 0.0010813699413189694 0 -0.0022525800559975474 0.0013745514234701798 0 -0.0018725832361218045 0.0016068598634244166 0 -0.0022364222859471475 0.0017443314047168893 0 -0.0017226428474084838 0.002015203972199401 0 -0.0020396564871672353 0.0020737584000459926 0 -0.0022364222859471475 0.0017443314047168893 0 -0.0017226428474084838 0.002015203972199401 0 -0.0018725832361218045 0.0016068598634244166 0 -0.0022364222859471475 0.0017443314047168893 0 0.0013567157416116817 0.0020280742689992568 0 0.0015598930452487326 0.0020215775931985481 0 -0.0020396564871672353 0.0020737584000459926 0 -0.0022364222859471475 0.0017443314047168893 0 -0.0026415775291111503 0.0021077049310867816 0 0.0015598930452487326 0.0020215775931985481 0 0.0015731224861799231 0.0015010878592319375 0 -0.0022525800559975474 0.0013745514234701798 0 -0.0022364222859471475 0.0017443314047168893 0 -0.0026898611133091767 0.0015469246461931093 0 -0.0022508241816958179 -1.4907319539147564e-05 0 0.0015731224861799231 0.0015010878592319375 0 -0.0026898611133091767 0.0015469246461931093 0 -0.0033676215718105797 0.0014860926798557835 0 -0.0026415775291111503 0.0021077049310867816 0 -0.0022364222859471475 0.0017443314047168893 0 -0.0026898611133091767 0.0015469246461931093 0 -0.0026415775291111503 0.0021077049310867816 0 -0.0026898611133091767 0.0015469246461931093 0 -0.0028547378255645846 0.0010813699413189694 0 -0.0033676215718105797 0.0014860926798557835 0 -0.0022525800559975474 0.0013745514234701798 0 -0.0026898611133091767 0.0015469246461931093 0 -0.0028547378255645846 0.0010813699413189694 0 -0.00037044471657832157 -0.0002413318902053293 0 -0.00024996283443054186 -0.00029324537223558874 0 -0.00034744874077587167 -0.00034163064020459636 0 -0.00037044471657832157 -0.0002413318902053293 0 -0.00036931366047845564 -0.00013104195473933195 0 -0.00024996283443054186 -0.00029324537223558874 0 -0.00037044471657832157 -0.0002413318902053293 0 -0.00044924484263235534 -0.00026342486188049271 0 -0.00034744874077587167 -0.00034163064020459636 0 -0.00037044471657832157 -0.0002413318902053293 0 -0.00044924484263235534 -0.00026342486188049271 0 -0.00043811403058964971 -0.0001870840038134442 0 -0.00043811403058964971 -0.0001870840038134442 0 -0.00036931366047845564 -0.00013104195473933195 0 -0.00049785852191128004 -0.00011280974064663796 0 -0.00049972914664808763 2.9637899662315658e-06 0 -0.00036931366047845564 -0.00013104195473933195 0 -0.00067263378125016304 -0.00012174487906174006 0 -0.00037044471657832157 -0.0002413318902053293 0 -0.00043811403058964971 -0.0001870840038134442 0 -0.00036931366047845564 -0.00013104195473933195 0 -0.001064902096113725 -0.00031406189292639377 0 -0.0015627830721656026 -0.00029537199665669901 0 -0.00043811403058964971 -0.0001870840038134442 0 -0.00049785852191128004 -0.00011280974064663796 0 -0.00052095714831966119 -0.00018225520973020156 0 -0.00044924484263235534 -0.00026342486188049271 0 -0.00043811403058964971 -0.0001870840038134442 0 -0.00052095714831966119 -0.00018225520973020156 0 -0.00022131874987438321 -6.8777655780585727e-05 0 -0.00036931366047845564 -0.00013104195473933195 0 -0.00024996283443054186 -0.00029324537223558874 0 8.6454492300280737e-05 0.0004451033118954999 0 -0.00037126379555235629 0.00063504931727766925 0 0.00018691297516639199 0.0011102810801011866 0 -0.0019312081995931101 0.00026969375945457783 0 -0.00085396746633734414 0.0004944481562597575 0 -0.00075043664587160256 0.00095820752280879396 0 -0.00037126379555235629 0.00063504931727766925 0 -0.00028418366402511872 0.0012703758425426706 0 -0.00075043664587160256 0.00095820752280879396 0 -0.0007211459573471992 0.0014135593034314481 0 -0.00028418366402511872 0.0012703758425426706 0 -0.00037126379555235629 0.00063504931727766925 0 0.00018691297516639199 0.0011102810801011866 0 -0.00028418366402511872 0.0012703758425426706 0 0.00018691297516639199 0.0011102810801011866 0 -0.00028418366402511872 0.0012703758425426706 0 0.00031234539264195102 0.0017958476895553281 0 -0.00085396746633734414 0.0004944481562597575 0 -0.00029559567104372965 0.00074437095775098979 0 -0.00028418366402511872 0.0012703758425426706 0 -0.00038168902405600193 0.0017453760869158015 0 0.00031234539264195102 0.0017958476895553281 0 -0.0007211459573471992 0.0014135593034314481 0 -0.00028418366402511872 0.0012703758425426706 0 -0.00038168902405600193 0.0017453760869158015 0 -0.00074191651912404899 0.0018563483971171667 0 -0.00038168902405600193 0.0017453760869158015 0 -0.00031156856403356651 0.0022779885605196722 0 -0.00038168902405600193 0.0017453760869158015 0 0.00031234539264195102 0.0017958476895553281 0 -0.00031156856403356651 0.0022779885605196722 0 -0.00028093419863149015 -0.00046656703919033992 0 -0.0002937031291445808 -0.00049808553199418828 0 -0.00033893188619946759 -0.00042856264930239837 0 -0.00024996283443054186 -0.00029324537223558874 0 -0.00028093419863149015 -0.00046656703919033992 0 -0.00034744874077587167 -0.00034163064020459636 0 -0.00028093419863149015 -0.00046656703919033992 0 -0.00034744874077587167 -0.00034163064020459636 0 -0.00033893188619946759 -0.00042856264930239837 0 -0.00044924484263235534 -0.00026342486188049271 0 -0.00034744874077587167 -0.00034163064020459636 0 -0.00043777142311563692 -0.00037809313159569932 0 -0.00034744874077587167 -0.00034163064020459636 0 -0.00043777142311563692 -0.00037809313159569932 0 -0.00033893188619946759 -0.00042856264930239837 0 -0.00043777142311563692 -0.00037809313159569932 0 -0.00033893188619946759 -0.00042856264930239837 0 -0.00049301089646583288 -0.00050258571271275432 0 -0.00032905560852247522 -0.00057665184337713589 0 -0.00032733010793967811 -0.00058807286124224238 0 -0.0002937031291445808 -0.00049808553199418828 0 -0.00033893188619946759 -0.00042856264930239837 0 -0.00049301089646583288 -0.00050258571271275432 0 -0.00032733010793967811 -0.00058807286124224238 0 -0.00031632660586815899 -0.00062031992969076939 0 -0.00049301089646583288 -0.00050258571271275432 0 -0.00070683758192534546 -0.00045673191380255439 0 -0.00059983173219027932 -0.00041056030388487313 0 -0.00011284009510100109 -0.0005783661475013181 0 -1.1445129842728993e-05 -0.00052109240954058614 0 3.9875146889620164e-05 -0.00062801650347703276 0 -0.00043777142311563692 -0.00037809313159569932 0 -0.00049301089646583288 -0.00050258571271275432 0 -0.00059983173219027932 -0.00041056030388487313 0 3.9875146889620164e-05 -0.00062801650347703276 0 0.00021981494991333281 -0.0005509850887829616 0 9.8392987154927763e-05 -0.00051044908782155759 0 -1.1445129842728993e-05 -0.00052109240954058614 0 3.9875146889620164e-05 -0.00062801650347703276 0 9.8392987154927763e-05 -0.00051044908782155759 0 -0.00031632660586815899 -0.00062031992969076939 0 -0.00035418504264205116 -0.00062263966080348303 0 -0.00075374665470079349 -0.00048765247537797536 0 -0.00087931993993959831 -0.00033238027612191842 0 -0.00069308021635188248 -0.00033433221578165075 0 -0.00075374665470079349 -0.00048765247537797536 0 -0.00069308021635188248 -0.00033433221578165075 0 -0.00059983173219027932 -0.00041056030388487313 0 -0.00069308021635188248 -0.00033433221578165075 0 -0.00078811103643714115 -0.00024982106973180042 0 -0.00063152361980372488 -0.00018951583074188819 0 -0.00087931993993959831 -0.00033238027612191842 0 -0.00069308021635188248 -0.00033433221578165075 0 -0.00078811103643714115 -0.00024982106973180042 0 -0.00087931993993959831 -0.00033238027612191842 0 -0.00078811103643714115 -0.00024982106973180042 0 -0.00087750744651371416 -0.00028036304995196888 0 -0.00078811103643714115 -0.00024982106973180042 0 -0.00087750744651371416 -0.00028036304995196888 0 -0.00086877229728484255 -0.00020141568781897789 0 -0.00087750744651371416 -0.00028036304995196888 0 -0.00086877229728484255 -0.00020141568781897789 0 -0.00094098920755143224 -0.00022312446504588952 0 -0.00087931993993959831 -0.00033238027612191842 0 -0.00087750744651371416 -0.00028036304995196888 0 -0.0010018666023370892 -0.00028264245375374399 0 -0.0016665009666430748 -0.00071965046572927162 0 -0.0020607982425420329 -0.00064738543248786865 0 -0.00043777142311563692 -0.00037809313159569932 0 -0.00059983173219027932 -0.00041056030388487313 0 -0.00058751388351351995 -0.00032851338355174175 0 -0.00069308021635188248 -0.00033433221578165075 0 -0.00059983173219027932 -0.00041056030388487313 0 -0.00058751388351351995 -0.00032851338355174175 0 -0.00069308021635188248 -0.00033433221578165075 0 -0.00058751388351351995 -0.00032851338355174175 0 -0.00063152361980372488 -0.00018951583074188819 0 -0.00043777142311563692 -0.00037809313159569932 0 -0.00058751388351351995 -0.00032851338355174175 0 -0.00063152361980372488 -0.00018951583074188819 0 -0.00044924484263235534 -0.00026342486188049271 0 -0.00043777142311563692 -0.00037809313159569932 0 -0.00052897837168996336 -0.00025645107435550183 0 -0.00043777142311563692 -0.00037809313159569932 0 -0.00057814008973776224 -5.7656225258114744e-05 0 -0.00063152361980372488 -0.00018951583074188819 0 -0.00044924484263235534 -0.00026342486188049271 0 -0.00056398598913769929 -0.00025882351061164068 0 -0.00052095714831966119 -0.00018225520973020156 0 -0.0016825678011060357 -0.00064542158021144548 0 -0.0020607982425420329 -0.00064738543248786865 0 -0.00057814008973776224 -5.7656225258114744e-05 0 -0.00063152361980372488 -0.00018951583074188819 0 -0.00078618872075883559 -0.00012467378482695825 0 -0.0020607982425420329 -0.00064738543248786865 0 -0.0030985751070605858 -0.00032723777821951294 0 -0.00057814008973776224 -5.7656225258114744e-05 0 -0.00078618872075883559 -0.00012467378482695825 0 -0.00088950567292343124 -1.2834300490268157e-05 0 -0.00078811103643714115 -0.00024982106973180042 0 -0.00063152361980372488 -0.00018951583074188819 0 -0.00078618872075883559 -0.00012467378482695825 0 -0.00078811103643714115 -0.00024982106973180042 0 -0.00078618872075883559 -0.00012467378482695825 0 -0.00086877229728484255 -0.00020141568781897789 0 -0.00086877229728484255 -0.00020141568781897789 0 -0.00087596786584282339 -0.00012423194626543811 0 -0.00094100903543318463 -0.0001623861143718281 0 -0.00086877229728484255 -0.00020141568781897789 0 -0.00094100903543318463 -0.0001623861143718281 0 -0.00094098920755143224 -0.00022312446504588952 0 -0.00078618872075883559 -0.00012467378482695825 0 -0.00086877229728484255 -0.00020141568781897789 0 -0.00087596786584282339 -0.00012423194626543811 0 -0.00078618872075883559 -0.00012467378482695825 0 -0.00087596786584282339 -0.00012423194626543811 0 -0.00089156662477714852 -3.7747431166044094e-05 0 -0.00087596786584282339 -0.00012423194626543811 0 -0.00092458740702139385 -9.6902259909192192e-05 0 -0.00094100903543318463 -0.0001623861143718281 0 -0.00087596786584282339 -0.00012423194626543811 0 -0.00089156662477714852 -3.7747431166044094e-05 0 -0.00092458740702139385 -9.6902259909192192e-05 0 -0.0030961286158956618 -0.00032543684040180486 0 -0.0030985751070605858 -0.00032723777821951294 0 -0.00078618872075883559 -0.00012467378482695825 0 -0.00089156662477714852 -3.7747431166044094e-05 0 -0.00088950567292343124 -1.2834300490268157e-05 0 -0.0031556541437137383 -0.00031656650887780307 0 -0.003244078394721839 -0.00052440738876849955 0 -0.0031746783034850507 -0.00053360348405467211 0 -0.0030985751070605858 -0.00032723777821951294 0 -0.0042309062070820212 -6.9110836192169293e-05 0 -0.0039336592269371218 8.3570396475963593e-05 0 -0.0038621982990932292 -0.00021799206719035825 0 -0.0039628189396246393 -0.00025996044290400562 0 -0.0033640505592595592 -0.00029750951415016922 0 -0.0031556541437137383 -0.00031656650887780307 0 -0.003244078394721839 -0.00052440738876849955 0 -0.0020607982425420329 -0.00064738543248786865 0 -0.0036493475419579306 -0.00017458056033875144 0 -0.00049785852191128004 -0.00011280974064663796 0 -0.00052095714831966119 -0.00018225520973020156 0 -0.00066256549815511985 -8.8531127331170696e-05 0 -0.0015627830721656026 -0.00029537199665669901 0 -0.0036493475419579306 -0.00017458056033875144 0 -0.00056398598913769929 -0.00025882351061164068 0 -0.00052095714831966119 -0.00018225520973020156 0 -0.00066256549815511985 -8.8531127331170696e-05 0 -0.0040229373914534147 -8.8704316368293389e-05 0 -0.0040196996828314492 -0.00010638878524674194 0 -0.0040383884610008672 -9.9163701684350285e-05 0 -0.0040229373914534147 -8.8704316368293389e-05 0 -0.0040408929297042545 -8.3770357056076606e-05 0 -0.0040231698205446306 -7.4453298039185373e-05 0 -0.0040229373914534147 -8.8704316368293389e-05 0 -0.0040383884610008672 -9.9163701684350285e-05 0 -0.0040408929297042545 -8.3770357056076606e-05 0 -0.0040229373914534147 -8.8704316368293389e-05 0 -0.0040196996828314492 -0.00010638878524674194 0 -0.0039948335371662713 -7.9651497793663102e-05 0 -0.0038621982990932292 -0.00021799206719035825 0 -0.0035509004423119133 4.843314129881064e-05 0 -0.0038712241380106948 -0.00027231489853101252 0 -0.0039336592269371218 8.3570396475963593e-05 0 -0.0038621982990932292 -0.00021799206719035825 0 -0.0035509004423119133 4.843314129881064e-05 0 -0.0030892696014580786 -0.00014147759086093441 0 -0.0044908081972499054 -5.9890524488504227e-05 0 -0.00099003839595012961 -7.0716598007715319e-05 0 -0.0011387090700143159 -8.8329643099609306e-05 0 -0.0012719211859922401 3.3012575093945848e-05 0 -0.0030985751070605858 -0.00032723777821951294 0 -0.0030892696014580786 -0.00014147759086093441 0 -0.00088974691669942477 -1.0209325156416283e-05 0 -0.00099003839595012961 -7.0716598007715319e-05 0 -0.0012719211859922401 3.3012575093945848e-05 0 -0.00089156662477714852 -3.7747431166044094e-05 0 -0.00088974691669942477 -1.0209325156416283e-05 0 -0.00099003839595012961 -7.0716598007715319e-05 0 -0.00089156662477714852 -3.7747431166044094e-05 0 -0.00099003839595012961 -7.0716598007715319e-05 0 -0.00092458740702139385 -9.6902259909192192e-05 0 -0.00099003839595012961 -7.0716598007715319e-05 0 -0.00092458740702139385 -9.6902259909192192e-05 0 -0.00094100903543318463 -0.0001623861143718281 0 -0.00099003839595012961 -7.0716598007715319e-05 0 -0.001017040424012064 -0.00018851033380674461 0 -0.00094100903543318463 -0.0001623861143718281 0 -0.00099003839595012961 -7.0716598007715319e-05 0 -0.001017040424012064 -0.00018851033380674461 0 -0.0010713904327517216 -0.00013381383071217297 0 -0.001017040424012064 -0.00018851033380674461 0 -0.00094100903543318463 -0.0001623861143718281 0 -0.00094098920755143224 -0.00022312446504588952 0 -0.00099003839595012961 -7.0716598007715319e-05 0 -0.0011387090700143159 -8.8329643099609306e-05 0 -0.0010713904327517216 -0.00013381383071217297 0 -0.0011387090700143159 -8.8329643099609306e-05 0 -0.0011320350027377662 -0.00015333737806153886 0 -0.0012289664669968084 -0.00011693594634490117 0 -0.0011387090700143159 -8.8329643099609306e-05 0 -0.0010713904327517216 -0.00013381383071217297 0 -0.0011320350027377662 -0.00015333737806153886 0 -0.0010713904327517216 -0.00013381383071217297 0 -0.0010782344922439552 -0.0001858872593735882 0 -0.0011320350027377662 -0.00015333737806153886 0 -0.001017040424012064 -0.00018851033380674461 0 -0.0010713904327517216 -0.00013381383071217297 0 -0.0010782344922439552 -0.0001858872593735882 0 -0.001017040424012064 -0.00018851033380674461 0 -0.0010782344922439552 -0.0001858872593735882 0 -0.0010682971827613475 -0.00023046905782784016 0 -0.0010782344922439552 -0.0001858872593735882 0 -0.0011320350027377662 -0.00015333737806153886 0 -0.0011296342443931078 -0.00021495276959631996 0 -0.0011320350027377662 -0.00015333737806153886 0 -0.0011829186706891093 -0.00019033742012730724 0 -0.0011296342443931078 -0.00021495276959631996 0 -0.0012289664669968084 -0.00011693594634490117 0 -0.0014281233022601912 -0.0001231560522783188 0 -0.0012558396809990201 -0.0002344579429138003 0 -0.0039651573774871609 -0.00011114667462471477 0 -0.0040066916371131085 -0.00015044204430801302 0 -0.0040503360350714595 -0.00010534155893783488 0 -0.0014380072400689118 -0.0001135559145069997 0 -0.0012558396809990201 -0.0002344579429138003 0 -0.0015568707323332751 -0.00023377366945136609 0 -0.0011829186706891093 -0.00019033742012730724 0 -0.0012289664669968084 -0.00011693594634490117 0 -0.0012558396809990201 -0.0002344579429138003 0 -0.0030892696014580786 -0.00014147759086093441 0 -0.0034990894393301403 -0.000110588761455007 0 -0.0011320350027377662 -0.00015333737806153886 0 -0.0011829186706891093 -0.00019033742012730724 0 -0.0012289664669968084 -0.00011693594634490117 0 -0.0012289664669968084 -0.00011693594634490117 0 -0.0012719211859922401 3.3012575093945848e-05 0 -0.0014281233022601912 -0.0001231560522783188 0 -0.0011387090700143159 -8.8329643099609306e-05 0 -0.0012289664669968084 -0.00011693594634490117 0 -0.0012719211859922401 3.3012575093945848e-05 0 -0.0030892696014580786 -0.00014147759086093441 0 -0.0024493743338139607 -0.00031678165353076941 0 -0.0024493743338139607 -0.00031678165353076941 0 -0.0022719349949238314 -0.00038304582912050428 0 -0.00041379540925366259 -0.00058459551402458541 0 -0.0014477514440725131 -0.00020825172844933856 0 -0.0012558396809990201 -0.0002344579429138003 0 -0.0011657693711602719 -0.00036687088136412257 0 -0.0015568707323332751 -0.00023377366945136609 0 -0.00037015359767692267 -0.0014092179053737733 0 9.2917145410064609e-05 -0.0011270756503740612 0 0.00027477389678417624 -0.0016315333854003071 0 -0.0012558396809990201 -0.0002344579429138003 0 -0.0011715537110636063 -0.0002444765434590456 0 -0.0011767943743395133 -0.00030870803707578459 0 -0.0011829186706891093 -0.00019033742012730724 0 -0.0012558396809990201 -0.0002344579429138003 0 -0.0011715537110636063 -0.0002444765434590456 0 -0.0012558396809990201 -0.0002344579429138003 0 -0.0011767943743395133 -0.00030870803707578459 0 -0.0011657693711602719 -0.00036687088136412257 0 -0.00031632660586815899 -0.00062031992969076939 0 -0.00041379540925366259 -0.00058459551402458541 0 -0.00075374665470079349 -0.00048765247537797536 0 -0.00087931993993959831 -0.00033238027612191842 0 -0.0011652353482548316 -0.00036183616748459356 0 -0.00087931993993959831 -0.00033238027612191842 0 -0.0010018666023370892 -0.00028264245375374399 0 -0.0011652353482548316 -0.00036183616748459356 0 -0.00087750744651371416 -0.00028036304995196888 0 -0.00094098920755143224 -0.00022312446504588952 0 -0.0010018666023370892 -0.00028264245375374399 0 -0.001017040424012064 -0.00018851033380674461 0 -0.0010018666023370892 -0.00028264245375374399 0 -0.0010682971827613475 -0.00023046905782784016 0 -0.001017040424012064 -0.00018851033380674461 0 -0.00094098920755143224 -0.00022312446504588952 0 -0.0010018666023370892 -0.00028264245375374399 0 -0.0010018666023370892 -0.00028264245375374399 0 -0.0011159402124318097 -0.0002799615198569708 0 -0.0011652353482548316 -0.00036183616748459356 0 -0.0010682971827613475 -0.00023046905782784016 0 -0.0011296342443931078 -0.00021495276959631996 0 -0.0011159402124318097 -0.0002799615198569708 0 -0.0010018666023370892 -0.00028264245375374399 0 -0.0010682971827613475 -0.00023046905782784016 0 -0.0011159402124318097 -0.0002799615198569708 0 -0.0010782344922439552 -0.0001858872593735882 0 -0.0010682971827613475 -0.00023046905782784016 0 -0.0011296342443931078 -0.00021495276959631996 0 -0.0011296342443931078 -0.00021495276959631996 0 -0.0011715537110636063 -0.0002444765434590456 0 -0.0011159402124318097 -0.0002799615198569708 0 -0.0011829186706891093 -0.00019033742012730724 0 -0.0011296342443931078 -0.00021495276959631996 0 -0.0011715537110636063 -0.0002444765434590456 0 -0.0011159402124318097 -0.0002799615198569708 0 -0.0011767943743395133 -0.00030870803707578459 0 -0.0011652353482548316 -0.00036183616748459356 0 -0.0011715537110636063 -0.0002444765434590456 0 -0.0011159402124318097 -0.0002799615198569708 0 -0.0011767943743395133 -0.00030870803707578459 0 -0.00041819809684849965 -0.00057821639081294569 0 -0.00041379540925366259 -0.00058459551402458541 0 -0.00025320941800940011 -0.00068998067879579212 0 -0.00021067996835868211 -0.00070434200930172698 0 -0.00021590017082345357 -0.00067461565228975112 0 -0.00041379540925366259 -0.00058459551402458541 0 -5.3111046919974064e-05 -0.00070473383953831834 0 -0.00031632660586815899 -0.00062031992969076939 0 -5.3111046919974064e-05 -0.00070473383953831834 0 -0.00046401646264336338 -0.00089221897754467765 0 9.2917145410064609e-05 -0.0011270756503740612 0 0.00019813129233744477 -0.00062003142513493415 0 -0.00037015359767692267 -0.0014092179053737733 0 -0.00046401646264336338 -0.00089221897754467765 0 9.2917145410064609e-05 -0.0011270756503740612 0 9.2917145410064609e-05 -0.0011270756503740612 0 0.00082822896192899596 -0.0010815654547564689 0 0.00019813129233744477 -0.00062003142513493415 0 -0.0015030591417140677 -0.00017949043980038364 0 -0.0015364224179986903 -0.00024465779709744356 0 -0.0015552148724319037 -0.00025640333123252426 0 -0.0015030591417140677 -0.00017949043980038364 0 -0.0015765886431654897 -0.00025136814496495342 0 -0.0015552148724319037 -0.00025640333123252426 0 9.2917145410064609e-05 -0.0011270756503740612 0 0.00082822896192899596 -0.0010815654547564689 0 0.00027477389678417624 -0.0016315333854003071 0 -0.00046600684353921567 -0.00041680505434377825 0 -0.0014477514440725131 -0.00020825172844933856 0 -0.0015030591417140677 -0.00017949043980038364 0 -0.0016123900687147574 -0.00023891339804711756 0 -0.0015765886431654897 -0.00025136814496495342 0 -0.0014477514440725131 -0.00020825172844933856 0 -0.0014632670743423483 -0.00020597937099071798 0 -0.0010093371753051932 -0.00017858303412475181 0 -3.1397079116357296e-05 -3.2956796583084767e-07 0 -0.00060810530166199557 0.00016314223979167538 0 -0.0010093371753051932 -0.00017858303412475181 0 -3.1397079116357296e-05 -3.2956796583084767e-07 0 -0.0019987180326246313 -1.2530309891930587e-06 0 -0.0015030591417140677 -0.00017949043980038364 0 -0.0010093371753051932 -0.00017858303412475181 0 -0.00060810530166199557 0.00016314223979167538 0 -0.0015030591417140677 -0.00017949043980038364 0 -0.0010093371753051932 -0.00017858303412475181 0 -0.0015364224179986903 -0.00024465779709744356 0 -0.00046600684353921567 -0.00041680505434377825 0 0.00051530329975439648 -0.00038224072077932273 0 -0.0010093371753051932 -0.00017858303412475181 0 -0.0015364224179986903 -0.00024465779709744356 0 -0.0019987180326246313 -1.2530309891930587e-06 0 -0.0019987180326246313 -1.2530309891930587e-06 0 -0.0022645250085871599 -0.00016377313781752999 0 -0.0039615820559967445 1.9664501943020351e-06 0 -0.0015364224179986903 -0.00024465779709744356 0 -0.0019987180326246313 -1.2530309891930587e-06 0 -0.0022645250085871599 -0.00016377313781752999 0 -0.0015364224179986903 -0.00024465779709744356 0 -0.0017633537199553038 -0.00019785621573269551 0 -0.0015552148724319037 -0.00025640333123252426 0 -0.0015364224179986903 -0.00024465779709744356 0 -0.0022645250085871599 -0.00016377313781752999 0 -0.0017633537199553038 -0.00019785621573269551 0 -0.0022645250085871599 -0.00016377313781752999 0 -0.0017633537199553038 -0.00019785621573269551 0 -0.0017821231737973344 1.8259676895542295e-05 0 -0.0017633537199553038 -0.00019785621573269551 0 -0.0017821231737973344 1.8259676895542295e-05 0 -0.0015552148724319037 -0.00025640333123252426 0 -0.0017821231737973344 1.8259676895542295e-05 0 -0.0012463533000493508 0.0001663238244092095 0 -0.0022680259559582448 0.00085880066100675633 0 -0.0022645250085871599 -0.00016377313781752999 0 -0.0017821231737973344 1.8259676895542295e-05 0 -0.0022680259559582448 0.00085880066100675633 0 -0.0042636129518540738 -6.2775816543015177e-05 0 -0.0049699598653214034 0.00040589658658598572 0 -0.0046441692305678704 0.00055049157028104554 0 -0.0022645250085871599 -0.00016377313781752999 0 -0.0039615820559967445 1.9664501943020351e-06 0 -0.0022680259559582448 0.00085880066100675633 0 -0.0039652158153270769 4.8366733950678831e-07 0 -0.0041597157078404811 0.00016705941131345045 0 -0.0016180203443135839 -0.00026187572883782517 0 -0.0015765886431654897 -0.00025136814496495342 0 -0.0015705688828473842 -0.00029212324418390815 0 -0.0040066916371131085 -0.00015044204430801302 0 -0.0040874652339485881 -9.827816867644828e-05 0 -0.0040503360350714595 -0.00010534155893783488 0 -0.0016180203443135839 -0.00026187572883782517 0 -0.0015999290547537319 -0.00024391802141965785 0 -0.0015765886431654897 -0.00025136814496495342 0 -0.0024493743338139607 -0.00031678165353076941 0 -0.0038811245719559055 0.00013190485005686435 0 -0.0024493743338139607 -0.00031678165353076941 0 -0.0014477514440725131 -0.00020825172844933856 0 -0.0015765886431654897 -0.00025136814496495342 0 -0.0015552148724319037 -0.00025640333123252426 0 -0.0015705688828473842 -0.00029212324418390815 0 -0.0017821231737973344 1.8259676895542295e-05 0 -0.0015552148724319037 -0.00025640333123252426 0 -0.0012463533000493508 0.0001663238244092095 0 -0.0036077674342694889 0.0002359588277166838 0 -0.0038811245719559055 0.00013190485005686435 0 -0.0038811245719559055 0.00013190485005686435 0 -0.0048394578638025097 5.2560430731352009e-06 0 -0.0038811245719559055 0.00013190485005686435 0 -0.0041597157078404811 0.00016705941131345045 0 -0.0042636129518540738 -6.2775816543015177e-05 0 -0.0041482498593924874 0.00022618743161610945 0 -0.0046441692305678704 0.00055049157028104554 0 -0.0048394578638025097 5.2560430731352009e-06 0 -0.0046383485435977723 -8.782443612786553e-05 0 -0.0040196996828314492 -0.00010638878524674194 0 -0.0040503360350714595 -0.00010534155893783488 0 -0.0040383884610008672 -9.9163701684350285e-05 0 -0.0040705187435955614 -6.9102349811627517e-05 0 -0.0040503360350714595 -0.00010534155893783488 0 -0.0040383884610008672 -9.9163701684350285e-05 0 -0.0040874652339485881 -9.827816867644828e-05 0 -0.0040705187435955614 -6.9102349811627517e-05 0 -0.0040503360350714595 -0.00010534155893783488 0 -0.0040639852195305656 -8.6417007480966811e-05 0 -0.0040383884610008672 -9.9163701684350285e-05 0 -0.0040408929297042545 -8.3770357056076606e-05 0 -0.0057953008522604668 0.00011226308052038783 0 -0.0051162019249287359 1.448978305789377e-05 0 -0.0062887218385905405 6.7014920186140548e-05 0 -0.0063214189072318665 2.4539333092497059e-05 0 -0.0061530454041592055 1.8365932488604074e-06 0 -0.0040408929297042545 -8.3770357056076606e-05 0 -0.0040567938133219579 -6.7959041711710736e-05 0 -0.0040231698205446306 -7.4453298039185373e-05 0 -0.0062887218385905405 6.7014920186140548e-05 0 -0.0062996680235816978 7.9147849014945973e-05 0 -0.0062830720390720345 0.0001208278861174224 0 -0.0066548620494391603 -2.7002022823453736e-05 0 -0.0066559287234378896 -2.6576306929832635e-05 0 -0.0061731261992155045 0.00033553393906843147 0 -0.0061802413214554867 0.00031711595638751831 0 -0.0061807619986396266 0.00034401876541972871 0 -0.0066559287234378896 -2.6576306929832635e-05 0 -0.0057953008522604668 0.00011226308052038783 0 -0.0062887218385905405 6.7014920186140548e-05 0 -0.0062997635942089111 7.9277759241952017e-05 0 -0.0063214189072318665 2.4539333092497059e-05 0 -0.0048394578638025097 5.2560430731352009e-06 0 -0.0057953008522604668 0.00011226308052038783 0 -0.0040639852195305656 -8.6417007480966811e-05 0 -0.0040408929297042545 -8.3770357056076606e-05 0 -0.0040567938133219579 -6.7959041711710736e-05 0 -0.0058038845129884161 9.0995806703575649e-05 0 -0.0068894760884118129 8.58856304051921e-06 0 -0.0057953008522604668 0.00011226308052038783 0 -0.0058038845129884161 9.0995806703575649e-05 0 -0.0052308418193596964 0.00013094915632004439 0 -0.0054475378842004686 0.00036767919132719003 0 -0.0055342287740896643 0.00032927246551692381 0 -0.0052308418193596964 0.00013094915632004439 0 -0.005152371042251129 0.00032790176448796058 0 -0.0054475378842004686 0.00036767919132719003 0 -0.0048394578638025097 5.2560430731352009e-06 0 -0.0054116423184749317 8.2632984592196081e-05 0 -0.0061802413214554867 0.00031711595638751831 0 -0.0062265073343447368 0.00032423937106170755 0 -0.0061807619986396266 0.00034401876541972871 0 -0.0058038845129884161 9.0995806703575649e-05 0 -0.0054116423184749317 8.2632984592196081e-05 0 -0.0069203858611420008 0.00029482413432307974 0 -0.0070732080255571398 -0.00011319412825263648 0 -0.0072892580674948316 0.00013010493547323447 0 -0.0069203858611420008 0.00029482413432307974 0 -0.0068457125310802764 3.4842686728251551e-05 0 -0.0070732080255571398 -0.00011319412825263648 0 -0.00785737571868198 0.00042061316639173212 0 -0.0080610188104361033 0.00014392227779939465 0 -0.007713039604428905 0.00028714710315278061 0 -0.0074927901172303392 0.00024582354403005006 0 -0.0081897000523677987 0.00025938391784705874 0 -0.0076827929643666958 0.00041359017510544385 0 -0.008203491184349149 7.5090515885079312e-05 0 -0.0081290563707183613 -8.6325337970390478e-06 0 -0.0074927901172303392 0.00024582354403005006 0 -0.0079981736072704344 0.00021832303474476859 0 -0.0079981736072704344 0.00021832303474476859 0 -0.0081897000523677987 0.00025938391784705874 0 -0.0075503090485367422 0.00032730898403160176 0 -0.0079023221030206682 0.00054500840788900158 0 -0.0081481005510054948 -6.0340980196211492e-05 0 -0.0062887218385905405 6.7014920186140548e-05 0 -0.0062830720390720345 0.0001208278861174224 0 -0.0061926335731023055 8.8949213437777806e-05 0 -0.0066559287234378896 -2.6576306929832635e-05 0 -0.0070189095964293194 2.3111855898224893e-05 0 -0.0066810085543164482 0.00029231771100763927 0 -0.0067569348400537089 0.00010353944499277158 0 -0.0065822593112959031 0.00018119543863532759 0 -0.0075503090485367422 0.00032730898403160176 0 -0.0079023221030206682 0.00054500840788900158 0 -0.0077882957341445964 0.00059559442315179113 0 -0.0070189095964293194 2.3111855898224893e-05 0 -0.0068894760884118129 8.58856304051921e-06 0 -0.0066559287234378896 -2.6576306929832635e-05 0 -0.0068894760884118129 8.58856304051921e-06 0 -0.0079981736072704344 0.00021832303474476859 0 -0.0068894760884118129 8.58856304051921e-06 0 -0.0039678759978015463 2.8752506087888838e-08 0 -0.0048614931879624249 -0.00012757274298038105 0 -0.0050168286802089977 1.9523320362321218e-05 0 -0.0039678759978015463 2.8752506087888838e-08 0 -0.0053883612974138066 -2.8429823808493398e-08 0 -0.0048614931879624249 -0.00012757274298038105 0 -0.0053915703760939121 2.8698269146767089e-07 0 -0.0061243730537765854 0.00020406253259193805 0 -0.0053883612974138066 -2.8429823808493398e-08 0 -0.0048614931879624249 -0.00012757274298038105 0 -0.0036557589152421332 1.3895657223510174e-05 0 -0.0048614931879624249 -0.00012757274298038105 0 -0.0038591233174083486 -0.00020865626126847031 0 -0.003834283816295506 -0.00070596896896780179 0 -0.0042626811805082402 0.00016831086369107885 0 -0.0041597157078404811 0.00016705941131345045 0 -0.0048614931879624249 -0.00012757274298038105 0 -0.0036557589152421332 1.3895657223510174e-05 0 -0.0038591233174083486 -0.00020865626126847031 0 -0.0036694521552267743 -2.9441820023759404e-05 0 -0.0038591233174083486 -0.00020865626126847031 0 -0.0034026930661634667 -6.5262410383119834e-05 0 -0.0061243730537765854 0.00020406253259193805 0 -0.006098401522950346 0.00021625567006581958 0 -0.0061243730537765854 0.00020406253259193805 0 -0.0057865329073289564 0.00015045246652882092 0 -0.0038591233174083486 -0.00020865626126847031 0 -0.003834283816295506 -0.00070596896896780179 0 -0.0034026930661634667 -6.5262410383119834e-05 0 -0.0041597157078404811 0.00016705941131345045 0 -0.0054116423184749317 8.2632984592196081e-05 0 -0.003834283816295506 -0.00070596896896780179 0 -0.0029992828463307726 -0.00033008540280101025 0 -0.0034026930661634667 -6.5262410383119834e-05 0 -0.0068457125310802764 3.4842686728251551e-05 0 -0.0066126795385614339 0.00025551753571801365 0 -0.0066920817614430327 0.00026571177727281563 0 -0.0058038845129884161 9.0995806703575649e-05 0 -0.0057865329073289564 0.00015045246652882092 0 -0.0054116423184749317 8.2632984592196081e-05 0 -0.0057865329073289564 0.00015045246652882092 0 -0.0069203858611420008 0.00029482413432307974 0 -0.0068457125310802764 3.4842686728251551e-05 0 -0.0066920817614430327 0.00026571177727281563 0 -0.0054288548881241006 0.00010361066359127066 0 -0.0054918955181107194 7.60708149018582e-05 0 -0.0055619921182296578 0.00012253340045361894 0 -0.0080610188104361033 0.00014392227779939465 0 -0.007713039604428905 0.00028714710315278061 0 -0.0075432267238105767 5.2742492777742586e-05 0 -0.0074757291817183205 0.00091722802085920983 0 -0.007713039604428905 0.00028714710315278061 0 -0.0075432267238105767 5.2742492777742586e-05 0 -0.0078976096261395273 0.00043136027746840149 0 -0.0074757291817183205 0.00091722802085920983 0 -0.0077640411305915117 0.00053749455609720562 0 -0.0074757291817183205 0.00091722802085920983 0 -0.0077640411305915117 0.00053749455609720562 0 -0.007713039604428905 0.00028714710315278061 0 -0.0074927901172303392 0.00024582354403005006 0 -0.0061243730537765854 0.00020406253259193805 0 -0.00785737571868198 0.00042061316639173212 0 -0.0077640411305915117 0.00053749455609720562 0 -0.007713039604428905 0.00028714710315278061 0 -0.0074927901172303392 0.00024582354403005006 0 -0.0074954142392085876 0.00024682778061164859 0 -0.0074757291817183205 0.00091722802085920983 0 -0.0075432267238105767 5.2742492777742586e-05 0 -0.0063068259830745639 1.0282964301807504e-06 0 -0.0061243730537765854 0.00020406253259193805 0 -0.0063038583262501214 3.8215764339946699e-07 0 -0.005395768155682921 9.8322862289560994e-09 0 -0.0052055829293450656 -9.2513078935415972e-08 0 -0.0062997363830438659 -1.0310842293827902e-08 0 -0.0075432267238105767 5.2742492777742586e-05 0 -0.0063068259830745639 1.0282964301807504e-06 0 -0.0074603325723588843 -0.00016261310771181959 0 -0.0063068259830745639 1.0282964301807504e-06 0 -0.0074603325723588843 -0.00016261310771181959 0 -0.0079810240331689881 -1.0334818718421614e-06 0 -0.0080610188104361033 0.00014392227779939465 0 -0.0075432267238105767 5.2742492777742586e-05 0 -0.0076192778550081726 -0.00018637208239959333 0 -0.0075432267238105767 5.2742492777742586e-05 0 -0.0074603325723588843 -0.00016261310771181959 0 -0.0076192778550081726 -0.00018637208239959333 0 -0.010328165641065805 0.00010506828105740759 0 -0.010472633772048949 0.00020789037312573611 0 -0.0074603325723588843 -0.00016261310771181959 0 -0.0076192778550081726 -0.00018637208239959333 0 -0.0079015908235249149 3.1292692799487755e-06 0 -0.0099023230038951769 -2.2271988126969903e-05 0 -0.010078253189998287 0.00020854219156588537 0 -0.010613602687562892 0.00028828420416082023 0 -0.010179244824803315 0.00048361758015201328 0 -0.010078253189998287 0.00020854219156588537 0 -0.010613602687562892 0.00028828420416082023 0 -0.0099023230038951769 -2.2271988126969903e-05 0 -0.010078253189998287 0.00020854219156588537 0 -0.0098030500515339063 0.0001062005577640828 0 -0.010179244824803315 0.00048361758015201328 0 -0.010078253189998287 0.00020854219156588537 0 -0.0098030500515339063 0.0001062005577640828 0 -0.00872914225626043 0.00018750575149738415 0 -0.0090627351666908561 -2.4586514006723569e-05 0 -0.0074603325723588843 -0.00016261310771181959 0 -0.0079810240331689881 -1.0334818718421614e-06 0 -0.0079015908235249149 3.1292692799487755e-06 0 -0.0096575093195512933 1.0363974511986711e-06 0 -0.0079810240331689881 -1.0334818718421614e-06 0 -0.0079015908235249149 3.1292692799487755e-06 0 -0.0070189095964293194 2.3111855898224893e-05 0 -0.0090570507595722077 0.00016053168176608689 0 -0.0081897000523677987 0.00025938391784705874 0 -0.0094649721502777541 0.00012298545720684572 0 -0.0086611398775049923 0.00066725998841620296 0 -0.0090860328887164468 0.00017840451474658353 0 -0.0093795039622070371 0.00020216487919451755 0 -0.0079981736072704344 0.00021832303474476859 0 -0.0090570507595722077 0.00016053168176608689 0 -0.0086611398775049923 0.00066725998841620296 0 -0.008618235153911722 0.00061898700942722635 0 -0.0090860328887164468 0.00017840451474658353 0 -0.010551252954119333 0.00080049871958753243 0 -0.010179244824803315 0.00048361758015201328 0 -0.010613602687562892 0.00028828420416082023 0 -0.010551252954119333 0.00080049871958753243 0 -0.010844516533042572 0.00042768255832354742 0 -0.010613602687562892 0.00028828420416082023 0 -0.0081897000523677987 0.00025938391784705874 0 -0.00872914225626043 0.00018750575149738415 0 -0.010682895670721546 0.00018183019526613175 0 -0.010688281619145206 0.00019354993212157434 0 -0.010613602687562892 0.00028828420416082023 0 -0.010719376392134758 0.00013680051314755997 0 -0.010613602687562892 0.00028828420416082023 0 -0.010798394021091321 0.00021188517601603506 0 -0.010844516533042572 0.00042768255832354742 0 -0.010613602687562892 0.00028828420416082023 0 -0.010798394021091321 0.00021188517601603506 0 -0.010844516533042572 0.00042768255832354742 0 -0.010798394021091321 0.00021188517601603506 0 -0.010970477617327206 0.00024208272952809306 0 -0.0090860328887164468 0.00017840451474658353 0 -0.0095616337330497892 -0.00024692882524114445 0 -0.0093795039622070371 0.00020216487919451755 0 -0.0094649721502777541 0.00012298545720684572 0 -0.010330991358538147 0.00010310307890716099 0 -0.013090968250351245 0.00075458065775195547 0 -0.013151426286624442 0.00074362266040217532 0 -0.013165058503896066 0.00084081653234395492 0 -0.013329656581496966 0.00063591190029053848 0 -0.013090968250351245 0.00075458065775195547 0 -0.013151426286624442 0.00074362266040217532 0 -0.010330991358538147 0.00010310307890716099 0 -0.0096513236605909238 0.00014783203106598659 0 -0.0096513236605909238 0.00014783203106598659 0 -0.0090570507595722077 0.00016053168176608689 0 -0.0098451360339869183 -1.842211895351682e-05 0 -0.0098878780664056944 6.1838503424331505e-05 0 -0.0097845995415164321 0.00012861092418027127 0 -0.010330991358538147 0.00010310307890716099 0 -0.0090570507595722077 0.00016053168176608689 0 -0.0082170095575760781 -0.00012683405633931165 0 -0.0083831490737805801 -1.8768984765938937e-05 0 -0.0083105867750807635 0.00019878209627927106 0 -0.008410940483797728 -0.00025203495790956579 0 -0.0082170095575760781 -0.00012683405633931165 0 -0.0083831490737805801 -1.8768984765938937e-05 0 -0.0083831490737805801 -1.8768984765938937e-05 0 -0.0085860183292926391 7.592816792240517e-05 0 -0.0083105867750807635 0.00019878209627927106 0 -0.0096513236605909238 0.00014783203106598659 0 -0.007326092980743589 -0.00014881974543577413 0 -0.0079287195329762229 -0.00024921443350917099 0 -0.0082081752400596491 0.00027257968337052868 0 -0.0083141513560816369 -0.00015342845627038456 0 -0.008410940483797728 -0.00025203495790956579 0 -0.0083831490737805801 -1.8768984765938937e-05 0 -0.0085860183292926391 7.592816792240517e-05 0 -0.007326092980743589 -0.00014881974543577413 0 -0.0070052660665410769 -0.00018985302198959732 0 -0.0082081752400596491 0.00027257968337052868 0 -0.0083141513560816369 -0.00015342845627038456 0 -0.0086014774474892607 9.8089229533475155e-05 0 -0.013329656581496966 0.00063591190029053848 0 -0.013151426286624442 0.00074362266040217532 0 -0.01349860803217307 0.00072530312321487337 0 -0.013151426286624442 0.00074362266040217532 0 -0.013165058503896066 0.00084081653234395492 0 -0.013297769431571849 0.00073952076153154455 0 -0.011134999515725604 0.00013942039156147255 0 -0.010154477134737546 9.4819870234156235e-05 0 -0.0079287195329762229 -0.00024921443350917099 0 -0.0083141513560816369 -0.00015342845627038456 0 -0.0083413081550665867 -0.00051922139294753361 0 -0.0096513236605909238 0.00014783203106598659 0 -0.010154477134737546 9.4819870234156235e-05 0 -0.010154477134737546 9.4819870234156235e-05 0 -0.0082508573681085839 3.8449754616026144e-05 0 -0.0082508573681085839 3.8449754616026144e-05 0 -0.0070052660665410769 -0.00018985302198959732 0 -0.0083141513560816369 -0.00015342845627038456 0 -0.0086538208769890868 -0.00052726050678013879 0 -0.0086014774474892607 9.8089229533475155e-05 0 -0.0083141513560816369 -0.00015342845627038456 0 -0.0083413081550665867 -0.00051922139294753361 0 -0.0086538208769890868 -0.00052726050678013879 0 -0.0068086741366620409 -0.00037501516185487794 0 -0.0071096112569640924 -0.00022110990727713573 0 -0.0067851094961641238 -7.7664217938178308e-05 0 -0.0076742653730924888 -0.00016012633966973268 0 -0.0082508573681085839 3.8449754616026144e-05 0 -0.0071942121939840425 -0.00038947134803691852 0 -0.0068086741366620409 -0.00037501516185487794 0 -0.0071096112569640924 -0.00022110990727713573 0 -0.0071690664804408546 -6.2556349863713557e-06 0 -0.0070389085628195097 -0.00022404595253956226 0 -0.0069350660281809889 0.00011879831588794309 0 -0.0070913897820905208 -0.00022217811534168221 0 -0.0070052660665410769 -0.00018985302198959732 0 -0.0070389085628195097 -0.00022404595253956226 0 -0.0066158209552234998 -4.5308227218602231e-05 0 -0.0069350660281809889 0.00011879831588794309 0 -0.0066158209552234998 -4.5308227218602231e-05 0 -0.0069350660281809889 0.00011879831588794309 0 -0.0065726546546793453 0.00042786454197730561 0 -0.0061151526628838177 -0.00019802128125774541 0 -0.006230882094425582 -0.00024950270885220097 0 -0.0062091333107861793 -1.8777637592762102e-05 0 -0.0070052660665410769 -0.00018985302198959732 0 -0.005283876484163421 -0.00010069228706601003 0 -0.0057610115873523533 -0.00031361829929606356 0 -0.0048173046358316388 2.1073243960525534e-06 0 -0.0069350660281809889 0.00011879831588794309 0 -0.0065726546546793453 0.00042786454197730561 0 -0.006567670819068447 0.00048143547031810358 0 -0.0069350660281809889 0.00011879831588794309 0 -0.0069930865091456405 0.00043808145065935618 0 -0.0065406105410802974 0.00049378201264398732 0 -0.00069939856888969973 7.9923467820708577e-05 0 -0.0010225790568842016 -3.7575387375980697e-05 0 -0.00099740459334826171 -8.2621622109153343e-05 0 -0.0039313831672651654 8.2406103313847545e-05 0 -0.0041359155417278063 -9.485766925103278e-06 0 -0.00067263378125016304 -0.00012174487906174006 0 -0.00069939856888969973 7.9923467820708577e-05 0 -0.00099740459334826171 -8.2621622109153343e-05 0 -0.0069930865091456405 0.00043808145065935618 0 -0.0065406105410802974 0.00049378201264398732 0 -0.0066242339627372538 0.00058501717407366701 0 -0.0059325286091533418 5.5914965845198423e-05 0 -0.005934241360696057 3.0233291925747898e-05 0 -0.0060011481004819843 4.5461668427473586e-05 0 -0.005283876484163421 -0.00010069228706601003 0 -0.0048173046358316388 2.1073243960525534e-06 0 -0.0041359155417278063 -9.485766925103278e-06 0 -0.0036493475419579306 -0.00017458056033875144 0 -0.0050609791669402032 -7.3032584669939594e-05 0 -0.0046954617142212834 -0.00021979526460075947 0 -0.0045384809330843486 0.00012360658206442968 0 -0.0036493475419579306 -0.00017458056033875144 0 -0.0042309062070820212 -6.9110836192169293e-05 0 -0.0045636818361027799 -0.00010881245956110566 0 -0.0048857130680556859 0.00048751052972874543 0 -0.0034759210512482703 0.00030087669507561994 0 -0.0041359155417278063 -9.485766925103278e-06 0 -0.0042309062070820212 -6.9110836192169293e-05 0 -0.0048173046358316388 2.1073243960525534e-06 0 -0.0041359155417278063 -9.485766925103278e-06 0 -0.0045954376994757178 -0.00057452193356401086 0 -0.0050609791669402032 -7.3032584669939594e-05 0 -0.0046954617142212834 -0.00021979526460075947 0 -0.0048173046358316388 2.1073243960525534e-06 0 -0.0042309062070820212 -6.9110836192169293e-05 0 -0.0045954376994757178 -0.00057452193356401086 0 -0.0046954617142212834 -0.00021979526460075947 0 -0.0045384809330843486 0.00012360658206442968 0 -0.0047820956198340453 5.2053952829641506e-05 0 -0.0047520173908313671 0.00042075798218506858 0 -0.004454743793473848 0.00038139250197332769 0 -0.0048173046358316388 2.1073243960525534e-06 0 -0.0044908081972499054 -5.9890524488504227e-05 0 -0.0042309062070820212 -6.9110836192169293e-05 0 -0.0044908081972499054 -5.9890524488504227e-05 0 -0.0042140321020217864 -6.7246311136761537e-05 0 -0.0042309062070820212 -6.9110836192169293e-05 0 -0.0040229373914534147 -8.8704316368293389e-05 0 -0.0039948335371662713 -7.9651497793663102e-05 0 -0.0040231698205446306 -7.4453298039185373e-05 0 -0.0060011481004819843 4.5461668427473586e-05 0 -0.0060575031911152787 8.4859727740627493e-05 0 -0.0061530454041592055 1.8365932488604074e-06 0 -0.0059846569662198807 -2.0805174319926707e-05 0 -0.0060011481004819843 4.5461668427473586e-05 0 -0.0061530454041592055 1.8365932488604074e-06 0 -0.0044908081972499054 -5.9890524488504227e-05 0 -0.0051162019249287359 1.448978305789377e-05 0 -0.0038621982990932292 -0.00021799206719035825 0 -0.0039643508144489598 -0.00026033729248132196 0 -0.0038712241380106948 -0.00027231489853101252 0 -0.005934241360696057 3.0233291925747898e-05 0 -0.0059846569662198807 -2.0805174319926707e-05 0 -0.0060011481004819843 4.5461668427473586e-05 0 -0.0059325286091533418 5.5914965845198423e-05 0 -0.0060011481004819843 4.5461668427473586e-05 0 -0.0060575031911152787 8.4859727740627493e-05 0 -0.0060575031911152787 8.4859727740627493e-05 0 -0.0061530454041592055 1.8365932488604074e-06 0 -0.0061926335731023055 8.8949213437777806e-05 0 -0.0062887218385905405 6.7014920186140548e-05 0 -0.0061530454041592055 1.8365932488604074e-06 0 -0.0061926335731023055 8.8949213437777806e-05 0 -0.0060575031911152787 8.4859727740627493e-05 0 -0.0061926335731023055 8.8949213437777806e-05 0 -0.006156688275623789 0.00017643590878178072 0 -0.0080338225448218035 0.00032119903774049973 0 -0.0082170095575760781 -0.00012683405633931165 0 -0.0083105867750807635 0.00019878209627927106 0 -0.0062830720390720345 0.0001208278861174224 0 -0.0061926335731023055 8.8949213437777806e-05 0 -0.006156688275623789 0.00017643590878178072 0 -0.0070189095964293194 2.3111855898224893e-05 0 -0.0071688426530484824 -3.2714101894136465e-05 0 -0.0060311169488202259 0.00023202377559076588 0 -0.0059325286091533418 5.5914965845198423e-05 0 -0.0060575031911152787 8.4859727740627493e-05 0 -0.0060311169488202259 0.00023202377559076588 0 -0.0060575031911152787 8.4859727740627493e-05 0 -0.006156688275623789 0.00017643590878178072 0 -0.007326092980743589 -0.00014881974543577413 0 -0.0071688426530484824 -3.2714101894136465e-05 0 -0.007326092980743589 -0.00014881974543577413 0 -0.005283876484163421 -0.00010069228706601003 0 -0.0042364539836553319 -0.00071311833167120807 0 -0.0043321620807944472 -0.00065648811589099894 0 -0.0042468108104286237 -0.00062072157031611125 0 -0.0042923677860305593 -0.00070656817562322297 0 -0.0042364539836553319 -0.00071311833167120807 0 -0.0043321620807944472 -0.00065648811589099894 0 -0.0042364539836553319 -0.00071311833167120807 0 -0.0042468108104286237 -0.00062072157031611125 0 -0.004148300588931223 -0.00067965738188862528 0 -0.0042364539836553319 -0.00071311833167120807 0 -0.0041472684082473612 -0.00078497701302409587 0 -0.004148300588931223 -0.00067965738188862528 0 -0.0042364539836553319 -0.00071311833167120807 0 -0.0041472684082473612 -0.00078497701302409587 0 -0.0042501567907037583 -0.00076696168296182645 0 -0.0042923677860305593 -0.00070656817562322297 0 -0.0042364539836553319 -0.00071311833167120807 0 -0.0042501567907037583 -0.00076696168296182645 0 -0.0042923677860305593 -0.00070656817562322297 0 -0.0042501567907037583 -0.00076696168296182645 0 -0.0042907683400547911 -0.000729496937309967 0 -0.0042501567907037583 -0.00076696168296182645 0 -0.0042907683400547911 -0.000729496937309967 0 -0.0042827668390068262 -0.00077201606282446106 0 -0.0042907683400547911 -0.000729496937309967 0 -0.004305320619559838 -0.00072634051836508806 0 -0.0042827668390068262 -0.00077201606282446106 0 -0.004305320619559838 -0.00072634051836508806 0 -0.0043086964054636035 -0.00070394817246131219 0 -0.0043214361260782317 -0.00074052637736084725 0 -0.004305320619559838 -0.00072634051836508806 0 -0.0043000307460970893 -0.00075667833377521731 0 -0.0043214361260782317 -0.00074052637736084725 0 -0.004305320619559838 -0.00072634051836508806 0 -0.0043000307460970893 -0.00075667833377521731 0 -0.0042827668390068262 -0.00077201606282446106 0 -0.0046280638948818873 -0.00074910534584532364 0 -0.0045024043241669283 -0.00071311179095549814 0 -0.0045662000675857324 -0.00061793182483225041 0 -0.004305320619559838 -0.00072634051836508806 0 -0.0043140518354584292 -0.0007110670244184678 0 -0.0043068312357910339 -0.00069802139570365133 0 -0.00451256181718682 -0.00070931454293253374 0 -0.0045254306462959391 -0.00069906271179662519 0 -0.0045254306462959391 -0.00069906271179662519 0 -0.0044486271600790179 -0.00068137260405559859 0 -0.0042923677860305593 -0.00070656817562322297 0 -0.0042907683400547911 -0.000729496937309967 0 -0.0043068312357910339 -0.00069802139570365133 0 -0.0042907683400547911 -0.000729496937309967 0 -0.004305320619559838 -0.00072634051836508806 0 -0.0043068312357910339 -0.00069802139570365133 0 -0.0044486271600790179 -0.00068137260405559859 0 -0.0044158213545361438 -0.00067198583132803966 0 -0.0042923677860305593 -0.00070656817562322297 0 -0.0043068312357910339 -0.00069802139570365133 0 -0.0043321620807944472 -0.00065648811589099894 0 -0.0045024043241669283 -0.00071311179095549814 0 -0.0044601978828359562 -0.00060142346877572474 0 -0.0043321620807944472 -0.00065648811589099894 0 -0.0044601978828359562 -0.00060142346877572474 0 -0.004530444947530925 -0.00051115823633261033 0 -0.0043675547788922225 -0.00052125366727606606 0 -0.0045024043241669283 -0.00071311179095549814 0 -0.0044601978828359562 -0.00060142346877572474 0 -0.0045662000675857324 -0.00061793182483225041 0 -0.0044601978828359562 -0.00060142346877572474 0 -0.0045662000675857324 -0.00061793182483225041 0 -0.004530444947530925 -0.00051115823633261033 0 -0.0046280638948818873 -0.00074910534584532364 0 -0.0045662000675857324 -0.00061793182483225041 0 -0.0046952538932298841 -0.0005194285424020129 0 -0.0045254306462959391 -0.00069906271179662519 0 -0.0046845163181762706 -0.00065153921405693615 0 -0.0046845163181762706 -0.00065153921405693615 0 -0.0046373494395104305 -0.00056609056099289699 0 -0.004530444947530925 -0.00051115823633261033 0 -0.0046952538932298841 -0.0005194285424020129 0 -0.0046088832128439363 -0.00041022620428582716 0 -0.0045662000675857324 -0.00061793182483225041 0 -0.004530444947530925 -0.00051115823633261033 0 -0.0046952538932298841 -0.0005194285424020129 0 -0.004530444947530925 -0.00051115823633261033 0 -0.0043675547788922225 -0.00052125366727606606 0 -0.0044636710993394609 -0.00036842323699571417 0 -0.0043675547788922225 -0.00052125366727606606 0 -0.0043112280742728434 -0.0003690398667983102 0 -0.0044636710993394609 -0.00036842323699571417 0 -0.0044601978828359562 -0.00060142346877572474 0 -0.0043675547788922225 -0.00052125366727606606 0 -0.0043321620807944472 -0.00065648811589099894 0 -0.0043675547788922225 -0.00052125366727606606 0 -0.0043321620807944472 -0.00065648811589099894 0 -0.0042468108104286237 -0.00062072157031611125 0 -0.0043675547788922225 -0.00052125366727606606 0 -0.0042468108104286237 -0.00062072157031611125 0 -0.0042541419466346556 -0.00049913371959426538 0 -0.0042468108104286237 -0.00062072157031611125 0 -0.0041553424461707681 -0.0005602804624624799 0 -0.004148300588931223 -0.00067965738188862528 0 -0.0042468108104286237 -0.00062072157031611125 0 -0.0042541419466346556 -0.00049913371959426538 0 -0.0041553424461707681 -0.0005602804624624799 0 -0.0042541419466346556 -0.00049913371959426538 0 -0.0041940718630678357 -0.00040281892112569605 0 -0.0041553424461707681 -0.0005602804624624799 0 -0.0042541419466346556 -0.00049913371959426538 0 -0.0041940718630678357 -0.00040281892112569605 0 -0.0043112280742728434 -0.0003690398667983102 0 -0.0043675547788922225 -0.00052125366727606606 0 -0.0042541419466346556 -0.00049913371959426538 0 -0.0043112280742728434 -0.0003690398667983102 0 -0.0041940718630678357 -0.00040281892112569605 0 -0.0040951312327257442 -0.00044046631986811418 0 -0.0041502147502668098 -0.00024119525219256117 0 -0.0041940718630678357 -0.00040281892112569605 0 -0.0040951312327257442 -0.00044046631986811418 0 -0.0041553424461707681 -0.0005602804624624799 0 -0.0040951312327257442 -0.00044046631986811418 0 -0.0039428404850314095 -0.00056274424125245346 0 -0.004028634579917709 -0.00019975570918606079 0 -0.0040951312327257442 -0.00044046631986811418 0 -0.0039428404850314095 -0.00056274424125245346 0 -0.0040316931858330705 -0.00065375895376616235 0 -0.0039428404850314095 -0.00056274424125245346 0 -0.0038871788134436187 -0.00071050340281957199 0 -0.0040316931858330705 -0.00065375895376616235 0 -0.0041553424461707681 -0.0005602804624624799 0 -0.004148300588931223 -0.00067965738188862528 0 -0.0040316931858330705 -0.00065375895376616235 0 -0.0040951312327257442 -0.00044046631986811418 0 -0.0041553424461707681 -0.0005602804624624799 0 -0.0040316931858330705 -0.00065375895376616235 0 -0.0036424158100687421 -0.00046704807374376524 0 -0.0038485415992534212 -0.00036885829541029509 0 -0.0036300304150159958 -0.00015388464792612494 0 -0.0036424158100687421 -0.00046704807374376524 0 -0.0038485415992534212 -0.00036885829541029509 0 -0.0037913352577423841 -0.000677201603380642 0 -0.0038485415992534212 -0.00036885829541029509 0 -0.0039428404850314095 -0.00056274424125245346 0 -0.004028634579917709 -0.00019975570918606079 0 -0.0039428404850314095 -0.00056274424125245346 0 -0.0037913352577423841 -0.000677201603380642 0 -0.0038871788134436187 -0.00071050340281957199 0 -0.0038485415992534212 -0.00036885829541029509 0 -0.0039428404850314095 -0.00056274424125245346 0 -0.0037913352577423841 -0.000677201603380642 0 -0.0036424158100687421 -0.00046704807374376524 0 -0.0037913352577423841 -0.000677201603380642 0 -0.0036422217956594066 -0.00075521268178787323 0 -0.0037913352577423841 -0.000677201603380642 0 -0.0036422217956594066 -0.00075521268178787323 0 -0.0036725266471256076 -0.00079926436373246792 0 -0.0037913352577423841 -0.000677201603380642 0 -0.0037895446937680588 -0.00079659994788483057 0 -0.0036725266471256076 -0.00079926436373246792 0 -0.0037913352577423841 -0.000677201603380642 0 -0.0038871788134436187 -0.00071050340281957199 0 -0.0037895446937680588 -0.00079659994788483057 0 -0.0038928970920429438 -0.00081674879669926391 0 -0.0037895446937680588 -0.00079659994788483057 0 -0.0037962460486255598 -0.00088311596468403357 0 -0.0038871788134436187 -0.00071050340281957199 0 -0.0038928970920429438 -0.00081674879669926391 0 -0.0037895446937680588 -0.00079659994788483057 0 -0.0037895446937680588 -0.00079659994788483057 0 -0.0036725266471256076 -0.00079926436373246792 0 -0.0036543054892872015 -0.00089373020452762761 0 -0.004148300588931223 -0.00067965738188862528 0 -0.0040316931858330705 -0.00065375895376616235 0 -0.0040277474701184346 -0.00078896207066362831 0 -0.0038871788134436187 -0.00071050340281957199 0 -0.0038928970920429438 -0.00081674879669926391 0 -0.0040316931858330705 -0.00065375895376616235 0 -0.0038928970920429438 -0.00081674879669926391 0 -0.0040316931858330705 -0.00065375895376616235 0 -0.0040277474701184346 -0.00078896207066362831 0 -0.0038928970920429438 -0.00081674879669926391 0 -0.0040277474701184346 -0.00078896207066362831 0 -0.0040257535653250576 -0.0008768698984607399 0 -0.0041472684082473612 -0.00078497701302409587 0 -0.004148300588931223 -0.00067965738188862528 0 -0.0040277474701184346 -0.00078896207066362831 0 -0.0041472684082473612 -0.00078497701302409587 0 -0.0040277474701184346 -0.00078896207066362831 0 -0.0040257535653250576 -0.0008768698984607399 0 -0.0041472684082473612 -0.00078497701302409587 0 -0.0040257535653250576 -0.0008768698984607399 0 -0.0041566499785459015 -0.0008648631599190293 0 -0.0038928970920429438 -0.00081674879669926391 0 -0.0040257535653250576 -0.0008768698984607399 0 -0.0038973638723059242 -0.00094424322374051753 0 -0.0038973638723059242 -0.00094424322374051753 0 -0.00404524964574018 -0.0009892693429419733 0 -0.0039347232497529529 -0.0010918984189634371 0 -0.0040257535653250576 -0.0008768698984607399 0 -0.0038973638723059242 -0.00094424322374051753 0 -0.00404524964574018 -0.0009892693429419733 0 -0.0040257535653250576 -0.0008768698984607399 0 -0.00404524964574018 -0.0009892693429419733 0 -0.0041566499785459015 -0.0008648631599190293 0 -0.0037895446937680588 -0.00079659994788483057 0 -0.0037962460486255598 -0.00088311596468403357 0 -0.0036543054892872015 -0.00089373020452762761 0 -0.0037962460486255598 -0.00088311596468403357 0 -0.0037116205985437997 -0.00093446341960970231 0 -0.0036543054892872015 -0.00089373020452762761 0 -0.0037962460486255598 -0.00088311596468403357 0 -0.0037868534981271916 -0.00095216495263919607 0 -0.0037116205985437997 -0.00093446341960970231 0 -0.0038928970920429438 -0.00081674879669926391 0 -0.0038973638723059242 -0.00094424322374051753 0 -0.0037962460486255598 -0.00088311596468403357 0 -0.0038973638723059242 -0.00094424322374051753 0 -0.0037962460486255598 -0.00088311596468403357 0 -0.0037868534981271916 -0.00095216495263919607 0 -0.0038973638723059242 -0.00094424322374051753 0 -0.0037868534981271916 -0.00095216495263919607 0 -0.0037958393608147106 -0.0010350915533020501 0 -0.0037868534981271916 -0.00095216495263919607 0 -0.003694110223919632 -0.00098788348083790243 0 -0.0037958393608147106 -0.0010350915533020501 0 -0.0037868534981271916 -0.00095216495263919607 0 -0.003694110223919632 -0.00098788348083790243 0 -0.0037116205985437997 -0.00093446341960970231 0 -0.003694110223919632 -0.00098788348083790243 0 -0.0037116205985437997 -0.00093446341960970231 0 -0.0036296805463379724 -0.0010004781122055369 0 -0.00077809488088518479 -0.0010462197039813983 0 0.00025774908614684567 -0.0011676445493875311 0 -0.0036164591968510696 -0.0011291229265154973 0 -0.0036827101633293154 -0.001092872161605809 0 -0.0036452469659699871 -0.0011692879708944813 0 -0.0036164591968510696 -0.0011291229265154973 0 -0.0036827101633293154 -0.001092872161605809 0 -0.0035831618905340693 -0.001082927016390769 0 -0.003694110223919632 -0.00098788348083790243 0 -0.0036827101633293154 -0.001092872161605809 0 -0.0035831618905340693 -0.001082927016390769 0 -0.003694110223919632 -0.00098788348083790243 0 -0.0036827101633293154 -0.001092872161605809 0 -0.0037958393608147106 -0.0010350915533020501 0 -0.0036827101633293154 -0.001092872161605809 0 -0.0037728670478561965 -0.0011556249737255668 0 -0.0036452469659699871 -0.0011692879708944813 0 -0.0036827101633293154 -0.001092872161605809 0 -0.0037958393608147106 -0.0010350915533020501 0 -0.0037728670478561965 -0.0011556249737255668 0 -0.0037958393608147106 -0.0010350915533020501 0 -0.0037728670478561965 -0.0011556249737255668 0 -0.0039347232497529529 -0.0010918984189634371 0 -0.003781632958106912 -0.0012589937639186943 0 -0.0037728670478561965 -0.0011556249737255668 0 -0.0038858604763676329 -0.001199826285780823 0 -0.003781632958106912 -0.0012589937639186943 0 -0.0037728670478561965 -0.0011556249737255668 0 -0.0036741486560452658 -0.0012435602226062565 0 -0.0037728670478561965 -0.0011556249737255668 0 -0.0036741486560452658 -0.0012435602226062565 0 -0.0036452469659699871 -0.0011692879708944813 0 -0.0036741486560452658 -0.0012435602226062565 0 -0.0035894719328273227 -0.0012086190256328643 0 -0.0036452469659699871 -0.0011692879708944813 0 -0.0036741486560452658 -0.0012435602226062565 0 -0.0035894719328273227 -0.0012086190256328643 0 -0.0035605289825864574 -0.0012867787813807879 0 -0.0036164591968510696 -0.0011291229265154973 0 -0.0036452469659699871 -0.0011692879708944813 0 -0.0035545781040083966 -0.0011717063728732921 0 -0.0035894719328273227 -0.0012086190256328643 0 -0.0036452469659699871 -0.0011692879708944813 0 -0.0035545781040083966 -0.0011717063728732921 0 -0.00404524964574018 -0.0009892693429419733 0 -0.0040456300090199208 -0.0011804749379353617 0 -0.0041799317474616928 -0.0010151413338704103 0 -0.00404524964574018 -0.0009892693429419733 0 -0.0039347232497529529 -0.0010918984189634371 0 -0.0040456300090199208 -0.0011804749379353617 0 -0.0038973638723059242 -0.00094424322374051753 0 -0.0037958393608147106 -0.0010350915533020501 0 -0.0039347232497529529 -0.0010918984189634371 0 -0.0037728670478561965 -0.0011556249737255668 0 -0.0039347232497529529 -0.0010918984189634371 0 -0.0038858604763676329 -0.001199826285780823 0 -0.0039347232497529529 -0.0010918984189634371 0 -0.0038858604763676329 -0.001199826285780823 0 -0.0040456300090199208 -0.0011804749379353617 0 -0.0038858604763676329 -0.001199826285780823 0 -0.0040456300090199208 -0.0011804749379353617 0 -0.0038850563278228618 -0.001339616783193398 0 -0.0039741127845827062 -0.00087493917457326007 0 -0.0041089023843607613 -0.00088936410186576443 0 -0.004033173746789691 -0.00099507704226949414 0 -0.0039741127845827062 -0.00087493917457326007 0 -0.0041089023843607613 -0.00088936410186576443 0 -0.0041395423987349066 -0.00081214238801120494 0 -0.0041089023843607613 -0.00088936410186576443 0 -0.0041979594274112499 -0.00087680474499741946 0 -0.0041920182028529502 -0.00093727116977597739 0 -0.0041089023843607613 -0.00088936410186576443 0 -0.0041979594274112499 -0.00087680474499741946 0 -0.0041395423987349066 -0.00081214238801120494 0 -0.0041395423987349066 -0.00081214238801120494 0 -0.0042504261438556261 -0.00083328339555220913 0 -0.0042260683649871155 -0.00083633570834622608 0 -0.0041979594274112499 -0.00087680474499741946 0 -0.0041395423987349066 -0.00081214238801120494 0 -0.0042260683649871155 -0.00083633570834622608 0 -0.0021636999568198766 -0.00012403889770900637 0 -0.0033108809766575491 -0.0002813165521908236 0 -0.00404524964574018 -0.0009892693429419733 0 -0.0041799317474616928 -0.0010151413338704103 0 -0.0041566499785459015 -0.0008648631599190293 0 -0.0033108809766575491 -0.0002813165521908236 0 -0.0035924921683479142 -0.00035741847173876754 0 -0.0041799317474616928 -0.0010151413338704103 0 -0.0041566499785459015 -0.0008648631599190293 0 -0.0042504261438556261 -0.00083328339555220913 0 -0.0042501567907037583 -0.00076696168296182645 0 -0.0041566499785459015 -0.0008648631599190293 0 -0.0042504261438556261 -0.00083328339555220913 0 -0.0041472684082473612 -0.00078497701302409587 0 -0.0042501567907037583 -0.00076696168296182645 0 -0.0041566499785459015 -0.0008648631599190293 0 -0.0042921430746923782 -0.00078718951727936419 0 -0.0043000307460970893 -0.00075667833377521731 0 -0.0043214361260782317 -0.00074052637736084725 0 -0.0042921430746923782 -0.00078718951727936419 0 -0.0043000307460970893 -0.00075667833377521731 0 -0.0042827668390068262 -0.00077201606282446106 0 -0.0042501567907037583 -0.00076696168296182645 0 -0.0042827668390068262 -0.00077201606282446106 0 -0.0042504261438556261 -0.00083328339555220913 0 -0.0042921430746923782 -0.00078718951727936419 0 -0.0042827668390068262 -0.00077201606282446106 0 -0.0042504261438556261 -0.00083328339555220913 0 -0.0042504261438556261 -0.00083328339555220913 0 -0.0042604952499440798 -0.00083250432286384544 0 -0.0042260683649871155 -0.00083633570834622608 0 -0.0042921430746923782 -0.00078718951727936419 0 -0.0042504261438556261 -0.00083328339555220913 0 -0.0042604952499440798 -0.00083250432286384544 0 -0.0042921430746923782 -0.00078718951727936419 0 -0.0042604952499440798 -0.00083250432286384544 0 -0.0043140281726890143 -0.00079351341204334164 0 -0.0042604952499440798 -0.00083250432286384544 0 -0.0042577295897958719 -0.00085050348006973284 0 -0.0042749608059145855 -0.00084641063781980806 0 -0.0042604952499440798 -0.00083250432286384544 0 -0.0042577295897958719 -0.00085050348006973284 0 -0.0042433826779367497 -0.00085342611665055132 0 -0.0042604952499440798 -0.00083250432286384544 0 -0.0042260683649871155 -0.00083633570834622608 0 -0.0042433826779367497 -0.00085342611665055132 0 -0.0041979594274112499 -0.00087680474499741946 0 -0.0042260683649871155 -0.00083633570834622608 0 -0.0042433826779367497 -0.00085342611665055132 0 -0.0041979594274112499 -0.00087680474499741946 0 -0.0042433826779367497 -0.00085342611665055132 0 -0.0042341420871108097 -0.00087634154028794187 0 -0.0041979594274112499 -0.00087680474499741946 0 -0.0042341420871108097 -0.00087634154028794187 0 -0.0041920182028529502 -0.00093727116977597739 0 -0.0042577295897958719 -0.00085050348006973284 0 -0.004255357566770885 -0.00085577801135616836 0 -0.0042501044293158721 -0.00085056332402506539 0 -0.0042577295897958719 -0.00085050348006973284 0 -0.0042433826779367497 -0.00085342611665055132 0 -0.004255357566770885 -0.00085577801135616836 0 -0.0042341420871108097 -0.00087634154028794187 0 -0.004255357566770885 -0.00085577801135616836 0 -0.0042635710350603772 -0.00085111208599416091 0 -0.0042433826779367497 -0.00085342611665055132 0 -0.0042341420871108097 -0.00087634154028794187 0 -0.004255357566770885 -0.00085577801135616836 0 -0.004255357566770885 -0.00085577801135616836 0 -0.0042501044293158721 -0.00085056332402506539 0 -0.0042682538401581059 -0.00084177721356066919 0 -0.0042501044293158721 -0.00085056332402506539 0 -0.0042061280607607002 -0.00084115827059298525 0 -0.0042682538401581059 -0.00084177721356066919 0 -0.0042061280607607002 -0.00084115827059298525 0 -0.0042749608059145855 -0.00084641063781980806 0 -0.0042259694453823469 -0.00082421870868889689 0 -0.0042501044293158721 -0.00085056332402506539 0 -0.0042061280607607002 -0.00084115827059298525 0 -0.0042749608059145855 -0.00084641063781980806 0 -0.0042577295897958719 -0.00085050348006973284 0 -0.0042501044293158721 -0.00085056332402506539 0 -0.0042749608059145855 -0.00084641063781980806 0 -0.0042749608059145855 -0.00084641063781980806 0 -0.0044223626119282433 -0.00085667676381606086 0 -0.0043647367991452475 -0.0008067650709214281 0 -0.0043169102246571247 -0.00081773045960502268 0 -0.0043453266102244942 -0.000813920342079474 0 -0.0042749608059145855 -0.00084641063781980806 0 -0.0042259694453823469 -0.00082421870868889689 0 -0.0042294826769075341 -0.00081063580729421366 0 -0.0042061280607607002 -0.00084115827059298525 0 -0.0039152622503124757 -0.00082234159223891804 0 -0.004086273365013768 -0.00073154124023960148 0 -0.0042259694453823469 -0.00082421870868889689 0 -0.0042409729973096784 -0.00082155144045007204 0 -0.0042294826769075341 -0.00081063580729421366 0 -0.0030909713346644616 -0.00061792127382240074 0 -0.0021850813210727137 -0.00041083725610857369 0 -0.0042061280607607002 -0.00084115827059298525 0 -0.0042259694453823469 -0.00082421870868889689 0 -0.0042367021604318121 -0.00084323752334675237 0 -0.0042367021604318121 -0.00084323752334675237 0 -0.0042785655710460661 -0.00081353739276612488 0 -0.0043077340634526647 -0.00085648362819332495 0 -0.0042259694453823469 -0.00082421870868889689 0 -0.0042367021604318121 -0.00084323752334675237 0 -0.0042409729973096784 -0.00082155144045007204 0 -0.0042367021604318121 -0.00084323752334675237 0 -0.0042785655710460661 -0.00081353739276612488 0 -0.0042409729973096784 -0.00082155144045007204 0 -0.0042785655710460661 -0.00081353739276612488 0 -0.0042409729973096784 -0.00082155144045007204 0 -0.0042294826769075341 -0.00081063580729421366 0 -0.0043265391288288841 -0.00076270240392355517 0 -0.0043879335835039328 -0.0007961100491348038 0 -0.0043077340634526647 -0.00085648362819332495 0 -0.0042785655710460661 -0.00081353739276612488 0 -0.0043265391288288841 -0.00076270240392355517 0 -0.0043077340634526647 -0.00085648362819332495 0 -0.0045127743136391838 -0.00081181952025132734 0 -0.0045201081606742926 -0.00078799601795197889 0 -0.0044816973824904757 -0.00080530818585739482 0 -0.0042785655710460661 -0.00081353739276612488 0 -0.0043265391288288841 -0.00076270240392355517 0 -0.0042294826769075341 -0.00081063580729421366 0 -0.0043991676351629273 -0.00080475847462028744 0 -0.0043453266102244942 -0.000813920342079474 0 -0.0045127743136391838 -0.00081181952025132734 0 -0.0044223626119282433 -0.00085667676381606086 0 -0.0044816973824904757 -0.00080530818585739482 0 -0.004435215529126779 -0.00078481560332549136 0 -0.0044938108995316315 -0.0007770270199731076 0 -0.0044755204533675295 -0.0007202960701714594 0 -0.0044223626119282433 -0.00085667676381606086 0 -0.004435215529126779 -0.00078481560332549136 0 -0.0044816973824904757 -0.00080530818585739482 0 -0.004435215529126779 -0.00078481560332549136 0 -0.0044816973824904757 -0.00080530818585739482 0 -0.0044938108995316315 -0.0007770270199731076 0 -0.0045201081606742926 -0.00078799601795197889 0 -0.0044816973824904757 -0.00080530818585739482 0 -0.0044938108995316315 -0.0007770270199731076 0 -0.0045201081606742926 -0.00078799601795197889 0 -0.0045389820774881127 -0.00075030087365147904 0 -0.0045624523347215134 -0.00074903322169361721 0 -0.0045201081606742926 -0.00078799601795197889 0 -0.0044938108995316315 -0.0007770270199731076 0 -0.0045389820774881127 -0.00075030087365147904 0 -0.0045389820774881127 -0.00075030087365147904 0 -0.0046237568019288234 -0.00068268897564089173 0 -0.0045624523347215134 -0.00074903322169361721 0 -0.0044938108995316315 -0.0007770270199731076 0 -0.0045389820774881127 -0.00075030087365147904 0 -0.0044755204533675295 -0.0007202960701714594 0 -0.0045389820774881127 -0.00075030087365147904 0 -0.0045271245417029095 -0.00070254406569302842 0 -0.0044755204533675295 -0.0007202960701714594 0 -0.0045389820774881127 -0.00075030087365147904 0 -0.0045271245417029095 -0.00070254406569302842 0 -0.0046237568019288234 -0.00068268897564089173 0 -0.004435215529126779 -0.00078481560332549136 0 -0.0044755204533675295 -0.0007202960701714594 0 -0.0044150980134860492 -0.00073693796808821626 0 -0.004435215529126779 -0.00078481560332549136 0 -0.0044150980134860492 -0.00073693796808821626 0 -0.0043793334657226931 -0.00077272720159976755 0 -0.0044755204533675295 -0.0007202960701714594 0 -0.0044150980134860492 -0.00073693796808821626 0 -0.0044263469119615222 -0.00069679163850483786 0 -0.0045271245417029095 -0.00070254406569302842 0 -0.0044755204533675295 -0.0007202960701714594 0 -0.0043702362788014901 -0.00059240928664865524 0 -0.0043659785671723607 -0.00073449153716710592 0 -0.0043140281726890143 -0.00079351341204334164 0 -0.0043793334657226931 -0.00077272720159976755 0 -0.0044150980134860492 -0.00073693796808821626 0 -0.0043659785671723607 -0.00073449153716710592 0 -0.0044263469119615222 -0.00069679163850483786 0 -0.0044150980134860492 -0.00073693796808821626 0 -0.0043659785671723607 -0.00073449153716710592 0 -0.0043793334657226931 -0.00077272720159976755 0 -0.0043659785671723607 -0.00073449153716710592 0 -0.0043140281726890143 -0.00079351341204334164 0 -0.0043214361260782317 -0.00074052637736084725 0 -0.0042921430746923782 -0.00078718951727936419 0 -0.0043140281726890143 -0.00079351341204334164 0 -0.0043214361260782317 -0.00074052637736084725 0 -0.0042749608059145855 -0.00084641063781980806 0 -0.0043140281726890143 -0.00079351341204334164 0 -0.0043647367991452475 -0.0008067650709214281 0 -0.0042604952499440798 -0.00083250432286384544 0 -0.0042749608059145855 -0.00084641063781980806 0 -0.0043140281726890143 -0.00079351341204334164 0 -0.0044223626119282433 -0.00085667676381606086 0 -0.004435215529126779 -0.00078481560332549136 0 -0.0043647367991452475 -0.0008067650709214281 0 -0.0043140281726890143 -0.00079351341204334164 0 -0.0043647367991452475 -0.0008067650709214281 0 -0.0043793334657226931 -0.00077272720159976755 0 -0.004435215529126779 -0.00078481560332549136 0 -0.0043647367991452475 -0.0008067650709214281 0 -0.0043793334657226931 -0.00077272720159976755 0 -0.0028547378255645846 0.0010813699413189694 0 -0.0033676215718105797 0.0014860926798557835 0 -0.0034302618890654506 0.00077430483692132008 0 -0.0033676215718105797 0.0014860926798557835 0 -0.0040216792226771079 0.00090599432822230646 0 -0.0034302618890654506 0.00077430483692132008 0 -0.0043661567021784841 -0.00078093449981364148 0 -0.0042542498495822768 -0.00069781133070454633 0 -0.0044063002161022309 -0.00071898664427433648 0 -0.0043661567021784841 -0.00078093449981364148 0 -0.0044288324210447075 -0.00077459382886464951 0 -0.0044063002161022309 -0.00071898664427433648 0 -0.0044406002142133843 -0.000763520133465549 0 -0.0044063002161022309 -0.00071898664427433648 0 -0.0044431669379793367 -0.00079961286745865298 0 -0.0044406002142133843 -0.000763520133465549 0 -0.0044288324210447075 -0.00077459382886464951 0 -0.0044063002161022309 -0.00071898664427433648 0 -0.0043661567021784841 -0.00078093449981364148 0 -0.0044288324210447075 -0.00077459382886464951 0 -0.0044508709536786907 -0.0007979157258198574 0 -0.0022508241816958179 -1.4907319539147564e-05 0 -0.0035955607908187645 -0.00028910841863842579 0 -0.0044288324210447075 -0.00077459382886464951 0 -0.0044649535145429766 -0.00076687900289232835 0 -0.0044508709536786907 -0.0007979157258198574 0 -0.0044649535145429766 -0.00076687900289232835 0 -0.0045119958434093324 -0.00078773440906716795 0 -0.0044508709536786907 -0.0007979157258198574 0 -0.0044406002142133843 -0.000763520133465549 0 -0.0044649535145429766 -0.00076687900289232835 0 -0.0044431669379793367 -0.00079961286745865298 0 -0.0044406002142133843 -0.000763520133465549 0 -0.0044288324210447075 -0.00077459382886464951 0 -0.0044649535145429766 -0.00076687900289232835 0 -0.0044649535145429766 -0.00076687900289232835 0 -0.0043879335835039328 -0.0007961100491348038 0 -0.0044431669379793367 -0.00079961286745865298 0 -0.0043879335835039328 -0.0007961100491348038 0 -0.0044431669379793367 -0.00079961286745865298 0 -0.0043077340634526647 -0.00085648362819332495 0 -0.0043265391288288841 -0.00076270240392355517 0 -0.0044649535145429766 -0.00076687900289232835 0 -0.0043879335835039328 -0.0007961100491348038 0 -0.0043991676351629273 -0.00080475847462028744 0 -0.0044251743363294491 -0.00080003604299274484 0 -0.0045127743136391838 -0.00081181952025132734 0 -0.0044649535145429766 -0.00076687900289232835 0 -0.0045119958434093324 -0.00078773440906716795 0 -0.0045127743136391838 -0.00081181952025132734 0 -0.0045201081606742926 -0.00078799601795197889 0 -0.0045119958434093324 -0.00078773440906716795 0 -0.0045119958434093324 -0.00078773440906716795 0 -0.0045624523347215134 -0.00074903322169361721 0 -0.0045234382917478588 -0.00077850397727191199 0 -0.0045201081606742926 -0.00078799601795197889 0 -0.0045119958434093324 -0.00078773440906716795 0 -0.0045624523347215134 -0.00074903322169361721 0 -0.0042239949075801586 -0.00040539554683779403 0 -0.0045674170400427086 -0.00052005846929413415 0 -0.0045624523347215134 -0.00074903322169361721 0 -0.0045234382917478588 -0.00077850397727191199 0 -0.0046148873680500599 -0.00070849514162891125 0 -0.0046070326080906191 0.00033971758358069035 0 -0.0046409185201330043 -0.00015116810166017922 0 -0.0050431158771361171 -0.00025630603904233131 0 -0.0046237568019288234 -0.00068268897564089173 0 -0.0045624523347215134 -0.00074903322169361721 0 -0.0046148873680500599 -0.00070849514162891125 0 -0.0046070326080906191 0.00033971758358069035 0 -0.0039463023348304824 7.2808393096711254e-05 0 -0.0046409185201330043 -0.00015116810166017922 0 -0.0042239949075801586 -0.00040539554683779403 0 -0.0035955607908187645 -0.00028910841863842579 0 -0.0045119958434093324 -0.00078773440906716795 0 -0.0045234382917478588 -0.00077850397727191199 0 -0.0044508709536786907 -0.0007979157258198574 0 -0.0046070326080906191 0.00033971758358069035 0 -0.0040216792226771079 0.00090599432822230646 0 -0.0039463023348304824 7.2808393096711254e-05 0 -0.0040216792226771079 0.00090599432822230646 0 -0.0039463023348304824 7.2808393096711254e-05 0 -0.0034302618890654506 0.00077430483692132008 0 -0.0029428834072920979 0.00038020672466120741 0 -0.0039463023348304824 7.2808393096711254e-05 0 -0.0034302618890654506 0.00077430483692132008 0 -0.0029428834072920979 0.00038020672466120741 0 -0.0039463023348304824 7.2808393096711254e-05 0 -0.003270114680654951 -0.00048229036979499971 0 -0.003270114680654951 -0.00048229036979499971 0 -0.0039451143733458477 -0.00068428414951596857 0 -0.0037054367719535075 -0.0012329164262793895 0 -0.0039463023348304824 7.2808393096711254e-05 0 -0.003270114680654951 -0.00048229036979499971 0 -0.0039451143733458477 -0.00068428414951596857 0 -0.0039463023348304824 7.2808393096711254e-05 0 -0.0039451143733458477 -0.00068428414951596857 0 -0.004490057662091285 -0.00051467267186601766 0 -0.004490057662091285 -0.00051467267186601766 0 -0.0049225158575380854 -0.00072635680788814391 0 -0.0047810938925670751 -0.0010010046646794896 0 -0.0039451143733458477 -0.00068428414951596857 0 -0.004490057662091285 -0.00051467267186601766 0 -0.0047810938925670751 -0.0010010046646794896 0 -0.0039463023348304824 7.2808393096711254e-05 0 -0.004490057662091285 -0.00051467267186601766 0 -0.0046409185201330043 -0.00015116810166017922 0 -0.004490057662091285 -0.00051467267186601766 0 -0.0046409185201330043 -0.00015116810166017922 0 -0.0048498497976858521 -0.00045945765675802083 0 -0.0046409185201330043 -0.00015116810166017922 0 -0.0048498497976858521 -0.00045945765675802083 0 -0.0050431158771361171 -0.00025630603904233131 0 -0.0048498497976858521 -0.00045945765675802083 0 -0.0050431158771361171 -0.00025630603904233131 0 -0.0050227308441341805 -0.0006130048273165395 0 -0.0048498497976858521 -0.00045945765675802083 0 -0.0049225158575380854 -0.00072635680788814391 0 -0.0050227308441341805 -0.0006130048273165395 0 -0.004490057662091285 -0.00051467267186601766 0 -0.0048498497976858521 -0.00045945765675802083 0 -0.0049225158575380854 -0.00072635680788814391 0 -0.0049225158575380854 -0.00072635680788814391 0 -0.0050969520582780673 -0.00093793414625097376 0 -0.0047810938925670751 -0.0010010046646794896 0 -0.0050969520582780673 -0.00093793414625097376 0 -0.0050816912387105385 -0.0010609538777401192 0 -0.0047810938925670751 -0.0010010046646794896 0 -0.0050969520582780673 -0.00093793414625097376 0 -0.0050816912387105385 -0.0010609538777401192 0 -0.0052116553330480413 -0.0010213679291690564 0 -0.0050816912387105385 -0.0010609538777401192 0 -0.0052116553330480413 -0.0010213679291690564 0 -0.0052503776908712271 -0.0010809214861635039 0 -0.0050816912387105385 -0.0010609538777401192 0 -0.0048106283244793609 -0.0011545181716505683 0 -0.0052239442356796827 -0.0011780821876272007 0 -0.0048106283244793609 -0.0011545181716505683 0 -0.0047810938925670751 -0.0010010046646794896 0 -0.0044495684940958858 -0.001133906461916089 0 -0.0050816912387105385 -0.0010609538777401192 0 -0.0048106283244793609 -0.0011545181716505683 0 -0.0047810938925670751 -0.0010010046646794896 0 -0.0041654184537795276 -0.00091223559936503922 0 -0.0036442744258331607 -0.00083510727070066173 0 -0.0039451143733458477 -0.00068428414951596857 0 -0.0047810938925670751 -0.0010010046646794896 0 -0.0037054367719535075 -0.0012329164262793895 0 -0.0047810938925670751 -0.0010010046646794896 0 -0.0044495684940958858 -0.001133906461916089 0 -0.0040568715323067491 -0.00065112691899228193 0 -0.0033688470214596131 -0.0008893241101203005 0 -0.0040568715323067491 -0.00065112691899228193 0 -0.0039154197200227461 -0.001488419226956964 0 -0.0044495684940958858 -0.001133906461916089 0 -0.0040568715323067491 -0.00065112691899228193 0 -0.0039154197200227461 -0.001488419226956964 0 -0.0047747207885395354 -0.00076564243560739095 0 -0.00467446806346653 -0.00072691759033808093 0 -0.0046606148050744407 -0.00070155281088541831 0 -0.0046576735424448288 -0.00071047535315153212 0 -0.0046720483380830831 -0.00071530977376607001 0 -0.0046435078182109849 -0.0007055387618116253 0 -0.0046606148050744407 -0.00070155281088541831 0 -0.0046576735424448288 -0.00071047535315153212 0 -0.0045254306462959391 -0.00069906271179662519 0 -0.0045543610002980817 -0.00070187870591628763 0 -0.0043659785671723607 -0.00073449153716710592 0 -0.0043530169977946623 -0.00070219148156471151 0 -0.0043214361260782317 -0.00074052637736084725 0 -0.0043086964054636035 -0.00070394817246131219 0 -0.0043530169977946623 -0.00070219148156471151 0 -0.0043214361260782317 -0.00074052637736084725 0 -0.0043659785671723607 -0.00073449153716710592 0 -0.0043530169977946623 -0.00070219148156471151 0 -0.0044263469119615222 -0.00069679163850483786 0 -0.0045543610002980817 -0.00070187870591628763 0 -0.00467446806346653 -0.00072691759033808093 0 -0.0046320130155938647 -0.00069732881063516131 0 -0.00467446806346653 -0.00072691759033808093 0 -0.0045271245417029095 -0.00070254406569302842 0 -0.0046237568019288234 -0.00068268897564089173 0 -0.0043702362788014901 -0.00059240928664865524 0 -0.0046237568019288234 -0.00068268897564089173 0 -0.005155527732569839 -0.00069115431612934766 0 -0.0051034788011372519 -0.00076921316516889617 0 -0.0046886882889358482 -0.00071913061627467713 0 -0.00467446806346653 -0.00072691759033808093 0 -0.0050431158771361171 -0.00025630603904233131 0 -0.0050227308441341805 -0.0006130048273165395 0 -0.0051034788011372519 -0.00076921316516889617 0 -0.0046237568019288234 -0.00068268897564089173 0 -0.0046148873680500599 -0.00070849514162891125 0 -0.0051034788011372519 -0.00076921316516889617 0 -0.0045674170400427086 -0.00052005846929413415 0 -0.0047130564579224007 -0.0005989104496408156 0 -0.0049225158575380854 -0.00072635680788814391 0 -0.0050227308441341805 -0.0006130048273165395 0 -0.0050959184505283469 -0.0007888785152964686 0 -0.0050227308441341805 -0.0006130048273165395 0 -0.0050959184505283469 -0.0007888785152964686 0 -0.0051034788011372519 -0.00076921316516889617 0 -0.005155527732569839 -0.00069115431612934766 0 -0.0051034788011372519 -0.00076921316516889617 0 -0.0051351449045308611 -0.00086190886424427899 0 -0.005138806340751729 -0.0009068373641737714 0 -0.005155527732569839 -0.00069115431612934766 0 -0.0051351449045308611 -0.00086190886424427899 0 -0.0050959184505283469 -0.0007888785152964686 0 -0.0051034788011372519 -0.00076921316516889617 0 -0.0051351449045308611 -0.00086190886424427899 0 -0.0051351449045308611 -0.00086190886424427899 0 -0.0051430374905115043 -0.00092654049703119691 0 -0.0051462643737437992 -0.00090183170120336725 0 -0.0051430374905115043 -0.00092654049703119691 0 -0.0051462643737437992 -0.00090183170120336725 0 -0.0051798331067072143 -0.00096065809278924631 0 -0.0050969520582780673 -0.00093793414625097376 0 -0.0050959184505283469 -0.0007888785152964686 0 -0.0051462643737437992 -0.00090183170120336725 0 -0.0049225158575380854 -0.00072635680788814391 0 -0.0050969520582780673 -0.00093793414625097376 0 -0.0050959184505283469 -0.0007888785152964686 0 -0.0050959184505283469 -0.0007888785152964686 0 -0.0051351449045308611 -0.00086190886424427899 0 -0.0051462643737437992 -0.00090183170120336725 0 -0.0050969520582780673 -0.00093793414625097376 0 -0.0051462643737437992 -0.00090183170120336725 0 -0.0051798331067072143 -0.00096065809278924631 0 -0.0051798331067072143 -0.00096065809278924631 0 -0.0052116553330480413 -0.0010213679291690564 0 -0.0051932488110713083 -0.00094315359096325182 0 -0.0050969520582780673 -0.00093793414625097376 0 -0.0051798331067072143 -0.00096065809278924631 0 -0.0052116553330480413 -0.0010213679291690564 0 -0.0051430374905115043 -0.00092654049703119691 0 -0.0051932488110713083 -0.00094315359096325182 0 -0.0050557973049866426 -0.00090359667794251018 0 -0.0051430374905115043 -0.00092654049703119691 0 -0.0051798331067072143 -0.00096065809278924631 0 -0.0051932488110713083 -0.00094315359096325182 0 -0.005138806340751729 -0.0009068373641737714 0 -0.0051351449045308611 -0.00086190886424427899 0 -0.0051430374905115043 -0.00092654049703119691 0 -0.005138806340751729 -0.0009068373641737714 0 -0.0051430374905115043 -0.00092654049703119691 0 -0.0050557973049866426 -0.00090359667794251018 0 -0.0047747207885395354 -0.00076564243560739095 0 -0.0046845163181762706 -0.00065153921405693615 0 -0.005138806340751729 -0.0009068373641737714 0 -0.0050557973049866426 -0.00090359667794251018 0 -0.0049500061238594338 -0.00090987192714280939 0 -0.0046435078182109849 -0.0007055387618116253 0 -0.0046606148050744407 -0.00070155281088541831 0 -0.0046493919235990697 -0.00068763862306931334 0 -0.0046845163181762706 -0.00065153921405693615 0 -0.0047538686704452328 -0.00054808788870525961 0 -0.0050557973049866426 -0.00090359667794251018 0 -0.0049500061238594338 -0.00090987192714280939 0 -0.0048742666602841376 -0.0007812692452960953 0 -0.0048274411300785018 -0.00040434528666240358 0 -0.004745850310431063 -0.00024095312065034762 0 -0.0046530079607777245 -0.00030517902632372926 0 -0.0047538686704452328 -0.00054808788870525961 0 -0.0047822039772391208 -0.00048106141212788495 0 -0.0047684211439677528 -0.00042813393909770127 0 -0.0048274411300785018 -0.00040434528666240358 0 -0.0046530079607777245 -0.00030517902632372926 0 -0.0048274411300785018 -0.00040434528666240358 0 -0.0051533718141911046 -0.00060528696678661498 0 -0.0049603609147778061 -0.0002761367303737675 0 -0.0048274411300785018 -0.00040434528666240358 0 -0.0050679551229015039 -0.00078572858922456635 0 -0.0051533718141911046 -0.00060528696678661498 0 -0.0050557973049866426 -0.00090359667794251018 0 -0.0048742666602841376 -0.0007812692452960953 0 -0.0050679551229015039 -0.00078572858922456635 0 -0.0051932488110713083 -0.00094315359096325182 0 -0.0050557973049866426 -0.00090359667794251018 0 -0.0050679551229015039 -0.00078572858922456635 0 -0.0048742666602841376 -0.0007812692452960953 0 -0.0048274411300785018 -0.00040434528666240358 0 -0.0050679551229015039 -0.00078572858922456635 0 -0.0051932488110713083 -0.00094315359096325182 0 -0.0050679551229015039 -0.00078572858922456635 0 -0.0052352771194422139 -0.00085887021857449137 0 -0.0051932488110713083 -0.00094315359096325182 0 -0.0052352771194422139 -0.00085887021857449137 0 -0.0053598321224819683 -0.001031163006112055 0 -0.0052116553330480413 -0.0010213679291690564 0 -0.0051932488110713083 -0.00094315359096325182 0 -0.0053598321224819683 -0.001031163006112055 0 -0.0052116553330480413 -0.0010213679291690564 0 -0.0053598321224819683 -0.001031163006112055 0 -0.0052503776908712271 -0.0010809214861635039 0 -0.0053598321224819683 -0.001031163006112055 0 -0.0053913147508902097 -0.00071409668886912353 0 -0.0057041829557695307 -0.00097421027816881642 0 -0.0052352771194422139 -0.00085887021857449137 0 -0.0053598321224819683 -0.001031163006112055 0 -0.0053913147508902097 -0.00071409668886912353 0 -0.0053913147508902097 -0.00071409668886912353 0 -0.0051533718141911046 -0.00060528696678661498 0 -0.0054096989497719496 -0.00020828571151777133 0 -0.0053913147508902097 -0.00071409668886912353 0 -0.0057041829557695307 -0.00097421027816881642 0 -0.0059879055352930173 -0.00018144549452105228 0 -0.0050679551229015039 -0.00078572858922456635 0 -0.0052352771194422139 -0.00085887021857449137 0 -0.0051533718141911046 -0.00060528696678661498 0 -0.0052352771194422139 -0.00085887021857449137 0 -0.0053913147508902097 -0.00071409668886912353 0 -0.0051533718141911046 -0.00060528696678661498 0 -0.0051533718141911046 -0.00060528696678661498 0 -0.0051446962528143795 -0.00025569468650457307 0 -0.0049603609147778061 -0.0002761367303737675 0 -0.0051533718141911046 -0.00060528696678661498 0 -0.0051446962528143795 -0.00025569468650457307 0 -0.0054096989497719496 -0.00020828571151777133 0 -0.0051446962528143795 -0.00025569468650457307 0 -0.0054096989497719496 -0.00020828571151777133 0 -0.0050878756005221706 3.9937711728651567e-05 0 -0.0051446962528143795 -0.00025569468650457307 0 -0.0050878756005221706 3.9937711728651567e-05 0 -0.0049603609147778061 -0.0002761367303737675 0 -0.0053913147508902097 -0.00071409668886912353 0 -0.0054096989497719496 -0.00020828571151777133 0 -0.0059879055352930173 -0.00018144549452105228 0 -0.0054096989497719496 -0.00020828571151777133 0 -0.0058248296422336527 0.00047299121374990105 0 -0.0059879055352930173 -0.00018144549452105228 0 -0.0054096989497719496 -0.00020828571151777133 0 -0.0058248296422336527 0.00047299121374990105 0 -0.0050878756005221706 3.9937711728651567e-05 0 -0.0091785116269723181 -0.00049160455387827222 0 -0.0063919057344781656 -0.00036241388751363562 0 -0.0091785116269723181 -0.00049160455387827222 0 -0.010352357855929764 -0.00058639645340890459 0 -0.006738258502930361 -0.00011702056728922584 0 -0.0060222133372152733 -0.00016259381576824502 0 -0.0060770435314698662 0.00020868480241758105 0 -0.0060222133372152733 -0.00016259381576824502 0 -0.0056388390436994231 9.2760115011878344e-05 0 -0.0060770435314698662 0.00020868480241758105 0 -0.0063919057344781656 -0.00036241388751363562 0 -0.0054108226835220125 -0.0002991646876996644 0 -0.0060222133372152733 -0.00016259381576824502 0 -0.0056388390436994231 9.2760115011878344e-05 0 -0.0053652301384304168 -0.00017322677808620938 0 -0.0056388390436994231 9.2760115011878344e-05 0 -0.0053652301384304168 -0.00017322677808620938 0 -0.0050285042034226915 0.00023013597338436605 0 -0.0053652301384304168 -0.00017322677808620938 0 -0.0050285042034226915 0.00023013597338436605 0 -0.0047224630997491921 -0.00013683546638585089 0 -0.0054108226835220125 -0.0002991646876996644 0 -0.0051069732713474921 -0.00028107691246168678 0 -0.0048098467421033358 -0.00013513891613030154 0 -0.004745850310431063 -0.00024095312065034762 0 -0.0047224630997491921 -0.00013683546638585089 0 -0.0048274411300785018 -0.00040434528666240358 0 -0.0048098467421033358 -0.00013513891613030154 0 -0.004745850310431063 -0.00024095312065034762 0 -0.0050878756005221706 3.9937711728651567e-05 0 -0.0048098467421033358 -0.00013513891613030154 0 -0.0049603609147778061 -0.0002761367303737675 0 -0.0048274411300785018 -0.00040434528666240358 0 -0.0048098467421033358 -0.00013513891613030154 0 -0.0049603609147778061 -0.0002761367303737675 0 -0.010483300752450032 -0.00097411674223017003 0 -0.0098704240970244918 -0.0013527634171866523 0 -0.0094094617037963641 -0.00089775681133668337 0 -0.0076561306422268027 -0.0010211798747467625 0 -0.0076312932240110059 -0.0010089863723383009 0 -0.0076316844311223033 -0.0010351832904816208 0 -0.0057961503036281434 -0.0011624469287374827 0 -0.0065746917766055296 -0.0013334198214560423 0 -0.0076312932240110059 -0.0010089863723383009 0 -0.0076316844311223033 -0.0010351832904816208 0 -0.0075851915251478105 -0.001023949463368408 0 -0.0044495684940958858 -0.001133906461916089 0 -0.0039154197200227461 -0.001488419226956964 0 -0.0046624612988523245 -0.0015763184814079441 0 -0.0098704240970244918 -0.0013527634171866523 0 -0.0094094617037963641 -0.00089775681133668337 0 -0.0085943481396981714 -0.002020533744807524 0 -0.0084442054786102866 -0.0012903098682109163 0 -0.0065746917766055296 -0.0013334198214560423 0 -0.0094094617037963641 -0.00089775681133668337 0 -0.0085212588144144008 -0.0011636835722293236 0 -0.0085943481396981714 -0.002020533744807524 0 -0.0094094617037963641 -0.00089775681133668337 0 -0.0085212588144144008 -0.0011636835722293236 0 -0.0091039373468732396 -0.00040303317695596709 0 -0.0085212588144144008 -0.0011636835722293236 0 -0.0076560739187415874 -0.000663012139155737 0 -0.0091039373468732396 -0.00040303317695596709 0 -0.0085212588144144008 -0.0011636835722293236 0 -0.0076560739187415874 -0.000663012139155737 0 -0.007247549457320179 -0.0017488587004786537 0 -0.0076560739187415874 -0.000663012139155737 0 -0.007247549457320179 -0.0017488587004786537 0 -0.006897057969401682 -0.00096313877365332271 0 -0.0085212588144144008 -0.0011636835722293236 0 -0.007247549457320179 -0.0017488587004786537 0 -0.0085943481396981714 -0.002020533744807524 0 -0.0048106283244793609 -0.0011545181716505683 0 -0.0046624612988523245 -0.0015763184814079441 0 -0.0052239442356796827 -0.0011780821876272007 0 -0.0053020838684648824 -0.0010939232014931775 0 -0.0054352092984947141 -0.0011456301067131916 0 -0.0052239442356796827 -0.0011780821876272007 0 -0.0048106283244793609 -0.0011545181716505683 0 -0.0044495684940958858 -0.001133906461916089 0 -0.0046624612988523245 -0.0015763184814079441 0 -0.0065746917766055296 -0.0013334198214560423 0 -0.0060009811364439445 -0.0014344604435653722 0 -0.0063532131225041578 -0.00127182089638081 0 -0.0065746917766055296 -0.0013334198214560423 0 -0.0053020838684648824 -0.0010939232014931775 0 -0.0052239442356796827 -0.0011780821876272007 0 -0.0054009207656930168 -0.0010629779182397153 0 -0.0050816912387105385 -0.0010609538777401192 0 -0.0052239442356796827 -0.0011780821876272007 0 -0.0052503776908712271 -0.0010809214861635039 0 -0.0053598321224819683 -0.001031163006112055 0 -0.0052503776908712271 -0.0010809214861635039 0 -0.0054009207656930168 -0.0010629779182397153 0 -0.0052239442356796827 -0.0011780821876272007 0 -0.0052503776908712271 -0.0010809214861635039 0 -0.0054009207656930168 -0.0010629779182397153 0 -0.0053598321224819683 -0.001031163006112055 0 -0.0054009207656930168 -0.0010629779182397153 0 -0.0057041829557695307 -0.00097421027816881642 0 -0.0053020838684648824 -0.0010939232014931775 0 -0.0054009207656930168 -0.0010629779182397153 0 -0.0057041829557695307 -0.00097421027816881642 0 -0.0063532131225041578 -0.00127182089638081 0 -0.0062050743718437282 -0.0012157982337439252 0 -0.007247549457320179 -0.0017488587004786537 0 -0.006897057969401682 -0.00096313877365332271 0 -0.0057041829557695307 -0.00097421027816881642 0 -0.0076560739187415874 -0.000663012139155737 0 -0.006897057969401682 -0.00096313877365332271 0 -0.0067265592997643245 -0.00032312504032748826 0 -0.006897057969401682 -0.00096313877365332271 0 -0.0057041829557695307 -0.00097421027816881642 0 -0.0067265592997643245 -0.00032312504032748826 0 -0.0058248296422336527 0.00047299121374990105 0 -0.0059879055352930173 -0.00018144549452105228 0 -0.0070759660214816545 0.00037959037823540888 0 -0.0057041829557695307 -0.00097421027816881642 0 -0.0059879055352930173 -0.00018144549452105228 0 -0.0067265592997643245 -0.00032312504032748826 0 -0.0059879055352930173 -0.00018144549452105228 0 -0.0067265592997643245 -0.00032312504032748826 0 -0.0070759660214816545 0.00037959037823540888 0 -0.013703714261803173 -0.0017674629866249083 0 -0.012100445089770376 -0.0019064182554663889 0 -0.011130898145447078 -0.00064516303605495126 0 -0.012100445089770376 -0.0019064182554663889 0 -0.010407291598378429 -0.002217755438525793 0 -0.013317493574089586 -0.0030216907971780068 0 -0.0091785116269723181 -0.00049160455387827222 0 -0.0093131584708533912 -0.00049455973205172153 0 -0.0091785116269723181 -0.00049160455387827222 0 -0.0097366548687231082 -0.00053501178308547489 0 -0.011750868727150858 -0.0021354361918397447 0 -0.012283403938339292 -0.0024737535146721903 0 -0.013322480794544402 -0.0020935026017749763 0 -0.012100445089770376 -0.0019064182554663889 0 -0.013317493574089586 -0.0030216907971780068 0 -0.010407291598378429 -0.002217755438525793 0 -0.0099899431060252192 -0.00096498625782687327 0 -0.011130898145447078 -0.00064516303605495126 0 -0.010407291598378429 -0.002217755438525793 0 -0.0099899431060252192 -0.00096498625782687327 0 -0.0075374130307429262 -0.00057616988903071197 0 -0.012100445089770376 -0.0019064182554663889 0 -0.010407291598378429 -0.002217755438525793 0 -0.011130898145447078 -0.00064516303605495126 0 -0.0099899431060252192 -0.00096498625782687327 0 -0.011130898145447078 -0.00064516303605495126 0 -0.0091039373468732396 -0.00040303317695596709 0 -0.0093131584708533912 -0.00049455973205172153 0 -0.0093320344194555566 -0.00049435511316719039 0 -0.0076560739187415874 -0.000663012139155737 0 -0.0070759660214816545 0.00037959037823540888 0 -0.0091039373468732396 -0.00040303317695596709 0 -0.0076560739187415874 -0.000663012139155737 0 -0.0067265592997643245 -0.00032312504032748826 0 -0.0070759660214816545 0.00037959037823540888 0 -0.0099899431060252192 -0.00096498625782687327 0 -0.0091039373468732396 -0.00040303317695596709 0 -0.0092162531261292899 -0.00042801691974741628 0 -0.010320478752288037 -0.0012907047544935028 0 -0.010842779327043783 -0.0014263412077934949 0 -0.0094094617037963641 -0.00089775681133668337 0 -0.0091039373468732396 -0.00040303317695596709 0 -0.0092162531261292899 -0.00042801691974741628 0 -0.013362945368891684 -0.0028292928021853795 0 -0.013530055225279253 -0.0026001638501751199 0 -0.013433248505277806 -0.0023086751929444899 0 -0.013715068896507865 -0.0027268889301135532 0 -0.013803674097166034 -0.0026540654932845887 0 -0.013362945368891684 -0.0028292928021853795 0 -0.013256765951802241 -0.003015888234127012 0 -0.013376171759876654 -0.0029802140391723283 0 -0.01343081891143252 -0.0029405698764102223 0 -0.013381090674831866 -0.0028109158171620327 0 -0.013362945368891684 -0.0028292928021853795 0 -0.011750868727150858 -0.0021354361918397447 0 -0.010842779327043783 -0.0014263412077934949 0 -0.01343081891143252 -0.0029405698764102223 0 -0.013362945368891684 -0.0028292928021853795 0 -0.013376171759876654 -0.0029802140391723283 0 -0.013381090674831866 -0.0028109158171620327 0 -0.013362945368891684 -0.0028292928021853795 0 -0.013567294850237801 -0.002723384374919576 0 -0.013362945368891684 -0.0028292928021853795 0 -0.013567294850237801 -0.002723384374919576 0 -0.013530055225279253 -0.0026001638501751199 0 -0.013530055225279253 -0.0026001638501751199 0 -0.013700586339606973 -0.0024111943960893672 0 -0.013433248505277806 -0.0023086751929444899 0 -0.013530055225279253 -0.0026001638501751199 0 -0.013700586339606973 -0.0024111943960893672 0 -0.013760123754143622 -0.0026108996212932723 0 -0.013567294850237801 -0.002723384374919576 0 -0.013530055225279253 -0.0026001638501751199 0 -0.013760123754143622 -0.0026108996212932723 0 -0.010632065968512341 -0.0005771008832067124 0 -0.010483300752450032 -0.00097411674223017003 0 -0.0095552390313740233 -0.00040955304247050866 0 -0.013963859273193128 -0.0029190935812581425 0 -0.013567294850237801 -0.002723384374919576 0 -0.013760123754143622 -0.0026108996212932723 0 -0.010483300752450032 -0.00097411674223017003 0 -0.0094094617037963641 -0.00089775681133668337 0 -0.0092162531261292899 -0.00042801691974741628 0 -0.013963859273193128 -0.0029190935812581425 0 -0.013381090674831866 -0.0028109158171620327 0 -0.013567294850237801 -0.002723384374919576 0 -0.010327664079338116 -0.0010608779382212084 0 -0.010842779327043783 -0.0014263412077934949 0 -0.012002026245158132 -0.0016409118674406079 0 -0.010842779327043783 -0.0014263412077934949 0 -0.014021599466043972 -0.0028478917773897073 0 -0.014283483082753012 -0.0030200548668845245 0 -0.013776134004231366 -0.0031275187708609377 0 -0.014117050277273648 -0.0024058824068887109 0 -0.013755081462557682 -0.0026832581514413421 0 -0.014572148193827515 -0.0025997986666743073 0 -0.014283483082753012 -0.0030200548668845245 0 -0.014378618591106946 -0.002637207726412382 0 -0.014610020171359452 -0.0020096105496800369 0 -0.014117050277273648 -0.0024058824068887109 0 -0.014021599466043972 -0.0028478917773897073 0 -0.014283483082753012 -0.0030200548668845245 0 -0.014378618591106946 -0.002637207726412382 0 -0.013181367116712233 -0.0031652047783410149 0 -0.013322346781911288 -0.0031019567203533671 0 -0.013256765951802241 -0.003015888234127012 0 -0.013622462550923939 -0.0018808265948044045 0 -0.01374842108576054 -0.002180200153130835 0 -0.013433248505277806 -0.0023086751929444899 0 -0.014117050277273648 -0.0024058824068887109 0 -0.013803674097166034 -0.0026540654932845887 0 -0.013700586339606973 -0.0024111943960893672 0 -0.01374842108576054 -0.002180200153130835 0 -0.013433248505277806 -0.0023086751929444899 0 -0.013322346781911288 -0.0031019567203533671 0 -0.013376171759876654 -0.0029802140391723283 0 -0.01345776992339622 -0.0030469470967906262 0 -0.013755081462557682 -0.0026832581514413421 0 -0.01365866924508846 -0.0027567406304384564 0 -0.013322346781911288 -0.0031019567203533671 0 -0.013256765951802241 -0.003015888234127012 0 -0.013376171759876654 -0.0029802140391723283 0 -0.013776134004231366 -0.0031275187708609377 0 -0.013750025892013967 -0.0028313281406475285 0 -0.013541425798255399 -0.0029854811248599101 0 -0.014021599466043972 -0.0028478917773897073 0 -0.013776134004231366 -0.0031275187708609377 0 -0.013750025892013967 -0.0028313281406475285 0 -0.013750025892013967 -0.0028313281406475285 0 -0.013541425798255399 -0.0029854811248599101 0 -0.013396654853592024 -0.0027492987961417041 0 -0.013541425798255399 -0.0029854811248599101 0 -0.01344989091405179 -0.0030393925140142488 0 -0.013396654853592024 -0.0027492987961417041 0 -0.013776134004231366 -0.0031275187708609377 0 -0.013541425798255399 -0.0029854811248599101 0 -0.01345776992339622 -0.0030469470967906262 0 -0.01343081891143252 -0.0029405698764102223 0 -0.01345776992339622 -0.0030469470967906262 0 -0.013317493574089586 -0.0030216907971780068 0 -0.01343081891143252 -0.0029405698764102223 0 -0.013376171759876654 -0.0029802140391723283 0 -0.01345776992339622 -0.0030469470967906262 0 -0.013541425798255399 -0.0029854811248599101 0 -0.01345776992339622 -0.0030469470967906262 0 -0.01344989091405179 -0.0030393925140142488 0 -0.01345776992339622 -0.0030469470967906262 0 -0.013317493574089586 -0.0030216907971780068 0 -0.01344989091405179 -0.0030393925140142488 0 -0.013317493574089586 -0.0030216907971780068 0 -0.01344989091405179 -0.0030393925140142488 0 -0.013645409923343286 -0.0032417796441822719 0 -0.01344989091405179 -0.0030393925140142488 0 -0.013396654853592024 -0.0027492987961417041 0 -0.013645409923343286 -0.0032417796441822719 0 -0.014375515560008975 -0.002975749166681022 0 -0.014139891738508839 -0.0030843018956395211 0 -0.01434466046137199 -0.0030874244213603165 0 -0.014487796526059695 -0.0034755768481864327 0 -0.013972023014182156 -0.0032493110310336092 0 -0.014487796526059695 -0.0034755768481864327 0 -0.013645409923343286 -0.0032417796441822719 0 -0.013972023014182156 -0.0032493110310336092 0 -0.01434466046137199 -0.0030874244213603165 0 -0.013972023014182156 -0.0032493110310336092 0 -0.014180350920616322 -0.0027548393776393935 0 -0.01434466046137199 -0.0030874244213603165 0 -0.014829459990549954 -0.0029067428904890383 0 -0.014180350920616322 -0.0027548393776393935 0 -0.01434466046137199 -0.0030874244213603165 0 -0.014487796526059695 -0.0034755768481864327 0 -0.014829459990549954 -0.0029067428904890383 0 -0.013396654853592024 -0.0027492987961417041 0 -0.013974169744250305 -0.0025271987704740505 0 -0.013957690578837776 -0.0019681360024629466 0 -0.014375515560008975 -0.002975749166681022 0 -0.015093522493313897 -0.0026499248178537735 0 -0.013750025892013967 -0.0028313281406475285 0 -0.013396654853592024 -0.0027492987961417041 0 -0.013974169744250305 -0.0025271987704740505 0 -0.014021599466043972 -0.0028478917773897073 0 -0.013750025892013967 -0.0028313281406475285 0 -0.013974169744250305 -0.0025271987704740505 0 -0.015467998689119496 -0.0032467410609186872 0 -0.015612050155525716 -0.0028006794959013533 0 -0.014829459990549954 -0.0029067428904890383 0 -0.014487796526059695 -0.0034755768481864327 0 -0.015467998689119496 -0.0032467410609186872 0 -0.014829459990549954 -0.0029067428904890383 0 -0.014938458915279782 -0.0011230583933741977 0 -0.013957690578837776 -0.0019681360024629466 0 -0.014489469994991143 -0.0021340218423077429 0 -0.016434448147109728 -0.0021072517429188225 0 -0.015093522493313897 -0.0026499248178537735 0 -0.014660680977219865 -0.0026008400607035842 0 -0.014489469994991143 -0.0021340218423077429 0 -0.014378618591106946 -0.002637207726412382 0 -0.013974169744250305 -0.0025271987704740505 0 -0.014489469994991143 -0.0021340218423077429 0 -0.014378618591106946 -0.002637207726412382 0 -0.013974169744250305 -0.0025271987704740505 0 -0.013957690578837776 -0.0019681360024629466 0 -0.014489469994991143 -0.0021340218423077429 0 -0.014021599466043972 -0.0028478917773897073 0 -0.013974169744250305 -0.0025271987704740505 0 -0.014378618591106946 -0.002637207726412382 0 -0.014610020171359452 -0.0020096105496800369 0 -0.014595989103349055 -0.0020221295215514311 0 -0.014145688136901521 -0.0030558741258877213 0 -0.013972743137177472 -0.0030603993285571794 0 -0.013962672602115967 -0.0031747040214771902 0 -0.014145688136901521 -0.0030558741258877213 0 -0.013962672602115967 -0.0031747040214771902 0 -0.014076549031909955 -0.0032689405890209472 0 -0.014145688136901521 -0.0030558741258877213 0 -0.014076549031909955 -0.0032689405890209472 0 -0.014324628294761443 -0.0031478150920637542 0 -0.011821869676960127 -0.00038340351692505456 0 -0.017198876680738755 -0.0011870101428267147 0 -0.0050285042034226915 0.00023013597338436605 0 -0.0054676453474543467 0.00047782986883691342 0 -0.004951177579089942 0.0006926374418655838 0 -0.0056388390436994231 9.2760115011878344e-05 0 -0.0050285042034226915 0.00023013597338436605 0 -0.0054676453474543467 0.00047782986883691342 0 -0.0056388390436994231 9.2760115011878344e-05 0 -0.0054676453474543467 0.00047782986883691342 0 -0.0060770435314698662 0.00020868480241758105 0 -0.011821869676960127 -0.00038340351692505456 0 -0.010352357855929764 -0.00058639645340890459 0 -0.014145688136901521 -0.0030558741258877213 0 -0.014036781049683951 -0.0028077790113517341 0 -0.013972743137177472 -0.0030603993285571794 0 -0.014036781049683951 -0.0028077790113517341 0 -0.013972743137177472 -0.0030603993285571794 0 -0.013780237560795232 -0.003137750988717841 0 -0.013322480794544402 -0.0020935026017749763 0 -0.013317493574089586 -0.0030216907971780068 0 -0.013780237560795232 -0.003137750988717841 0 -0.013322480794544402 -0.0020935026017749763 0 -0.014036781049683951 -0.0028077790113517341 0 -0.013780237560795232 -0.003137750988717841 0 -0.013317493574089586 -0.0030216907971780068 0 -0.013780237560795232 -0.003137750988717841 0 -0.013645409923343286 -0.0032417796441822719 0 -0.013780237560795232 -0.003137750988717841 0 -0.013645409923343286 -0.0032417796441822719 0 -0.013845434856954449 -0.0032534508889486453 0 -0.013780237560795232 -0.003137750988717841 0 -0.013845434856954449 -0.0032534508889486453 0 -0.013962672602115967 -0.0031747040214771902 0 -0.013972743137177472 -0.0030603993285571794 0 -0.013780237560795232 -0.003137750988717841 0 -0.013962672602115967 -0.0031747040214771902 0 -0.022532134882452589 -0.0008725488718425115 0 -0.021435294460943201 -0.00070757147836685442 0 -0.013962672602115967 -0.0031747040214771902 0 -0.013890330884937595 -0.0032379346555763949 0 -0.014076549031909955 -0.0032689405890209472 0 -0.013890330884937595 -0.0032379346555763949 0 -0.0138533058946271 -0.0031677449454524885 0 -0.014076549031909955 -0.0032689405890209472 0 -0.013845434856954449 -0.0032534508889486453 0 -0.013962672602115967 -0.0031747040214771902 0 -0.013890330884937595 -0.0032379346555763949 0 -0.013645409923343286 -0.0032417796441822719 0 -0.013845434856954449 -0.0032534508889486453 0 -0.013972023014182156 -0.0032493110310336092 0 -0.013845434856954449 -0.0032534508889486453 0 -0.013890330884937595 -0.0032379346555763949 0 -0.013972023014182156 -0.0032493110310336092 0 -0.013890330884937595 -0.0032379346555763949 0 -0.013972023014182156 -0.0032493110310336092 0 -0.0138533058946271 -0.0031677449454524885 0 -0.013972023014182156 -0.0032493110310336092 0 -0.0138533058946271 -0.0031677449454524885 0 -0.014180350920616322 -0.0027548393776393935 0 -0.022532134882452589 -0.0008725488718425115 0 -0.023089538291747015 -0.00081185590480274661 0 -0.03199873491775751 0.00036176735006578092 0 -0.031572209579034345 0.00039608020511242616 0 -0.031517358057617198 -0.00011123260478984206 0 -0.031517358057617198 -0.00011123260478984206 0 -0.031037073999252214 7.7176578218670584e-05 0 -0.030944345142984674 -0.00051224402475122041 0 -0.021435294460943201 -0.00070757147836685442 0 -0.017198876680738755 -0.0011870101428267147 0 -0.031572209579034345 0.00039608020511242616 0 -0.031037073999252214 7.7176578218670584e-05 0 -0.031187014539078038 0.00055227361299231038 0 -0.031572209579034345 0.00039608020511242616 0 -0.031517358057617198 -0.00011123260478984206 0 -0.031037073999252214 7.7176578218670584e-05 0 -0.031037073999252214 7.7176578218670584e-05 0 -0.030506188831392826 0.00034176273716229915 0 -0.031187014539078038 0.00055227361299231038 0 -0.031037073999252214 7.7176578218670584e-05 0 -0.030506188831392826 0.00034176273716229915 0 -0.030396647543242648 -0.00024749949914988113 0 -0.031037073999252214 7.7176578218670584e-05 0 -0.030396647543242648 -0.00024749949914988113 0 -0.030944345142984674 -0.00051224402475122041 0 -0.029171424954221804 -0.00091141987970146966 0 -0.028339439431148274 -0.00061530566055402296 0 -0.029130179439603415 -0.00013639333920163342 0 -0.025079969981120349 -0.00094902566900206462 0 -0.026665770125509417 -0.0011946892669417899 0 -0.030326719596882139 -0.00017201719221430849 0 -0.029171424954221804 -0.00091141987970146966 0 -0.029130179439603415 -0.00013639333920163342 0 -0.029468367585049535 0.00034377017393522508 0 -0.025079969981120349 -0.00094902566900206462 0 -0.030506188831392826 0.00034176273716229915 0 -0.030396647543242648 -0.00024749949914988113 0 -0.029809584159030064 3.7696559796661804e-05 0 -0.017406279423131471 -0.0018385981142198331 0 -0.01761457830181434 -0.0019449390505956855 0 -0.017621147970338702 -0.0017657269365298882 0 -0.022659423782935055 -0.001513969489246422 0 -0.025079969981120349 -0.00094902566900206462 0 -0.025079969981120349 -0.00094902566900206462 0 -0.023011286542391877 -0.0014698517120438092 0 -0.01761457830181434 -0.0019449390505956855 0 -0.017621147970338702 -0.0017657269365298882 0 -0.017769702783763868 -0.0018717783828334565 0 -0.017621147970338702 -0.0017657269365298882 0 -0.017483021071714514 -0.001681178317764129 0 -0.017604764119938155 -0.0015835952453460396 0 -0.017621147970338702 -0.0017657269365298882 0 -0.017604764119938155 -0.0015835952453460396 0 -0.017689303325372576 -0.0016696827758716506 0 -0.017406279423131471 -0.0018385981142198331 0 -0.017621147970338702 -0.0017657269365298882 0 -0.017483021071714514 -0.001681178317764129 0 -0.017483021071714514 -0.001681178317764129 0 -0.017454837034031095 -0.0015704599684224949 0 -0.017604764119938155 -0.0015835952453460396 0 -0.010714461358101997 -0.0010081727440076681 0 -0.011769239585391446 -0.0014274629669740677 0 -0.008924459871115703 -0.0015122204317626106 0 -0.0096420628218326261 -0.0015720267728936204 0 -0.0093724221754720449 -0.001233646810869096 0 -0.010714461358101997 -0.0010081727440076681 0 -0.007378564226071734 -0.0011559558585011098 0 -0.011769239585391446 -0.0014274629669740677 0 -0.01063750971898177 -0.0016883875578420722 0 -0.007378564226071734 -0.0011559558585011098 0 -0.01063750971898177 -0.0016883875578420722 0 -0.0096420628218326261 -0.0015720267728936204 0 -0.0093724221754720449 -0.001233646810869096 0 -0.010361301497086599 -0.001631224838224542 0 -0.017604764119938155 -0.0015835952453460396 0 -0.017689303325372576 -0.0016696827758716506 0 -0.017753439567878407 -0.0015982276329978618 0 -0.017198876680738755 -0.0011870101428267147 0 -0.013078097887378815 -0.0013601810924732134 0 -0.022659423782935055 -0.001513969489246422 0 -0.017198876680738755 -0.0011870101428267147 0 -0.017406279423131471 -0.0018385981142198331 0 -0.017197910257279472 -0.0017275785194082074 0 -0.017328090767743144 -0.0016488373609878885 0 -0.017406279423131471 -0.0018385981142198331 0 -0.017483021071714514 -0.001681178317764129 0 -0.017328090767743144 -0.0016488373609878885 0 -0.017483021071714514 -0.001681178317764129 0 -0.017454837034031095 -0.0015704599684224949 0 -0.017328090767743144 -0.0016488373609878885 0 -0.0043651138141494869 0.00022594691922718922 0 -0.0046162576209906074 0.00044602126096552811 0 -0.0046216239871424763 0.00014727528041667422 0 -0.010714461358101997 -0.0010081727440076681 0 -0.013078097887378815 -0.0013601810924732134 0 -0.0050285042034226915 0.00023013597338436605 0 -0.0046162576209906074 0.00044602126096552811 0 -0.0046216239871424763 0.00014727528041667422 0 -0.0050285042034226915 0.00023013597338436605 0 -0.004951177579089942 0.0006926374418655838 0 -0.0046162576209906074 0.00044602126096552811 0 -0.0050285042034226915 0.00023013597338436605 0 -0.0047224630997491921 -0.00013683546638585089 0 -0.0046216239871424763 0.00014727528041667422 0 -0.004745850310431063 -0.00024095312065034762 0 -0.0047224630997491921 -0.00013683546638585089 0 -0.0046530079607777245 -0.00030517902632372926 0 -0.0047224630997491921 -0.00013683546638585089 0 -0.0045045597874056832 -0.00014427778811118683 0 -0.0046530079607777245 -0.00030517902632372926 0 -0.0047224630997491921 -0.00013683546638585089 0 -0.0044654332787383965 -2.4201361860172876e-06 0 -0.0046216239871424763 0.00014727528041667422 0 -0.0043651138141494869 0.00022594691922718922 0 -0.0044654332787383965 -2.4201361860172876e-06 0 -0.0046216239871424763 0.00014727528041667422 0 -0.0047224630997491921 -0.00013683546638585089 0 -0.0045045597874056832 -0.00014427778811118683 0 -0.0044654332787383965 -2.4201361860172876e-06 0 -0.0044654332787383965 -2.4201361860172876e-06 0 -0.0043454396215902085 3.9242096798118445e-05 0 -0.0043989858751356612 -3.6270284415770391e-05 0 -0.0043454396215902085 3.9242096798118445e-05 0 -0.0043989858751356612 -3.6270284415770391e-05 0 -0.0043572740092041942 -0.00010294763528507745 0 -0.0043651138141494869 0.00022594691922718922 0 -0.0044654332787383965 -2.4201361860172876e-06 0 -0.0041887206079146031 0.00010419724128589305 0 -0.0062637006786399069 -0.00071931900290409174 0 -0.007378564226071734 -0.0011559558585011098 0 -0.0045045597874056832 -0.00014427778811118683 0 -0.0044654332787383965 -2.4201361860172876e-06 0 -0.0043989858751356612 -3.6270284415770391e-05 0 -0.0043454396215902085 3.9242096798118445e-05 0 -0.0043572740092041942 -0.00010294763528507745 0 -0.004201131532272172 -3.1754112520151719e-05 0 -0.007378564226071734 -0.0011559558585011098 0 -0.0041275438721896885 -0.0014178102072040424 0 0.0021020482835312389 -0.0024041456521257517 0 -0.00026890836953746161 -0.000899513096659015 0 -0.00065235446618042083 -0.0035490445791772204 0 -0.0043572740092041942 -0.00010294763528507745 0 -0.004268678559678247 -0.00019717533015194634 0 -0.004201131532272172 -3.1754112520151719e-05 0 -0.0045045597874056832 -0.00014427778811118683 0 -0.0043572740092041942 -0.00010294763528507745 0 -0.004475395398054847 -0.0002425603971050678 0 -0.0045045597874056832 -0.00014427778811118683 0 -0.0043989858751356612 -3.6270284415770391e-05 0 -0.0043572740092041942 -0.00010294763528507745 0 -0.0043736463249295964 -0.0002671984667543838 0 -0.0044636710993394609 -0.00036842323699571417 0 -0.004475395398054847 -0.0002425603971050678 0 -0.0043572740092041942 -0.00010294763528507745 0 -0.0043736463249295964 -0.0002671984667543838 0 -0.004475395398054847 -0.0002425603971050678 0 -0.0043736463249295964 -0.0002671984667543838 0 -0.004268678559678247 -0.00019717533015194634 0 -0.0043112280742728434 -0.0003690398667983102 0 -0.0043572740092041942 -0.00010294763528507745 0 -0.0043736463249295964 -0.0002671984667543838 0 -0.004268678559678247 -0.00019717533015194634 0 -0.004268678559678247 -0.00019717533015194634 0 -0.0043112280742728434 -0.0003690398667983102 0 -0.0041502147502668098 -0.00024119525219256117 0 -0.0041940718630678357 -0.00040281892112569605 0 -0.0043112280742728434 -0.0003690398667983102 0 -0.0041502147502668098 -0.00024119525219256117 0 -0.0043736463249295964 -0.0002671984667543838 0 -0.0043112280742728434 -0.0003690398667983102 0 -0.0044636710993394609 -0.00036842323699571417 0 -0.004530444947530925 -0.00051115823633261033 0 -0.0044636710993394609 -0.00036842323699571417 0 -0.0046088832128439363 -0.00041022620428582716 0 -0.0044636710993394609 -0.00036842323699571417 0 -0.0046088832128439363 -0.00041022620428582716 0 -0.0046530079607777245 -0.00030517902632372926 0 -0.0047205396285621634 -0.00056622661279961267 0 -0.0047684211439677528 -0.00042813393909770127 0 -0.0046088832128439363 -0.00041022620428582716 0 -0.0047684211439677528 -0.00042813393909770127 0 -0.0046088832128439363 -0.00041022620428582716 0 -0.0046530079607777245 -0.00030517902632372926 0 -0.0044636710993394609 -0.00036842323699571417 0 -0.0046530079607777245 -0.00030517902632372926 0 -0.004475395398054847 -0.0002425603971050678 0 -0.0045045597874056832 -0.00014427778811118683 0 -0.0046530079607777245 -0.00030517902632372926 0 -0.004475395398054847 -0.0002425603971050678 0 -0.0038251942186295282 -0.00065166173830634975 0 -0.0037846718683764765 -0.00086801371594632398 0 -0.0039358636122563163 8.3975964329088433e-05 0 -0.004028634579917709 -0.00019975570918606079 0 -0.0040729898624606358 -3.5095335307789213e-05 0 -0.0039358636122563163 8.3975964329088433e-05 0 -0.0037010453721185474 0.00012044225751456188 0 -0.0036300304150159958 -0.00015388464792612494 0 -0.0038485415992534212 -0.00036885829541029509 0 -0.0039358636122563163 8.3975964329088433e-05 0 -0.0036300304150159958 -0.00015388464792612494 0 -0.0038485415992534212 -0.00036885829541029509 0 -0.0039358636122563163 8.3975964329088433e-05 0 -0.004028634579917709 -0.00019975570918606079 0 -0.0040951312327257442 -0.00044046631986811418 0 -0.004028634579917709 -0.00019975570918606079 0 -0.0041502147502668098 -0.00024119525219256117 0 -0.004268678559678247 -0.00019717533015194634 0 -0.0041502147502668098 -0.00024119525219256117 0 -0.0041710263670110782 -0.00012556789225277385 0 -0.0041502147502668098 -0.00024119525219256117 0 -0.0041710263670110782 -0.00012556789225277385 0 -0.0040729898624606358 -3.5095335307789213e-05 0 -0.004028634579917709 -0.00019975570918606079 0 -0.0041502147502668098 -0.00024119525219256117 0 -0.0040729898624606358 -3.5095335307789213e-05 0 -0.0028963527094681657 0.00037132367901168651 0 -0.0025299691612483341 -0.0015284540804443108 0 -0.0043353668927249324 -0.00013910576116729479 0 -0.0028963527094681657 0.00037132367901168651 0 -0.00026890836953746161 -0.000899513096659015 0 -0.0025299691612483341 -0.0015284540804443108 0 -0.004268678559678247 -0.00019717533015194634 0 -0.0041710263670110782 -0.00012556789225277385 0 -0.004201131532272172 -3.1754112520151719e-05 0 -0.0041710263670110782 -0.00012556789225277385 0 -0.0040729898624606358 -3.5095335307789213e-05 0 -0.004201131532272172 -3.1754112520151719e-05 0 -0.0037846718683764765 -0.00086801371594632398 0 -0.0041275438721896885 -0.0014178102072040424 0 -0.00026890836953746161 -0.000899513096659015 0 -0.0025299691612483341 -0.0015284540804443108 0 -0.00065235446618042083 -0.0035490445791772204 0 -0.0025299691612483341 -0.0015284540804443108 0 -0.0051941809633535589 -0.0025157633846932879 0 -0.0043353668927249324 -0.00013910576116729479 0 -0.0025299691612483341 -0.0015284540804443108 0 -0.0051941809633535589 -0.0025157633846932879 0 -0.0030272808102869233 -0.00399084569084755 0 -0.0039358636122563163 8.3975964329088433e-05 0 -0.0028963527094681657 0.00037132367901168651 0 -0.0043353668927249324 -0.00013910576116729479 0 -0.0037010453721185474 0.00012044225751456188 0 -0.0043353668927249324 -0.00013910576116729479 0 -0.0037185137558721315 0.00048262109884601462 0 -0.0039358636122563163 8.3975964329088433e-05 0 -0.0037010453721185474 0.00012044225751456188 0 -0.0043353668927249324 -0.00013910576116729479 0 -0.0051941809633535589 -0.0025157633846932879 0 -0.0043353668927249324 -0.00013910576116729479 0 -0.0094727618668328205 -0.00027678392937191136 0 -0.0064066479446988102 0.00054863530507570353 0 -0.0074678832249651418 0.0004973029637798344 0 -0.0051941809633535589 -0.0025157633846932879 0 -0.0094727618668328205 -0.00027678392937191136 0 -0.008844242090617252 -0.0036807581689260382 0 -0.015205188470465725 -0.0022333291053441106 0 -0.0149768527607246 -0.0033322155698702781 0 -0.017064996508477554 -0.0023736942073188726 0 -0.012391095887576047 -0.0026917585249430697 0 -0.016735737402838964 -0.0028952873848452484 0 -0.008844242090617252 -0.0036807581689260382 0 -0.006216311237289592 -0.0050563164594417918 0 -0.01140791819281672 -0.0061672463091838985 0 -0.0051941809633535589 -0.0025157633846932879 0 -0.008844242090617252 -0.0036807581689260382 0 -0.006216311237289592 -0.0050563164594417918 0 -0.015205188470465725 -0.0022333291053441106 0 -0.013221897629218129 -0.0026416160478711561 0 -0.013336474078652859 -0.0020879670684391619 0 -0.0051941809633535589 -0.0025157633846932879 0 -0.006216311237289592 -0.0050563164594417918 0 -0.0030272808102869233 -0.00399084569084755 0 -0.012391095887576047 -0.0026917585249430697 0 -0.010114490290369545 -0.0022605538474247894 0 -0.015205188470465725 -0.0022333291053441106 0 -0.0149768527607246 -0.0033322155698702781 0 -0.013221897629218129 -0.0026416160478711561 0 -0.018537632938151555 -0.0023935210478572781 0 -0.021439587764243147 -0.0017284770730565855 0 -0.02493039822591455 -0.0026392245751688699 0 -0.02687267978748592 -0.0019290699113637961 0 -0.025045778967428052 -0.0017177199429743283 0 -0.018084390290757913 -0.0017369024278501863 0 -0.017919964290471133 -0.0016676876490605401 0 -0.017924725625463267 -0.0018037020175355378 0 -0.018537632938151555 -0.0023935210478572781 0 -0.015013732955963203 -0.0021665042146081161 0 -0.024491580524876152 -0.0021463731726977372 0 -0.023867106406484692 -0.0016296055861267297 0 -0.025045778967428052 -0.0017177199429743283 0 -0.02488063700338718 -0.0026329818210932827 0 -0.023477865203605043 -0.002507386216426035 0 -0.022686692682576663 -0.0030965625386920755 0 -0.02493039822591455 -0.0026392245751688699 0 -0.024491580524876152 -0.0021463731726977372 0 -0.025045778967428052 -0.0017177199429743283 0 -0.018537632938151555 -0.0023935210478572781 0 -0.016735737402838964 -0.0028952873848452484 0 -0.02493039822591455 -0.0026392245751688699 0 -0.024491580524876152 -0.0021463731726977372 0 -0.024648071130318236 -0.0025163292689739476 0 -0.024491580524876152 -0.0021463731726977372 0 -0.024004417089704157 -0.0022341046437026378 0 -0.024648071130318236 -0.0025163292689739476 0 -0.024491580524876152 -0.0021463731726977372 0 -0.024004417089704157 -0.0022341046437026378 0 -0.023867106406484692 -0.0016296055861267297 0 -0.023477865203605043 -0.002507386216426035 0 -0.023867106406484692 -0.0016296055861267297 0 -0.022958693314531778 -0.001731623472098025 0 -0.024004417089704157 -0.0022341046437026378 0 -0.023477865203605043 -0.002507386216426035 0 -0.023867106406484692 -0.0016296055861267297 0 -0.02488063700338718 -0.0026329818210932827 0 -0.023477865203605043 -0.002507386216426035 0 -0.024648071130318236 -0.0025163292689739476 0 -0.024004417089704157 -0.0022341046437026378 0 -0.023477865203605043 -0.002507386216426035 0 -0.024648071130318236 -0.0025163292689739476 0 -0.018537632938151555 -0.0023935210478572781 0 -0.018603940732249635 -0.0024126663210321626 0 -0.017753439567878407 -0.0015982276329978618 0 -0.017919964290471133 -0.0016676876490605401 0 -0.017777933401986617 -0.0017310379553021407 0 -0.017689303325372576 -0.0016696827758716506 0 -0.017753439567878407 -0.0015982276329978618 0 -0.017777933401986617 -0.0017310379553021407 0 -0.011456068064979818 -0.0019395945275546779 0 -0.013221897629218129 -0.0026416160478711561 0 -0.013336474078652859 -0.0020879670684391619 0 -0.0025299691612483341 -0.0015284540804443108 0 -0.00065235446618042083 -0.0035490445791772204 0 -0.0030272808102869233 -0.00399084569084755 0 -0.01063750971898177 -0.0016883875578420722 0 -0.015013732955963203 -0.0021665042146081161 0 -0.01063750971898177 -0.0016883875578420722 0 -0.010114490290369545 -0.0022605538474247894 0 -0.017919964290471133 -0.0016676876490605401 0 -0.017924725625463267 -0.0018037020175355378 0 -0.017777933401986617 -0.0017310379553021407 0 -0.017621147970338702 -0.0017657269365298882 0 -0.017689303325372576 -0.0016696827758716506 0 -0.017777933401986617 -0.0017310379553021407 0 -0.017924725625463267 -0.0018037020175355378 0 -0.017777933401986617 -0.0017310379553021407 0 -0.017769702783763868 -0.0018717783828334565 0 -0.017621147970338702 -0.0017657269365298882 0 -0.017777933401986617 -0.0017310379553021407 0 -0.017769702783763868 -0.0018717783828334565 0 -0.02687267978748592 -0.0019290699113637961 0 -0.027792939943636574 -0.0014409452788143552 0 -0.027124666771805087 -0.0011690224563558282 0 -0.021439587764243147 -0.0017284770730565855 0 -0.023011286542391877 -0.0014698517120438092 0 -0.02687267978748592 -0.0019290699113637961 0 -0.027124666771805087 -0.0011690224563558282 0 -0.026325418768432782 -0.0015120878484898861 0 -0.027124666771805087 -0.0011690224563558282 0 -0.026325418768432782 -0.0015120878484898861 0 -0.026439913442061081 -0.0010433217543991222 0 -0.027124666771805087 -0.0011690224563558282 0 -0.027891521693226583 -0.00062573901956630522 0 -0.027248404716260947 -0.00024409867822833172 0 -0.027124666771805087 -0.0011690224563558282 0 -0.026439913442061081 -0.0010433217543991222 0 -0.027248404716260947 -0.00024409867822833172 0 -0.028654690606820712 -0.0010283373524168726 0 -0.027792939943636574 -0.0014409452788143552 0 -0.027891521693226583 -0.00062573901956630522 0 -0.026665770125509417 -0.0011946892669417899 0 -0.026855985732533377 -0.0011233501638843843 0 -0.027792939943636574 -0.0014409452788143552 0 -0.027124666771805087 -0.0011690224563558282 0 -0.027891521693226583 -0.00062573901956630522 0 -0.02351325228014127 -0.00055055388439636036 0 -0.023867106406484692 -0.0016296055861267297 0 -0.022958693314531778 -0.001731623472098025 0 -0.02351325228014127 -0.00055055388439636036 0 -0.023867106406484692 -0.0016296055861267297 0 -0.025045778967428052 -0.0017177199429743283 0 -0.025241738235997967 -0.0014613681204763802 0 -0.026325418768432782 -0.0015120878484898861 0 -0.026439913442061081 -0.0010433217543991222 0 -0.02687267978748592 -0.0019290699113637961 0 -0.025045778967428052 -0.0017177199429743283 0 -0.026325418768432782 -0.0015120878484898861 0 -0.024174325365944424 -0.0011049578453506226 0 -0.025084689667659834 -0.001333196242678186 0 -0.02351325228014127 -0.00055055388439636036 0 -0.025045778967428052 -0.0017177199429743283 0 -0.026325418768432782 -0.0015120878484898861 0 -0.026179845938629345 -0.00063035499548817666 0 -0.026439913442061081 -0.0010433217543991222 0 -0.027248404716260947 -0.00024409867822833172 0 -0.025241738235997967 -0.0014613681204763802 0 -0.026179845938629345 -0.00063035499548817666 0 -0.026439913442061081 -0.0010433217543991222 0 -0.025241738235997967 -0.0014613681204763802 0 -0.026179845938629345 -0.00063035499548817666 0 -0.025555543066832886 -6.8943580871211273e-05 0 -0.025241738235997967 -0.0014613681204763802 0 -0.025555543066832886 -6.8943580871211273e-05 0 -0.024451775547118852 -0.00020241094622998299 0 -0.025555543066832886 -6.8943580871211273e-05 0 -0.025198739997215707 0.00054052775471363312 0 -0.024451775547118852 -0.00020241094622998299 0 -0.026179845938629345 -0.00063035499548817666 0 -0.025555543066832886 -6.8943580871211273e-05 0 -0.026411832772418261 0.00050282502159991092 0 -0.026179845938629345 -0.00063035499548817666 0 -0.026411832772418261 0.00050282502159991092 0 -0.027248404716260947 -0.00024409867822833172 0 -0.025555543066832886 -6.8943580871211273e-05 0 -0.026411832772418261 0.00050282502159991092 0 -0.025866515787005179 0.00094694039450460819 0 -0.026411832772418261 0.00050282502159991092 0 -0.025866515787005179 0.00094694039450460819 0 -0.02665229791883103 0.0015420571716734453 0 -0.026411832772418261 0.00050282502159991092 0 -0.02665229791883103 0.0015420571716734453 0 -0.027517610556256841 0.0011069393840404864 0 -0.025198739997215707 0.00054052775471363312 0 -0.025365732569412512 0.001494342666128911 0 -0.024536983863830901 0.00086888115443011372 0 -0.025198739997215707 0.00054052775471363312 0 -0.025866515787005179 0.00094694039450460819 0 -0.025365732569412512 0.001494342666128911 0 -0.025555543066832886 -6.8943580871211273e-05 0 -0.025198739997215707 0.00054052775471363312 0 -0.025866515787005179 0.00094694039450460819 0 -0.025365732569412512 0.001494342666128911 0 -0.025144814483104905 0.0020868944754019536 0 -0.024667732124825523 0.0016215172036277224 0 -0.025144814483104905 0.0020868944754019536 0 -0.025652277783282232 0.0020210768955095924 0 -0.02548705635417103 0.0023916522841778151 0 -0.025365732569412512 0.001494342666128911 0 -0.025144814483104905 0.0020868944754019536 0 -0.025652277783282232 0.0020210768955095924 0 -0.025652277783282232 0.0020210768955095924 0 -0.02607715440290418 0.0022278587955511459 0 -0.02548705635417103 0.0023916522841778151 0 -0.025652277783282232 0.0020210768955095924 0 -0.026013174614770086 0.0016916421965243508 0 -0.02607715440290418 0.0022278587955511459 0 -0.025866515787005179 0.00094694039450460819 0 -0.025365732569412512 0.001494342666128911 0 -0.026013174614770086 0.0016916421965243508 0 -0.025365732569412512 0.001494342666128911 0 -0.025652277783282232 0.0020210768955095924 0 -0.026013174614770086 0.0016916421965243508 0 -0.02665229791883103 0.0015420571716734453 0 -0.02607715440290418 0.0022278587955511459 0 -0.027082363869198538 0.0026063792826042011 0 -0.025866515787005179 0.00094694039450460819 0 -0.026013174614770086 0.0016916421965243508 0 -0.02665229791883103 0.0015420571716734453 0 -0.026013174614770086 0.0016916421965243508 0 -0.02665229791883103 0.0015420571716734453 0 -0.02607715440290418 0.0022278587955511459 0 -0.029424961894315229 0.0014532267926787991 0 -0.02825470843153419 0.0019438343912382948 0 -0.028605565948256285 0.002198065192553081 0 -0.028831285834595072 0.0021538284265284905 0 -0.028727682596798431 0.0022523651581696533 0 -0.02607715440290418 0.0022278587955511459 0 -0.02546427515170625 0.0029332870216168356 0 -0.027082363869198538 0.0026063792826042011 0 -0.029424961894315229 0.0014532267926787991 0 -0.029198346509838588 0.0015950089749301125 0 -0.029424961894315229 0.0014532267926787991 0 -0.03051356831978333 0.0013665063993913156 0 -0.025144814483104905 0.0020868944754019536 0 -0.025159358156451851 0.0026677866246660725 0 -0.02548705635417103 0.0023916522841778151 0 -0.02546427515170625 0.0029332870216168356 0 -0.025159358156451851 0.0026677866246660725 0 -0.02548705635417103 0.0023916522841778151 0 -0.02607715440290418 0.0022278587955511459 0 -0.02546427515170625 0.0029332870216168356 0 -0.02548705635417103 0.0023916522841778151 0 -0.028837501172065128 0.0019835469424890739 0 -0.028831285834595072 0.0021538284265284905 0 -0.028908690112121577 0.0022122362029833339 0 -0.028837501172065128 0.0019835469424890739 0 -0.028908690112121577 0.0022122362029833339 0 -0.029092064877072121 0.0022639399823791363 0 -0.028405923548399152 0.001968148127626653 0 -0.02825470843153419 0.0019438343912382948 0 -0.028837501172065128 0.0019835469424890739 0 -0.027082363869198538 0.0026063792826042011 0 -0.027742930265600495 0.0016698226284559967 0 -0.02665229791883103 0.0015420571716734453 0 -0.027082363869198538 0.0026063792826042011 0 -0.027742930265600495 0.0016698226284559967 0 -0.02665229791883103 0.0015420571716734453 0 -0.027742930265600495 0.0016698226284559967 0 -0.027517610556256841 0.0011069393840404864 0 -0.028837501172065128 0.0019835469424890739 0 -0.027742930265600495 0.0016698226284559967 0 -0.028544640182024652 0.0012156271775126122 0 -0.027742930265600495 0.0016698226284559967 0 -0.028544640182024652 0.0012156271775126122 0 -0.027517610556256841 0.0011069393840404864 0 -0.028544640182024652 0.0012156271775126122 0 -0.027517610556256841 0.0011069393840404864 0 -0.028247583268938895 0.00036698491838193544 0 -0.027517610556256841 0.0011069393840404864 0 -0.027188500434794375 0.00044957413235307956 0 -0.028247583268938895 0.00036698491838193544 0 -0.026411832772418261 0.00050282502159991092 0 -0.027517610556256841 0.0011069393840404864 0 -0.027188500434794375 0.00044957413235307956 0 -0.026411832772418261 0.00050282502159991092 0 -0.027188500434794375 0.00044957413235307956 0 -0.027248404716260947 -0.00024409867822833172 0 -0.027188500434794375 0.00044957413235307956 0 -0.027248404716260947 -0.00024409867822833172 0 -0.028247583268938895 0.00036698491838193544 0 -0.028339439431148274 -0.00061530566055402296 0 -0.027248404716260947 -0.00024409867822833172 0 -0.028247583268938895 0.00036698491838193544 0 -0.028339439431148274 -0.00061530566055402296 0 -0.028247583268938895 0.00036698491838193544 0 -0.029130179439603415 -0.00013639333920163342 0 -0.028247583268938895 0.00036698491838193544 0 -0.029130179439603415 -0.00013639333920163342 0 -0.029364955312906244 0.00068598477948140005 0 -0.030326719596882139 -0.00017201719221430849 0 -0.029364955312906244 0.00068598477948140005 0 -0.030381920947891029 0.00084215649687623736 0 -0.030326719596882139 -0.00017201719221430849 0 -0.029130179439603415 -0.00013639333920163342 0 -0.029364955312906244 0.00068598477948140005 0 -0.029364955312906244 0.00068598477948140005 0 -0.030381920947891029 0.00084215649687623736 0 -0.029569192994094447 0.0014660889565760375 0 -0.028544640182024652 0.0012156271775126122 0 -0.028247583268938895 0.00036698491838193544 0 -0.029364955312906244 0.00068598477948140005 0 -0.028544640182024652 0.0012156271775126122 0 -0.029364955312906244 0.00068598477948140005 0 -0.029569192994094447 0.0014660889565760375 0 -0.029468367585049535 0.00034377017393522508 0 -0.03037710028170262 0.000585197359712191 0 -0.030326719596882139 -0.00017201719221430849 0 -0.030381920947891029 0.00084215649687623736 0 -0.031187014539078038 0.00055227361299231038 0 -0.030381920947891029 0.00084215649687623736 0 -0.030901026459262709 0.0011813623000728843 0 -0.031187014539078038 0.00055227361299231038 0 -0.030901026459262709 0.0011813623000728843 0 -0.030875857447357342 0.0017116462958997778 0 -0.031464351722947079 0.0015285423113341277 0 -0.030901026459262709 0.0011813623000728843 0 -0.030252064516375826 0.0016843625903850967 0 -0.030875857447357342 0.0017116462958997778 0 -0.030381920947891029 0.00084215649687623736 0 -0.030901026459262709 0.0011813623000728843 0 -0.030252064516375826 0.0016843625903850967 0 -0.030381920947891029 0.00084215649687623736 0 -0.030252064516375826 0.0016843625903850967 0 -0.029569192994094447 0.0014660889565760375 0 -0.030252064516375826 0.0016843625903850967 0 -0.030875857447357342 0.0017116462958997778 0 -0.03053222703571554 0.0021812731954100055 0 -0.028837501172065128 0.0019835469424890739 0 -0.028544640182024652 0.0012156271775126122 0 -0.029569192994094447 0.0014660889565760375 0 -0.030252064516375826 0.0016843625903850967 0 -0.02945138348824369 0.0020636011681659078 0 -0.029974330681303868 0.0022134083777439304 0 -0.030252064516375826 0.0016843625903850967 0 -0.029569192994094447 0.0014660889565760375 0 -0.02945138348824369 0.0020636011681659078 0 -0.028837501172065128 0.0019835469424890739 0 -0.02945138348824369 0.0020636011681659078 0 -0.029092064877072121 0.0022639399823791363 0 -0.028837501172065128 0.0019835469424890739 0 -0.029569192994094447 0.0014660889565760375 0 -0.02945138348824369 0.0020636011681659078 0 -0.02945138348824369 0.0020636011681659078 0 -0.029468143372544955 0.002424522162461991 0 -0.029092064877072121 0.0022639399823791363 0 -0.029468143372544955 0.002424522162461991 0 -0.029194205781788014 0.0025586577021416584 0 -0.029092064877072121 0.0022639399823791363 0 -0.02945138348824369 0.0020636011681659078 0 -0.029468143372544955 0.002424522162461991 0 -0.029974330681303868 0.0022134083777439304 0 -0.029468143372544955 0.002424522162461991 0 -0.029974330681303868 0.0022134083777439304 0 -0.029976150965817992 0.0025711631986453194 0 -0.029468143372544955 0.002424522162461991 0 -0.029976150965817992 0.0025711631986453194 0 -0.02945156049624835 0.0027206143681464982 0 -0.029976150965817992 0.0025711631986453194 0 -0.02945156049624835 0.0027206143681464982 0 -0.029927337557728521 0.0029529445781298473 0 -0.029194205781788014 0.0025586577021416584 0 -0.029284589980604139 0.0027284482141410995 0 -0.029168778490220513 0.002693205538988826 0 -0.02945156049624835 0.0027206143681464982 0 -0.029194205781788014 0.0025586577021416584 0 -0.029284589980604139 0.0027284482141410995 0 -0.029468143372544955 0.002424522162461991 0 -0.02945156049624835 0.0027206143681464982 0 -0.029194205781788014 0.0025586577021416584 0 -0.03053222703571554 0.0021812731954100055 0 -0.030999600405329168 0.0024076802864328238 0 -0.031245601420426223 0.0020085713952959108 0 -0.030875857447357342 0.0017116462958997778 0 -0.03053222703571554 0.0021812731954100055 0 -0.031245601420426223 0.0020085713952959108 0 -0.030252064516375826 0.0016843625903850967 0 -0.029974330681303868 0.0022134083777439304 0 -0.03053222703571554 0.0021812731954100055 0 -0.029974330681303868 0.0022134083777439304 0 -0.029976150965817992 0.0025711631986453194 0 -0.03053222703571554 0.0021812731954100055 0 -0.029976150965817992 0.0025711631986453194 0 -0.03053222703571554 0.0021812731954100055 0 -0.03047020607140952 0.0026651759167345274 0 -0.029976150965817992 0.0025711631986453194 0 -0.03047020607140952 0.0026651759167345274 0 -0.029927337557728521 0.0029529445781298473 0 -0.03047020607140952 0.0026651759167345274 0 -0.030724651895756211 0.0028526805327316451 0 -0.029927337557728521 0.0029529445781298473 0 -0.03053222703571554 0.0021812731954100055 0 -0.03047020607140952 0.0026651759167345274 0 -0.030999600405329168 0.0024076802864328238 0 -0.03047020607140952 0.0026651759167345274 0 -0.030793854190568001 0.0028989344528454939 0 -0.030999600405329168 0.0024076802864328238 0 -0.031872378118582005 0.002265754715081818 0 -0.031995448581348764 0.0023022347949577093 0 -0.033636603280806775 0.0014983305764721439 0 -0.03350721404390529 0.0016756433175423124 0 -0.033695808976834815 0.0017628550732067324 0 -0.033636603280806775 0.0014983305764721439 0 -0.033695808976834815 0.0017628550732067324 0 -0.033743605893480591 0.001792776706005539 0 -0.033636603280806775 0.0014983305764721439 0 -0.03350721404390529 0.0016756433175423124 0 -0.03330581321767332 0.0014309567693705793 0 -0.031995448581348764 0.0023022347949577093 0 -0.031551683887195266 0.0022431272953690085 0 -0.03350721404390529 0.0016756433175423124 0 -0.033770109335406855 0.0018443988008327854 0 -0.033361865762145081 0.001907434769472899 0 -0.03350721404390529 0.0016756433175423124 0 -0.033695808976834815 0.0017628550732067324 0 -0.033770109335406855 0.0018443988008327854 0 -0.032407138549390625 0.0016011828282382454 0 -0.03264623505181577 0.0014169923044140558 0 -0.033092407994909444 0.0016581987649284832 0 -0.02945156049624835 0.0027206143681464982 0 -0.029277534588220227 0.0028825291110882254 0 -0.029927337557728521 0.0029529445781298473 0 -0.02945156049624835 0.0027206143681464982 0 -0.029277534588220227 0.0028825291110882254 0 -0.029284589980604139 0.0027284482141410995 0 -0.029277534588220227 0.0028825291110882254 0 -0.029284589980604139 0.0027284482141410995 0 -0.029168778490220513 0.002693205538988826 0 -0.030950074635336364 0.0022466696180505176 0 -0.031551683887195266 0.0022431272953690085 0 -0.03264623505181577 0.0014169923044140558 0 -0.03330581321767332 0.0014309567693705793 0 -0.033092407994909444 0.0016581987649284832 0 -0.03350721404390529 0.0016756433175423124 0 -0.03330581321767332 0.0014309567693705793 0 -0.033092407994909444 0.0016581987649284832 0 -0.033092407994909444 0.0016581987649284832 0 -0.032946554011003285 0.0019469892391554143 0 -0.033361865762145081 0.001907434769472899 0 -0.03350721404390529 0.0016756433175423124 0 -0.033092407994909444 0.0016581987649284832 0 -0.033361865762145081 0.001907434769472899 0 -0.032291391147297552 0.0023690300235539854 0 -0.031936830175512722 0.002813442507043741 0 -0.033059248951186601 0.002850661403143656 0 -0.032963914678941109 0.0019778021671517229 0 -0.033204057121245169 0.0022818733951786335 0 -0.032407138549390625 0.0016011828282382454 0 -0.033092407994909444 0.0016581987649284832 0 -0.032946554011003285 0.0019469892391554143 0 -0.032407138549390625 0.0016011828282382454 0 -0.032291391147297552 0.0023690300235539854 0 -0.033059248951186601 0.002850661403143656 0 -0.032407138549390625 0.0016011828282382454 0 -0.031753677850791293 0.002202916026078275 0 -0.031068453256565126 0.001762505346528638 0 -0.032291391147297552 0.0023690300235539854 0 -0.031936830175512722 0.002813442507043741 0 -0.031753677850791293 0.002202916026078275 0 -0.031936830175512722 0.002813442507043741 0 -0.031753677850791293 0.002202916026078275 0 -0.031094293422374131 0.0025996368440393113 0 -0.031753677850791293 0.002202916026078275 0 -0.031068453256565126 0.001762505346528638 0 -0.031094293422374131 0.0025996368440393113 0 -0.032407138549390625 0.0016011828282382454 0 -0.032291391147297552 0.0023690300235539854 0 -0.031753677850791293 0.002202916026078275 0 -0.032407138549390625 0.0016011828282382454 0 -0.03264623505181577 0.0014169923044140558 0 -0.031068453256565126 0.001762505346528638 0 -0.030950074635336364 0.0022466696180505176 0 -0.030295071431077764 0.0023076736303105473 0 -0.029277534588220227 0.0028825291110882254 0 -0.029103831699712462 0.0027205501276559305 0 -0.028975013923759722 0.0026551405083286147 0 -0.029103831699712462 0.0027205501276559305 0 -0.029022175918160323 0.0026638755292224996 0 -0.028975013923759722 0.0026551405083286147 0 -0.02908793068229874 0.0026715017194706607 0 -0.029103831699712462 0.0027205501276559305 0 -0.029022175918160323 0.0026638755292224996 0 -0.02908793068229874 0.0026715017194706607 0 -0.029022175918160323 0.0026638755292224996 0 -0.029067908005340693 0.0026049217622342732 0 -0.02908793068229874 0.0026715017194706607 0 -0.029168778490220513 0.002693205538988826 0 -0.029103831699712462 0.0027205501276559305 0 -0.029277534588220227 0.0028825291110882254 0 -0.029168778490220513 0.002693205538988826 0 -0.029103831699712462 0.0027205501276559305 0 -0.02908793068229874 0.0026715017194706607 0 -0.029168778490220513 0.002693205538988826 0 -0.029067908005340693 0.0026049217622342732 0 -0.028975013923759722 0.0026551405083286147 0 -0.029056108076717931 0.0026750310221682508 0 -0.029379171386768745 0.002387311405053702 0 -0.028999355473135782 0.002616593743141377 0 -0.029056108076717931 0.0026750310221682508 0 -0.028914194667072485 0.0025582576299946992 0 -0.028999355473135782 0.002616593743141377 0 -0.029022175918160323 0.0026638755292224996 0 -0.029056108076717931 0.0026750310221682508 0 -0.028999355473135782 0.002616593743141377 0 -0.029022175918160323 0.0026638755292224996 0 -0.028996877331790932 0.0025783937689650362 0 -0.029022175918160323 0.0026638755292224996 0 -0.028975013923759722 0.0026551405083286147 0 -0.029056108076717931 0.0026750310221682508 0 -0.030295071431077764 0.0023076736303105473 0 -0.029959909972056435 0.0023584758624432462 0 -0.031068453256565126 0.001762505346528638 0 -0.030333066990505787 0.002579337371834725 0 -0.029379171386768745 0.002387311405053702 0 -0.031068453256565126 0.001762505346528638 0 -0.031094293422374131 0.0025996368440393113 0 -0.030333066990505787 0.002579337371834725 0 -0.031094293422374131 0.0025996368440393113 0 -0.030333066990505787 0.002579337371834725 0 -0.030524782793438846 0.0030614235676845072 0 -0.030333066990505787 0.002579337371834725 0 -0.029379171386768745 0.002387311405053702 0 -0.029696970166015479 0.0029671322851559366 0 -0.029379171386768745 0.002387311405053702 0 -0.029106717829426334 0.0027540079325310118 0 -0.029696970166015479 0.0029671322851559366 0 -0.033197553920280044 -0.00032530765634592449 0 -0.033220633731718609 -0.00015103069838203885 0 -0.033349967222489563 -0.00026901783475100717 0 -0.031701686768242976 0.0012631384757280366 0 -0.031382378553189844 0.00096736520199273274 0 -0.029379171386768745 0.002387311405053702 0 -0.029106717829426334 0.0027540079325310118 0 -0.02939601303274407 0.0023816509130952374 0 -0.031382378553189844 0.00096736520199273274 0 -0.030988425075443162 0.001087028877730138 0 -0.028638565008404688 0.0027612466916221226 0 -0.028795905255073698 0.0025799843264070789 0 -0.028615905898859473 0.0024489954698145556 0 -0.03375944242059075 -0.00046286221268756296 0 -0.033726521807308653 -0.00047042877940723228 0 -0.033743675710272932 -0.00045294100835295629 0 -0.029056108076717931 0.0026750310221682508 0 -0.028638565008404688 0.0027612466916221226 0 -0.028795905255073698 0.0025799843264070789 0 -0.029699154445610911 0.0015851807596131845 0 -0.031382378553189844 0.00096736520199273274 0 -0.029056108076717931 0.0026750310221682508 0 -0.029379171386768745 0.002387311405053702 0 -0.02939601303274407 0.0023816509130952374 0 -0.029056108076717931 0.0026750310221682508 0 -0.028795905255073698 0.0025799843264070789 0 -0.028914194667072485 0.0025582576299946992 0 -0.028795905255073698 0.0025799843264070789 0 -0.028794877529075967 0.0024223867150262187 0 -0.028615905898859473 0.0024489954698145556 0 -0.028795905255073698 0.0025799843264070789 0 -0.028794877529075967 0.0024223867150262187 0 -0.028914194667072485 0.0025582576299946992 0 -0.028794877529075967 0.0024223867150262187 0 -0.028914194667072485 0.0025582576299946992 0 -0.02892481375527084 0.0024938423556063035 0 -0.028794877529075967 0.0024223867150262187 0 -0.028615905898859473 0.0024489954698145556 0 -0.028672319135418484 0.0023191076889666601 0 -0.033737544667107086 -0.00043933027365388816 0 -0.033743675710272932 -0.00045294100835295629 0 -0.033749336777607469 -0.00045129031268386363 0 -0.03051356831978333 0.0013665063993913156 0 -0.030988425075443162 0.001087028877730138 0 -0.028590998342151341 0.0022123288482291661 0 -0.028615905898859473 0.0024489954698145556 0 -0.028672319135418484 0.0023191076889666601 0 -0.028637467338422217 0.0022041049230211119 0 -0.028672319135418484 0.0023191076889666601 0 -0.028770357897611589 0.0022676782783037862 0 -0.028637467338422217 0.0022041049230211119 0 -0.028590998342151341 0.0022123288482291661 0 -0.028672319135418484 0.0023191076889666601 0 -0.028794877529075967 0.0024223867150262187 0 -0.028672319135418484 0.0023191076889666601 0 -0.028770357897611589 0.0022676782783037862 0 -0.028794877529075967 0.0024223867150262187 0 -0.028770357897611589 0.0022676782783037862 0 -0.028862649205388894 0.0023111848976990462 0 -0.028831285834595072 0.0021538284265284905 0 -0.028727682596798431 0.0022523651581696533 0 -0.028862649205388894 0.0023111848976990462 0 -0.029198346509838588 0.0015950089749301125 0 -0.0291521604836752 0.0016501675905219657 0 -0.028831285834595072 0.0021538284265284905 0 -0.028862649205388894 0.0023111848976990462 0 -0.028908690112121577 0.0022122362029833339 0 -0.028862649205388894 0.0023111848976990462 0 -0.028908690112121577 0.0022122362029833339 0 -0.02897524863055671 0.0024356870229433067 0 -0.029194205781788014 0.0025586577021416584 0 -0.029092064877072121 0.0022639399823791363 0 -0.02897524863055671 0.0024356870229433067 0 -0.028908690112121577 0.0022122362029833339 0 -0.029092064877072121 0.0022639399823791363 0 -0.02897524863055671 0.0024356870229433067 0 -0.029194205781788014 0.0025586577021416584 0 -0.02897524863055671 0.0024356870229433067 0 -0.029067908005340693 0.0026049217622342732 0 -0.029194205781788014 0.0025586577021416584 0 -0.029168778490220513 0.002693205538988826 0 -0.029067908005340693 0.0026049217622342732 0 -0.029022175918160323 0.0026638755292224996 0 -0.029067908005340693 0.0026049217622342732 0 -0.028996877331790932 0.0025783937689650362 0 -0.02897524863055671 0.0024356870229433067 0 -0.029067908005340693 0.0026049217622342732 0 -0.028996877331790932 0.0025783937689650362 0 -0.028999355473135782 0.002616593743141377 0 -0.028996877331790932 0.0025783937689650362 0 -0.02892481375527084 0.0024938423556063035 0 -0.028999355473135782 0.002616593743141377 0 -0.028914194667072485 0.0025582576299946992 0 -0.02892481375527084 0.0024938423556063035 0 -0.028794877529075967 0.0024223867150262187 0 -0.028862649205388894 0.0023111848976990462 0 -0.02892481375527084 0.0024938423556063035 0 -0.02897524863055671 0.0024356870229433067 0 -0.028996877331790932 0.0025783937689650362 0 -0.02892481375527084 0.0024938423556063035 0 -0.028862649205388894 0.0023111848976990462 0 -0.02897524863055671 0.0024356870229433067 0 -0.02892481375527084 0.0024938423556063035 0 -0.032521333960629305 0.0020900512798398014 0 -0.032652574420342299 0.0020762357785918248 0 -0.032808312051108811 0.0021738807290431028 0 -0.032709643245111851 0.0018081860679759227 0 -0.032791461914470389 0.0017380379080520426 0 -0.032521333960629305 0.0020900512798398014 0 -0.032351744194342044 0.0017503678294607879 0 -0.03240006896779022 0.001647811330586743 0 -0.032787633453020069 0.0017774090310562092 0 -0.032791461914470389 0.0017380379080520426 0 -0.032737476908246139 0.0019821889377206994 0 -0.03273757503762801 0.0019064578018129837 0 -0.032725776602597685 0.0020221158135729175 0 -0.032652574420342299 0.0020762357785918248 0 -0.032737476908246139 0.0019821889377206994 0 -0.032725776602597685 0.0020221158135729175 0 -0.03240006896779022 0.001647811330586743 0 -0.032335902065796111 0.0014938697195300285 0 -0.032482907388204828 0.0016395813058971995 0 -0.032351744194342044 0.0017503678294607879 0 -0.03240006896779022 0.001647811330586743 0 -0.032335902065796111 0.0014938697195300285 0 -0.032335902065796111 0.0014938697195300285 0 -0.032482907388204828 0.0016395813058971995 0 -0.032294126651066728 0.0011894204243281287 0 -0.032351744194342044 0.0017503678294607879 0 -0.032335902065796111 0.0014938697195300285 0 -0.032179390661008847 0.0013908774778550125 0 -0.016215687998710215 -0.0018853190222167368 0 -0.016144602383828126 -0.0020286897564128705 0 -0.014999122118056225 -0.0022705285163500928 0 -0.020075594364564183 -0.0038371472196978467 0 -0.016215687998710215 -0.0018853190222167368 0 -0.016144602383828126 -0.0020286897564128705 0 -0.032521333960629305 0.0020900512798398014 0 -0.03240006896779022 0.001647811330586743 0 -0.032482907388204828 0.0016395813058971995 0 -0.016441556501635025 -0.0021549046393320704 0 -0.016144602383828126 -0.0020286897564128705 0 -0.016129322389059231 -0.0023035978857646319 0 -0.016144602383828126 -0.0020286897564128705 0 -0.015868415222061723 -0.0022488883202460117 0 -0.016129322389059231 -0.0023035978857646319 0 -0.015868415222061723 -0.0022488883202460117 0 -0.015741559548184764 -0.0024925306072472488 0 -0.016129322389059231 -0.0023035978857646319 0 -0.015741559548184764 -0.0024925306072472488 0 -0.016129322389059231 -0.0023035978857646319 0 -0.016051390554347178 -0.0025685535095674849 0 -0.016348189545139519 -0.0027747654354609319 0 -0.015467998689119496 -0.0032467410609186872 0 -0.015612050155525716 -0.0028006794959013533 0 -0.016348189545139519 -0.0027747654354609319 0 -0.016051390554347178 -0.0025685535095674849 0 -0.015612050155525716 -0.0028006794959013533 0 -0.015741559548184764 -0.0024925306072472488 0 -0.016051390554347178 -0.0025685535095674849 0 -0.015612050155525716 -0.0028006794959013533 0 -0.015612050155525716 -0.0028006794959013533 0 -0.015255867923487888 -0.0026300115847345158 0 -0.014829459990549954 -0.0029067428904890383 0 -0.015255867923487888 -0.0026300115847345158 0 -0.014999122118056225 -0.0022705285163500928 0 -0.014829459990549954 -0.0029067428904890383 0 -0.015741559548184764 -0.0024925306072472488 0 -0.015612050155525716 -0.0028006794959013533 0 -0.015255867923487888 -0.0026300115847345158 0 -0.015741559548184764 -0.0024925306072472488 0 -0.015255867923487888 -0.0026300115847345158 0 -0.015471520002572049 -0.0024137093982720976 0 -0.024735682332259541 -1.1718654144821603e-05 0 -0.023697462625775642 -0.00054425462380779891 0 -0.016144602383828126 -0.0020286897564128705 0 -0.015868415222061723 -0.0022488883202460117 0 -0.014999122118056225 -0.0022705285163500928 0 -0.015255867923487888 -0.0026300115847345158 0 -0.015471520002572049 -0.0024137093982720976 0 -0.014999122118056225 -0.0022705285163500928 0 -0.015868415222061723 -0.0022488883202460117 0 -0.015471520002572049 -0.0024137093982720976 0 -0.014999122118056225 -0.0022705285163500928 0 -0.015868415222061723 -0.0022488883202460117 0 -0.015741559548184764 -0.0024925306072472488 0 -0.015471520002572049 -0.0024137093982720976 0 -0.032335902065796111 0.0014938697195300285 0 -0.032294126651066728 0.0011894204243281287 0 -0.032264430167462908 0.0013513096370480252 0 -0.032227457740109156 0.0012600553815717774 0 -0.032294126651066728 0.0011894204243281287 0 -0.032264430167462908 0.0013513096370480252 0 -0.032294126651066728 0.0011894204243281287 0 -0.032149491548676475 0.00079882733845017013 0 -0.032173239762408441 0.0011103434524561027 0 -0.032227457740109156 0.0012600553815717774 0 -0.032173239762408441 0.0011103434524561027 0 -0.032179390661008847 0.0013908774778550125 0 -0.032227457740109156 0.0012600553815717774 0 -0.032294126651066728 0.0011894204243281287 0 -0.032173239762408441 0.0011103434524561027 0 -0.023697462625775642 -0.00054425462380779891 0 -0.023089538291747015 -0.00081185590480274661 0 -0.014999122118056225 -0.0022705285163500928 0 -0.014829459990549954 -0.0029067428904890383 0 -0.014180350920616322 -0.0027548393776393935 0 -0.032648648245846582 0.0014780670957878839 0 -0.032377626759130869 0.0011910078929282734 0 -0.032149491548676475 0.00079882733845017013 0 -0.032173239762408441 0.0011103434524561027 0 -0.032054564198593122 0.0010181443355885343 0 -0.032173239762408441 0.0011103434524561027 0 -0.032179390661008847 0.0013908774778550125 0 -0.032054564198593122 0.0010181443355885343 0 -0.032738306034654205 0.0017565082822425186 0 -0.032573753885145405 0.0016763724765946136 0 -0.032468746432398332 0.0014027600614015666 0 -0.032831794302637517 0.0013569929437635172 0 -0.032468746432398332 0.0014027600614015666 0 -0.032624711385433963 0.0010410551617746151 0 -0.032831794302637517 0.0013569929437635172 0 -0.033184904826509619 0.0014194120108101886 0 -0.032624711385433963 0.0010410551617746151 0 -0.032831794302637517 0.0013569929437635172 0 -0.033113936697520899 0.001578627031997032 0 -0.032468746432398332 0.0014027600614015666 0 -0.032780748432981538 0.0016759472062992794 0 -0.032630826356673914 0.0016021338017123887 0 -0.032831794302637517 0.0013569929437635172 0 -0.033184904826509619 0.0014194120108101886 0 -0.033113936697520899 0.001578627031997032 0 -0.032791461914470389 0.0017380379080520426 0 -0.032648648245846582 0.0014780670957878839 0 -0.032335902065796111 0.0014938697195300285 0 -0.032179390661008847 0.0013908774778550125 0 -0.032264430167462908 0.0013513096370480252 0 -0.033697703340289584 0.0017518546467631168 0 -0.033184904826509619 0.0014194120108101886 0 -0.033113936697520899 0.001578627031997032 0 -0.032227457740109156 0.0012600553815717774 0 -0.032179390661008847 0.0013908774778550125 0 -0.032264430167462908 0.0013513096370480252 0 -0.03273757503762801 0.0019064578018129837 0 -0.0327017736021087 0.001883659562584204 0 -0.032727432452594955 0.0019979790816171414 0 -0.032737476908246139 0.0019821889377206994 0 -0.032738306034654205 0.0017565082822425186 0 -0.03273757503762801 0.0019064578018129837 0 -0.032791461914470389 0.0017380379080520426 0 -0.032780748432981538 0.0016759472062992794 0 -0.032738306034654205 0.0017565082822425186 0 -0.032715339599590831 0.0018329761097086988 0 -0.03273757503762801 0.0019064578018129837 0 -0.032715339599590831 0.0018329761097086988 0 -0.03273757503762801 0.0019064578018129837 0 -0.0327017736021087 0.001883659562584204 0 -0.032738306034654205 0.0017565082822425186 0 -0.032573753885145405 0.0016763724765946136 0 -0.032657429695146865 0.0017809201688103445 0 -0.0327017736021087 0.001883659562584204 0 -0.03257012936221329 0.0018114386517382344 0 -0.032657429695146865 0.0017809201688103445 0 -0.0327017736021087 0.001883659562584204 0 -0.03257012936221329 0.0018114386517382344 0 -0.032647831719702092 0.001963119606468805 0 -0.03257012936221329 0.0018114386517382344 0 -0.032573753885145405 0.0016763724765946136 0 -0.032657429695146865 0.0017809201688103445 0 -0.032738306034654205 0.0017565082822425186 0 -0.032715339599590831 0.0018329761097086988 0 -0.032657429695146865 0.0017809201688103445 0 -0.032715339599590831 0.0018329761097086988 0 -0.0327017736021087 0.001883659562584204 0 -0.032657429695146865 0.0017809201688103445 0 -0.03257012936221329 0.0018114386517382344 0 -0.032573753885145405 0.0016763724765946136 0 -0.032358621658605216 0.0016589889825878441 0 -0.03257012936221329 0.0018114386517382344 0 -0.032358621658605216 0.0016589889825878441 0 -0.03243595641499062 0.0018911244746038119 0 -0.032358621658605216 0.0016589889825878441 0 -0.032075303450970857 0.0016931582494092861 0 -0.03243595641499062 0.0018911244746038119 0 -0.032358621658605216 0.0016589889825878441 0 -0.032075303450970857 0.0016931582494092861 0 -0.032189957531083085 0.001413116749722105 0 -0.032075303450970857 0.0016931582494092861 0 -0.032189957531083085 0.001413116749722105 0 -0.031848500571445268 0.0011590329017875469 0 -0.032189957531083085 0.001413116749722105 0 -0.032205179288229316 0.0011173636356526899 0 -0.031848500571445268 0.0011590329017875469 0 -0.032189957531083085 0.001413116749722105 0 -0.032468746432398332 0.0014027600614015666 0 -0.032205179288229316 0.0011173636356526899 0 -0.032358621658605216 0.0016589889825878441 0 -0.032189957531083085 0.001413116749722105 0 -0.032468746432398332 0.0014027600614015666 0 -0.032573753885145405 0.0016763724765946136 0 -0.032358621658605216 0.0016589889825878441 0 -0.032468746432398332 0.0014027600614015666 0 -0.032468746432398332 0.0014027600614015666 0 -0.032624711385433963 0.0010410551617746151 0 -0.032205179288229316 0.0011173636356526899 0 -0.032624711385433963 0.0010410551617746151 0 -0.031979189595173291 0.00069503145859481559 0 -0.032205179288229316 0.0011173636356526899 0 -0.032377626759130869 0.0011910078929282734 0 -0.03221022884477772 0.0010401056373814204 0 -0.032149491548676475 0.00079882733845017013 0 -0.032054564198593122 0.0010181443355885343 0 -0.032048988870122662 0.00077525800033574122 0 -0.03199873491775751 0.00036176735006578092 0 -0.032149491548676475 0.00079882733845017013 0 -0.032048988870122662 0.00077525800033574122 0 -0.032054564198593122 0.0010181443355885343 0 -0.032048988870122662 0.00077525800033574122 0 -0.031979189595173291 0.00069503145859481559 0 -0.03199873491775751 0.00036176735006578092 0 -0.031572209579034345 0.00039608020511242616 0 -0.031979189595173291 0.00069503145859481559 0 -0.03199873491775751 0.00036176735006578092 0 -0.032048988870122662 0.00077525800033574122 0 -0.031979189595173291 0.00069503145859481559 0 -0.031979189595173291 0.00069503145859481559 0 -0.032205179288229316 0.0011173636356526899 0 -0.031848500571445268 0.0011590329017875469 0 -0.031979189595173291 0.00069503145859481559 0 -0.031600680090667348 0.00075895665114685874 0 -0.031848500571445268 0.0011590329017875469 0 -0.031600680090667348 0.00075895665114685874 0 -0.03141241575551313 0.0010338282037591576 0 -0.031848500571445268 0.0011590329017875469 0 -0.031572209579034345 0.00039608020511242616 0 -0.031979189595173291 0.00069503145859481559 0 -0.031600680090667348 0.00075895665114685874 0 -0.031572209579034345 0.00039608020511242616 0 -0.031600680090667348 0.00075895665114685874 0 -0.031187014539078038 0.00055227361299231038 0 -0.030901026459262709 0.0011813623000728843 0 -0.031187014539078038 0.00055227361299231038 0 -0.03141241575551313 0.0010338282037591576 0 -0.031600680090667348 0.00075895665114685874 0 -0.031187014539078038 0.00055227361299231038 0 -0.03141241575551313 0.0010338282037591576 0 -0.030901026459262709 0.0011813623000728843 0 -0.03141241575551313 0.0010338282037591576 0 -0.031464351722947079 0.0015285423113341277 0 -0.03141241575551313 0.0010338282037591576 0 -0.031848500571445268 0.0011590329017875469 0 -0.031464351722947079 0.0015285423113341277 0 -0.032075303450970857 0.0016931582494092861 0 -0.031848500571445268 0.0011590329017875469 0 -0.031464351722947079 0.0015285423113341277 0 -0.032075303450970857 0.0016931582494092861 0 -0.031464351722947079 0.0015285423113341277 0 -0.031830180830856668 0.0019263329435937105 0 -0.030875857447357342 0.0017116462958997778 0 -0.031464351722947079 0.0015285423113341277 0 -0.031245601420426223 0.0020085713952959108 0 -0.031464351722947079 0.0015285423113341277 0 -0.031245601420426223 0.0020085713952959108 0 -0.031830180830856668 0.0019263329435937105 0 -0.030999600405329168 0.0024076802864328238 0 -0.031245601420426223 0.0020085713952959108 0 -0.031963843930146653 0.0023178974508416095 0 -0.031245601420426223 0.0020085713952959108 0 -0.031830180830856668 0.0019263329435937105 0 -0.031963843930146653 0.0023178974508416095 0 -0.032075303450970857 0.0016931582494092861 0 -0.031830180830856668 0.0019263329435937105 0 -0.03224341578697465 0.0020381760786444144 0 -0.031830180830856668 0.0019263329435937105 0 -0.031963843930146653 0.0023178974508416095 0 -0.03224341578697465 0.0020381760786444144 0 -0.030793854190568001 0.0028989344528454939 0 -0.030999600405329168 0.0024076802864328238 0 -0.031963843930146653 0.0023178974508416095 0 -0.031995448581348764 0.0023022347949577093 0 -0.031809637521931826 0.0023639970106089942 0 -0.031995448581348764 0.0023022347949577093 0 -0.032571738253833533 0.0022295625184057177 0 -0.032108931271603906 0.0023163870320847915 0 -0.031963843930146653 0.0023178974508416095 0 -0.032085384075455879 0.0022832073795167832 0 -0.033695808976834815 0.0017628550732067324 0 -0.033743605893480591 0.001792776706005539 0 -0.03370491889881249 0.0018744150272845292 0 -0.033695808976834815 0.0017628550732067324 0 -0.03370491889881249 0.0018744150272845292 0 -0.033770109335406855 0.0018443988008327854 0 -0.032571738253833533 0.0022295625184057177 0 -0.032757404726431301 0.0021483627978436731 0 -0.032085384075455879 0.0022832073795167832 0 -0.032298610072180496 0.002246658993403222 0 -0.032486934372020132 0.0023006266577101637 0 -0.033743605893480591 0.001792776706005539 0 -0.03370491889881249 0.0018744150272845292 0 -0.033565669649123928 0.0019912600142761978 0 -0.031963843930146653 0.0023178974508416095 0 -0.032085384075455879 0.0022832073795167832 0 -0.032298610072180496 0.002246658993403222 0 -0.031963843930146653 0.0023178974508416095 0 -0.032298610072180496 0.002246658993403222 0 -0.032396320202287554 0.0021758641689361741 0 -0.032298610072180496 0.002246658993403222 0 -0.032636165277220457 0.0022027404490500085 0 -0.032396320202287554 0.0021758641689361741 0 -0.032486934372020132 0.0023006266577101637 0 -0.032636165277220457 0.0022027404490500085 0 -0.033116069990795603 0.0020253441165165968 0 -0.032298610072180496 0.002246658993403222 0 -0.032486934372020132 0.0023006266577101637 0 -0.032636165277220457 0.0022027404490500085 0 -0.032636165277220457 0.0022027404490500085 0 -0.032812886361808638 0.0021461804506080553 0 -0.033116069990795603 0.0020253441165165968 0 -0.032636165277220457 0.0022027404490500085 0 -0.032812886361808638 0.0021461804506080553 0 -0.032663399039266273 0.0021432623553195051 0 -0.032636165277220457 0.0022027404490500085 0 -0.032663399039266273 0.0021432623553195051 0 -0.032396320202287554 0.0021758641689361741 0 -0.032663399039266273 0.0021432623553195051 0 -0.032548860203982143 0.0020365021840380256 0 -0.032396320202287554 0.0021758641689361741 0 -0.031963843930146653 0.0023178974508416095 0 -0.032396320202287554 0.0021758641689361741 0 -0.03224341578697465 0.0020381760786444144 0 -0.032548860203982143 0.0020365021840380256 0 -0.032396320202287554 0.0021758641689361741 0 -0.03224341578697465 0.0020381760786444144 0 -0.032075303450970857 0.0016931582494092861 0 -0.03224341578697465 0.0020381760786444144 0 -0.03243595641499062 0.0018911244746038119 0 -0.032548860203982143 0.0020365021840380256 0 -0.03224341578697465 0.0020381760786444144 0 -0.03243595641499062 0.0018911244746038119 0 -0.03257012936221329 0.0018114386517382344 0 -0.03243595641499062 0.0018911244746038119 0 -0.032647831719702092 0.001963119606468805 0 -0.032548860203982143 0.0020365021840380256 0 -0.03243595641499062 0.0018911244746038119 0 -0.032647831719702092 0.001963119606468805 0 -0.032647831719702092 0.001963119606468805 0 -0.032727432452594955 0.0019979790816171414 0 -0.032713420870234496 0.0020696931480997105 0 -0.0327017736021087 0.001883659562584204 0 -0.032647831719702092 0.001963119606468805 0 -0.032727432452594955 0.0019979790816171414 0 -0.03273757503762801 0.0019064578018129837 0 -0.032727432452594955 0.0019979790816171414 0 -0.032725776602597685 0.0020221158135729175 0 -0.032727432452594955 0.0019979790816171414 0 -0.032713420870234496 0.0020696931480997105 0 -0.032742554228839871 0.0020637483571694162 0 -0.032548860203982143 0.0020365021840380256 0 -0.032647831719702092 0.001963119606468805 0 -0.032713420870234496 0.0020696931480997105 0 -0.032663399039266273 0.0021432623553195051 0 -0.032548860203982143 0.0020365021840380256 0 -0.032713420870234496 0.0020696931480997105 0 -0.032663399039266273 0.0021432623553195051 0 -0.032713420870234496 0.0020696931480997105 0 -0.032787789307445296 0.0021123397355927625 0 -0.032812886361808638 0.0021461804506080553 0 -0.032663399039266273 0.0021432623553195051 0 -0.032787789307445296 0.0021123397355927625 0 -0.032812886361808638 0.0021461804506080553 0 -0.032787789307445296 0.0021123397355927625 0 -0.032932528304459106 0.002045794533996097 0 -0.032787789307445296 0.0021123397355927625 0 -0.032783877335751527 0.0020543026351236724 0 -0.032932528304459106 0.002045794533996097 0 -0.032787789307445296 0.0021123397355927625 0 -0.032783877335751527 0.0020543026351236724 0 -0.032742554228839871 0.0020637483571694162 0 -0.032713420870234496 0.0020696931480997105 0 -0.032787789307445296 0.0021123397355927625 0 -0.032742554228839871 0.0020637483571694162 0 -0.032783877335751527 0.0020543026351236724 0 -0.032686932887033254 0.0020451252328397645 0 -0.032742554228839871 0.0020637483571694162 0 -0.032783877335751527 0.0020543026351236724 0 -0.032686932887033254 0.0020451252328397645 0 -0.032708688331173741 0.0019664813347229412 0 -0.032596551966555198 0.0019060206368548965 0 -0.032686932887033254 0.0020451252328397645 0 -0.032708688331173741 0.0019664813347229412 0 -0.032543091492309585 0.0020943230659225699 0 -0.032686932887033254 0.0020451252328397645 0 -0.032650986488772078 0.0020559662176986141 0 -0.032686932887033254 0.0020451252328397645 0 -0.032650986488772078 0.0020559662176986141 0 -0.032742554228839871 0.0020637483571694162 0 -0.032650986488772078 0.0020559662176986141 0 -0.032742554228839871 0.0020637483571694162 0 -0.032725776602597685 0.0020221158135729175 0 -0.032727432452594955 0.0019979790816171414 0 -0.032742554228839871 0.0020637483571694162 0 -0.032725776602597685 0.0020221158135729175 0 -0.032650986488772078 0.0020559662176986141 0 -0.032725776602597685 0.0020221158135729175 0 -0.032661225615510069 0.0020554203482108621 0 -0.032652574420342299 0.0020762357785918248 0 -0.032725776602597685 0.0020221158135729175 0 -0.032661225615510069 0.0020554203482108621 0 -0.032521333960629305 0.0020900512798398014 0 -0.032652574420342299 0.0020762357785918248 0 -0.032590618446793423 0.0020790247236459774 0 -0.032652574420342299 0.0020762357785918248 0 -0.032590618446793423 0.0020790247236459774 0 -0.032661225615510069 0.0020554203482108621 0 -0.032650986488772078 0.0020559662176986141 0 -0.032590618446793423 0.0020790247236459774 0 -0.032661225615510069 0.0020554203482108621 0 -0.033785735134622755 0.00025581235678435679 0 -0.033925589797291128 0.00023438688649099983 0 -0.032985847693719643 0.00033369904537558281 0 -0.033359561482946783 0.00060367029486973415 0 -0.033946342944252424 0.00015547600662842409 0 -0.032985847693719643 0.00033369904537558281 0 -0.032918125718434429 0.00091891444186969302 0 -0.033359561482946783 0.00060367029486973415 0 -0.033029530591058648 0.0013022152843751476 0 -0.033350073200118006 0.00088716042697608774 0 -0.032647229000414599 0.0017338945574468033 0 -0.032952527470357915 0.0015874032795655671 0 -0.032905719380537261 0.0012731097975770425 0 -0.033946342944252424 0.00015547600662842409 0 -0.033639335151372372 0.0010039600555381189 0 -0.034023332402460478 0.00015568057221284782 0 -0.033359561482946783 0.00060367029486973415 0 -0.033946342944252424 0.00015547600662842409 0 -0.033639335151372372 0.0010039600555381189 0 -0.032647229000414599 0.0017338945574468033 0 -0.033047659578773744 0.0017772472477102501 0 -0.032952527470357915 0.0015874032795655671 0 -0.033029530591058648 0.0013022152843751476 0 -0.032999011214272726 0.0013961867441814773 0 -0.032654431156577339 0.0011364935432959505 0 -0.033076045120945322 0.0012121685028757215 0 -0.032842546621971086 0.0015529294424785174 0 -0.032713114074961254 0.0011588021192180259 0 -0.033029530591058648 0.0013022152843751476 0 -0.032918125718434429 0.00091891444186969302 0 -0.033359561482946783 0.00060367029486973415 0 -0.033639335151372372 0.0010039600555381189 0 -0.033029530591058648 0.0013022152843751476 0 -0.032812591727845813 0.001616360213106931 0 -0.032658612147171438 0.0018768632069616766 0 -0.032708688331173741 0.0019664813347229412 0 -0.032817761360605879 0.0019434916725666075 0 -0.032596551966555198 0.0019060206368548965 0 -0.032658612147171438 0.0018768632069616766 0 -0.032708688331173741 0.0019664813347229412 0 -0.032783877335751527 0.0020543026351236724 0 -0.032708688331173741 0.0019664813347229412 0 -0.032817761360605879 0.0019434916725666075 0 -0.032751552067421953 0.0017242901554400125 0 -0.032658612147171438 0.0018768632069616766 0 -0.032817761360605879 0.0019434916725666075 0 -0.032751552067421953 0.0017242901554400125 0 -0.032817761360605879 0.0019434916725666075 0 -0.033047659578773744 0.0017772472477102501 0 -0.032817761360605879 0.0019434916725666075 0 -0.032932528304459106 0.002045794533996097 0 -0.033047659578773744 0.0017772472477102501 0 -0.032783877335751527 0.0020543026351236724 0 -0.032817761360605879 0.0019434916725666075 0 -0.032932528304459106 0.002045794533996097 0 -0.032812886361808638 0.0021461804506080553 0 -0.032932528304459106 0.002045794533996097 0 -0.033116069990795603 0.0020253441165165968 0 -0.032932528304459106 0.002045794533996097 0 -0.033264624193262933 0.0017854991293131978 0 -0.033047659578773744 0.0017772472477102501 0 -0.032932528304459106 0.002045794533996097 0 -0.033264624193262933 0.0017854991293131978 0 -0.033116069990795603 0.0020253441165165968 0 -0.033264624193262933 0.0017854991293131978 0 -0.033243225042761483 0.0015577320024290696 0 -0.033595815309606911 0.0014961463860099793 0 -0.033264624193262933 0.0017854991293131978 0 -0.033047659578773744 0.0017772472477102501 0 -0.033243225042761483 0.0015577320024290696 0 -0.033047659578773744 0.0017772472477102501 0 -0.032952527470357915 0.0015874032795655671 0 -0.033243225042761483 0.0015577320024290696 0 -0.033243225042761483 0.0015577320024290696 0 -0.032905719380537261 0.0012731097975770425 0 -0.033504226966664205 0.001163711953974064 0 -0.032952527470357915 0.0015874032795655671 0 -0.033243225042761483 0.0015577320024290696 0 -0.032905719380537261 0.0012731097975770425 0 -0.033504226966664205 0.001163711953974064 0 -0.033595815309606911 0.0014961463860099793 0 -0.033966508370754246 0.00090261697719217317 0 -0.033243225042761483 0.0015577320024290696 0 -0.033504226966664205 0.001163711953974064 0 -0.033595815309606911 0.0014961463860099793 0 -0.033595815309606911 0.0014961463860099793 0 -0.034393174824369314 0.0013315164732589139 0 -0.034498260109741802 0.0020476958232313715 0 -0.033595815309606911 0.0014961463860099793 0 -0.034393174824369314 0.0013315164732589139 0 -0.033966508370754246 0.00090261697719217317 0 -0.034393174824369314 0.0013315164732589139 0 -0.034751477702358216 0.0017651873904089212 0 -0.034890194680452631 0.0010371059526662625 0 -0.034393174824369314 0.0013315164732589139 0 -0.034498260109741802 0.0020476958232313715 0 -0.034751477702358216 0.0017651873904089212 0 -0.034498260109741802 0.0020476958232313715 0 -0.03462582395036639 0.0020260208528872481 0 -0.034751477702358216 0.0017651873904089212 0 -0.033264624193262933 0.0017854991293131978 0 -0.033595815309606911 0.0014961463860099793 0 -0.033419009446900842 0.0017005097090227977 0 -0.033718047003254356 0.001665358556487529 0 -0.033886598373829943 0.0017896771937285874 0 -0.033264624193262933 0.0017854991293131978 0 -0.033419009446900842 0.0017005097090227977 0 -0.033116069990795603 0.0020253441165165968 0 -0.033565669649123928 0.0019912600142761978 0 -0.033116069990795603 0.0020253441165165968 0 -0.033457911560453309 0.0018927003532687998 0 -0.032757404726431301 0.0021483627978436731 0 -0.032796737460965196 0.0021022276938851823 0 -0.033419009446900842 0.0017005097090227977 0 -0.033457911560453309 0.0018927003532687998 0 -0.033648970132114771 0.0018288647853977474 0 -0.033419009446900842 0.0017005097090227977 0 -0.033116069990795603 0.0020253441165165968 0 -0.033457911560453309 0.0018927003532687998 0 -0.033886598373829943 0.0017896771937285874 0 -0.034025238106939207 0.0018925895097090726 0 -0.034598318085400655 0.001998569345951513 0 -0.034647413540409955 0.0020841904657495631 0 -0.03462582395036639 0.0020260208528872481 0 -0.03370491889881249 0.0018744150272845292 0 -0.033565669649123928 0.0019912600142761978 0 -0.033648970132114771 0.0018288647853977474 0 -0.033565669649123928 0.0019912600142761978 0 -0.033457911560453309 0.0018927003532687998 0 -0.033648970132114771 0.0018288647853977474 0 -0.03370491889881249 0.0018744150272845292 0 -0.033648970132114771 0.0018288647853977474 0 -0.033770109335406855 0.0018443988008327854 0 -0.034025238106939207 0.0018925895097090726 0 -0.033988762454379144 0.0018862928870833785 0 -0.034598318085400655 0.001998569345951513 0 -0.034647413540409955 0.0020841904657495631 0 -0.033968371292111076 0.0023952868809924621 0 -0.034598318085400655 0.001998569345951513 0 -0.033770109335406855 0.0018443988008327854 0 -0.033968371292111076 0.0023952868809924621 0 -0.034414009659250351 0.0024067192880269615 0 -0.034310074709867876 0.002476900167891356 0 -0.034810562889710808 0.0018462479649899444 0 -0.034952758358286581 0.0019882311480238137 0 -0.034926368805359806 0.0018265002487277615 0 -0.034647413540409955 0.0020841904657495631 0 -0.034810562889710808 0.0018462479649899444 0 -0.034952758358286581 0.0019882311480238137 0 -0.034498260109741802 0.0020476958232313715 0 -0.034598318085400655 0.001998569345951513 0 -0.03462582395036639 0.0020260208528872481 0 -0.034647413540409955 0.0020841904657495631 0 -0.034751477702358216 0.0017651873904089212 0 -0.034810562889710808 0.0018462479649899444 0 -0.034647413540409955 0.0020841904657495631 0 -0.03462582395036639 0.0020260208528872481 0 -0.034751477702358216 0.0017651873904089212 0 -0.034751477702358216 0.0017651873904089212 0 -0.035497741639133613 0.0011037119415814988 0 -0.034890194680452631 0.0010371059526662625 0 -0.034885935954331676 0.0014372275465052557 0 -0.035031853000476287 0.0012376581904664911 0 -0.034751477702358216 0.0017651873904089212 0 -0.034810562889710808 0.0018462479649899444 0 -0.034825778975734654 0.0017347432979316392 0 -0.034810562889710808 0.0018462479649899444 0 -0.034825778975734654 0.0017347432979316392 0 -0.034926368805359806 0.0018265002487277615 0 -0.035497741639133613 0.0011037119415814988 0 -0.034890194680452631 0.0010371059526662625 0 -0.035365534365432515 0.00055072808850806817 0 -0.034890194680452631 0.0010371059526662625 0 -0.034881640424075419 0.00053212521677163574 0 -0.035365534365432515 0.00055072808850806817 0 -0.034881640424075419 0.00053212521677163574 0 -0.035365534365432515 0.00055072808850806817 0 -0.035000978404054729 0.00010799800344218682 0 -0.035365534365432515 0.00055072808850806817 0 -0.036013774898716239 0.00057939536485849879 0 -0.035770261508229498 9.2160610989563358e-05 0 -0.035497741639133613 0.0011037119415814988 0 -0.035365534365432515 0.00055072808850806817 0 -0.036013774898716239 0.00057939536485849879 0 -0.035365534365432515 0.00055072808850806817 0 -0.035000978404054729 0.00010799800344218682 0 -0.035770261508229498 9.2160610989563358e-05 0 -0.035009933962857877 3.6339554182921448e-05 0 -0.035000978404054729 0.00010799800344218682 0 -0.03501826824076823 4.5986754385717688e-05 0 -0.035183311236497344 0.0001993704026673324 0 -0.035310551390192541 0.00023441491284990318 0 -0.035009933962857877 3.6339554182921448e-05 0 -0.035000002314945433 -2.6578876996920486e-08 0 -0.03500010113915019 8.5652616178602445e-08 0 -0.035009933962857877 3.6339554182921448e-05 0 -0.03501826824076823 4.5986754385717688e-05 0 -0.03500010113915019 8.5652616178602445e-08 0 -0.035000002314945433 -2.6578876996920486e-08 0 -0.035000978404054729 0.00010799800344218682 0 -0.034869661536756608 3.1417843914041799e-05 0 -0.035009933962857877 3.6339554182921448e-05 0 -0.035000002314945433 -2.6578876996920486e-08 0 -0.035000978404054729 0.00010799800344218682 0 -0.034709580579743 0.00029023590907945225 0 -0.034869661536756608 3.1417843914041799e-05 0 -0.034654221483343808 3.9493479039088504e-05 0 -0.034881640424075419 0.00053212521677163574 0 -0.035000978404054729 0.00010799800344218682 0 -0.034709580579743 0.00029023590907945225 0 -0.035000978404054729 0.00010799800344218682 0 -0.034709580579743 0.00029023590907945225 0 -0.034869661536756608 3.1417843914041799e-05 0 -0.035000002314945433 -2.6578876996920486e-08 0 -0.034869661536756608 3.1417843914041799e-05 0 -0.034999409680727019 4.532437360171228e-08 0 -0.034999409680727019 4.532437360171228e-08 0 -0.034654221483343808 3.9493479039088504e-05 0 -0.034926954605105198 3.1999481477082992e-05 0 -0.034869661536756608 3.1417843914041799e-05 0 -0.034999409680727019 4.532437360171228e-08 0 -0.034654221483343808 3.9493479039088504e-05 0 -0.034709580579743 0.00029023590907945225 0 -0.034654221483343808 3.9493479039088504e-05 0 -0.034255980828295035 0.00047169320569247057 0 -0.034654221483343808 3.9493479039088504e-05 0 -0.034255980828295035 0.00047169320569247057 0 -0.034100201720545176 0.00034523186780720141 0 -0.034709580579743 0.00029023590907945225 0 -0.034255980828295035 0.00047169320569247057 0 -0.034504800204110786 0.00076528140648147373 0 -0.034255980828295035 0.00047169320569247057 0 -0.034504800204110786 0.00076528140648147373 0 -0.033966508370754246 0.00090261697719217317 0 -0.034881640424075419 0.00053212521677163574 0 -0.034709580579743 0.00029023590907945225 0 -0.034504800204110786 0.00076528140648147373 0 -0.034393174824369314 0.0013315164732589139 0 -0.034890194680452631 0.0010371059526662625 0 -0.034504800204110786 0.00076528140648147373 0 -0.034890194680452631 0.0010371059526662625 0 -0.034881640424075419 0.00053212521677163574 0 -0.034504800204110786 0.00076528140648147373 0 -0.034393174824369314 0.0013315164732589139 0 -0.034504800204110786 0.00076528140648147373 0 -0.033966508370754246 0.00090261697719217317 0 -0.033504226966664205 0.001163711953974064 0 -0.033966508370754246 0.00090261697719217317 0 -0.03372681383367316 0.00049065177051572765 0 -0.032905719380537261 0.0012731097975770425 0 -0.033504226966664205 0.001163711953974064 0 -0.03372681383367316 0.00049065177051572765 0 -0.033350073200118006 0.00088716042697608774 0 -0.03348599071461543 0.00071141986414952551 0 -0.034023332402460478 0.00015568057221284782 0 -0.03372681383367316 0.00049065177051572765 0 -0.033962190376928943 0.00027192796317404187 0 -0.03372681383367316 0.00049065177051572765 0 -0.033935202016527374 0.00035840774562911031 0 -0.033962190376928943 0.00027192796317404187 0 -0.03372681383367316 0.00049065177051572765 0 -0.033899043558125737 0.00023833152759774573 0 -0.033935202016527374 0.00035840774562911031 0 -0.034255980828295035 0.00047169320569247057 0 -0.033966508370754246 0.00090261697719217317 0 -0.03372681383367316 0.00049065177051572765 0 -0.034255980828295035 0.00047169320569247057 0 -0.03372681383367316 0.00049065177051572765 0 -0.034100201720545176 0.00034523186780720141 0 -0.03372681383367316 0.00049065177051572765 0 -0.034100201720545176 0.00034523186780720141 0 -0.033899043558125737 0.00023833152759774573 0 -0.034626806208767312 0.00012809757187663993 0 -0.03457911612045509 0.0001422272492200843 0 -0.034654221483343808 3.9493479039088504e-05 0 -0.034100201720545176 0.00034523186780720141 0 -0.033899043558125737 0.00023833152759774573 0 -0.034999409680727019 4.532437360171228e-08 0 -0.034926954605105198 3.1999481477082992e-05 0 -0.035000052368301102 3.0985172796719109e-08 0 -0.034654221483343808 3.9493479039088504e-05 0 -0.034926954605105198 3.1999481477082992e-05 0 -0.035003590176069625 -3.1861027197443867e-05 0 -0.035000052368301102 3.0985172796719109e-08 0 -0.035003590176069625 -3.1861027197443867e-05 0 -0.035006967575911402 -5.8516590408101892e-07 0 -0.034926954605105198 3.1999481477082992e-05 0 -0.035000052368301102 3.0985172796719109e-08 0 -0.035003590176069625 -3.1861027197443867e-05 0 -0.03457911612045509 0.0001422272492200843 0 -0.034582717627586711 0.00017082655605426544 0 -0.033899043558125737 0.00023833152759774573 0 -0.034025259081848939 0.00043985524579454141 0 -0.033935202016527374 0.00035840774562911031 0 -0.034025259081848939 0.00043985524579454141 0 -0.034166023066873864 0.00033383395943840043 0 -0.033935202016527374 0.00035840774562911031 0 -0.035000052368301102 3.0985172796719109e-08 0 -0.035006967575911402 -5.8516590408101892e-07 0 -0.03500006882244288 -8.1627749397347583e-09 0 -0.03501332843574391 3.5933216789405427e-05 0 -0.035006967575911402 -5.8516590408101892e-07 0 -0.03500006882244288 -8.1627749397347583e-09 0 -0.034436702308867889 0.00043911334570593977 0 -0.034025259081848939 0.00043985524579454141 0 -0.034166023066873864 0.00033383395943840043 0 -0.034649684136086691 0.00018551453930406461 0 -0.034582717627586711 0.00017082655605426544 0 -0.034436702308867889 0.00043911334570593977 0 -0.034166023066873864 0.00033383395943840043 0 -0.034369171337074338 0.00025912503032769307 0 -0.034418280027027015 0.00013297961615426382 0 -0.034369171337074338 0.00025912503032769307 0 -0.034129535289996932 0.00023013381871205574 0 -0.034166023066873864 0.00033383395943840043 0 -0.034369171337074338 0.00025912503032769307 0 -0.034129535289996932 0.00023013381871205574 0 -0.034166023066873864 0.00033383395943840043 0 -0.033935202016527374 0.00035840774562911031 0 -0.034129535289996932 0.00023013381871205574 0 -0.033935202016527374 0.00035840774562911031 0 -0.034129535289996932 0.00023013381871205574 0 -0.033962190376928943 0.00027192796317404187 0 -0.034129535289996932 0.00023013381871205574 0 -0.033962190376928943 0.00027192796317404187 0 -0.034033819297694938 0.0001937914553889032 0 -0.034129535289996932 0.00023013381871205574 0 -0.034033819297694938 0.0001937914553889032 0 -0.034193074827281726 0.00011807713576295141 0 -0.033946342944252424 0.00015547600662842409 0 -0.033962190376928943 0.00027192796317404187 0 -0.034033819297694938 0.0001937914553889032 0 -0.033946342944252424 0.00015547600662842409 0 -0.034023332402460478 0.00015568057221284782 0 -0.033962190376928943 0.00027192796317404187 0 -0.033946342944252424 0.00015547600662842409 0 -0.034033819297694938 0.0001937914553889032 0 -0.034193074827281726 0.00011807713576295141 0 -0.03444351798850559 -8.2563009073724196e-05 0 -0.034418280027027015 0.00013297961615426382 0 -0.034193074827281726 0.00011807713576295141 0 -0.034418280027027015 0.00013297961615426382 0 -0.034129535289996932 0.00023013381871205574 0 -0.034193074827281726 0.00011807713576295141 0 -0.03444351798850559 -8.2563009073724196e-05 0 -0.033946342944252424 0.00015547600662842409 0 -0.034193074827281726 0.00011807713576295141 0 -0.031262723497296994 0.0052770848961941888 0 -0.030519798799835612 0.005023345275323267 0 -0.030643211288272069 0.0044692012856782067 0 -0.031262723497296994 0.0052770848961941888 0 -0.030289566044625467 0.0052867846110296228 0 -0.030519798799835612 0.005023345275323267 0 -0.033112200588252601 0.0020944266777335424 0 -0.033353450868230973 0.0013523507174450903 0 -0.033822846329961256 0.0015249659671318877 0 -0.033727630425307679 0.0016721305416780739 0 -0.033572314127105332 0.001534911023388868 0 -0.031262723497296994 0.0052770848961941888 0 -0.031581078959439242 0.0049009488775389291 0 -0.030643211288272069 0.0044692012856782067 0 -0.033947924897709682 0.0011349222223701518 0 -0.033353450868230973 0.0013523507174450903 0 -0.031262723497296994 0.0052770848961941888 0 -0.03199691996917052 0.0049647266963586305 0 -0.032430665899271453 0.0052781784764414363 0 -0.033112200588252601 0.0020944266777335424 0 -0.033844329178023033 0.0023510813432523338 0 -0.031262723497296994 0.0052770848961941888 0 -0.031581078959439242 0.0049009488775389291 0 -0.03199691996917052 0.0049647266963586305 0 -0.033822846329961256 0.0015249659671318877 0 -0.033921712052992214 0.0017465354050472375 0 -0.034072887153480433 0.0015146859223921438 0 -0.03199691996917052 0.0049647266963586305 0 -0.032253881559209399 0.0047818823009589066 0 -0.032414646968226948 0.0050639037289176726 0 -0.034373801286634767 0.0010266345696151819 0 -0.034206465313785031 0.00096360273167896864 0 -0.034386924065420446 0.0011202536108649741 0 -0.034165766840893716 0.001321801320583923 0 -0.034382839816743754 0.0014917658446003184 0 -0.033947924897709682 0.0011349222223701518 0 -0.03438364533005412 0.00090392034236138437 0 -0.033822846329961256 0.0015249659671318877 0 -0.033921712052992214 0.0017465354050472375 0 -0.033727630425307679 0.0016721305416780739 0 -0.034165766840893716 0.001321801320583923 0 -0.033947924897709682 0.0011349222223701518 0 -0.033947924897709682 0.0011349222223701518 0 -0.033662347814505722 0.00084676978924141998 0 -0.035031814281298576 -8.0723544007306995e-05 0 -0.035042230166064975 -8.2234658940144527e-05 0 -0.0350419013189446 -7.7316125100379345e-05 0 -0.035031814281298576 -8.0723544007306995e-05 0 -0.035040847782639682 -8.5969535443536382e-05 0 -0.0350385662905804 -8.9303991194578287e-05 0 -0.035031814281298576 -8.0723544007306995e-05 0 -0.035040847782639682 -8.5969535443536382e-05 0 -0.035042230166064975 -8.2234658940144527e-05 0 -0.035040847782639682 -8.5969535443536382e-05 0 -0.035045536577869726 -8.8093737032028329e-05 0 -0.035044661435422168 -8.4776912212225546e-05 0 -0.035040847782639682 -8.5969535443536382e-05 0 -0.035042230166064975 -8.2234658940144527e-05 0 -0.035044661435422168 -8.4776912212225546e-05 0 -0.035042230166064975 -8.2234658940144527e-05 0 -0.035044516918136703 -8.363745272535174e-05 0 -0.035042540951935118 -8.2196484646886788e-05 0 -0.033684630105264401 0.00078593806684285734 0 -0.033662347814505722 0.00084676978924141998 0 -0.035046174126647893 -8.514089752612562e-05 0 -0.035051035313341333 -9.4801065570090104e-05 0 -0.035045318091461719 -8.4267620446598082e-05 0 -0.035046174126647893 -8.514089752612562e-05 0 -0.035045536577869726 -8.8093737032028329e-05 0 -0.035044661435422168 -8.4776912212225546e-05 0 -0.035046174126647893 -8.514089752612562e-05 0 -0.035044661435422168 -8.4776912212225546e-05 0 -0.035044516918136703 -8.363745272535174e-05 0 -0.035042230166064975 -8.2234658940144527e-05 0 -0.035044661435422168 -8.4776912212225546e-05 0 -0.035044516918136703 -8.363745272535174e-05 0 -0.035046174126647893 -8.514089752612562e-05 0 -0.035044516918136703 -8.363745272535174e-05 0 -0.03504513137878023 -8.4894552439527139e-05 0 -0.035046174126647893 -8.514089752612562e-05 0 -0.03504513137878023 -8.4894552439527139e-05 0 -0.035045318091461719 -8.4267620446598082e-05 0 -0.03504513137878023 -8.4894552439527139e-05 0 -0.035044096778709156 -8.314189688811473e-05 0 -0.035043675808775931 -8.6994193929248298e-05 0 -0.033421847477941698 -0.0005818156128403675 0 -0.033470916102795845 -0.00056632839379219693 0 -0.033535739762654157 -0.00059456963422119323 0 -0.033726831564953437 0.00075168017811333095 0 -0.034165375365513298 0.00025055034053206646 0 -0.033726831564953437 0.00075168017811333095 0 -0.033661854365448336 0.00069007771516625444 0 -0.035044516918136703 -8.363745272535174e-05 0 -0.03504513137878023 -8.4894552439527139e-05 0 -0.035044096778709156 -8.314189688811473e-05 0 -0.035044516918136703 -8.363745272535174e-05 0 -0.035044096778709156 -8.314189688811473e-05 0 -0.035042540951935118 -8.2196484646886788e-05 0 -0.033726831564953437 0.00075168017811333095 0 -0.033567377010392307 0.00095182764896960389 0 -0.033726831564953437 0.00075168017811333095 0 -0.033662347814505722 0.00084676978924141998 0 -0.03342158376987138 -0.00058297186130182657 0 -0.033429001511643477 -0.00052801970982816967 0 -0.033470916102795845 -0.00056632839379219693 0 -0.03342158376987138 -0.00058297186130182657 0 -0.033429001511643477 -0.00052801970982816967 0 -0.033382028324429068 -0.00058046521996812852 0 -0.033429001511643477 -0.00052801970982816967 0 -0.033470916102795845 -0.00056632839379219693 0 -0.033469390373376852 -0.00048400849665201603 0 -0.033470916102795845 -0.00056632839379219693 0 -0.033469390373376852 -0.00048400849665201603 0 -0.033520484640819893 -0.0005338283086664525 0 -0.03387671860458754 0.0010901610694020862 0 -0.033616166329373885 0.00085986901209823266 0 -0.03346263113014996 0.00093053768401018925 0 -0.033353450868230973 0.0013523507174450903 0 -0.033346464108371936 0.0013639611536115739 0 -0.033526616466352729 0.00060587433662247529 0 -0.033917416113155713 0.00075618593798330532 0 -0.033894025980824596 0.00058899119797061372 0 -0.033662347814505722 0.00084676978924141998 0 -0.033567377010392307 0.00095182764896960389 0 -0.033353450868230973 0.0013523507174450903 0 -0.033567377010392307 0.00095182764896960389 0 -0.033616166329373885 0.00085986901209823266 0 -0.03346263113014996 0.00093053768401018925 0 -0.033453715629697615 0.00086710229743333644 0 -0.030290670084809668 0.0052849416522505162 0 -0.029916686735709588 0.0053008092725391051 0 -0.030196645887820901 0.0052031268889973581 0 -0.029916686735709588 0.0053008092725391051 0 -0.030252472075761535 0.0049120891672788224 0 -0.030069894456521116 0.0046261706083267741 0 -0.029916686735709588 0.0053008092725391051 0 -0.030252472075761535 0.0049120891672788224 0 -0.030196645887820901 0.0052031268889973581 0 -0.030289566044625467 0.0052867846110296228 0 -0.030196645887820901 0.0052031268889973581 0 -0.030519798799835612 0.005023345275323267 0 -0.030252472075761535 0.0049120891672788224 0 -0.030196645887820901 0.0052031268889973581 0 -0.030519798799835612 0.005023345275323267 0 -0.030069894456521116 0.0046261706083267741 0 -0.029741755234792399 0.0040483408730147188 0 -0.030643211288272069 0.0044692012856782067 0 -0.030252472075761535 0.0049120891672788224 0 -0.030069894456521116 0.0046261706083267741 0 -0.030643211288272069 0.0044692012856782067 0 -0.030252472075761535 0.0049120891672788224 0 -0.030519798799835612 0.005023345275323267 0 -0.030643211288272069 0.0044692012856782067 0 -0.029150467668953479 0.00375051524952819 0 -0.03007577869716101 0.0036258461213123645 0 -0.030307468493956442 0.0043579565088405223 0 -0.032131323537258859 0.001529250135943518 0 -0.031586951032534637 0.0025153162013615477 0 -0.033567377010392307 0.00095182764896960389 0 -0.032131323537258859 0.001529250135943518 0 -0.029916686735709588 0.0053008092725391051 0 -0.030069894456521116 0.0046261706083267741 0 -0.029741755234792399 0.0040483408730147188 0 -0.033429001511643477 -0.00052801970982816967 0 -0.033469390373376852 -0.00048400849665201603 0 -0.033401299525693921 -0.00042595570818653914 0 -0.033429001511643477 -0.00052801970982816967 0 -0.033382028324429068 -0.00058046521996812852 0 -0.033401299525693921 -0.00042595570818653914 0 -0.033197553920280044 -0.00032530765634592449 0 -0.033171967855222757 -0.00049564837842000302 0 -0.033442035512002657 -0.00037797157590483278 0 -0.032131323537258859 0.001529250135943518 0 -0.03293260733879106 0.000705589401569135 0 -0.031701686768242976 0.0012631384757280366 0 -0.032131323537258859 0.001529250135943518 0 -0.033469390373376852 -0.00048400849665201603 0 -0.033401299525693921 -0.00042595570818653914 0 -0.033548773063532489 -0.00035823261757571544 0 -0.029106717829426334 0.0027540079325310118 0 -0.029150467668953479 0.00375051524952819 0 -0.029696970166015479 0.0029671322851559366 0 -0.029150467668953479 0.00375051524952819 0 -0.03007577869716101 0.0036258461213123645 0 -0.029696970166015479 0.0029671322851559366 0 -0.03007577869716101 0.0036258461213123645 0 -0.029696970166015479 0.0029671322851559366 0 -0.030524782793438846 0.0030614235676845072 0 -0.030333066990505787 0.002579337371834725 0 -0.029696970166015479 0.0029671322851559366 0 -0.030524782793438846 0.0030614235676845072 0 -0.03007577869716101 0.0036258461213123645 0 -0.030524782793438846 0.0030614235676845072 0 -0.031229232698596666 0.0039744473250682699 0 -0.031094293422374131 0.0025996368440393113 0 -0.030524782793438846 0.0030614235676845072 0 -0.031339674276540497 0.0032635005263468631 0 -0.030524782793438846 0.0030614235676845072 0 -0.031229232698596666 0.0039744473250682699 0 -0.031339674276540497 0.0032635005263468631 0 -0.031694501074161274 0.0029325469384891235 0 -0.031586951032534637 0.0025153162013615477 0 -0.03007577869716101 0.0036258461213123645 0 -0.030307468493956442 0.0043579565088405223 0 -0.031229232698596666 0.0039744473250682699 0 -0.031581078959439242 0.0049009488775389291 0 -0.030307468493956442 0.0043579565088405223 0 -0.031229232698596666 0.0039744473250682699 0 -0.03199691996917052 0.0049647266963586305 0 -0.03203910099668706 0.0045036903241440088 0 -0.032253881559209399 0.0047818823009589066 0 -0.031581078959439242 0.0049009488775389291 0 -0.03199691996917052 0.0049647266963586305 0 -0.03203910099668706 0.0045036903241440088 0 -0.031581078959439242 0.0049009488775389291 0 -0.03203910099668706 0.0045036903241440088 0 -0.031229232698596666 0.0039744473250682699 0 -0.03203910099668706 0.0045036903241440088 0 -0.031229232698596666 0.0039744473250682699 0 -0.03223048916134183 0.0038331930020222816 0 -0.031936830175512722 0.002813442507043741 0 -0.03223048916134183 0.0038331930020222816 0 -0.031339674276540497 0.0032635005263468631 0 -0.031229232698596666 0.0039744473250682699 0 -0.03223048916134183 0.0038331930020222816 0 -0.031339674276540497 0.0032635005263468631 0 -0.031936830175512722 0.002813442507043741 0 -0.031094293422374131 0.0025996368440393113 0 -0.031339674276540497 0.0032635005263468631 0 -0.031936830175512722 0.002813442507043741 0 -0.03223048916134183 0.0038331930020222816 0 -0.033059248951186601 0.002850661403143656 0 -0.03223048916134183 0.0038331930020222816 0 -0.033059248951186601 0.002850661403143656 0 -0.032999951177633186 0.0041169883098849235 0 -0.032946554011003285 0.0019469892391554143 0 -0.033216679110161636 0.0021533901127008333 0 -0.033361865762145081 0.001907434769472899 0 -0.033059248951186601 0.002850661403143656 0 -0.033732448859129086 0.0040298471874111322 0 -0.032999951177633186 0.0041169883098849235 0 -0.033204057121245169 0.0022818733951786335 0 -0.033633161625954582 0.0027140289490654276 0 -0.033732448859129086 0.0040298471874111322 0 -0.032999951177633186 0.0041169883098849235 0 -0.033445913107847128 0.0052440200554631925 0 -0.033633161625954582 0.0027140289490654276 0 -0.033949693755669808 0.0026958732871813786 0 -0.032566836692295376 0.0045925919714942497 0 -0.032999951177633186 0.0041169883098849235 0 -0.033445913107847128 0.0052440200554631925 0 -0.03203910099668706 0.0045036903241440088 0 -0.032566836692295376 0.0045925919714942497 0 -0.032253881559209399 0.0047818823009589066 0 -0.032566836692295376 0.0045925919714942497 0 -0.032253881559209399 0.0047818823009589066 0 -0.032414646968226948 0.0050639037289176726 0 -0.03203910099668706 0.0045036903241440088 0 -0.03223048916134183 0.0038331930020222816 0 -0.032566836692295376 0.0045925919714942497 0 -0.03223048916134183 0.0038331930020222816 0 -0.032566836692295376 0.0045925919714942497 0 -0.032999951177633186 0.0041169883098849235 0 -0.033216679110161636 0.0021533901127008333 0 -0.033361865762145081 0.001907434769472899 0 -0.033533784848026132 0.0021298377993284913 0 -0.033770109335406855 0.0018443988008327854 0 -0.033361865762145081 0.001907434769472899 0 -0.033533784848026132 0.0021298377993284913 0 -0.033216679110161636 0.0021533901127008333 0 -0.033533784848026132 0.0021298377993284913 0 -0.033427273288384768 0.0024685150172305045 0 -0.033533784848026132 0.0021298377993284913 0 -0.033968371292111076 0.0023952868809924621 0 -0.033427273288384768 0.0024685150172305045 0 -0.033770109335406855 0.0018443988008327854 0 -0.033533784848026132 0.0021298377993284913 0 -0.033968371292111076 0.0023952868809924621 0 -0.034310074709867876 0.002476900167891356 0 -0.033949693755669808 0.0026958732871813786 0 -0.034952758358286581 0.0019882311480238137 0 -0.035121827956055771 0.0019648388879980609 0 -0.035056958914100614 0.0018537058044721653 0 -0.035108590685942215 0.0019407598661564109 0 -0.035056958914100614 0.0018537058044721653 0 -0.035159081030111769 0.0018858508142928249 0 -0.033949693755669808 0.0026958732871813786 0 -0.034040283034738661 0.0025994598467055804 0 -0.035091579022142064 0.001779215965552897 0 -0.035056958914100614 0.0018537058044721653 0 -0.035163754111792865 0.001809009249289287 0 -0.035056958914100614 0.0018537058044721653 0 -0.035159081030111769 0.0018858508142928249 0 -0.035163754111792865 0.001809009249289287 0 -0.035091579022142064 0.001779215965552897 0 -0.035056958914100614 0.0018537058044721653 0 -0.034980475203716971 0.0017335006059038568 0 -0.035056958914100614 0.0018537058044721653 0 -0.034926368805359806 0.0018265002487277615 0 -0.034980475203716971 0.0017335006059038568 0 -0.034952758358286581 0.0019882311480238137 0 -0.035056958914100614 0.0018537058044721653 0 -0.034926368805359806 0.0018265002487277615 0 -0.034825778975734654 0.0017347432979316392 0 -0.034926368805359806 0.0018265002487277615 0 -0.034980475203716971 0.0017335006059038568 0 -0.032566836692295376 0.0045925919714942497 0 -0.032414646968226948 0.0050639037289176726 0 -0.033445913107847128 0.0052440200554631925 0 -0.032446135151596861 0.0052922159525788087 0 -0.032414646968226948 0.0050639037289176726 0 -0.033445913107847128 0.0052440200554631925 0 -0.035320888883345405 0.0019316123173136134 0 -0.035213896105513634 0.0019362285940551234 0 -0.035239949544070712 0.0018414169623637117 0 -0.03199691996917052 0.0049647266963586305 0 -0.032430665899271453 0.0052781784764414363 0 -0.032414646968226948 0.0050639037289176726 0 -0.033844329178023033 0.0023510813432523338 0 -0.033842156013149313 0.0024044708698898526 0 -0.033844329178023033 0.0023510813432523338 0 -0.034019337779838781 0.0026173270532458093 0 -0.033732448859129086 0.0040298471874111322 0 -0.034426296954627657 0.0051948039299372206 0 -0.033445913107847128 0.0052440200554631925 0 -0.033949693755669808 0.0026958732871813786 0 -0.034019337779838781 0.0026173270532458093 0 -0.035108590685942215 0.0019407598661564109 0 -0.035213896105513634 0.0019362285940551234 0 -0.035159081030111769 0.0018858508142928249 0 -0.035213896105513634 0.0019362285940551234 0 -0.035159081030111769 0.0018858508142928249 0 -0.035239949544070712 0.0018414169623637117 0 -0.035159081030111769 0.0018858508142928249 0 -0.035163754111792865 0.001809009249289287 0 -0.035239949544070712 0.0018414169623637117 0 -0.035091579022142064 0.001779215965552897 0 -0.035163754111792865 0.001809009249289287 0 -0.035183038165368559 0.001741906436799793 0 -0.035163754111792865 0.001809009249289287 0 -0.035230425954576365 0.0017778247185097798 0 -0.035183038165368559 0.001741906436799793 0 -0.035163754111792865 0.001809009249289287 0 -0.035230425954576365 0.0017778247185097798 0 -0.035239949544070712 0.0018414169623637117 0 -0.033844329178023033 0.0023510813432523338 0 -0.034382839816743754 0.0014917658446003184 0 -0.035230425954576365 0.0017778247185097798 0 -0.035239949544070712 0.0018414169623637117 0 -0.035301629755779218 0.0017565159044310584 0 -0.035320888883345405 0.0019316123173136134 0 -0.035239949544070712 0.0018414169623637117 0 -0.035301629755779218 0.0017565159044310584 0 -0.033921712052992214 0.0017465354050472375 0 -0.034072887153480433 0.0015146859223921438 0 -0.034115185280912196 0.0018203613964781411 0 -0.035024596474612792 -9.1697192935007027e-05 0 -0.035024666880804141 -9.1084886528793448e-05 0 -0.035024591455994993 -8.8168600204020721e-05 0 -0.034540052138514424 0.0010900184168524409 0 -0.034566088611562455 0.0012760342679600451 0 -0.034386924065420446 0.0011202536108649741 0 -0.034700440631750006 0.00085679884255588788 0 -0.03438364533005412 0.00090392034236138437 0 -0.035304023600471683 0.0017558421390266 0 -0.035262891429351073 0.0017399390514306261 0 -0.035288899049830257 0.0016252035238659187 0 -0.034382839816743754 0.0014917658446003184 0 -0.034700440631750006 0.00085679884255588788 0 -0.035262891429351073 0.0017399390514306261 0 -0.035192918361047126 0.0016509382269200589 0 -0.035288899049830257 0.0016252035238659187 0 -0.035230425954576365 0.0017778247185097798 0 -0.035301629755779218 0.0017565159044310584 0 -0.035262891429351073 0.0017399390514306261 0 -0.034382839816743754 0.0014917658446003184 0 -0.034432999188674603 0.00150970690004375 0 -0.035262891429351073 0.0017399390514306261 0 -0.035183038165368559 0.001741906436799793 0 -0.035192918361047126 0.0016509382269200589 0 -0.035230425954576365 0.0017778247185097798 0 -0.035262891429351073 0.0017399390514306261 0 -0.035183038165368559 0.001741906436799793 0 -0.035183038165368559 0.001741906436799793 0 -0.035192918361047126 0.0016509382269200589 0 -0.035110359135562472 0.0016968343656781589 0 -0.035192918361047126 0.0016509382269200589 0 -0.035132102403424438 0.0016336918241113764 0 -0.035110359135562472 0.0016968343656781589 0 -0.035192918361047126 0.0016509382269200589 0 -0.035203568163912353 0.00154634920340258 0 -0.035288899049830257 0.0016252035238659187 0 -0.035192918361047126 0.0016509382269200589 0 -0.035147832206182776 0.0015848965260413619 0 -0.035203568163912353 0.00154634920340258 0 -0.035192918361047126 0.0016509382269200589 0 -0.035132102403424438 0.0016336918241113764 0 -0.035147832206182776 0.0015848965260413619 0 -0.035147832206182776 0.0015848965260413619 0 -0.035203568163912353 0.00154634920340258 0 -0.035115680745837083 0.0015259200867902465 0 -0.034700440631750006 0.00085679884255588788 0 -0.034937704734923705 0.00022784869169314382 0 -0.034979832594972754 0.00071433935639452569 0 -0.034700440631750006 0.00085679884255588788 0 -0.034846491030930342 0.00053248391415768926 0 -0.034808843358872486 0.00050057594642888162 0 -0.034818219825385036 0.00056513989223719156 0 -0.035024596474612792 -9.1697192935007027e-05 0 -0.035024666880804141 -9.1084886528793448e-05 0 -0.035026776986576108 -8.8220642156891415e-05 0 -0.034980475203716971 0.0017335006059038568 0 -0.035043687018028263 0.0016448016783846679 0 -0.034974915575891517 0.0015964350072565274 0 -0.035031853000476287 0.0012376581904664911 0 -0.035200098289836806 0.00084367235585393926 0 -0.034825778975734654 0.0017347432979316392 0 -0.034980475203716971 0.0017335006059038568 0 -0.034974915575891517 0.0015964350072565274 0 -0.034980475203716971 0.0017335006059038568 0 -0.035110359135562472 0.0016968343656781589 0 -0.035043687018028263 0.0016448016783846679 0 -0.035091579022142064 0.001779215965552897 0 -0.034980475203716971 0.0017335006059038568 0 -0.035110359135562472 0.0016968343656781589 0 -0.035091579022142064 0.001779215965552897 0 -0.035183038165368559 0.001741906436799793 0 -0.035110359135562472 0.0016968343656781589 0 -0.035132102403424438 0.0016336918241113764 0 -0.035110359135562472 0.0016968343656781589 0 -0.035043687018028263 0.0016448016783846679 0 -0.035085572472005291 0.0015946572632959265 0 -0.034974915575891517 0.0015964350072565274 0 -0.035115680745837083 0.0015259200867902465 0 -0.035200098289836806 0.00084367235585393926 0 -0.035113330261636891 0.00037825387862317709 0 -0.035132102403424438 0.0016336918241113764 0 -0.035085572472005291 0.0015946572632959265 0 -0.035043687018028263 0.0016448016783846679 0 -0.035132102403424438 0.0016336918241113764 0 -0.035147832206182776 0.0015848965260413619 0 -0.035085572472005291 0.0015946572632959265 0 -0.035147832206182776 0.0015848965260413619 0 -0.035085572472005291 0.0015946572632959265 0 -0.035115680745837083 0.0015259200867902465 0 -0.035085572472005291 0.0015946572632959265 0 -0.035043687018028263 0.0016448016783846679 0 -0.034974915575891517 0.0015964350072565274 0 -0.036013774898716239 0.00057939536485849879 0 -0.035770261508229498 9.2160610989563358e-05 0 -0.03652890434266922 9.2123619637566489e-05 0 -0.035310551390192541 0.00023441491284990318 0 -0.035113330261636891 0.00037825387862317709 0 -0.034974915575891517 0.0015964350072565274 0 -0.035115680745837083 0.0015259200867902465 0 -0.03511442132655803 0.0014673055176565859 0 -0.03501826824076823 4.5986754385717688e-05 0 -0.035057312846836469 4.3258757432695108e-05 0 -0.035038290659740713 2.5411854041969277e-05 0 -0.035113330261636891 0.00037825387862317709 0 -0.035026131377962254 0.00014636765132191193 0 -0.035000062744854891 1.8947990796876586e-07 0 -0.035000001039180141 1.1976151186581076e-10 0 -0.034999998203971878 4.4121163926788524e-11 0 -0.035000227613745667 6.0791620969494074e-07 0 -0.035000101692709784 2.6243821304008455e-07 0 -0.035000062744854891 1.8947990796876586e-07 0 -0.035000101692709784 2.6243821304008455e-07 0 -0.035000062744854891 1.8947990796876586e-07 0 -0.034999998203971878 4.4121163926788524e-11 0 -0.03501826824076823 4.5986754385717688e-05 0 -0.035038290659740713 2.5411854041969277e-05 0 -0.03500010113915019 8.5652616178602445e-08 0 -0.035026131377962254 0.00014636765132191193 0 -0.034999940964666743 2.977138619509162e-07 0 -0.035024596474612792 -9.1697192935007027e-05 0 -0.035026776986576108 -8.8220642156891415e-05 0 -0.035024304701702161 -9.0229450752891209e-05 0 -0.034998262193007341 7.9112653684098019e-06 0 -0.034997831306478225 3.9334248825294521e-06 0 -0.03500243998283481 7.7805222544870693e-06 0 -0.034937704734923705 0.00022784869169314382 0 -0.034937008222210686 0.00017480458856085416 0 -0.034937704734923705 0.00022784869169314382 0 -0.035022962417115208 6.3631359708916829e-05 0 -0.035026776986576108 -8.8220642156891415e-05 0 -0.035024143651520755 -8.8248852471136852e-05 0 -0.035024304701702161 -9.0229450752891209e-05 0 -0.034846491030930342 0.00053248391415768926 0 -0.034885158143977177 0.00056465674602017833 0 -0.034818219825385036 0.00056513989223719156 0 -0.034982198719376321 1.6589484450581081e-05 0 -0.035000408363371656 1.5705788103676008e-05 0 -0.034992229610390689 6.207810623013263e-06 0 -0.035113330261636891 0.00037825387862317709 0 -0.034937704734923705 0.00022784869169314382 0 -0.035203568163912353 0.00154634920340258 0 -0.035115680745837083 0.0015259200867902465 0 -0.03511442132655803 0.0014673055176565859 0 -0.034979832594972754 0.00071433935639452569 0 -0.035113330261636891 0.00037825387862317709 0 -0.035113330261636891 0.00037825387862317709 0 -0.035126625013904435 0.00025492025247602094 0 -0.035000408363371656 1.5705788103676008e-05 0 -0.034992229610390689 6.207810623013263e-06 0 -0.034997831306478225 3.9334248825294521e-06 0 -0.035000085100576249 2.8688194761986369e-07 0 -0.034999998203971878 4.4121163926788524e-11 0 -0.034999840966736397 1.7708500398522159e-07 0 -0.035000227613745667 6.0791620969494074e-07 0 -0.035000101692709784 2.6243821304008455e-07 0 -0.035000085100576249 2.8688194761986369e-07 0 -0.035000101692709784 2.6243821304008455e-07 0 -0.035000085100576249 2.8688194761986369e-07 0 -0.034999998203971878 4.4121163926788524e-11 0 -0.035126625013904435 0.00025492025247602094 0 -0.035127462737471291 0.00022011602382704983 0 -0.034999998203971878 4.4121163926788524e-11 0 -0.034999840966736397 1.7708500398522159e-07 0 -0.035000003587749927 3.4837415425215795e-09 0 -0.034992229610390689 6.207810623013263e-06 0 -0.034999840966736397 1.7708500398522159e-07 0 -0.034997831306478225 3.9334248825294521e-06 0 -0.034997831306478225 3.9334248825294521e-06 0 -0.035000003587749927 3.4837415425215795e-09 0 -0.03500243998283481 7.7805222544870693e-06 0 -0.034999840966736397 1.7708500398522159e-07 0 -0.034997831306478225 3.9334248825294521e-06 0 -0.035000003587749927 3.4837415425215795e-09 0 -0.035000000114201048 1.2829309971526312e-10 0 -0.035000093742067917 -1.5461849928783655e-08 0 -0.035000119448386983 4.749586799676781e-08 0 -0.035000027334413382 4.8741501649210127e-08 0 -0.035022962417115208 6.3631359708916829e-05 0 -0.035000000114201048 1.2829309971526312e-10 0 -0.035000093742067917 -1.5461849928783655e-08 0 -0.035000000441372039 -2.5839792058102345e-10 0 -0.035000093742067917 -1.5461849928783655e-08 0 -0.035000000441372039 -2.5839792058102345e-10 0 -0.035000177396153687 -8.0724842544045119e-08 0 -0.035064205909799896 1.9469086418860863e-05 0 -0.035022962417115208 6.3631359708916829e-05 0 -0.035000093742067917 -1.5461849928783655e-08 0 -0.035000177396153687 -8.0724842544045119e-08 0 -0.035000119448386983 4.749586799676781e-08 0 -0.035157484198498366 -3.5410972510339276e-05 0 -0.035196956932077653 -5.1147990461916019e-05 0 -0.03515197270626233 -6.1830946501842407e-05 0 -0.035157484198498366 -3.5410972510339276e-05 0 -0.035200484686101215 -3.564731696441685e-05 0 -0.035196956932077653 -5.1147990461916019e-05 0 -0.035024143651520755 -8.8248852471136852e-05 0 -0.035024304701702161 -9.0229450752891209e-05 0 -0.035023757476281697 -9.0323832928829962e-05 0 -0.035022962417115208 6.3631359708916829e-05 0 -0.035039052772513353 4.7286665351863697e-06 0 -0.035023840528563471 -9.0419908931330771e-05 0 -0.03502444674106623 -9.1264259096418825e-05 0 -0.035025132269378374 -9.2813332884347671e-05 0 -0.035023686153858258 -9.8863454566185235e-05 0 -0.035025132269378374 -9.2813332884347671e-05 0 -0.035038739867940927 -0.00010016704237435247 0 -0.035039052772513353 4.7286665351863697e-06 0 -0.035035298722452375 -1.2905486075758246e-05 0 -0.035024596474612792 -9.1697192935007027e-05 0 -0.035024304701702161 -9.0229450752891209e-05 0 -0.03502444674106623 -9.1264259096418825e-05 0 -0.035024304701702161 -9.0229450752891209e-05 0 -0.035023840528563471 -9.0419908931330771e-05 0 -0.03502444674106623 -9.1264259096418825e-05 0 -0.035038704844470643 4.3721133205923472e-06 0 -0.035039052772513353 4.7286665351863697e-06 0 -0.035024596474612792 -9.1697192935007027e-05 0 -0.03502444674106623 -9.1264259096418825e-05 0 -0.035025132269378374 -9.2813332884347671e-05 0 -0.035039052772513353 4.7286665351863697e-06 0 -0.035078242717141647 -4.1866587108484837e-05 0 -0.035025132269378374 -9.2813332884347671e-05 0 -0.03503186043291568 -9.1632803191614014e-05 0 -0.035038739867940927 -0.00010016704237435247 0 -0.035031814281298576 -8.0723544007306995e-05 0 -0.03503186043291568 -9.1632803191614014e-05 0 -0.035024591455994993 -8.8168600204020721e-05 0 -0.035031814281298576 -8.0723544007306995e-05 0 -0.03503186043291568 -9.1632803191614014e-05 0 -0.0350385662905804 -8.9303991194578287e-05 0 -0.035024596474612792 -9.1697192935007027e-05 0 -0.035025132269378374 -9.2813332884347671e-05 0 -0.035024591455994993 -8.8168600204020721e-05 0 -0.034373801286634767 0.0010266345696151819 0 -0.034540052138514424 0.0010900184168524409 0 -0.034386924065420446 0.0011202536108649741 0 -0.035025132269378374 -9.2813332884347671e-05 0 -0.03503186043291568 -9.1632803191614014e-05 0 -0.035024591455994993 -8.8168600204020721e-05 0 -0.034880646849783287 2.4074389885904544e-05 0 -0.034796794690936501 2.1620498002972783e-05 0 -0.035051035313341333 -9.4801065570090104e-05 0 -0.035043481879034992 -9.5012603888559971e-05 0 -0.035057300642227354 -9.7666371878344562e-05 0 -0.035046174126647893 -8.514089752612562e-05 0 -0.035045536577869726 -8.8093737032028329e-05 0 -0.035051035313341333 -9.4801065570090104e-05 0 -0.035051035313341333 -9.4801065570090104e-05 0 -0.035057300642227354 -9.7666371878344562e-05 0 -0.035060448600504328 -0.0001184536537893831 0 -0.035045536577869726 -8.8093737032028329e-05 0 -0.0350385662905804 -8.9303991194578287e-05 0 -0.035043481879034992 -9.5012603888559971e-05 0 -0.035045536577869726 -8.8093737032028329e-05 0 -0.035051035313341333 -9.4801065570090104e-05 0 -0.035043481879034992 -9.5012603888559971e-05 0 -0.03503186043291568 -9.1632803191614014e-05 0 -0.0350385662905804 -8.9303991194578287e-05 0 -0.035043481879034992 -9.5012603888559971e-05 0 -0.035040847782639682 -8.5969535443536382e-05 0 -0.035045536577869726 -8.8093737032028329e-05 0 -0.0350385662905804 -8.9303991194578287e-05 0 -0.035043481879034992 -9.5012603888559971e-05 0 -0.035038739867940927 -0.00010016704237435247 0 -0.035057300642227354 -9.7666371878344562e-05 0 -0.03503186043291568 -9.1632803191614014e-05 0 -0.035043481879034992 -9.5012603888559971e-05 0 -0.035038739867940927 -0.00010016704237435247 0 -0.03515197270626233 -6.1830946501842407e-05 0 -0.035101800229606725 -7.5319347404975286e-05 0 -0.035110654496573517 -3.3559488916142538e-05 0 -0.035078242717141647 -4.1866587108484837e-05 0 -0.035069251059156967 -6.6406554498393573e-05 0 -0.035000177396153687 -8.0724842544045119e-08 0 -0.035000595123133103 -7.8679543567496476e-07 0 -0.035000237926880159 -2.4565124185221306e-07 0 -0.035157484198498366 -3.5410972510339276e-05 0 -0.03515197270626233 -6.1830946501842407e-05 0 -0.035110654496573517 -3.3559488916142538e-05 0 -0.035064205909799896 1.9469086418860863e-05 0 -0.035050821717902893 -3.5568349137459627e-07 0 -0.035000000441372039 -2.5839792058102345e-10 0 -0.035000237926880159 -2.4565124185221306e-07 0 -0.035000000473280536 -3.089185441140348e-10 0 -0.035000000441372039 -2.5839792058102345e-10 0 -0.035000177396153687 -8.0724842544045119e-08 0 -0.035000237926880159 -2.4565124185221306e-07 0 -0.035000595123133103 -7.8679543567496476e-07 0 -0.035000237926880159 -2.4565124185221306e-07 0 -0.035000000473280536 -3.089185441140348e-10 0 -0.035000595123133103 -7.8679543567496476e-07 0 -0.035000000473280536 -3.089185441140348e-10 0 -0.035001120876391845 -1.6969241439917894e-06 0 -0.035000000473280536 -3.089185441140348e-10 0 -0.035001120876391845 -1.6969241439917894e-06 0 -0.035000008392054083 -7.9101052719695984e-09 0 -0.035000008392054083 -7.9101052719695984e-09 0 -0.035002445943336818 -5.2551821923255409e-06 0 -0.035000715266330251 -6.7389982573527165e-06 0 -0.035001120876391845 -1.6969241439917894e-06 0 -0.035000008392054083 -7.9101052719695984e-09 0 -0.035002445943336818 -5.2551821923255409e-06 0 -0.035050821717902893 -3.5568349137459627e-07 0 -0.035026040641577459 -9.1096545845827153e-06 0 -0.035000595123133103 -7.8679543567496476e-07 0 -0.035001120876391845 -1.6969241439917894e-06 0 -0.035002445943336818 -5.2551821923255409e-06 0 -0.035110654496573517 -3.3559488916142538e-05 0 -0.035054438912153221 -2.9513136671874732e-05 0 -0.035066282755788963 -6.1980407413007112e-05 0 -0.034999989819702662 -3.4768011799656688e-09 0 -0.034995993559506208 -2.2596906481744439e-05 0 -0.03497953110589698 -2.3493310856308132e-05 0 -0.034999989819702662 -3.4768011799656688e-09 0 -0.035000715266330251 -6.7389982573527165e-06 0 -0.034995993559506208 -2.2596906481744439e-05 0 -0.035000008392054083 -7.9101052719695984e-09 0 -0.034999989819702662 -3.4768011799656688e-09 0 -0.035000715266330251 -6.7389982573527165e-06 0 -0.035002445943336818 -5.2551821923255409e-06 0 -0.035000715266330251 -6.7389982573527165e-06 0 -0.034995993559506208 -2.2596906481744439e-05 0 -0.035054438912153221 -2.9513136671874732e-05 0 -0.034995993559506208 -2.2596906481744439e-05 0 -0.035014151558503806 -6.8570293561553392e-05 0 -0.035026040641577459 -9.1096545845827153e-06 0 -0.035009721887614677 -1.1959542407547913e-05 0 -0.034995993559506208 -2.2596906481744439e-05 0 -0.034968237550176397 -5.7289005502911372e-05 0 -0.03497953110589698 -2.3493310856308132e-05 0 -0.034968237550176397 -5.7289005502911372e-05 0 -0.035014151558503806 -6.8570293561553392e-05 0 -0.034974689919279024 -9.6718979480417839e-05 0 -0.034995993559506208 -2.2596906481744439e-05 0 -0.034968237550176397 -5.7289005502911372e-05 0 -0.035014151558503806 -6.8570293561553392e-05 0 -0.035014151558503806 -6.8570293561553392e-05 0 -0.035040644388496918 -9.5284568794911959e-05 0 -0.035017665578982213 -0.00013024240107694431 0 -0.035014151558503806 -6.8570293561553392e-05 0 -0.034974689919279024 -9.6718979480417839e-05 0 -0.035017665578982213 -0.00013024240107694431 0 -0.034974689919279024 -9.6718979480417839e-05 0 -0.035017665578982213 -0.00013024240107694431 0 -0.034948536405671304 -0.00014723951069080992 0 -0.034968237550176397 -5.7289005502911372e-05 0 -0.034974689919279024 -9.6718979480417839e-05 0 -0.034915157840839539 -9.4027736090845665e-05 0 -0.034974689919279024 -9.6718979480417839e-05 0 -0.034948536405671304 -0.00014723951069080992 0 -0.034915157840839539 -9.4027736090845665e-05 0 -0.035101800229606725 -7.5319347404975286e-05 0 -0.035066282755788963 -6.1980407413007112e-05 0 -0.035040644388496918 -9.5284568794911959e-05 0 -0.035069251059156967 -6.6406554498393573e-05 0 -0.035054327930095615 -7.5674202743131007e-05 0 -0.035101800229606725 -7.5319347404975286e-05 0 -0.035110654496573517 -3.3559488916142538e-05 0 -0.035066282755788963 -6.1980407413007112e-05 0 -0.035054438912153221 -2.9513136671874732e-05 0 -0.035014151558503806 -6.8570293561553392e-05 0 -0.035066282755788963 -6.1980407413007112e-05 0 -0.035014151558503806 -6.8570293561553392e-05 0 -0.035066282755788963 -6.1980407413007112e-05 0 -0.035040644388496918 -9.5284568794911959e-05 0 -0.035040644388496918 -9.5284568794911959e-05 0 -0.035060448600504328 -0.0001184536537893831 0 -0.03504184166192148 -0.00012644124695440791 0 -0.035040644388496918 -9.5284568794911959e-05 0 -0.03504184166192148 -0.00012644124695440791 0 -0.035017665578982213 -0.00013024240107694431 0 -0.035057300642227354 -9.7666371878344562e-05 0 -0.035040644388496918 -9.5284568794911959e-05 0 -0.035060448600504328 -0.0001184536537893831 0 -0.035045318091461719 -8.4267620446598082e-05 0 -0.035043675808775931 -8.6994193929248298e-05 0 -0.035036410397468534 -8.7554463873281457e-05 0 -0.03504513137878023 -8.4894552439527139e-05 0 -0.035045318091461719 -8.4267620446598082e-05 0 -0.035043675808775931 -8.6994193929248298e-05 0 -0.033535739762654157 -0.00059456963422119323 0 -0.033577949565744496 -0.00054203486668113912 0 -0.033520484640819893 -0.0005338283086664525 0 -0.033470916102795845 -0.00056632839379219693 0 -0.033535739762654157 -0.00059456963422119323 0 -0.033520484640819893 -0.0005338283086664525 0 -0.033535739762654157 -0.00059456963422119323 0 -0.033577949565744496 -0.00054203486668113912 0 -0.03365509184548883 -0.00060697815030638777 0 -0.03365509184548883 -0.00060697815030638777 0 -0.033708861938056833 -0.00049697204082529642 0 -0.033630339749078517 -0.00049806667303807484 0 -0.033577949565744496 -0.00054203486668113912 0 -0.03365509184548883 -0.00060697815030638777 0 -0.033630339749078517 -0.00049806667303807484 0 -0.034165375365513298 0.00025055034053206646 0 -0.034397271427941002 -6.6128856920570311e-05 0 -0.034796794690936501 2.1620498002972783e-05 0 -0.034397271427941002 -6.6128856920570311e-05 0 -0.03504082582884592 -0.00016224912976717888 0 -0.03504184166192148 -0.00012644124695440791 0 -0.035017665578982213 -0.00013024240107694431 0 -0.035060448600504328 -0.0001184536537893831 0 -0.03504082582884592 -0.00016224912976717888 0 -0.03504184166192148 -0.00012644124695440791 0 -0.03504082582884592 -0.00016224912976717888 0 -0.035017665578982213 -0.00013024240107694431 0 -0.034992074950309801 -0.00018707630495999299 0 -0.035017665578982213 -0.00013024240107694431 0 -0.034948536405671304 -0.00014723951069080992 0 -0.034992074950309801 -0.00018707630495999299 0 -0.034948536405671304 -0.00014723951069080992 0 -0.034992074950309801 -0.00018707630495999299 0 -0.034873737102501315 -0.00025856910475842003 0 -0.034168998075549177 -0.00021904156587784212 0 -0.034171898942682237 -0.00022880341936619517 0 -0.034159288259490238 -0.00022650408906697486 0 -0.034512114173447933 -0.0001439093335046991 0 -0.034489683018254599 -0.00018533337424850939 0 -0.034168998075549177 -0.00021904156587784212 0 -0.034159288259490238 -0.00022650408906697486 0 -0.034145397993950062 -0.00024177554982447681 0 -0.034397271427941002 -6.6128856920570311e-05 0 -0.034066122734202536 -0.00031653790025332429 0 -0.03365509184548883 -0.00060697815030638777 0 -0.033708861938056833 -0.00049697204082529642 0 -0.033803626886815583 -0.00050748894099820411 0 -0.034183690193588405 -0.00021861089582832913 0 -0.034168998075549177 -0.00021904156587784212 0 -0.034171898942682237 -0.00022880341936619517 0 -0.034397271427941002 -6.6128856920570311e-05 0 -0.034512114173447933 -0.0001439093335046991 0 -0.033708861938056833 -0.00049697204082529642 0 -0.033757082100131071 -0.00044245326883702473 0 -0.033803626886815583 -0.00050748894099820411 0 -0.033708861938056833 -0.00049697204082529642 0 -0.033757082100131071 -0.00044245326883702473 0 -0.033684231528899024 -0.00043014966307091524 0 -0.033757082100131071 -0.00044245326883702473 0 -0.033803626886815583 -0.00050748894099820411 0 -0.033841587068953592 -0.00040525498391581337 0 -0.034166102786010573 -0.00023184420581282491 0 -0.034171898942682237 -0.00022880341936619517 0 -0.034168315734483257 -0.00025725027354074761 0 -0.034066122734202536 -0.00031653790025332429 0 -0.034045341462071943 -0.00033237970815585681 0 -0.034166102786010573 -0.00023184420581282491 0 -0.034171898942682237 -0.00022880341936619517 0 -0.034159288259490238 -0.00022650408906697486 0 -0.033841587068953592 -0.00040525498391581337 0 -0.033955142993560408 -0.00041001369645135322 0 -0.033816106907962967 -0.00029031680337650171 0 -0.033841587068953592 -0.00040525498391581337 0 -0.033748458726284639 -0.00036942969391698437 0 -0.033816106907962967 -0.00029031680337650171 0 -0.033803626886815583 -0.00050748894099820411 0 -0.033841587068953592 -0.00040525498391581337 0 -0.033955142993560408 -0.00041001369645135322 0 -0.033748458726284639 -0.00036942969391698437 0 -0.03365046115073838 -0.00037015347278941332 0 -0.033684231528899024 -0.00043014966307091524 0 -0.033757082100131071 -0.00044245326883702473 0 -0.033748458726284639 -0.00036942969391698437 0 -0.033684231528899024 -0.00043014966307091524 0 -0.033757082100131071 -0.00044245326883702473 0 -0.033841587068953592 -0.00040525498391581337 0 -0.033748458726284639 -0.00036942969391698437 0 -0.033748458726284639 -0.00036942969391698437 0 -0.03365046115073838 -0.00037015347278941332 0 -0.033692120583723721 -0.00027170329688632351 0 -0.03365046115073838 -0.00037015347278941332 0 -0.033548773063532489 -0.00035823261757571544 0 -0.033692120583723721 -0.00027170329688632351 0 -0.03365046115073838 -0.00037015347278941332 0 -0.033606487369745495 -0.00042505647861718066 0 -0.033548773063532489 -0.00035823261757571544 0 -0.03365046115073838 -0.00037015347278941332 0 -0.033684231528899024 -0.00043014966307091524 0 -0.033606487369745495 -0.00042505647861718066 0 -0.033606487369745495 -0.00042505647861718066 0 -0.033548773063532489 -0.00035823261757571544 0 -0.033549149143307477 -0.00047667922594884875 0 -0.033469390373376852 -0.00048400849665201603 0 -0.033548773063532489 -0.00035823261757571544 0 -0.033549149143307477 -0.00047667922594884875 0 -0.033469390373376852 -0.00048400849665201603 0 -0.033520484640819893 -0.0005338283086664525 0 -0.033549149143307477 -0.00047667922594884875 0 -0.033577949565744496 -0.00054203486668113912 0 -0.033520484640819893 -0.0005338283086664525 0 -0.033549149143307477 -0.00047667922594884875 0 -0.033577949565744496 -0.00054203486668113912 0 -0.033549149143307477 -0.00047667922594884875 0 -0.033630339749078517 -0.00049806667303807484 0 -0.033684231528899024 -0.00043014966307091524 0 -0.033606487369745495 -0.00042505647861718066 0 -0.033630339749078517 -0.00049806667303807484 0 -0.033708861938056833 -0.00049697204082529642 0 -0.033684231528899024 -0.00043014966307091524 0 -0.033630339749078517 -0.00049806667303807484 0 -0.033606487369745495 -0.00042505647861718066 0 -0.033549149143307477 -0.00047667922594884875 0 -0.033630339749078517 -0.00049806667303807484 0 -0.034054384975776161 -0.0002556299898943593 0 -0.034121705664518082 -0.00024229558889275654 0 -0.03405190668154448 -0.00024225190547745457 0 -0.034054384975776161 -0.0002556299898943593 0 -0.034121705664518082 -0.00024229558889275654 0 -0.034088154168871281 -0.00024974557804790848 0 -0.034054384975776161 -0.0002556299898943593 0 -0.034073003254746104 -0.0002631833237825682 0 -0.03405190668154448 -0.00024225190547745457 0 -0.034054384975776161 -0.0002556299898943593 0 -0.034073003254746104 -0.0002631833237825682 0 -0.034031992553974065 -0.00025493414657992854 0 -0.034054384975776161 -0.0002556299898943593 0 -0.034031992553974065 -0.00025493414657992854 0 -0.034000490403221749 -0.0002557476508973007 0 -0.034031992553974065 -0.00025493414657992854 0 -0.034000490403221749 -0.0002557476508973007 0 -0.033905233384275202 -0.00020964662213074643 0 -0.034031992553974065 -0.00025493414657992854 0 -0.034123088497789882 -0.0002528502480942346 0 -0.033905233384275202 -0.00020964662213074643 0 -0.034054384975776161 -0.0002556299898943593 0 -0.034000490403221749 -0.0002557476508973007 0 -0.034088154168871281 -0.00024974557804790848 0 -0.034000490403221749 -0.0002557476508973007 0 -0.034081561438969121 -0.00026452081048339526 0 -0.034088154168871281 -0.00024974557804790848 0 -0.034000490403221749 -0.0002557476508973007 0 -0.034081561438969121 -0.00026452081048339526 0 -0.034020745527866679 -0.00032777961956680351 0 -0.034081561438969121 -0.00026452081048339526 0 -0.034168315734483257 -0.00025725027354074761 0 -0.034140460077567589 -0.0002380651627952352 0 -0.034081561438969121 -0.00026452081048339526 0 -0.034168315734483257 -0.00025725027354074761 0 -0.034020745527866679 -0.00032777961956680351 0 -0.034045341462071943 -0.00033237970815585681 0 -0.034041281985394509 -0.00033267930031098816 0 -0.033955142993560408 -0.00041001369645135322 0 -0.033981914327602336 -0.00036815859273746897 0 -0.034020745527866679 -0.00032777961956680351 0 -0.034081561438969121 -0.00026452081048339526 0 -0.034088154168871281 -0.00024974557804790848 0 -0.034140460077567589 -0.0002380651627952352 0 -0.033955142993560408 -0.00041001369645135322 0 -0.033816106907962967 -0.00029031680337650171 0 -0.033981914327602336 -0.00036815859273746897 0 -0.034168315734483257 -0.00025725027354074761 0 -0.034162110682599785 -0.00023706019231700047 0 -0.034140460077567589 -0.0002380651627952352 0 -0.034166102786010573 -0.00023184420581282491 0 -0.034168315734483257 -0.00025725027354074761 0 -0.034162110682599785 -0.00023706019231700047 0 -0.034162110682599785 -0.00023706019231700047 0 -0.034162938468028245 -0.00022446066344780692 0 -0.034140460077567589 -0.0002380651627952352 0 -0.034162938468028245 -0.00022446066344780692 0 -0.034164167013901965 -0.00022364770360701843 0 -0.03416968427231605 -0.00021360718992598774 0 -0.034166102786010573 -0.00023184420581282491 0 -0.034162938468028245 -0.00022446066344780692 0 -0.034159288259490238 -0.00022650408906697486 0 -0.034166102786010573 -0.00023184420581282491 0 -0.034162110682599785 -0.00023706019231700047 0 -0.034162938468028245 -0.00022446066344780692 0 -0.034088154168871281 -0.00024974557804790848 0 -0.034140460077567589 -0.0002380651627952352 0 -0.034164167013901965 -0.00022364770360701843 0 -0.034162938468028245 -0.00022446066344780692 0 -0.034140460077567589 -0.0002380651627952352 0 -0.034164167013901965 -0.00022364770360701843 0 -0.034121705664518082 -0.00024229558889275654 0 -0.034088154168871281 -0.00024974557804790848 0 -0.034164167013901965 -0.00022364770360701843 0 -0.034489683018254599 -0.00018533337424850939 0 -0.034455028483093314 -0.00019812458636610524 0 -0.034121705664518082 -0.00024229558889275654 0 -0.034164167013901965 -0.00022364770360701843 0 -0.034237648731651749 -0.00020114838172256358 0 -0.034237648731651749 -0.00020114838172256358 0 -0.034145397993950062 -0.00024177554982447681 0 -0.034390363476873742 -0.00025960958742058619 0 -0.034164167013901965 -0.00022364770360701843 0 -0.034237648731651749 -0.00020114838172256358 0 -0.03416968427231605 -0.00021360718992598774 0 -0.034237648731651749 -0.00020114838172256358 0 -0.03416968427231605 -0.00021360718992598774 0 -0.034145397993950062 -0.00024177554982447681 0 -0.034159288259490238 -0.00022650408906697486 0 -0.03416968427231605 -0.00021360718992598774 0 -0.034145397993950062 -0.00024177554982447681 0 -0.034162938468028245 -0.00022446066344780692 0 -0.034159288259490238 -0.00022650408906697486 0 -0.03416968427231605 -0.00021360718992598774 0 -0.034948536405671304 -0.00014723951069080992 0 -0.034838864139109034 -0.00011976518724528953 0 -0.034915157840839539 -9.4027736090845665e-05 0 -0.034948536405671304 -0.00014723951069080992 0 -0.034873737102501315 -0.00025856910475842003 0 -0.034838864139109034 -0.00011976518724528953 0 -0.034838864139109034 -0.00011976518724528953 0 -0.034381303017451598 -0.0001348062331094774 0 -0.034390363476873742 -0.00025960958742058619 0 -0.034873737102501315 -0.00025856910475842003 0 -0.034838864139109034 -0.00011976518724528953 0 -0.034390363476873742 -0.00025960958742058619 0 -0.034747545532041485 -0.00015874754546490422 0 -0.034670923057972307 -0.00015513183355686763 0 -0.034381303017451598 -0.0001348062331094774 0 -0.034390363476873742 -0.00025960958742058619 0 -0.034408886564723976 -0.00017727314151830148 0 -0.034121705664518082 -0.00024229558889275654 0 -0.034237648731651749 -0.00020114838172256358 0 -0.03405190668154448 -0.00024225190547745457 0 -0.034390363476873742 -0.00025960958742058619 0 -0.034439990494894962 -0.00019712314809643806 0 -0.034408886564723976 -0.00017727314151830148 0 -0.034237648731651749 -0.00020114838172256358 0 -0.034390363476873742 -0.00025960958742058619 0 -0.034439990494894962 -0.00019712314809643806 0 -0.034253953768013802 -0.00021914398563587604 0 -0.034263623949113815 -0.00022221809971164573 0 -0.034073003254746104 -0.0002631833237825682 0 -0.03405190668154448 -0.00024225190547745457 0 -0.034145794604012063 -0.00029423880168543732 0 -0.034263623949113815 -0.00022221809971164573 0 -0.034276785173136502 -0.00022655337569223131 0 -0.034439990494894962 -0.00019712314809643806 0 -0.034408886564723976 -0.00017727314151830148 0 -0.034423149249723541 -0.00018909911058843205 0 -0.034381303017451598 -0.0001348062331094774 0 -0.034408886564723976 -0.00017727314151830148 0 -0.034417934023892066 -0.00017421683960143971 0 -0.034898185561629866 -0.00011355621973397159 0 -0.03483459362005302 -0.00010466435762063268 0 -0.034787506174697738 -0.00020451457988194312 0 -0.034903183726536863 -0.00014241553115254589 0 -0.034898185561629866 -0.00011355621973397159 0 -0.034787506174697738 -0.00020451457988194312 0 -0.034670923057972307 -0.00015513183355686763 0 -0.034591356233026775 -0.00015764539920882289 0 -0.034903183726536863 -0.00014241553115254589 0 -0.034898185561629866 -0.00011355621973397159 0 -0.034906698726179096 -0.00010819046211714588 0 -0.034898185561629866 -0.00011355621973397159 0 -0.03492808069215305 -7.4391060162579589e-05 0 -0.034906698726179096 -0.00010819046211714588 0 -0.034898185561629866 -0.00011355621973397159 0 -0.03492808069215305 -7.4391060162579589e-05 0 -0.034912588697104799 -6.4367830649959069e-05 0 -0.034898185561629866 -0.00011355621973397159 0 -0.034912588697104799 -6.4367830649959069e-05 0 -0.03483459362005302 -0.00010466435762063268 0 -0.034912588697104799 -6.4367830649959069e-05 0 -0.03483459362005302 -0.00010466435762063268 0 -0.034886394705147948 -4.5480486289302945e-05 0 -0.034838864139109034 -0.00011976518724528953 0 -0.034915157840839539 -9.4027736090845665e-05 0 -0.034906698726179096 -0.00010819046211714588 0 -0.034838864139109034 -0.00011976518724528953 0 -0.034903183726536863 -0.00014241553115254589 0 -0.034906698726179096 -0.00010819046211714588 0 -0.03492808069215305 -7.4391060162579589e-05 0 -0.034906698726179096 -0.00010819046211714588 0 -0.034945191568653687 -6.3707290740207021e-05 0 -0.034915157840839539 -9.4027736090845665e-05 0 -0.034906698726179096 -0.00010819046211714588 0 -0.034945191568653687 -6.3707290740207021e-05 0 -0.034968237550176397 -5.7289005502911372e-05 0 -0.034915157840839539 -9.4027736090845665e-05 0 -0.034945191568653687 -6.3707290740207021e-05 0 -0.034968237550176397 -5.7289005502911372e-05 0 -0.034945191568653687 -6.3707290740207021e-05 0 -0.03497953110589698 -2.3493310856308132e-05 0 -0.034945191568653687 -6.3707290740207021e-05 0 -0.03497953110589698 -2.3493310856308132e-05 0 -0.034960833129697555 -3.1171609614425004e-05 0 -0.03492808069215305 -7.4391060162579589e-05 0 -0.034945191568653687 -6.3707290740207021e-05 0 -0.034960833129697555 -3.1171609614425004e-05 0 -0.034960833129697555 -3.1171609614425004e-05 0 -0.034999976167837038 -2.8007375338251815e-08 0 -0.034976813754216421 -8.5364459401701506e-06 0 -0.03497953110589698 -2.3493310856308132e-05 0 -0.034960833129697555 -3.1171609614425004e-05 0 -0.034999976167837038 -2.8007375338251815e-08 0 -0.034999989819702662 -3.4768011799656688e-09 0 -0.03497953110589698 -2.3493310856308132e-05 0 -0.034999976167837038 -2.8007375338251815e-08 0 -0.034912588697104799 -6.4367830649959069e-05 0 -0.03493898209212945 -1.3856659880485446e-05 0 -0.034886394705147948 -4.5480486289302945e-05 0 -0.03493898209212945 -1.3856659880485446e-05 0 -0.034886394705147948 -4.5480486289302945e-05 0 -0.034897570513213551 -7.4389006544543477e-06 0 -0.034886394705147948 -4.5480486289302945e-05 0 -0.034897570513213551 -7.4389006544543477e-06 0 -0.034808749818938819 -4.3233073554782779e-05 0 -0.03483459362005302 -0.00010466435762063268 0 -0.034886394705147948 -4.5480486289302945e-05 0 -0.034808749818938819 -4.3233073554782779e-05 0 -0.03492808069215305 -7.4391060162579589e-05 0 -0.034912588697104799 -6.4367830649959069e-05 0 -0.034960833129697555 -3.1171609614425004e-05 0 -0.034912588697104799 -6.4367830649959069e-05 0 -0.034960833129697555 -3.1171609614425004e-05 0 -0.03493898209212945 -1.3856659880485446e-05 0 -0.034960833129697555 -3.1171609614425004e-05 0 -0.03493898209212945 -1.3856659880485446e-05 0 -0.034976813754216421 -8.5364459401701506e-06 0 -0.03493898209212945 -1.3856659880485446e-05 0 -0.034976813754216421 -8.5364459401701506e-06 0 -0.034999817340368299 4.5409259339390968e-08 0 -0.034999976167837038 -2.8007375338251815e-08 0 -0.034976813754216421 -8.5364459401701506e-06 0 -0.034999817340368299 4.5409259339390968e-08 0 -0.03493898209212945 -1.3856659880485446e-05 0 -0.034999817340368299 4.5409259339390968e-08 0 -0.034976833552463608 1.7583985617191477e-05 0 -0.03493898209212945 -1.3856659880485446e-05 0 -0.034897570513213551 -7.4389006544543477e-06 0 -0.034976833552463608 1.7583985617191477e-05 0 -0.034864258235224127 4.0726030087204258e-06 0 -0.034827284036185499 -7.6233830013631503e-06 0 -0.034976833552463608 1.7583985617191477e-05 0 -0.034999979411870046 1.6283438828325161e-08 0 -0.035003179562203099 2.3690130430001047e-06 0 -0.034976833552463608 1.7583985617191477e-05 0 -0.034791837452482273 -2.0659385625741646e-06 0 -0.034656070620644151 4.9736092897844148e-05 0 -0.034999817340368299 4.5409259339390968e-08 0 -0.034976833552463608 1.7583985617191477e-05 0 -0.034999979411870046 1.6283438828325161e-08 0 -0.034897570513213551 -7.4389006544543477e-06 0 -0.034976833552463608 1.7583985617191477e-05 0 -0.034791837452482273 -2.0659385625741646e-06 0 -0.034791837452482273 -2.0659385625741646e-06 0 -0.034808749818938819 -4.3233073554782779e-05 0 -0.034631685024717127 -7.3079340226602746e-05 0 -0.034897570513213551 -7.4389006544543477e-06 0 -0.034791837452482273 -2.0659385625741646e-06 0 -0.034808749818938819 -4.3233073554782779e-05 0 -0.034656070620644151 4.9736092897844148e-05 0 -0.03447334206353625 -5.5849092518813662e-05 0 -0.034631685024717127 -7.3079340226602746e-05 0 -0.034791837452482273 -2.0659385625741646e-06 0 -0.034656070620644151 4.9736092897844148e-05 0 -0.034631685024717127 -7.3079340226602746e-05 0 -0.034999979411870046 1.6283438828325161e-08 0 -0.035003179562203099 2.3690130430001047e-06 0 -0.035000022059200962 -8.2292542759731102e-09 0 -0.035003179562203099 2.3690130430001047e-06 0 -0.035000022059200962 -8.2292542759731102e-09 0 -0.035002865479521771 -6.1754154623499412e-06 0 -0.035000022059200962 -8.2292542759731102e-09 0 -0.034996740113178597 -4.4416985291744179e-06 0 -0.0349999532270183 1.1565889270222954e-08 0 -0.035000022059200962 -8.2292542759731102e-09 0 -0.035002865479521771 -6.1754154623499412e-06 0 -0.034996740113178597 -4.4416985291744179e-06 0 -0.035002865479521771 -6.1754154623499412e-06 0 -0.034996740113178597 -4.4416985291744179e-06 0 -0.034986000444394545 -2.6882839697266612e-05 0 -0.034788253555284469 -3.0513488129261191e-05 0 -0.034791306209791026 -4.3853567426213087e-05 0 -0.03447334206353625 -5.5849092518813662e-05 0 -0.03445669196293822 -0.0001036580847721483 0 -0.034539791549406514 -0.00015104838980391951 0 -0.03447334206353625 -5.5849092518813662e-05 0 -0.03445669196293822 -0.0001036580847721483 0 -0.034631685024717127 -7.3079340226602746e-05 0 -0.034827284036185499 -7.6233830013631503e-06 0 -0.034788253555284469 -3.0513488129261191e-05 0 -0.03445669196293822 -0.0001036580847721483 0 -0.034488374449474106 -0.00016343952170889503 0 -0.034631685024717127 -7.3079340226602746e-05 0 -0.03445669196293822 -0.0001036580847721483 0 -0.034399467966492021 -8.212414284918188e-05 0 -0.034539791549406514 -0.00015104838980391951 0 -0.034399467966492021 -8.212414284918188e-05 0 -0.034488374449474106 -0.00016343952170889503 0 -0.034354510065670543 -0.00015394899487991326 0 -0.03445669196293822 -0.0001036580847721483 0 -0.034399467966492021 -8.212414284918188e-05 0 -0.034488374449474106 -0.00016343952170889503 0 -0.034488374449474106 -0.00016343952170889503 0 -0.034787506174697738 -0.00020451457988194312 0 -0.034631685024717127 -7.3079340226602746e-05 0 -0.034488374449474106 -0.00016343952170889503 0 -0.034417934023892066 -0.00017421683960143971 0 -0.034416313736506228 -0.00016388905004250141 0 -0.0345450614171217 -0.00015485588170331232 0 -0.034591356233026775 -0.00015764539920882289 0 -0.03483459362005302 -0.00010466435762063268 0 -0.034808749818938819 -4.3233073554782779e-05 0 -0.034631685024717127 -7.3079340226602746e-05 0 -0.03483459362005302 -0.00010466435762063268 0 -0.034787506174697738 -0.00020451457988194312 0 -0.034631685024717127 -7.3079340226602746e-05 0 -0.034993963552280828 -1.1311842903212572e-05 0 -0.034998407129299615 -9.6773760777815965e-06 0 -0.034997453774625382 -6.3253800889221438e-06 0 -0.034993963552280828 -1.1311842903212572e-05 0 -0.034960669043046538 -2.1574361537772631e-05 0 -0.034998407129299615 -9.6773760777815965e-06 0 -0.034993963552280828 -1.1311842903212572e-05 0 -0.034999951551441963 -2.789702235501569e-08 0 -0.035000000796633929 -4.7122751984960081e-09 0 -0.034993963552280828 -1.1311842903212572e-05 0 -0.034999951551441963 -2.789702235501569e-08 0 -0.034960669043046538 -2.1574361537772631e-05 0 -0.034999951551441963 -2.789702235501569e-08 0 -0.034960669043046538 -2.1574361537772631e-05 0 -0.034962750980510354 -7.0821189013549087e-06 0 -0.034962750980510354 -7.0821189013549087e-06 0 -0.034986000444394545 -2.6882839697266612e-05 0 -0.034854546218227006 -2.8542427381592463e-05 0 -0.034960669043046538 -2.1574361537772631e-05 0 -0.034962750980510354 -7.0821189013549087e-06 0 -0.034854546218227006 -2.8542427381592463e-05 0 -0.034999951551441963 -2.789702235501569e-08 0 -0.034962750980510354 -7.0821189013549087e-06 0 -0.0349999532270183 1.1565889270222954e-08 0 -0.034962750980510354 -7.0821189013549087e-06 0 -0.034996740113178597 -4.4416985291744179e-06 0 -0.0349999532270183 1.1565889270222954e-08 0 -0.034962750980510354 -7.0821189013549087e-06 0 -0.034996740113178597 -4.4416985291744179e-06 0 -0.034986000444394545 -2.6882839697266612e-05 0 -0.034399467966492021 -8.212414284918188e-05 0 -0.034539791549406514 -0.00015104838980391951 0 -0.034754067468602129 -1.2159930015271273e-05 0 -0.034399467966492021 -8.212414284918188e-05 0 -0.034295269260313253 -6.2060821767501661e-05 0 -0.034320260715062403 -0.0001243159036207077 0 -0.034520401456034883 -4.8240610265322731e-05 0 -0.034567462252214305 -4.8133639587255629e-05 0 -0.034293780288574355 -9.5178157826169169e-05 0 -0.034295269260313253 -6.2060821767501661e-05 0 -0.034320260715062403 -0.0001243159036207077 0 -0.034293780288574355 -9.5178157826169169e-05 0 -0.034295269260313253 -6.2060821767501661e-05 0 -0.034289064484645415 -6.8855737318116545e-05 0 -0.034791306209791026 -4.3853567426213087e-05 0 -0.034814683652650801 -3.8900799200958739e-05 0 -0.034539791549406514 -0.00015104838980391951 0 -0.034754067468602129 -1.2159930015271273e-05 0 -0.034854546218227006 -2.8542427381592463e-05 0 -0.034289064484645415 -6.8855737318116545e-05 0 -0.034290796918537626 -6.5898560295337468e-05 0 -0.034283774915520919 -7.5343536695166025e-05 0 -0.034295269260313253 -6.2060821767501661e-05 0 -0.034289064484645415 -6.8855737318116545e-05 0 -0.034283774915520919 -7.5343536695166025e-05 0 -0.034960669043046538 -2.1574361537772631e-05 0 -0.034854546218227006 -2.8542427381592463e-05 0 -0.034998407129299615 -9.6773760777815965e-06 0 -0.034754067468602129 -1.2159930015271273e-05 0 -0.034854546218227006 -2.8542427381592463e-05 0 -0.034998407129299615 -9.6773760777815965e-06 0 -0.034567462252214305 -4.8133639587255629e-05 0 -0.034644059917029138 -4.8254307878287063e-05 0 -0.034293780288574355 -9.5178157826169169e-05 0 -0.034289064484645415 -6.8855737318116545e-05 0 -0.034290796918537626 -6.5898560295337468e-05 0 -0.034290796918537626 -6.5898560295337468e-05 0 -0.034300411432556924 -4.6696898249340795e-05 0 -0.034296173165657619 -8.6721198393541489e-05 0 -0.034293780288574355 -9.5178157826169169e-05 0 -0.034290796918537626 -6.5898560295337468e-05 0 -0.034296173165657619 -8.6721198393541489e-05 0 -0.034290796918537626 -6.5898560295337468e-05 0 -0.034300411432556924 -4.6696898249340795e-05 0 -0.034300380378074709 -5.4634541411439497e-05 0 -0.034300411432556924 -4.6696898249340795e-05 0 -0.034300380378074709 -5.4634541411439497e-05 0 -0.034324362806450702 -2.2204018853009648e-05 0 -0.034290796918537626 -6.5898560295337468e-05 0 -0.034300380378074709 -5.4634541411439497e-05 0 -0.034283774915520919 -7.5343536695166025e-05 0 -0.034300380378074709 -5.4634541411439497e-05 0 -0.034283774915520919 -7.5343536695166025e-05 0 -0.034328155108954303 -6.462809820056433e-05 0 -0.034307244912481022 -0.00010364926903781904 0 -0.034314880638791012 -0.00014851886991163401 0 -0.034310968471487714 -0.00016748500249260195 0 -0.034307244912481022 -0.00010364926903781904 0 -0.03430503053207247 -8.3149171632326461e-05 0 -0.034314880638791012 -0.00014851886991163401 0 -0.034300411432556924 -4.6696898249340795e-05 0 -0.03430503053207247 -8.3149171632326461e-05 0 -0.034296173165657619 -8.6721198393541489e-05 0 -0.034307244912481022 -0.00010364926903781904 0 -0.03430503053207247 -8.3149171632326461e-05 0 -0.034297628079548656 -9.4456714273108753e-06 0 -0.034300411432556924 -4.6696898249340795e-05 0 -0.03430503053207247 -8.3149171632326461e-05 0 -0.034297628079548656 -9.4456714273108753e-06 0 -0.034293780288574355 -9.5178157826169169e-05 0 -0.034297516894490482 -0.00012437227058246416 0 -0.034296173165657619 -8.6721198393541489e-05 0 -0.03430503053207247 -8.3149171632326461e-05 0 -0.034297516894490482 -0.00012437227058246416 0 -0.034296173165657619 -8.6721198393541489e-05 0 -0.03430503053207247 -8.3149171632326461e-05 0 -0.034297516894490482 -0.00012437227058246416 0 -0.034314880638791012 -0.00014851886991163401 0 -0.034297516894490482 -0.00012437227058246416 0 -0.034269889921523973 -0.00016802361016436746 0 -0.034314880638791012 -0.00014851886991163401 0 -0.034297516894490482 -0.00012437227058246416 0 -0.034292629921150328 -0.00014017246400097421 0 -0.034269889921523973 -0.00016802361016436746 0 -0.034293780288574355 -9.5178157826169169e-05 0 -0.034292629921150328 -0.00014017246400097421 0 -0.034320260715062403 -0.0001243159036207077 0 -0.034293780288574355 -9.5178157826169169e-05 0 -0.034297516894490482 -0.00012437227058246416 0 -0.034292629921150328 -0.00014017246400097421 0 -0.034292629921150328 -0.00014017246400097421 0 -0.034320260715062403 -0.0001243159036207077 0 -0.034264053834730003 -0.00017220144197841055 0 -0.034292629921150328 -0.00014017246400097421 0 -0.034269889921523973 -0.00016802361016436746 0 -0.034264053834730003 -0.00017220144197841055 0 -0.034090549351888065 -0.00016437254537767355 0 -0.034269889921523973 -0.00016802361016436746 0 -0.034264053834730003 -0.00017220144197841055 0 -0.034090549351888065 -0.00016437254537767355 0 -0.032753183895293803 -0.00012994639249632061 0 -0.033464169495811207 -0.00068043537369238906 0 -0.034090549351888065 -0.00016437254537767355 0 -0.034297781193403765 -0.000367722485234789 0 -0.033464169495811207 -0.00068043537369238906 0 -0.03379603388756551 -0.00023579185595888147 0 -0.033610370795532384 -0.00026467302674221954 0 -0.032753183895293803 -0.00012994639249632061 0 -0.032148863313165042 -0.00054291287932760747 0 -0.033464169495811207 -0.00068043537369238906 0 -0.034090549351888065 -0.00016437254537767355 0 -0.034286401877584437 -0.00012992488119255234 0 -0.034269889921523973 -0.00016802361016436746 0 -0.034286401877584437 -0.00012992488119255234 0 -0.034269889921523973 -0.00016802361016436746 0 -0.034314880638791012 -0.00014851886991163401 0 -0.034286401877584437 -0.00012992488119255234 0 -0.034314880638791012 -0.00014851886991163401 0 -0.034322698377556748 -0.0002004455930440345 0 -0.032753183895293803 -0.00012994639249632061 0 -0.032148863313165042 -0.00054291287932760747 0 -0.032145726289208192 -0.00058237559441720631 0 -0.033610370795532384 -0.00026467302674221954 0 -0.033430492363583197 -0.00034825496245968041 0 -0.032148863313165042 -0.00054291287932760747 0 -0.032145726289208192 -0.00058237559441720631 0 -0.032280478473543164 -0.00037366192599764555 0 -0.034314880638791012 -0.00014851886991163401 0 -0.034322698377556748 -0.0002004455930440345 0 -0.034310968471487714 -0.00016748500249260195 0 -0.034423149249723541 -0.00018909911058843205 0 -0.034416313736506228 -0.00016388905004250141 0 -0.034317015126121495 -0.00021957313526335453 0 -0.034276785173136502 -0.00022655337569223131 0 -0.034280732875433831 -0.00022674754639004968 0 -0.034417934023892066 -0.00017421683960143971 0 -0.034423149249723541 -0.00018909911058843205 0 -0.034416313736506228 -0.00016388905004250141 0 -0.034408886564723976 -0.00017727314151830148 0 -0.034417934023892066 -0.00017421683960143971 0 -0.034423149249723541 -0.00018909911058843205 0 -0.034488374449474106 -0.00016343952170889503 0 -0.034416313736506228 -0.00016388905004250141 0 -0.034354510065670543 -0.00015394899487991326 0 -0.034320260715062403 -0.0001243159036207077 0 -0.034354510065670543 -0.00015394899487991326 0 -0.034264053834730003 -0.00017220144197841055 0 -0.034399467966492021 -8.212414284918188e-05 0 -0.034320260715062403 -0.0001243159036207077 0 -0.034354510065670543 -0.00015394899487991326 0 -0.034264053834730003 -0.00017220144197841055 0 -0.034317015126121495 -0.00021957313526335453 0 -0.03424528125743688 -0.00018801102715417431 0 -0.034354510065670543 -0.00015394899487991326 0 -0.034264053834730003 -0.00017220144197841055 0 -0.034317015126121495 -0.00021957313526335453 0 -0.034416313736506228 -0.00016388905004250141 0 -0.034354510065670543 -0.00015394899487991326 0 -0.034317015126121495 -0.00021957313526335453 0 -0.034317015126121495 -0.00021957313526335453 0 -0.03424528125743688 -0.00018801102715417431 0 -0.034267529574487129 -0.0002413639829776972 0 -0.034090549351888065 -0.00016437254537767355 0 -0.034264053834730003 -0.00017220144197841055 0 -0.03424528125743688 -0.00018801102715417431 0 -0.034090549351888065 -0.00016437254537767355 0 -0.03424528125743688 -0.00018801102715417431 0 -0.034297781193403765 -0.000367722485234789 0 -0.034267529574487129 -0.0002413639829776972 0 -0.034196149322969327 -0.00018632884510190215 0 -0.034297781193403765 -0.000367722485234789 0 -0.03424528125743688 -0.00018801102715417431 0 -0.034267529574487129 -0.0002413639829776972 0 -0.034297781193403765 -0.000367722485234789 0 -0.034267529574487129 -0.0002413639829776972 0 -0.034123088497789882 -0.0002528502480942346 0 -0.034196149322969327 -0.00018632884510190215 0 -0.034145794604012063 -0.00029423880168543732 0 -0.034267529574487129 -0.0002413639829776972 0 -0.034123088497789882 -0.0002528502480942346 0 -0.034145794604012063 -0.00029423880168543732 0 -0.034317015126121495 -0.00021957313526335453 0 -0.034267529574487129 -0.0002413639829776972 0 -0.034073003254746104 -0.0002631833237825682 0 -0.034031992553974065 -0.00025493414657992854 0 -0.034123088497789882 -0.0002528502480942346 0 -0.034073003254746104 -0.0002631833237825682 0 -0.034145794604012063 -0.00029423880168543732 0 -0.034123088497789882 -0.0002528502480942346 0 -0.033229669046697087 -0.00051762065175126439 0 -0.033042875097954096 3.914480364858052e-05 0 -0.033905233384275202 -0.00020964662213074643 0 -0.034123088497789882 -0.0002528502480942346 0 -0.034196149322969327 -0.00018632884510190215 0 -0.033905233384275202 -0.00020964662213074643 0 -0.033499420354268304 -0.00021426470282974287 0 -0.033692143331525003 -0.00021226611110994185 0 -0.033229669046697087 -0.00051762065175126439 0 -0.033436838978415671 -0.0006809238720937458 0 -0.033684370431393489 -0.00049393811559072652 0 -0.033229669046697087 -0.00051762065175126439 0 -0.033905233384275202 -0.00020964662213074643 0 -0.033684370431393489 -0.00049393811559072652 0 -0.033229669046697087 -0.00051762065175126439 0 -0.033042875097954096 3.914480364858052e-05 0 -0.032505729748704325 -0.00047189776890057552 0 -0.033229669046697087 -0.00051762065175126439 0 -0.032505729748704325 -0.00047189776890057552 0 -0.0328340499284124 -0.00097255750577588177 0 -0.033499420354268304 -0.00021426470282974287 0 -0.033066278690930075 -0.00026985073574979776 0 -0.033042875097954096 3.914480364858052e-05 0 -0.031902461262474507 2.3486197321969377e-05 0 -0.032505729748704325 -0.00047189776890057552 0 -0.031902461262474507 2.3486197321969377e-05 0 -0.031822103842186214 -0.00048916535054742004 0 -0.031450294263519793 -0.00034406358587248613 0 -0.031822103842186214 -0.00048916535054742004 0 -0.032505729748704325 -0.00047189776890057552 0 -0.032261402200506016 -0.00095569513963963428 0 -0.031902461262474507 2.3486197321969377e-05 0 -0.031822103842186214 -0.00048916535054742004 0 -0.032505729748704325 -0.00047189776890057552 0 -0.032505729748704325 -0.00047189776890057552 0 -0.032261402200506016 -0.00095569513963963428 0 -0.0328340499284124 -0.00097255750577588177 0 -0.032261402200506016 -0.00095569513963963428 0 -0.032626660779383101 -0.0013428328460361855 0 -0.032153519993961294 -0.0015095789468858745 0 -0.032261402200506016 -0.00095569513963963428 0 -0.032626660779383101 -0.0013428328460361855 0 -0.0328340499284124 -0.00097255750577588177 0 -0.031822103842186214 -0.00048916535054742004 0 -0.031721614119182326 -0.0011473598985980908 0 -0.031191779938333462 -0.00053673291496830115 0 -0.031822103842186214 -0.00048916535054742004 0 -0.032261402200506016 -0.00095569513963963428 0 -0.031721614119182326 -0.0011473598985980908 0 -0.032261402200506016 -0.00095569513963963428 0 -0.031721614119182326 -0.0011473598985980908 0 -0.032153519993961294 -0.0015095789468858745 0 -0.031721614119182326 -0.0011473598985980908 0 -0.031690218198502131 -0.0018557703873792377 0 -0.031100350743551674 -0.0016104902771065203 0 -0.031721614119182326 -0.0011473598985980908 0 -0.031690218198502131 -0.0018557703873792377 0 -0.032153519993961294 -0.0015095789468858745 0 -0.031690218198502131 -0.0018557703873792377 0 -0.032153519993961294 -0.0015095789468858745 0 -0.032068697827407913 -0.0020779860240619495 0 -0.032626660779383101 -0.0013428328460361855 0 -0.032153519993961294 -0.0015095789468858745 0 -0.03283657657239699 -0.0018611368988518044 0 -0.027502079348152932 -0.0022137483967201218 0 -0.027206849378516862 -0.0027055146338261305 0 -0.032153519993961294 -0.0015095789468858745 0 -0.03283657657239699 -0.0018611368988518044 0 -0.032068697827407913 -0.0020779860240619495 0 -0.027502079348152932 -0.0022137483967201218 0 -0.029452140821307385 -0.00079523802739249819 0 -0.03283657657239699 -0.0018611368988518044 0 -0.033062277283058002 -0.0013930367428208693 0 -0.033598021864919142 -0.0016705285965626709 0 -0.032626660779383101 -0.0013428328460361855 0 -0.03283657657239699 -0.0018611368988518044 0 -0.033062277283058002 -0.0013930367428208693 0 -0.020854221226684472 -0.0057304154251932027 0 -0.019535544462824815 -0.0060465297778523157 0 -0.020036337577612393 -0.0050999757914766538 0 -0.029452140821307385 -0.00079523802739249819 0 -0.030484654398414683 -0.0011848228572065866 0 -0.033062277283058002 -0.0013930367428208693 0 -0.033598021864919142 -0.0016705285965626709 0 -0.033411640308836622 -0.0011104024591964 0 -0.033541251389435596 -0.0008457994145471793 0 -0.033436838978415671 -0.0006809238720937458 0 -0.033694616432726129 -0.00063160498837334185 0 -0.033436838978415671 -0.0006809238720937458 0 -0.033684370431393489 -0.00049393811559072652 0 -0.033694616432726129 -0.00063160498837334185 0 -0.03076860037478097 -0.0012042881633967928 0 -0.030484654398414683 -0.0011848228572065866 0 -0.033229669046697087 -0.00051762065175126439 0 -0.033411640308836622 -0.0011104024591964 0 -0.0328340499284124 -0.00097255750577588177 0 -0.032626660779383101 -0.0013428328460361855 0 -0.033062277283058002 -0.0013930367428208693 0 -0.0328340499284124 -0.00097255750577588177 0 -0.033062277283058002 -0.0013930367428208693 0 -0.033411640308836622 -0.0011104024591964 0 -0.0328340499284124 -0.00097255750577588177 0 -0.029465486577708432 -0.00073076923078955547 0 -0.028738328427701632 -0.0014840714544230266 0 -0.028603139246529644 -0.0012548270879315848 0 -0.032280478473543164 -0.00037366192599764555 0 -0.031881610799555038 -7.1473365641729715e-05 0 -0.032524075541338335 1.2758099578087592e-05 0 -0.030943222605685446 -0.00063596337796261284 0 -0.03083046119821051 -0.0007650658119215415 0 -0.032148863313165042 -0.00054291287932760747 0 -0.031881610799555038 -7.1473365641729715e-05 0 -0.031702386112528944 -0.00033475100429014663 0 -0.032148863313165042 -0.00054291287932760747 0 -0.032280478473543164 -0.00037366192599764555 0 -0.031881610799555038 -7.1473365641729715e-05 0 -0.030943222605685446 -0.00063596337796261284 0 -0.031141433005154696 -0.00062566921286052644 0 -0.031881610799555038 -7.1473365641729715e-05 0 -0.031702386112528944 -0.00033475100429014663 0 -0.031191779938333462 -0.00053673291496830115 0 -0.032148863313165042 -0.00054291287932760747 0 -0.031702386112528944 -0.00033475100429014663 0 -0.031441813007440172 -0.00037426527393732598 0 -0.031702386112528944 -0.00033475100429014663 0 -0.031441813007440172 -0.00037426527393732598 0 -0.031450294263519793 -0.00034406358587248613 0 -0.032383774975585637 -0.00039534568319633291 0 -0.032596014839992998 -0.00036141890349442756 0 -0.031902461262474507 2.3486197321969377e-05 0 -0.031441813007440172 -0.00037426527393732598 0 -0.031450294263519793 -0.00034406358587248613 0 -0.033066278690930075 -0.00026985073574979776 0 -0.032596014839992998 -0.00036141890349442756 0 -0.031702386112528944 -0.00033475100429014663 0 -0.031450294263519793 -0.00034406358587248613 0 -0.031191779938333462 -0.00053673291496830115 0 -0.031822103842186214 -0.00048916535054742004 0 -0.031450294263519793 -0.00034406358587248613 0 -0.031191779938333462 -0.00053673291496830115 0 -0.031721614119182326 -0.0011473598985980908 0 -0.031191779938333462 -0.00053673291496830115 0 -0.031100350743551674 -0.0016104902771065203 0 -0.031191779938333462 -0.00053673291496830115 0 -0.031100350743551674 -0.0016104902771065203 0 -0.030209336525406385 -0.0015210462727418639 0 -0.031690218198502131 -0.0018557703873792377 0 -0.031100350743551674 -0.0016104902771065203 0 -0.031184537957078151 -0.0024060895391434288 0 -0.031100350743551674 -0.0016104902771065203 0 -0.030474520281954277 -0.0020241332834623916 0 -0.031184537957078151 -0.0024060895391434288 0 -0.031100350743551674 -0.0016104902771065203 0 -0.030474520281954277 -0.0020241332834623916 0 -0.030209336525406385 -0.0015210462727418639 0 -0.030474520281954277 -0.0020241332834623916 0 -0.030209336525406385 -0.0015210462727418639 0 -0.029769916620114384 -0.002088886902267616 0 -0.029465486577708432 -0.00073076923078955547 0 -0.031191779938333462 -0.00053673291496830115 0 -0.030209336525406385 -0.0015210462727418639 0 -0.029465486577708432 -0.00073076923078955547 0 -0.030209336525406385 -0.0015210462727418639 0 -0.029291893919906862 -0.001732605875961144 0 -0.030209336525406385 -0.0015210462727418639 0 -0.029291893919906862 -0.001732605875961144 0 -0.029769916620114384 -0.002088886902267616 0 -0.029291893919906862 -0.001732605875961144 0 -0.028738328427701632 -0.0014840714544230266 0 -0.028412108559057989 -0.0018702446042075046 0 -0.029465486577708432 -0.00073076923078955547 0 -0.029291893919906862 -0.001732605875961144 0 -0.028738328427701632 -0.0014840714544230266 0 -0.027060986288019329 -0.0024407665859949336 0 -0.027126986080457625 -0.0019008993844602832 0 -0.028043937220151589 -0.0021819557817151524 0 -0.028152022036183676 -0.0024452880859037979 0 -0.028176064457164939 -0.0024038731984468193 0 -0.028988396134432676 -0.0024596305758355585 0 -0.028412108559057989 -0.0018702446042075046 0 -0.028043937220151589 -0.0021819557817151524 0 -0.029291893919906862 -0.001732605875961144 0 -0.028988396134432676 -0.0024596305758355585 0 -0.028412108559057989 -0.0018702446042075046 0 -0.028152022036183676 -0.0024452880859037979 0 -0.028048479437510241 -0.002524035175755268 0 -0.028988396134432676 -0.0024596305758355585 0 -0.029769916620114384 -0.002088886902267616 0 -0.03004502399633965 -0.0025776177522135843 0 -0.029291893919906862 -0.001732605875961144 0 -0.028988396134432676 -0.0024596305758355585 0 -0.029769916620114384 -0.002088886902267616 0 -0.027060986288019329 -0.0024407665859949336 0 -0.026725948790519781 -0.0021316201490673356 0 -0.026406719330574518 -0.002564982557532475 0 -0.027060986288019329 -0.0024407665859949336 0 -0.026725948790519781 -0.0021316201490673356 0 -0.027126986080457625 -0.0019008993844602832 0 -0.026725948790519781 -0.0021316201490673356 0 -0.026276614541259281 -0.0021752400225764318 0 -0.026406719330574518 -0.002564982557532475 0 -0.030474520281954277 -0.0020241332834623916 0 -0.03004502399633965 -0.0025776177522135843 0 -0.031184537957078151 -0.0024060895391434288 0 -0.026276614541259281 -0.0021752400225764318 0 -0.026406719330574518 -0.002564982557532475 0 -0.025765086541106548 -0.002720042475260137 0 -0.030474520281954277 -0.0020241332834623916 0 -0.029769916620114384 -0.002088886902267616 0 -0.03004502399633965 -0.0025776177522135843 0 -0.028048479437510241 -0.002524035175755268 0 -0.027421383748049005 -0.0027007395365343614 0 -0.024557523492028544 -0.0039316355132330153 0 -0.023515659643172458 -0.003984370100154489 0 -0.023861651761331738 -0.0034788643909241732 0 -0.02623627667184962 -0.003072227323831151 0 -0.027421383748049005 -0.0027007395365343614 0 -0.024557523492028544 -0.0039316355132330153 0 -0.023472985807145158 -0.0050784477550581304 0 -0.023515659643172458 -0.003984370100154489 0 -0.023097886448934932 -0.0022781858496351021 0 -0.0242769422840915 -0.0028745933949254287 0 -0.022817346264271846 -0.0032284714081027336 0 -0.024091370431209132 -0.0028816346121160442 0 -0.022917086726779577 -0.0031836016463419334 0 -0.023861651761331738 -0.0034788643909241732 0 -0.024371907608491634 -0.0028306083759385512 0 -0.022998428786106619 -0.0031690486121515398 0 -0.023515659643172458 -0.003984370100154489 0 -0.023861651761331738 -0.0034788643909241732 0 -0.022998428786106619 -0.0031690486121515398 0 -0.023097886448934932 -0.0022781858496351021 0 -0.023958494533296324 -0.0019532647477178543 0 -0.0242769422840915 -0.0028745933949254287 0 -0.023097886448934932 -0.0022781858496351021 0 -0.023958494533296324 -0.0019532647477178543 0 -0.023272902526875829 -0.0014226598713336358 0 -0.023958494533296324 -0.0019532647477178543 0 -0.024743524461261556 -0.0021787560501738846 0 -0.0242769422840915 -0.0028745933949254287 0 -0.024743524461261556 -0.0021787560501738846 0 -0.0242769422840915 -0.0028745933949254287 0 -0.025793873757353265 -0.0024189465929077367 0 -0.023958494533296324 -0.0019532647477178543 0 -0.024750912059305383 -0.0016091292107775106 0 -0.024743524461261556 -0.0021787560501738846 0 -0.024750912059305383 -0.0016091292107775106 0 -0.024743524461261556 -0.0021787560501738846 0 -0.025282287170300455 -0.0019122120315497649 0 -0.02623627667184962 -0.003072227323831151 0 -0.026445629693015012 -0.0024596056622512509 0 -0.024091370431209132 -0.0028816346121160442 0 -0.024731750643598456 -0.0027123249869339091 0 -0.024557523492028544 -0.0039316355132330153 0 -0.024371907608491634 -0.0028306083759385512 0 -0.025677888850842143 -0.0028105309114219092 0 -0.024557523492028544 -0.0039316355132330153 0 -0.023861651761331738 -0.0034788643909241732 0 -0.024371907608491634 -0.0028306083759385512 0 -0.026725948790519781 -0.0021316201490673356 0 -0.026276614541259281 -0.0021752400225764318 0 -0.026831448406424818 -0.0016319589154841878 0 -0.026725948790519781 -0.0021316201490673356 0 -0.026831448406424818 -0.0016319589154841878 0 -0.027126986080457625 -0.0019008993844602832 0 -0.024371907608491634 -0.0028306083759385512 0 -0.025677888850842143 -0.0028105309114219092 0 -0.025793873757353265 -0.0024189465929077367 0 -0.026831448406424818 -0.0016319589154841878 0 -0.027062642009051296 -0.0016049561872699422 0 -0.027126986080457625 -0.0019008993844602832 0 -0.025889127048114077 -0.0017587810198798504 0 -0.025793873757353265 -0.0024189465929077367 0 -0.02692147562181876 -0.0013109992974249295 0 -0.025889127048114077 -0.0017587810198798504 0 -0.02692147562181876 -0.0013109992974249295 0 -0.025583139107841952 -0.0013878725816386472 0 -0.024743524461261556 -0.0021787560501738846 0 -0.025282287170300455 -0.0019122120315497649 0 -0.025793873757353265 -0.0024189465929077367 0 -0.025282287170300455 -0.0019122120315497649 0 -0.025889127048114077 -0.0017587810198798504 0 -0.025793873757353265 -0.0024189465929077367 0 -0.025677888850842143 -0.0028105309114219092 0 -0.025793873757353265 -0.0024189465929077367 0 -0.02692147562181876 -0.0013109992974249295 0 -0.024750912059305383 -0.0016091292107775106 0 -0.025282287170300455 -0.0019122120315497649 0 -0.025583139107841952 -0.0013878725816386472 0 -0.025282287170300455 -0.0019122120315497649 0 -0.025889127048114077 -0.0017587810198798504 0 -0.025583139107841952 -0.0013878725816386472 0 -0.026831448406424818 -0.0016319589154841878 0 -0.02692147562181876 -0.0013109992974249295 0 -0.027062642009051296 -0.0016049561872699422 0 -0.02692147562181876 -0.0013109992974249295 0 -0.027374227069774052 -0.001653766084887252 0 -0.027062642009051296 -0.0016049561872699422 0 -0.026445629693015012 -0.0024596056622512509 0 -0.026713646939905175 -0.0020522878100987223 0 -0.027374227069774052 -0.001653766084887252 0 -0.027126986080457625 -0.0019008993844602832 0 -0.028043937220151589 -0.0021819557817151524 0 -0.027374227069774052 -0.001653766084887252 0 -0.027062642009051296 -0.0016049561872699422 0 -0.027126986080457625 -0.0019008993844602832 0 -0.021127552178852746 -0.0036387646873333752 0 -0.021751476614896296 -0.00347916617074922 0 -0.020108895686411169 -0.0038769996609083839 0 -0.021217747219831693 -0.0046606450692642841 0 -0.021579359652232143 -0.0035103245011992652 0 -0.020108895686411169 -0.0038769996609083839 0 -0.019330694149481704 -0.0034232850793150717 0 -0.019045557742512549 -0.0047150877668123451 0 -0.020108895686411169 -0.0038769996609083839 0 -0.020036337577612393 -0.0050999757914766538 0 -0.019045557742512549 -0.0047150877668123451 0 -0.029452140821307385 -0.00079523802739249819 0 -0.027879181648495881 -0.0017624491015121623 0 -0.019535544462824815 -0.0060465297778523157 0 -0.020036337577612393 -0.0050999757914766538 0 -0.019045557742512549 -0.0047150877668123451 0 -0.020854221226684472 -0.0057304154251932027 0 -0.020036337577612393 -0.0050999757914766538 0 -0.021217747219831693 -0.0046606450692642841 0 -0.020108895686411169 -0.0038769996609083839 0 -0.020036337577612393 -0.0050999757914766538 0 -0.021217747219831693 -0.0046606450692642841 0 -0.021217747219831693 -0.0046606450692642841 0 -0.022175672261655555 -0.0054062733192205021 0 -0.022563591763341051 -0.0042911863942760387 0 -0.020854221226684472 -0.0057304154251932027 0 -0.021217747219831693 -0.0046606450692642841 0 -0.022175672261655555 -0.0054062733192205021 0 -0.031690218198502131 -0.0018557703873792377 0 -0.03127004759006536 -0.0022932521898433554 0 -0.032068697827407913 -0.0020779860240619495 0 -0.023472985807145158 -0.0050784477550581304 0 -0.022175672261655555 -0.0054062733192205021 0 -0.022563591763341051 -0.0042911863942760387 0 -0.027421383748049005 -0.0027007395365343614 0 -0.027206849378516862 -0.0027055146338261305 0 -0.028256506400575965 -0.0021389525666920713 0 -0.027421383748049005 -0.0027007395365343614 0 -0.022563591763341051 -0.0042911863942760387 0 -0.021579359652232143 -0.0035103245011992652 0 -0.022998428786106619 -0.0031690486121515398 0 -0.023515659643172458 -0.003984370100154489 0 -0.022563591763341051 -0.0042911863942760387 0 -0.022998428786106619 -0.0031690486121515398 0 -0.023472985807145158 -0.0050784477550581304 0 -0.023515659643172458 -0.003984370100154489 0 -0.022563591763341051 -0.0042911863942760387 0 -0.021217747219831693 -0.0046606450692642841 0 -0.022563591763341051 -0.0042911863942760387 0 -0.021579359652232143 -0.0035103245011992652 0 -0.021432416329263012 -0.0035309019865480697 0 -0.021931928409447941 -0.0025810318826710388 0 -0.020834785879181365 -0.002760107612168564 0 -0.021432416329263012 -0.0035309019865480697 0 -0.022817346264271846 -0.0032284714081027336 0 -0.021931928409447941 -0.0025810318826710388 0 -0.021751476614896296 -0.00347916617074922 0 -0.022917086726779577 -0.0031836016463419334 0 -0.023097886448934932 -0.0022781858496351021 0 -0.022817346264271846 -0.0032284714081027336 0 -0.021931928409447941 -0.0025810318826710388 0 -0.023097886448934932 -0.0022781858496351021 0 -0.021931928409447941 -0.0025810318826710388 0 -0.022240108443021839 -0.0016429852311200398 0 -0.023097886448934932 -0.0022781858496351021 0 -0.022240108443021839 -0.0016429852311200398 0 -0.023272902526875829 -0.0014226598713336358 0 -0.021931928409447941 -0.0025810318826710388 0 -0.021253760091822782 -0.0019480377113666614 0 -0.020834785879181365 -0.002760107612168564 0 -0.021931928409447941 -0.0025810318826710388 0 -0.021253760091822782 -0.0019480377113666614 0 -0.022240108443021839 -0.0016429852311200398 0 -0.021253760091822782 -0.0019480377113666614 0 -0.020355142140067149 -0.0019870194491026288 0 -0.020620614191974314 -0.0013282454211840545 0 -0.020355142140067149 -0.0019870194491026288 0 -0.020834785879181365 -0.002760107612168564 0 -0.01991109019977777 -0.0026394686424095794 0 -0.021253760091822782 -0.0019480377113666614 0 -0.020355142140067149 -0.0019870194491026288 0 -0.020834785879181365 -0.002760107612168564 0 -0.020108895686411169 -0.0038769996609083839 0 -0.021432416329263012 -0.0035309019865480697 0 -0.020834785879181365 -0.002760107612168564 0 -0.020108895686411169 -0.0038769996609083839 0 -0.020834785879181365 -0.002760107612168564 0 -0.01991109019977777 -0.0026394686424095794 0 -0.020108895686411169 -0.0038769996609083839 0 -0.019330694149481704 -0.0034232850793150717 0 -0.01991109019977777 -0.0026394686424095794 0 -0.019330694149481704 -0.0034232850793150717 0 -0.01991109019977777 -0.0026394686424095794 0 -0.019015332228303757 -0.0025080130134379564 0 -0.01991109019977777 -0.0026394686424095794 0 -0.019635029505093351 -0.001992140280782219 0 -0.019015332228303757 -0.0025080130134379564 0 -0.019635029505093351 -0.001992140280782219 0 -0.018984694928182572 -0.0016794042360601634 0 -0.019015332228303757 -0.0025080130134379564 0 -0.020355142140067149 -0.0019870194491026288 0 -0.01991109019977777 -0.0026394686424095794 0 -0.019635029505093351 -0.001992140280782219 0 -0.020355142140067149 -0.0019870194491026288 0 -0.019635029505093351 -0.001992140280782219 0 -0.019910468902295045 -0.0012031115923782048 0 -0.019635029505093351 -0.001992140280782219 0 -0.018984694928182572 -0.0016794042360601634 0 -0.019910468902295045 -0.0012031115923782048 0 -0.01977175974478745 -0.00072856280543320015 0 -0.020268678777719193 -0.00058590303782808846 0 -0.019688080527177146 -0.00089178401300031866 0 -0.020528347788026629 -0.00059250707042436473 0 -0.020268678777719193 -0.00058590303782808846 0 -0.019688080527177146 -0.00089178401300031866 0 -0.022928335326431071 -0.0028402345672687368 0 -0.025833975718091109 -0.0024925059323400176 0 -0.01977175974478745 -0.00072856280543320015 0 -0.020268678777719193 -0.00058590303782808846 0 -0.020236101250395749 -0.00049185863002098457 0 -0.018984694928182572 -0.0016794042360601634 0 -0.019015332228303757 -0.0025080130134379564 0 -0.018088289146817465 -0.0020796401711253845 0 -0.020528347788026629 -0.00059250707042436473 0 -0.020185681485237975 -0.00048340727115189823 0 -0.021239104755385478 0.00012550212187989565 0 -0.025833975718091109 -0.0024925059323400176 0 -0.027496539323665976 -0.00086660051913039213 0 -0.019325813671267275 -0.00045476946307429798 0 -0.019415242289029223 -0.00056820932337977215 0 -0.019427367506415723 -0.00048216575434648995 0 -0.019325813671267275 -0.00045476946307429798 0 -0.01955606192090598 -0.00034352050021030947 0 -0.019427367506415723 -0.00048216575434648995 0 -0.020528347788026629 -0.00059250707042436473 0 -0.020268678777719193 -0.00058590303782808846 0 -0.020185681485237975 -0.00048340727115189823 0 -0.025797611459353643 -0.0024435796165720321 0 -0.025833975718091109 -0.0024925059323400176 0 -0.033889719735212265 -0.00040612412079132085 0 -0.033898063028742952 -0.00041110404379285571 0 -0.033908749719581736 -0.00041677121553725175 0 -0.033889719735212265 -0.00040612412079132085 0 -0.033898063028742952 -0.00041110404379285571 0 -0.033887076268300544 -0.00040315492451337853 0 -0.033898063028742952 -0.00041110404379285571 0 -0.033903069316683 -0.00041730618536216181 0 -0.03389358338780054 -0.00040795652266842136 0 -0.019015332228303757 -0.0025080130134379564 0 -0.018088289146817465 -0.0020796401711253845 0 -0.018560780128314035 -0.0033929860909911098 0 -0.025833975718091109 -0.0024925059323400176 0 -0.026706649383112634 -0.0019599912390345199 0 -0.019330694149481704 -0.0034232850793150717 0 -0.019015332228303757 -0.0025080130134379564 0 -0.018560780128314035 -0.0033929860909911098 0 -0.033908749719581736 -0.00041677121553725175 0 -0.033911515687269959 -0.00042560761581191014 0 -0.033922109080508731 -0.00043937197950820792 0 -0.026706649383112634 -0.0019599912390345199 0 -0.027879181648495881 -0.0017624491015121623 0 -0.019330694149481704 -0.0034232850793150717 0 -0.018560780128314035 -0.0033929860909911098 0 -0.019045557742512549 -0.0047150877668123451 0 -0.033898063028742952 -0.00041110404379285571 0 -0.033908749719581736 -0.00041677121553725175 0 -0.033911515687269959 -0.00042560761581191014 0 -0.033903069316683 -0.00041730618536216181 0 -0.033911515687269959 -0.00042560761581191014 0 -0.033921063042846797 -0.00044090847696020007 0 -0.033898063028742952 -0.00041110404379285571 0 -0.033903069316683 -0.00041730618536216181 0 -0.033911515687269959 -0.00042560761581191014 0 -0.033903069316683 -0.00041730618536216181 0 -0.033921063042846797 -0.00044090847696020007 0 -0.033909773585798587 -0.00042732972159238383 0 -0.033921063042846797 -0.00044090847696020007 0 -0.033909773585798587 -0.00042732972159238383 0 -0.033932275764576345 -0.00045265913580479087 0 -0.033921063042846797 -0.00044090847696020007 0 -0.033922109080508731 -0.00043937197950820792 0 -0.033923978614496232 -0.00044709163361777705 0 -0.033920522564099553 -0.00044968750616892849 0 -0.033922109080508731 -0.00043937197950820792 0 -0.033923978614496232 -0.00044709163361777705 0 -0.033911515687269959 -0.00042560761581191014 0 -0.033921063042846797 -0.00044090847696020007 0 -0.033922109080508731 -0.00043937197950820792 0 -0.033888438786737946 -0.00041302530149720743 0 -0.033862479223814614 -0.00042024691347940311 0 -0.03391269816260397 -0.0004430310157088906 0 -0.033909773585798587 -0.00042732972159238383 0 -0.033888438786737946 -0.00041302530149720743 0 -0.03391269816260397 -0.0004430310157088906 0 -0.033909773585798587 -0.00042732972159238383 0 -0.033932275764576345 -0.00045265913580479087 0 -0.03391269816260397 -0.0004430310157088906 0 -0.033909773585798587 -0.00042732972159238383 0 -0.033888516364222486 -0.00040437371306016194 0 -0.033888438786737946 -0.00041302530149720743 0 -0.033903069316683 -0.00041730618536216181 0 -0.033909773585798587 -0.00042732972159238383 0 -0.033888516364222486 -0.00040437371306016194 0 -0.033903069316683 -0.00041730618536216181 0 -0.033888516364222486 -0.00040437371306016194 0 -0.03389358338780054 -0.00040795652266842136 0 -0.033888516364222486 -0.00040437371306016194 0 -0.033876385880752299 -0.00039921089143786471 0 -0.033866350460932323 -0.00038578432794596115 0 -0.033888516364222486 -0.00040437371306016194 0 -0.033888438786737946 -0.00041302530149720743 0 -0.033876385880752299 -0.00039921089143786471 0 -0.033888438786737946 -0.00041302530149720743 0 -0.033876385880752299 -0.00039921089143786471 0 -0.033858039150564338 -0.00039680543592074239 0 -0.021742809771321502 0.00013894027301685204 0 -0.021239104755385478 0.00012550212187989565 0 -0.022356096939895573 0.00078394615888144662 0 -0.021742809771321502 0.00013894027301685204 0 -0.022939202689436927 0.00094644524226829166 0 -0.022356096939895573 0.00078394615888144662 0 -0.027496539323665976 -0.00086660051913039213 0 -0.028170154589596975 -6.299399088211697e-05 0 -0.021023720835461467 0.00031130537532311818 0 -0.02228057346623397 0.0010599242085363079 0 -0.033888516364222486 -0.00040437371306016194 0 -0.033887076268300544 -0.00040315492451337853 0 -0.033866350460932323 -0.00038578432794596115 0 -0.033898063028742952 -0.00041110404379285571 0 -0.03389358338780054 -0.00040795652266842136 0 -0.033887076268300544 -0.00040315492451337853 0 -0.033888516364222486 -0.00040437371306016194 0 -0.03389358338780054 -0.00040795652266842136 0 -0.033887076268300544 -0.00040315492451337853 0 -0.019325813671267275 -0.00045476946307429798 0 -0.019787959994041832 0.00035771484747255602 0 -0.01955606192090598 -0.00034352050021030947 0 -0.020212196236678939 -0.00024577300044314868 0 -0.021023720835461467 0.00031130537532311818 0 -0.020528347788026629 -0.00059250707042436473 0 -0.021742809771321502 0.00013894027301685204 0 -0.021239104755385478 0.00012550212187989565 0 -0.019787959994041832 0.00035771484747255602 0 -0.01955606192090598 -0.00034352050021030947 0 -0.019818085564823125 -0.00029604036926103317 0 -0.01955606192090598 -0.00034352050021030947 0 -0.019818085564823125 -0.00029604036926103317 0 -0.019642966700173924 -0.00047104265713905809 0 -0.020350118556131606 0.00010110406932886585 0 -0.019818085564823125 -0.00029604036926103317 0 -0.021785029608374615 -0.00090291922895355736 0 -0.019787959994041832 0.00035771484747255602 0 -0.020350118556131606 0.00010110406932886585 0 -0.021144014489369527 0.00029953633619297161 0 -0.019787959994041832 0.00035771484747255602 0 -0.020350118556131606 0.00010110406932886585 0 -0.019818085564823125 -0.00029604036926103317 0 -0.021144014489369527 0.00029953633619297161 0 -0.022320253588661673 0.0003694689938486713 0 -0.021785029608374615 -0.00090291922895355736 0 -0.020622844714179647 -0.00033131861026439261 0 -0.021277547193161262 -0.00047870169720134938 0 -0.020350118556131606 0.00010110406932886585 0 -0.021144014489369527 0.00029953633619297161 0 -0.021785029608374615 -0.00090291922895355736 0 -0.0229684571184058 -0.00037816183623029748 0 -0.022320253588661673 0.0003694689938486713 0 -0.021785029608374615 -0.00090291922895355736 0 -0.0229684571184058 -0.00037816183623029748 0 -0.022320253588661673 0.0003694689938486713 0 -0.02358043950917468 0.00045528094879399163 0 -0.022320253588661673 0.0003694689938486713 0 -0.022984438490586723 0.0011411153099647382 0 -0.02358043950917468 0.00045528094879399163 0 -0.022320253588661673 0.0003694689938486713 0 -0.022984438490586723 0.0011411153099647382 0 -0.021685440636308933 0.0014013652489054868 0 -0.019787959994041832 0.00035771484747255602 0 -0.021144014489369527 0.00029953633619297161 0 -0.021685440636308933 0.0014013652489054868 0 -0.021144014489369527 0.00029953633619297161 0 -0.022320253588661673 0.0003694689938486713 0 -0.021685440636308933 0.0014013652489054868 0 -0.024451775547118852 -0.00020241094622998299 0 -0.02358043950917468 0.00045528094879399163 0 -0.024536983863830901 0.00086888115443011372 0 -0.025198739997215707 0.00054052775471363312 0 -0.024451775547118852 -0.00020241094622998299 0 -0.024536983863830901 0.00086888115443011372 0 -0.0229684571184058 -0.00037816183623029748 0 -0.024451775547118852 -0.00020241094622998299 0 -0.02358043950917468 0.00045528094879399163 0 -0.022984438490586723 0.0011411153099647382 0 -0.023888691630401273 0.0012826015656944969 0 -0.02358043950917468 0.00045528094879399163 0 -0.023888691630401273 0.0012826015656944969 0 -0.02358043950917468 0.00045528094879399163 0 -0.024536983863830901 0.00086888115443011372 0 -0.023888691630401273 0.0012826015656944969 0 -0.024536983863830901 0.00086888115443011372 0 -0.024667732124825523 0.0016215172036277224 0 -0.025365732569412512 0.001494342666128911 0 -0.024536983863830901 0.00086888115443011372 0 -0.024667732124825523 0.0016215172036277224 0 -0.025159358156451851 0.0026677866246660725 0 -0.024532672123479492 0.002050682055570908 0 -0.023501374205200744 0.0021027855484230091 0 -0.025144814483104905 0.0020868944754019536 0 -0.024667732124825523 0.0016215172036277224 0 -0.024532672123479492 0.002050682055570908 0 -0.023888691630401273 0.0012826015656944969 0 -0.024667732124825523 0.0016215172036277224 0 -0.02415676147512719 0.0017776498971166209 0 -0.024667732124825523 0.0016215172036277224 0 -0.02415676147512719 0.0017776498971166209 0 -0.024532672123479492 0.002050682055570908 0 -0.029082305502813995 0.00097635467956644286 0 -0.028659629896006081 0.0004950262073510212 0 -0.03371258095963002 -0.00036566444622270741 0 -0.033810807153886832 -0.00036921044227544042 0 -0.033787628444408087 -0.00039778821562200115 0 -0.024059656289254449 0.0018002396883774739 0 -0.024436327865214026 0.0022136382958268018 0 -0.023421235160287317 0.0014809820057522416 0 -0.02415676147512719 0.0017776498971166209 0 -0.024532672123479492 0.002050682055570908 0 -0.023501374205200744 0.0021027855484230091 0 -0.023888691630401273 0.0012826015656944969 0 -0.02415676147512719 0.0017776498971166209 0 -0.023501374205200744 0.0021027855484230091 0 -0.022984438490586723 0.0011411153099647382 0 -0.023888691630401273 0.0012826015656944969 0 -0.023501374205200744 0.0021027855484230091 0 -0.03371258095963002 -0.00036566444622270741 0 -0.033787628444408087 -0.00039778821562200115 0 -0.033755542781071166 -0.00044248355997444661 0 -0.033584687927575317 -0.00041976368953133744 0 -0.03371258095963002 -0.00036566444622270741 0 -0.033755542781071166 -0.00044248355997444661 0 -0.024300132485307928 0.0021476993990398969 0 -0.023571371959986886 0.0017671753429476639 0 -0.033550187880319014 -0.00040979321583021068 0 -0.033584687927575317 -0.00041976368953133744 0 -0.03371258095963002 -0.00036566444622270741 0 -0.029424961894315229 0.0014532267926787991 0 -0.029082305502813995 0.00097635467956644286 0 -0.02546427515170625 0.0029332870216168356 0 -0.025159358156451851 0.0026677866246660725 0 -0.024436327865214026 0.0022136382958268018 0 -0.03051356831978333 0.0013665063993913156 0 -0.032568439906611006 0.0007068271324127916 0 -0.025159358156451851 0.0026677866246660725 0 -0.024059656289254449 0.0018002396883774739 0 -0.024436327865214026 0.0022136382958268018 0 -0.025144814483104905 0.0020868944754019536 0 -0.025159358156451851 0.0026677866246660725 0 -0.024532672123479492 0.002050682055570908 0 -0.022939202689436927 0.00094644524226829166 0 -0.022356096939895573 0.00078394615888144662 0 -0.023421235160287317 0.0014809820057522416 0 -0.033866350460932323 -0.00038578432794596115 0 -0.033858039150564338 -0.00039680543592074239 0 -0.033810807153886832 -0.00036921044227544042 0 -0.028170154589596975 -6.299399088211697e-05 0 -0.028659629896006081 0.0004950262073510212 0 -0.033858039150564338 -0.00039680543592074239 0 -0.033810807153886832 -0.00036921044227544042 0 -0.033828621959247997 -0.00039920792405539476 0 -0.033876385880752299 -0.00039921089143786471 0 -0.033866350460932323 -0.00038578432794596115 0 -0.033858039150564338 -0.00039680543592074239 0 -0.022984438490586723 0.0011411153099647382 0 -0.021685440636308933 0.0014013652489054868 0 -0.023501374205200744 0.0021027855484230091 0 -0.022939202689436927 0.00094644524226829166 0 -0.024059656289254449 0.0018002396883774739 0 -0.023421235160287317 0.0014809820057522416 0 -0.02228057346623397 0.0010599242085363079 0 -0.023571371959986886 0.0017671753429476639 0 -0.033810807153886832 -0.00036921044227544042 0 -0.033828621959247997 -0.00039920792405539476 0 -0.033787628444408087 -0.00039778821562200115 0 -0.033787628444408087 -0.00039778821562200115 0 -0.033813627508853611 -0.00042145307292037424 0 -0.033755542781071166 -0.00044248355997444661 0 -0.033828621959247997 -0.00039920792405539476 0 -0.033787628444408087 -0.00039778821562200115 0 -0.033813627508853611 -0.00042145307292037424 0 -0.033813627508853611 -0.00042145307292037424 0 -0.033862479223814614 -0.00042024691347940311 0 -0.033838059434404766 -0.00044370920935974534 0 -0.033828621959247997 -0.00039920792405539476 0 -0.033813627508853611 -0.00042145307292037424 0 -0.033862479223814614 -0.00042024691347940311 0 -0.033858039150564338 -0.00039680543592074239 0 -0.033828621959247997 -0.00039920792405539476 0 -0.033862479223814614 -0.00042024691347940311 0 -0.033888438786737946 -0.00041302530149720743 0 -0.033858039150564338 -0.00039680543592074239 0 -0.033862479223814614 -0.00042024691347940311 0 -0.033882086034866796 -0.00044903633919759253 0 -0.033838059434404766 -0.00044370920935974534 0 -0.033828976350745645 -0.00049814539118065966 0 -0.033862479223814614 -0.00042024691347940311 0 -0.033882086034866796 -0.00044903633919759253 0 -0.033838059434404766 -0.00044370920935974534 0 -0.033813627508853611 -0.00042145307292037424 0 -0.033797568247747885 -0.00045453921848733674 0 -0.033755542781071166 -0.00044248355997444661 0 -0.033813627508853611 -0.00042145307292037424 0 -0.033838059434404766 -0.00044370920935974534 0 -0.033797568247747885 -0.00045453921848733674 0 -0.033838059434404766 -0.00044370920935974534 0 -0.033797568247747885 -0.00045453921848733674 0 -0.033828976350745645 -0.00049814539118065966 0 -0.033797568247747885 -0.00045453921848733674 0 -0.033828976350745645 -0.00049814539118065966 0 -0.033766256943237864 -0.00046383917537213561 0 -0.033882086034866796 -0.00044903633919759253 0 -0.033828976350745645 -0.00049814539118065966 0 -0.033942480860334308 -0.00046964449097232743 0 -0.033884900043012797 -0.00045152482334612405 0 -0.03390438300773705 -0.00045125659939114791 0 -0.033737544667107086 -0.00043933027365388816 0 -0.033749336777607469 -0.00045129031268386363 0 -0.033755542781071166 -0.00044248355997444661 0 -0.033749336777607469 -0.00045129031268386363 0 -0.033755542781071166 -0.00044248355997444661 0 -0.033766256943237864 -0.00046383917537213561 0 -0.033797568247747885 -0.00045453921848733674 0 -0.033755542781071166 -0.00044248355997444661 0 -0.033766256943237864 -0.00046383917537213561 0 -0.033828976350745645 -0.00049814539118065966 0 -0.033766256943237864 -0.00046383917537213561 0 -0.033767660503793984 -0.00048374360636272622 0 -0.033766256943237864 -0.00046383917537213561 0 -0.033755630901476971 -0.00046482103663267647 0 -0.033767660503793984 -0.00048374360636272622 0 -0.03375944242059075 -0.00046286221268756296 0 -0.033743675710272932 -0.00045294100835295629 0 -0.033755630901476971 -0.00046482103663267647 0 -0.033749336777607469 -0.00045129031268386363 0 -0.033766256943237864 -0.00046383917537213561 0 -0.033755630901476971 -0.00046482103663267647 0 -0.033743675710272932 -0.00045294100835295629 0 -0.033749336777607469 -0.00045129031268386363 0 -0.033755630901476971 -0.00046482103663267647 0 -0.033812364079369196 -0.00046105767011816925 0 -0.033841410061843248 -0.00045551930483981283 0 -0.03375944242059075 -0.00046286221268756296 0 -0.033755630901476971 -0.00046482103663267647 0 -0.033767660503793984 -0.00048374360636272622 0 -0.03375944242059075 -0.00046286221268756296 0 -0.033726521807308653 -0.00047042877940723228 0 -0.033871574569716727 -0.00047355584458019838 0 -0.03375944242059075 -0.00046286221268756296 0 -0.033890954802027709 -0.00040304902380283204 0 -0.033871574569716727 -0.00047355584458019838 0 -0.033890954802027709 -0.00040304902380283204 0 -0.033871574569716727 -0.00047355584458019838 0 -0.03394600516642244 -0.00042496838527288999 0 -0.033442035512002657 -0.00037797157590483278 0 -0.033537705667001518 -0.00022125662033414996 0 -0.033692120583723721 -0.00027170329688632351 0 -0.03293260733879106 0.000705589401569135 0 -0.033184132586539433 0.00049518610562732904 0 -0.031382378553189844 0.00096736520199273274 0 -0.033424255388460895 9.7329415529593132e-05 0 -0.033442035512002657 -0.00037797157590483278 0 -0.033537705667001518 -0.00022125662033414996 0 -0.033349967222489563 -0.00026901783475100717 0 -0.033197553920280044 -0.00032530765634592449 0 -0.033442035512002657 -0.00037797157590483278 0 -0.033349967222489563 -0.00026901783475100717 0 -0.033220633731718609 -0.00015103069838203885 0 -0.033537705667001518 -0.00022125662033414996 0 -0.033349967222489563 -0.00026901783475100717 0 -0.033979852359325914 -0.00040895780087506667 0 -0.033980191389128805 -0.00041577374053017031 0 -0.033965729886031103 -0.00043607623193104732 0 -0.033979852359325914 -0.00040895780087506667 0 -0.033976532284800444 -0.0004200288299153074 0 -0.033980191389128805 -0.00041577374053017031 0 -0.033976532284800444 -0.0004200288299153074 0 -0.033980191389128805 -0.00041577374053017031 0 -0.0339829812179182 -0.00040976603452553775 0 -0.033884900043012797 -0.00045152482334612405 0 -0.033841410061843248 -0.00045551930483981283 0 -0.033979852359325914 -0.00040895780087506667 0 -0.033976532284800444 -0.0004200288299153074 0 -0.03394600516642244 -0.00042496838527288999 0 -0.033979852359325914 -0.00040895780087506667 0 -0.033890954802027709 -0.00040304902380283204 0 -0.03394600516642244 -0.00042496838527288999 0 -0.033537705667001518 -0.00022125662033414996 0 -0.033692120583723721 -0.00027170329688632351 0 -0.033816106907962967 -0.00029031680337650171 0 -0.033424255388460895 9.7329415529593132e-05 0 -0.033825712644356035 -0.00016829243237681126 0 -0.033976532284800444 -0.0004200288299153074 0 -0.03394600516642244 -0.00042496838527288999 0 -0.033978443304325055 -0.00043764212139223965 0 -0.033871574569716727 -0.00047355584458019838 0 -0.03394600516642244 -0.00042496838527288999 0 -0.033978443304325055 -0.00043764212139223965 0 -0.033748458726284639 -0.00036942969391698437 0 -0.033692120583723721 -0.00027170329688632351 0 -0.033816106907962967 -0.00029031680337650171 0 -0.033825712644356035 -0.00016829243237681126 0 -0.033913811043048747 -0.00023346758579900932 0 -0.033978443304325055 -0.00043764212139223965 0 -0.0339829812179182 -0.00040976603452553775 0 -0.033981914327602336 -0.00036815859273746897 0 -0.033976532284800444 -0.0004200288299153074 0 -0.033978443304325055 -0.00043764212139223965 0 -0.0339829812179182 -0.00040976603452553775 0 -0.0339829812179182 -0.00040976603452553775 0 -0.033981914327602336 -0.00036815859273746897 0 -0.033984095981755259 -0.00039634826628844798 0 -0.033980191389128805 -0.00041577374053017031 0 -0.0339829812179182 -0.00040976603452553775 0 -0.033984095981755259 -0.00039634826628844798 0 -0.033984095981755259 -0.00039634826628844798 0 -0.033978355692670582 -0.00042385060514400536 0 -0.033965729886031103 -0.00043607623193104732 0 -0.033980191389128805 -0.00041577374053017031 0 -0.033984095981755259 -0.00039634826628844798 0 -0.033965729886031103 -0.00043607623193104732 0 -0.033984095981755259 -0.00039634826628844798 0 -0.033978355692670582 -0.00042385060514400536 0 -0.034020745527866679 -0.00032777961956680351 0 -0.033981914327602336 -0.00036815859273746897 0 -0.033984095981755259 -0.00039634826628844798 0 -0.034020745527866679 -0.00032777961956680351 0 -0.034000490403221749 -0.0002557476508973007 0 -0.034020745527866679 -0.00032777961956680351 0 -0.033905233384275202 -0.00020964662213074643 0 -0.033905233384275202 -0.00020964662213074643 0 -0.033684370431393489 -0.00049393811559072652 0 -0.033914282239342869 -0.00046523926421410453 0 -0.034020745527866679 -0.00032777961956680351 0 -0.033905233384275202 -0.00020964662213074643 0 -0.033914282239342869 -0.00046523926421410453 0 -0.033978355692670582 -0.00042385060514400536 0 -0.034020745527866679 -0.00032777961956680351 0 -0.033914282239342869 -0.00046523926421410453 0 -0.033914282239342869 -0.00046523926421410453 0 -0.03384215198422811 -0.00068262274923850601 0 -0.033955125144199683 -0.00049063900288498171 0 -0.033684370431393489 -0.00049393811559072652 0 -0.033914282239342869 -0.00046523926421410453 0 -0.033694616432726129 -0.00063160498837334185 0 -0.033914282239342869 -0.00046523926421410453 0 -0.033694616432726129 -0.00063160498837334185 0 -0.03384215198422811 -0.00068262274923850601 0 -0.029452140821307385 -0.00079523802739249819 0 -0.032582020273563855 -0.00034631035596152714 0 -0.033921063042846797 -0.00044090847696020007 0 -0.033923978614496232 -0.00044709163361777705 0 -0.033929102741622148 -0.00045516476946849601 0 -0.033541251389435596 -0.0008457994145471793 0 -0.033694616432726129 -0.00063160498837334185 0 -0.03384215198422811 -0.00068262274923850601 0 -0.033920522564099553 -0.00044968750616892849 0 -0.033923978614496232 -0.00044709163361777705 0 -0.033929102741622148 -0.00045516476946849601 0 -0.033921063042846797 -0.00044090847696020007 0 -0.033929102741622148 -0.00045516476946849601 0 -0.033932275764576345 -0.00045265913580479087 0 -0.033929102741622148 -0.00045516476946849601 0 -0.033932275764576345 -0.00045265913580479087 0 -0.033955125144199683 -0.00049063900288498171 0 -0.032582020273563855 -0.00034631035596152714 0 -0.033216424456272195 -0.00027900632760656204 0 -0.033932275764576345 -0.00045265913580479087 0 -0.03391269816260397 -0.0004430310157088906 0 -0.033955125144199683 -0.00049063900288498171 0 -0.03391269816260397 -0.0004430310157088906 0 -0.033942480860334308 -0.00046964449097232743 0 -0.033955125144199683 -0.00049063900288498171 0 -0.033882086034866796 -0.00044903633919759253 0 -0.03391269816260397 -0.0004430310157088906 0 -0.033942480860334308 -0.00046964449097232743 0 -0.033862479223814614 -0.00042024691347940311 0 -0.033882086034866796 -0.00044903633919759253 0 -0.03391269816260397 -0.0004430310157088906 0 -0.033979852359325914 -0.00040895780087506667 0 -0.033942480860334308 -0.00046964449097232743 0 -0.033965729886031103 -0.00043607623193104732 0 -0.033942480860334308 -0.00046964449097232743 0 -0.033965729886031103 -0.00043607623193104732 0 -0.033955125144199683 -0.00049063900288498171 0 -0.033978355692670582 -0.00042385060514400536 0 -0.033965729886031103 -0.00043607623193104732 0 -0.033955125144199683 -0.00049063900288498171 0 -0.033978355692670582 -0.00042385060514400536 0 -0.033914282239342869 -0.00046523926421410453 0 -0.033955125144199683 -0.00049063900288498171 0 -0.028020855026195033 0.0003553151719172023 0 -0.026469118965943408 8.4730950067851264e-07 0 -0.02853484341506066 4.9297764455269852e-07 0 -0.028020855026195033 0.0003553151719172023 0 -0.028904892141820071 0.0003454477980966655 0 -0.02853484341506066 4.9297764455269852e-07 0 -0.028020855026195033 0.0003553151719172023 0 -0.026469118965943408 8.4730950067851264e-07 0 -0.026867622577513319 6.6977369248175309e-05 0 -0.028020855026195033 0.0003553151719172023 0 -0.027904580118424636 7.7797621168912057e-05 0 -0.026867622577513319 6.6977369248175309e-05 0 -0.028020855026195033 0.0003553151719172023 0 -0.028805028240164832 0.00027746810268770812 0 -0.027904580118424636 7.7797621168912057e-05 0 -0.028020855026195033 0.0003553151719172023 0 -0.028805028240164832 0.00027746810268770812 0 -0.028769889599275497 0.00054919707886281078 0 -0.028805028240164832 0.00027746810268770812 0 -0.028769889599275497 0.00054919707886281078 0 -0.028946372193857178 0.00060796054340511534 0 -0.028946372193857178 0.00060796054340511534 0 -0.028978329412669607 0.00032123369014703038 0 -0.029107128305913638 0.0008204568405514389 0 -0.028769889599275497 0.00054919707886281078 0 -0.028946372193857178 0.00060796054340511534 0 -0.028978329412669607 0.00032123369014703038 0 -0.028769889599275497 0.00054919707886281078 0 -0.029343299699399739 0.00029666975866914677 0 -0.028978329412669607 0.00032123369014703038 0 -0.028769889599275497 0.00054919707886281078 0 -0.029343299699399739 0.00029666975866914677 0 -0.028904892141820071 0.0003454477980966655 0 -0.028020855026195033 0.0003553151719172023 0 -0.028769889599275497 0.00054919707886281078 0 -0.028904892141820071 0.0003454477980966655 0 -0.028904892141820071 0.0003454477980966655 0 -0.02853484341506066 4.9297764455269852e-07 0 -0.030602600495816968 1.3292124154650437e-06 0 -0.029343299699399739 0.00029666975866914677 0 -0.028904892141820071 0.0003454477980966655 0 -0.030602600495816968 1.3292124154650437e-06 0 -0.029343299699399739 0.00029666975866914677 0 -0.030602600495816968 1.3292124154650437e-06 0 -0.030018418689943444 -0.00022421952165475122 0 -0.033731318956014042 -0.00029467607220570025 0 -0.033532495684515835 0.00012100537328989215 0 -0.033886689410323217 1.4550743552228438e-05 0 -0.030602600495816968 1.3292124154650437e-06 0 -0.030018418689943444 -0.00022421952165475122 0 -0.032665573035303271 -2.347130779431977e-06 0 -0.03200982208953148 0.00013597959365986358 0 -0.032668257622497962 8.2558504466019256e-08 0 -0.033731318956014042 -0.00029467607220570025 0 -0.03267135221556508 -7.8613301638279769e-07 0 -0.033532495684515835 0.00012100537328989215 0 -0.033789508811627823 8.134742098190553e-07 0 -0.033532495684515835 0.00012100537328989215 0 -0.033687619158529379 0.00015670435004052258 0 -0.035004870038871469 -3.105459823026301e-06 0 -0.035000114279128386 6.8165031109694124e-08 0 -0.034999778407475104 -1.4151993898113203e-07 0 -0.03267135221556508 -7.8613301638279769e-07 0 -0.033789508811627823 8.134742098190553e-07 0 -0.033532495684515835 0.00012100537328989215 0 -0.033532495684515835 0.00012100537328989215 0 -0.033687619158529379 0.00015670435004052258 0 -0.033886689410323217 1.4550743552228438e-05 0 -0.034568733569907632 8.6426441929298131e-05 0 -0.034999409636486171 5.0984471490516154e-08 0 -0.033789508811627823 8.134742098190553e-07 0 -0.033687619158529379 0.00015670435004052258 0 -0.034996902016219522 -6.5472316309200738e-07 0 -0.034957475875097205 -4.1760774968502646e-05 0 -0.034999778407475104 -1.4151993898113203e-07 0 -0.034996235429649469 -5.0732776615376351e-06 0 -0.034911439640930346 -2.5862594462571217e-05 0 -0.034917763265087151 -2.1238263106989906e-05 0 -0.034957475875097205 -4.1760774968502646e-05 0 -0.034770831863541171 -6.3885420794384244e-05 0 -0.034868416898919466 9.0715544645473956e-06 0 -0.034957475875097205 -4.1760774968502646e-05 0 -0.034770831863541171 -6.3885420794384244e-05 0 -0.034667465160218132 -8.7885920709132324e-05 0 -0.035004870038871469 -3.105459823026301e-06 0 -0.034957475875097205 -4.1760774968502646e-05 0 -0.034868416898919466 9.0715544645473956e-06 0 -0.035004870038871469 -3.105459823026301e-06 0 -0.034957475875097205 -4.1760774968502646e-05 0 -0.034999778407475104 -1.4151993898113203e-07 0 -0.033687619158529379 0.00015670435004052258 0 -0.033886689410323217 1.4550743552228438e-05 0 -0.034172445121522566 7.4120659028304207e-05 0 -0.033886689410323217 1.4550743552228438e-05 0 -0.034172445121522566 7.4120659028304207e-05 0 -0.034102548068041194 -8.7940590622980104e-05 0 -0.034568733569907632 8.6426441929298131e-05 0 -0.03453258791521438 3.6617861176270064e-05 0 -0.034172445121522566 7.4120659028304207e-05 0 -0.034279732699477393 -0.00011854040168567326 0 -0.034102548068041194 -8.7940590622980104e-05 0 -0.034279732699477393 -0.00011854040168567326 0 -0.034102548068041194 -8.7940590622980104e-05 0 -0.034153722776587361 -0.00021914400683566401 0 -0.033731318956014042 -0.00029467607220570025 0 -0.033886689410323217 1.4550743552228438e-05 0 -0.034102548068041194 -8.7940590622980104e-05 0 -0.033731318956014042 -0.00029467607220570025 0 -0.034102548068041194 -8.7940590622980104e-05 0 -0.034153722776587361 -0.00021914400683566401 0 -0.03200982208953148 0.00013597959365986358 0 -0.031802026328101474 0.00025346469232598036 0 -0.029343299699399739 0.00029666975866914677 0 -0.030018418689943444 -0.00022421952165475122 0 -0.028978329412669607 0.00032123369014703038 0 -0.031802026328101474 0.00025346469232598036 0 -0.031846314387385617 0.00040719953603187499 0 -0.034279732699477393 -0.00011854040168567326 0 -0.034153722776587361 -0.00021914400683566401 0 -0.034359950810792274 5.7652391394635902e-05 0 -0.034279732699477393 -0.00011854040168567326 0 -0.034281933885239223 -6.4101855329048191e-05 0 -0.034359950810792274 5.7652391394635902e-05 0 -0.034281933885239223 -6.4101855329048191e-05 0 -0.034039772170940438 1.0971647890743917e-05 0 -0.034359950810792274 5.7652391394635902e-05 0 -0.034039772170940438 1.0971647890743917e-05 0 -0.033756540612168727 0.00020207025192955046 0 -0.034359950810792274 5.7652391394635902e-05 0 -0.034281933885239223 -6.4101855329048191e-05 0 -0.034039772170940438 1.0971647890743917e-05 0 -0.034160355623332327 -0.0001294001343753073 0 -0.034281933885239223 -6.4101855329048191e-05 0 -0.034160355623332327 -0.0001294001343753073 0 -0.034413988952514102 -0.00010576705252117398 0 -0.034160355623332327 -0.0001294001343753073 0 -0.034413988952514102 -0.00010576705252117398 0 -0.034517555740135909 -0.00022029029762754215 0 -0.034172445121522566 7.4120659028304207e-05 0 -0.034279732699477393 -0.00011854040168567326 0 -0.034413988952514102 -0.00010576705252117398 0 -0.034279732699477393 -0.00011854040168567326 0 -0.034281933885239223 -6.4101855329048191e-05 0 -0.034413988952514102 -0.00010576705252117398 0 -0.03453258791521438 3.6617861176270064e-05 0 -0.034527337496586208 3.2011403980774793e-06 0 -0.034868416898919466 9.0715544645473956e-06 0 -0.034413988952514102 -0.00010576705252117398 0 -0.034607954578516426 -0.00014224474582464234 0 -0.034770831863541171 -6.3885420794384244e-05 0 -0.034868416898919466 9.0715544645473956e-06 0 -0.034607954578516426 -0.00014224474582464234 0 -0.034999778407475104 -1.4151993898113203e-07 0 -0.035000062518661716 3.5744472485372587e-08 0 -0.034996235429649469 -5.0732776615376351e-06 0 -0.034413988952514102 -0.00010576705252117398 0 -0.034607954578516426 -0.00014224474582464234 0 -0.034517555740135909 -0.00022029029762754215 0 -0.034607954578516426 -0.00014224474582464234 0 -0.034998731175439807 2.9397021252980348e-08 0 -0.034667465160218132 -8.7885920709132324e-05 0 -0.034607954578516426 -0.00014224474582464234 0 -0.034517555740135909 -0.00022029029762754215 0 -0.034998731175439807 2.9397021252980348e-08 0 -0.034999888018251976 -3.7958355953685293e-08 0 -0.034917763265087151 -2.1238263106989906e-05 0 -0.034770831863541171 -6.3885420794384244e-05 0 -0.034607954578516426 -0.00014224474582464234 0 -0.034667465160218132 -8.7885920709132324e-05 0 -0.035000203095817584 -2.7572298358603865e-08 0 -0.034890935030039719 -7.2498273066127038e-05 0 -0.034966504335799044 -4.4136037502524265e-05 0 -0.034998731175439807 2.9397021252980348e-08 0 -0.035000203095817584 -2.7572298358603865e-08 0 -0.034890935030039719 -7.2498273066127038e-05 0 -0.034517555740135909 -0.00022029029762754215 0 -0.034998731175439807 2.9397021252980348e-08 0 -0.034890935030039719 -7.2498273066127038e-05 0 -0.034517555740135909 -0.00022029029762754215 0 -0.034890935030039719 -7.2498273066127038e-05 0 -0.034865190246143679 -0.00021026077942367687 0 -0.034890935030039719 -7.2498273066127038e-05 0 -0.034946164276599301 -0.00012333710044036954 0 -0.034966504335799044 -4.4136037502524265e-05 0 -0.034091617759262866 -5.705164319325766e-05 0 -0.033991639300141402 3.1230792031973743e-05 0 -0.034890935030039719 -7.2498273066127038e-05 0 -0.034865190246143679 -0.00021026077942367687 0 -0.034946164276599301 -0.00012333710044036954 0 -0.034865190246143679 -0.00021026077942367687 0 -0.034947176956359773 -0.00011790429199964562 0 -0.034946164276599301 -0.00012333710044036954 0 -0.034160355623332327 -0.0001294001343753073 0 -0.034517555740135909 -0.00022029029762754215 0 -0.033517470501766504 -0.0002649746568375568 0 -0.0341474766304906 -8.7029076658214779e-05 0 -0.034091617759262866 -5.705164319325766e-05 0 -0.034160355623332327 -0.0001294001343753073 0 -0.033517470501766504 -0.0002649746568375568 0 -0.033568494554469155 2.8429729713774284e-05 0 -0.034039772170940438 1.0971647890743917e-05 0 -0.034160355623332327 -0.0001294001343753073 0 -0.033568494554469155 2.8429729713774284e-05 0 -0.034039772170940438 1.0971647890743917e-05 0 -0.033568494554469155 2.8429729713774284e-05 0 -0.033756540612168727 0.00020207025192955046 0 -0.033517470501766504 -0.0002649746568375568 0 -0.03315688140863482 0.00013035022885764773 0 -0.032980721954050302 7.2467345941788929e-06 0 -0.033517470501766504 -0.0002649746568375568 0 -0.033568494554469155 2.8429729713774284e-05 0 -0.03315688140863482 0.00013035022885764773 0 -0.033568494554469155 2.8429729713774284e-05 0 -0.03315688140863482 0.00013035022885764773 0 -0.033083641819041998 0.0002288280334771305 0 -0.032140225190363872 0.00051763581756198709 0 -0.032008881748058687 0.00076956761621441952 0 -0.033083641819041998 0.0002288280334771305 0 -0.03315688140863482 0.00013035022885764773 0 -0.033064550347507653 0.00025929957244487443 0 -0.032950932585079501 0.00018665127053939465 0 -0.03315688140863482 0.00013035022885764773 0 -0.033064550347507653 0.00025929957244487443 0 -0.033083641819041998 0.0002288280334771305 0 -0.032596212241267943 -0.0001885349671294393 0 -0.03266093996722641 -0.00015426052811448195 0 -0.032008881748058687 0.00076956761621441952 0 -0.030718163858588256 0.00048812972590236216 0 -0.031321247459567068 0.00024294944240970886 0 -0.032008881748058687 0.00076956761621441952 0 -0.030718163858588256 0.00048812972590236216 0 -0.030090811789943977 0.0011155663235251261 0 -0.032096678957779165 0.00053482184785749644 0 -0.032001028872489241 0.00051812886368889002 0 -0.030718163858588256 0.00048812972590236216 0 -0.030090811789943977 0.0011155663235251261 0 -0.029970853964162276 0.00041723637550190808 0 -0.032008881748058687 0.00076956761621441952 0 -0.033083641819041998 0.0002288280334771305 0 -0.033791289977682576 0.00057494597551226905 0 -0.033568494554469155 2.8429729713774284e-05 0 -0.033083641819041998 0.0002288280334771305 0 -0.033756540612168727 0.00020207025192955046 0 -0.033083641819041998 0.0002288280334771305 0 -0.033756540612168727 0.00020207025192955046 0 -0.033791289977682576 0.00057494597551226905 0 -0.033756540612168727 0.00020207025192955046 0 -0.033791289977682576 0.00057494597551226905 0 -0.034359950810792274 5.7652391394635902e-05 0 -0.030090811789943977 0.0011155663235251261 0 -0.029107128305913638 0.0008204568405514389 0 -0.029297419997886386 0.0005766056508714919 0 -0.028805028240164832 0.00027746810268770812 0 -0.028946372193857178 0.00060796054340511534 0 -0.029297419997886386 0.0005766056508714919 0 -0.032001028872489241 0.00051812886368889002 0 -0.031846314387385617 0.00040719953603187499 0 -0.028946372193857178 0.00060796054340511534 0 -0.029107128305913638 0.0008204568405514389 0 -0.029297419997886386 0.0005766056508714919 0 -0.030090811789943977 0.0011155663235251261 0 -0.029297419997886386 0.0005766056508714919 0 -0.029970853964162276 0.00041723637550190808 0 -0.029651025803140073 -0.0001573981738801571 0 -0.030276132119229866 -0.00059582303794425808 0 -0.030460271812674737 1.2434906448118983e-05 0 -0.029297419997886386 0.0005766056508714919 0 -0.029970853964162276 0.00041723637550190808 0 -0.029651025803140073 -0.0001573981738801571 0 -0.029970853964162276 0.00041723637550190808 0 -0.029651025803140073 -0.0001573981738801571 0 -0.030460271812674737 1.2434906448118983e-05 0 -0.028886053334483488 -0.00043820274967086055 0 -0.029297419997886386 0.0005766056508714919 0 -0.029651025803140073 -0.0001573981738801571 0 -0.028794461379113272 -9.2496964337445702e-05 0 -0.029034776439220013 0.00031395946260558762 0 -0.028886053334483488 -0.00043820274967086055 0 -0.029651025803140073 -0.0001573981738801571 0 -0.029683988494667125 -0.000912925826452238 0 -0.029651025803140073 -0.0001573981738801571 0 -0.030276132119229866 -0.00059582303794425808 0 -0.029683988494667125 -0.000912925826452238 0 -0.030276132119229866 -0.00059582303794425808 0 -0.030319473523479336 -0.0010695417087629713 0 -0.029683988494667125 -0.000912925826452238 0 -0.030276132119229866 -0.00059582303794425808 0 -0.031000352052622124 -0.00025965700064295395 0 -0.03080973363113158 -0.0010876376012888967 0 -0.030276132119229866 -0.00059582303794425808 0 -0.03080973363113158 -0.0010876376012888967 0 -0.030319473523479336 -0.0010695417087629713 0 -0.030526765605237986 -0.0012802286141069352 0 -0.030490441250836678 -0.0011074539133029233 0 -0.03080973363113158 -0.0010876376012888967 0 -0.031702895773364326 -0.00081021698037004556 0 -0.031440693573180391 -0.00096151140215104767 0 -0.03209949634703748 0.00020257405464457884 0 -0.031000352052622124 -0.00025965700064295395 0 -0.03080973363113158 -0.0010876376012888967 0 -0.030526765605237986 -0.0012802286141069352 0 -0.030454069984751263 -0.0015189647507428529 0 -0.03080973363113158 -0.0010876376012888967 0 -0.03209949634703748 0.00020257405464457884 0 -0.031321247459567068 0.00024294944240970886 0 -0.031000352052622124 -0.00025965700064295395 0 -0.032008881748058687 0.00076956761621441952 0 -0.03209949634703748 0.00020257405464457884 0 -0.031321247459567068 0.00024294944240970886 0 -0.030718163858588256 0.00048812972590236216 0 -0.031321247459567068 0.00024294944240970886 0 -0.030460271812674737 1.2434906448118983e-05 0 -0.030718163858588256 0.00048812972590236216 0 -0.029970853964162276 0.00041723637550190808 0 -0.030460271812674737 1.2434906448118983e-05 0 -0.030276132119229866 -0.00059582303794425808 0 -0.030460271812674737 1.2434906448118983e-05 0 -0.031000352052622124 -0.00025965700064295395 0 -0.031321247459567068 0.00024294944240970886 0 -0.030460271812674737 1.2434906448118983e-05 0 -0.031000352052622124 -0.00025965700064295395 0 -0.029999515773544396 -0.0014562524285806925 0 -0.030038084027763059 -0.0015345350420497815 0 -0.030085317238555065 -0.0016102622106026689 0 -0.029999515773544396 -0.0014562524285806925 0 -0.03018941125917235 -0.0015665189162883896 0 -0.030085317238555065 -0.0016102622106026689 0 -0.029999515773544396 -0.0014562524285806925 0 -0.030038084027763059 -0.0015345350420497815 0 -0.030052455664628479 -0.0015587031948250127 0 -0.030038084027763059 -0.0015345350420497815 0 -0.030042748420926819 -0.0015739620386678794 0 -0.030085317238555065 -0.0016102622106026689 0 -0.030454069984751263 -0.0015189647507428529 0 -0.03018941125917235 -0.0015665189162883896 0 -0.030324484335916422 -0.0014140390686727374 0 -0.030526765605237986 -0.0012802286141069352 0 -0.030454069984751263 -0.0015189647507428529 0 -0.030324484335916422 -0.0014140390686727374 0 -0.029999515773544396 -0.0014562524285806925 0 -0.03018941125917235 -0.0015665189162883896 0 -0.030324484335916422 -0.0014140390686727374 0 -0.029999515773544396 -0.0014562524285806925 0 -0.030324484335916422 -0.0014140390686727374 0 -0.030490441250836678 -0.0011074539133029233 0 -0.029999515773544396 -0.0014562524285806925 0 -0.029385294536265229 -0.0017919846827093144 0 -0.029739559735278965 -0.001716080430258556 0 -0.029942822505503657 -0.0015167189164512396 0 -0.029922405585717082 -0.0015407384684115208 0 -0.030526765605237986 -0.0012802286141069352 0 -0.030324484335916422 -0.0014140390686727374 0 -0.030490441250836678 -0.0011074539133029233 0 -0.029385294536265229 -0.0017919846827093144 0 -0.029739559735278965 -0.001716080430258556 0 -0.02951962158274752 -0.0019400715999429066 0 -0.029739559735278965 -0.001716080430258556 0 -0.030059460708654898 -0.0016925961750320743 0 -0.02951962158274752 -0.0019400715999429066 0 -0.029999515773544396 -0.0014562524285806925 0 -0.029739559735278965 -0.001716080430258556 0 -0.030059460708654898 -0.0016925961750320743 0 -0.029999515773544396 -0.0014562524285806925 0 -0.030059460708654898 -0.0016925961750320743 0 -0.030052455664628479 -0.0015587031948250127 0 -0.030670555707675691 -0.0016109260816204881 0 -0.031128782261328685 -0.0013711262090058539 0 -0.030059460708654898 -0.0016925961750320743 0 -0.030052455664628479 -0.0015587031948250127 0 -0.030058853237822036 -0.0015371009364848855 0 -0.031963249751841824 -0.00083009961384018912 0 -0.030483077050824037 -0.0016305108840867328 0 -0.030059460708654898 -0.0016925961750320743 0 -0.030891116405136341 -0.0014155885559280828 0 -0.030727543400586241 -0.0012028678805674968 0 -0.030059460708654898 -0.0016925961750320743 0 -0.030891116405136341 -0.0014155885559280828 0 -0.030371238876946597 -0.0020920055089441699 0 -0.0337915848419309 -0.00039005129490193499 0 -0.033776681055269847 -0.00031787063960300851 0 -0.033891690164419057 -0.00028029105262718858 0 -0.033759248500349434 -0.00037479126353983603 0 -0.033718105832283081 -0.00040810044339955877 0 -0.033776681055269847 -0.00031787063960300851 0 -0.0337915848419309 -0.00039005129490193499 0 -0.033759248500349434 -0.00037479126353983603 0 -0.033776681055269847 -0.00031787063960300851 0 -0.0337915848419309 -0.00039005129490193499 0 -0.033743795628022585 -0.00038637453476328729 0 -0.033723451973526275 -0.00037339755607428555 0 -0.033759248500349434 -0.00037479126353983603 0 -0.033743795628022585 -0.00038637453476328729 0 -0.033718105832283081 -0.00040810044339955877 0 -0.0337915848419309 -0.00039005129490193499 0 -0.033759248500349434 -0.00037479126353983603 0 -0.033743795628022585 -0.00038637453476328729 0 -0.030891116405136341 -0.0014155885559280828 0 -0.030727543400586241 -0.0012028678805674968 0 -0.03144976962548636 -0.00068027502100241751 0 -0.031963249751841824 -0.00083009961384018912 0 -0.033025721120510075 -0.00033595749797481829 0 -0.030038077859266488 -0.0015546676273936347 0 -0.030058853237822036 -0.0015371009364848855 0 -0.03001661047941262 -0.0015571454437406009 0 -0.0337915848419309 -0.00039005129490193499 0 -0.033723451973526275 -0.00037339755607428555 0 -0.033689321200051463 -0.00035903411177057933 0 -0.031128782261328685 -0.0013711262090058539 0 -0.033025721120510075 -0.00033595749797481829 0 -0.033743795628022585 -0.00038637453476328729 0 -0.033723451973526275 -0.00037339755607428555 0 -0.033724263229247708 -0.00038471375561405973 0 -0.030038077859266488 -0.0015546676273936347 0 -0.030036865511124018 -0.0015630289314513865 0 -0.030027993490542151 -0.001565137602628329 0 -0.030038077859266488 -0.0015546676273936347 0 -0.030027993490542151 -0.001565137602628329 0 -0.03001661047941262 -0.0015571454437406009 0 -0.030038084027763059 -0.0015345350420497815 0 -0.030052455664628479 -0.0015587031948250127 0 -0.030051104685366897 -0.0015470362314512871 0 -0.030038077859266488 -0.0015546676273936347 0 -0.030058853237822036 -0.0015371009364848855 0 -0.030046268836817061 -0.0015510510350281947 0 -0.030052455664628479 -0.0015587031948250127 0 -0.030051104685366897 -0.0015470362314512871 0 -0.030058853237822036 -0.0015371009364848855 0 -0.030051104685366897 -0.0015470362314512871 0 -0.030058853237822036 -0.0015371009364848855 0 -0.030046268836817061 -0.0015510510350281947 0 -0.030046268836817061 -0.0015510510350281947 0 -0.030036865511124018 -0.0015630289314513865 0 -0.030042263674226077 -0.0015554689376576307 0 -0.030051104685366897 -0.0015470362314512871 0 -0.030046268836817061 -0.0015510510350281947 0 -0.030042263674226077 -0.0015554689376576307 0 -0.030038077859266488 -0.0015546676273936347 0 -0.030046268836817061 -0.0015510510350281947 0 -0.030036865511124018 -0.0015630289314513865 0 -0.030036865511124018 -0.0015630289314513865 0 -0.030042263674226077 -0.0015554689376576307 0 -0.030036998667167979 -0.0015721065142856232 0 -0.030042263674226077 -0.0015554689376576307 0 -0.030042748420926819 -0.0015739620386678794 0 -0.030036998667167979 -0.0015721065142856232 0 -0.030038084027763059 -0.0015345350420497815 0 -0.030051104685366897 -0.0015470362314512871 0 -0.030042263674226077 -0.0015554689376576307 0 -0.030038084027763059 -0.0015345350420497815 0 -0.030042263674226077 -0.0015554689376576307 0 -0.030042748420926819 -0.0015739620386678794 0 -0.030042748420926819 -0.0015739620386678794 0 -0.030027618596536645 -0.0015944649530297253 0 -0.030085317238555065 -0.0016102622106026689 0 -0.030042748420926819 -0.0015739620386678794 0 -0.030036998667167979 -0.0015721065142856232 0 -0.030027618596536645 -0.0015944649530297253 0 -0.030036865511124018 -0.0015630289314513865 0 -0.030027618596536645 -0.0015944649530297253 0 -0.030027993490542151 -0.001565137602628329 0 -0.030036865511124018 -0.0015630289314513865 0 -0.030036998667167979 -0.0015721065142856232 0 -0.030027618596536645 -0.0015944649530297253 0 -0.034891780562871941 0.00025829199360683706 0 -0.034869104219140454 0.00023964264555371246 0 -0.03482577949113895 0.00024056305995590882 0 -0.032634179791133637 -0.00040026142079628715 0 -0.033025721120510075 -0.00033595749797481829 0 -0.030027618596536645 -0.0015944649530297253 0 -0.030027993490542151 -0.001565137602628329 0 -0.03001661047941262 -0.0015571454437406009 0 -0.034891780562871941 0.00025829199360683706 0 -0.03482577949113895 0.00024056305995590882 0 -0.034779151681301586 0.00027011310129538863 0 -0.034891780562871941 0.00025829199360683706 0 -0.034779151681301586 0.00027011310129538863 0 -0.034711598209903723 0.00034590938238883591 0 -0.034779151681301586 0.00027011310129538863 0 -0.034734079199722163 0.00027681694577333507 0 -0.034711598209903723 0.00034590938238883591 0 -0.03482577949113895 0.00024056305995590882 0 -0.03481129393911217 0.00019311027601029662 0 -0.034847036855675854 0.00020612523553106637 0 -0.034869104219140454 0.00023964264555371246 0 -0.03482577949113895 0.00024056305995590882 0 -0.034847036855675854 0.00020612523553106637 0 -0.03482577949113895 0.00024056305995590882 0 -0.034779478677046859 0.00022438368328790654 0 -0.03481129393911217 0.00019311027601029662 0 -0.03482577949113895 0.00024056305995590882 0 -0.034779151681301586 0.00027011310129538863 0 -0.034779478677046859 0.00022438368328790654 0 -0.034779151681301586 0.00027011310129538863 0 -0.034779478677046859 0.00022438368328790654 0 -0.034740510487089114 0.0002342107470382292 0 -0.034779478677046859 0.00022438368328790654 0 -0.034740510487089114 0.0002342107470382292 0 -0.034738575414955883 0.00018287888966083448 0 -0.034779151681301586 0.00027011310129538863 0 -0.034740510487089114 0.0002342107470382292 0 -0.034734079199722163 0.00027681694577333507 0 -0.034738575414955883 0.00018287888966083448 0 -0.03481129393911217 0.00019311027601029662 0 -0.034794678208426799 0.00013691683112554065 0 -0.034738575414955883 0.00018287888966083448 0 -0.034794678208426799 0.00013691683112554065 0 -0.034699735338513733 0.00013560862929782395 0 -0.034779478677046859 0.00022438368328790654 0 -0.034738575414955883 0.00018287888966083448 0 -0.03481129393911217 0.00019311027601029662 0 -0.03481129393911217 0.00019311027601029662 0 -0.034847036855675854 0.00020612523553106637 0 -0.03488156995270876 0.00015135965787661316 0 -0.03481129393911217 0.00019311027601029662 0 -0.034794678208426799 0.00013691683112554065 0 -0.03488156995270876 0.00015135965787661316 0 -0.034794678208426799 0.00013691683112554065 0 -0.034862805980418403 8.2770260050911559e-05 0 -0.034762697335998738 7.7768929595239562e-05 0 -0.034794678208426799 0.00013691683112554065 0 -0.03488156995270876 0.00015135965787661316 0 -0.034862805980418403 8.2770260050911559e-05 0 -0.034794678208426799 0.00013691683112554065 0 -0.034762697335998738 7.7768929595239562e-05 0 -0.034699735338513733 0.00013560862929782395 0 -0.03488156995270876 0.00015135965787661316 0 -0.035057637260102595 0.00010972751542375224 0 -0.03493860914853706 7.4221396527112082e-05 0 -0.034891780562871941 0.00025829199360683706 0 -0.034869104219140454 0.00023964264555371246 0 -0.034944823578822372 0.00018666079144715134 0 -0.034422735313372678 -1.739185812919303e-05 0 -0.033873748610543729 0.00017599688840860895 0 -0.034869104219140454 0.00023964264555371246 0 -0.03488156995270876 0.00015135965787661316 0 -0.035057637260102595 0.00010972751542375224 0 -0.034869104219140454 0.00023964264555371246 0 -0.034847036855675854 0.00020612523553106637 0 -0.03488156995270876 0.00015135965787661316 0 -0.03488156995270876 0.00015135965787661316 0 -0.034862805980418403 8.2770260050911559e-05 0 -0.03493860914853706 7.4221396527112082e-05 0 -0.034891780562871941 0.00025829199360683706 0 -0.034944823578822372 0.00018666079144715134 0 -0.034965929962729 0.00022480731752825436 0 -0.033873748610543729 0.00017599688840860895 0 -0.032556397780932909 -0.0003553697437270659 0 -0.032634179791133637 -0.00040026142079628715 0 -0.032556397780932909 -0.0003553697437270659 0 -0.030027618596536645 -0.0015944649530297253 0 -0.030085317238555065 -0.0016102622106026689 0 -0.030154340673596874 -0.0017522233881749531 0 -0.03018941125917235 -0.0015665189162883896 0 -0.030085317238555065 -0.0016102622106026689 0 -0.030154340673596874 -0.0017522233881749531 0 -0.030454069984751263 -0.0015189647507428529 0 -0.03018941125917235 -0.0015665189162883896 0 -0.030154340673596874 -0.0017522233881749531 0 -0.031702895773364326 -0.00081021698037004556 0 -0.032556397780932909 -0.0003553697437270659 0 -0.032140225190363872 0.00051763581756198709 0 -0.032008881748058687 0.00076956761621441952 0 -0.032221955177586734 0.00068470605480263453 0 -0.032008881748058687 0.00076956761621441952 0 -0.03209949634703748 0.00020257405464457884 0 -0.032221955177586734 0.00068470605480263453 0 -0.033064550347507653 0.00025929957244487443 0 -0.032865022112044506 0.00032999273961748936 0 -0.032950932585079501 0.00018665127053939465 0 -0.032596212241267943 -0.0001885349671294393 0 -0.032556397780932909 -0.0003553697437270659 0 -0.032771498911462492 0.00018092543811573363 0 -0.032865022112044506 0.00032999273961748936 0 -0.032950932585079501 0.00018665127053939465 0 -0.032771498911462492 0.00018092543811573363 0 -0.032950932585079501 0.00018665127053939465 0 -0.032980721954050302 7.2467345941788929e-06 0 -0.034957544379651907 -9.5228265923040007e-05 0 -0.034947176956359773 -0.00011790429199964562 0 -0.034956815508467569 -8.7817742290931836e-05 0 -0.033873748610543729 0.00017599688840860895 0 -0.033991639300141402 3.1230792031973743e-05 0 -0.03315688140863482 0.00013035022885764773 0 -0.032950932585079501 0.00018665127053939465 0 -0.032980721954050302 7.2467345941788929e-06 0 -0.035057637260102595 0.00010972751542375224 0 -0.034957872601572543 -4.6707730916547547e-05 0 -0.03493860914853706 7.4221396527112082e-05 0 -0.033873748610543729 0.00017599688840860895 0 -0.034122816870490888 0.00025340581459396097 0 -0.034957544379651907 -9.5228265923040007e-05 0 -0.034956815508467569 -8.7817742290931836e-05 0 -0.034957872601572543 -4.6707730916547547e-05 0 -0.03497402097981276 -7.1487937730853635e-05 0 -0.034971184650957374 -5.3921765458097814e-05 0 -0.034957872601572543 -4.6707730916547547e-05 0 -0.034956815508467569 -8.7817742290931836e-05 0 -0.03497402097981276 -7.1487937730853635e-05 0 -0.034957872601572543 -4.6707730916547547e-05 0 -0.034947176956359773 -0.00011790429199964562 0 -0.034956815508467569 -8.7817742290931836e-05 0 -0.034946164276599301 -0.00012333710044036954 0 -0.034956815508467569 -8.7817742290931836e-05 0 -0.034946164276599301 -0.00012333710044036954 0 -0.03497402097981276 -7.1487937730853635e-05 0 -0.034946164276599301 -0.00012333710044036954 0 -0.034966504335799044 -4.4136037502524265e-05 0 -0.03497402097981276 -7.1487937730853635e-05 0 -0.03497402097981276 -7.1487937730853635e-05 0 -0.034999884683652283 -4.9482145289535557e-08 0 -0.034971184650957374 -5.3921765458097814e-05 0 -0.034999884683652283 -4.9482145289535557e-08 0 -0.035000045498916992 4.9802501397384259e-08 0 -0.034971184650957374 -5.3921765458097814e-05 0 -0.034966504335799044 -4.4136037502524265e-05 0 -0.03497402097981276 -7.1487937730853635e-05 0 -0.034999884683652283 -4.9482145289535557e-08 0 -0.035000203095817584 -2.7572298358603865e-08 0 -0.034966504335799044 -4.4136037502524265e-05 0 -0.034999884683652283 -4.9482145289535557e-08 0 -0.034999629744960098 -4.1681418274202862e-07 0 -0.034936344563486779 -5.8820696984879407e-05 0 -0.034833123260050225 -8.3052113474217914e-05 0 -0.034999629744960098 -4.1681418274202862e-07 0 -0.035000045498916992 4.9802501397384259e-08 0 -0.034936344563486779 -5.8820696984879407e-05 0 -0.035000045498916992 4.9802501397384259e-08 0 -0.034971184650957374 -5.3921765458097814e-05 0 -0.034936344563486779 -5.8820696984879407e-05 0 -0.034971184650957374 -5.3921765458097814e-05 0 -0.034936344563486779 -5.8820696984879407e-05 0 -0.034910534376858246 -5.1753592988314963e-05 0 -0.034936344563486779 -5.8820696984879407e-05 0 -0.034834870461669436 -5.8454816131525228e-05 0 -0.034910534376858246 -5.1753592988314963e-05 0 -0.034936344563486779 -5.8820696984879407e-05 0 -0.034834870461669436 -5.8454816131525228e-05 0 -0.034833123260050225 -8.3052113474217914e-05 0 -0.034834870461669436 -5.8454816131525228e-05 0 -0.034824998060087826 -2.6121792581486623e-05 0 -0.034739422102647508 -3.3149777201900951e-05 0 -0.034834870461669436 -5.8454816131525228e-05 0 -0.034824998060087826 -2.6121792581486623e-05 0 -0.034910534376858246 -5.1753592988314963e-05 0 -0.034824998060087826 -2.6121792581486623e-05 0 -0.034885552739616764 -1.9438019169428963e-05 0 -0.034813596276128046 2.0857431806514858e-05 0 -0.034824998060087826 -2.6121792581486623e-05 0 -0.034910534376858246 -5.1753592988314963e-05 0 -0.034885552739616764 -1.9438019169428963e-05 0 -0.034971184650957374 -5.3921765458097814e-05 0 -0.034910534376858246 -5.1753592988314963e-05 0 -0.034957872601572543 -4.6707730916547547e-05 0 -0.034910534376858246 -5.1753592988314963e-05 0 -0.034885552739616764 -1.9438019169428963e-05 0 -0.034957872601572543 -4.6707730916547547e-05 0 -0.034885552739616764 -1.9438019169428963e-05 0 -0.034957872601572543 -4.6707730916547547e-05 0 -0.034862805980418403 8.2770260050911559e-05 0 -0.034957872601572543 -4.6707730916547547e-05 0 -0.034862805980418403 8.2770260050911559e-05 0 -0.03493860914853706 7.4221396527112082e-05 0 -0.034813596276128046 2.0857431806514858e-05 0 -0.034762697335998738 7.7768929595239562e-05 0 -0.034737891295607892 1.2161867101760245e-05 0 -0.034824998060087826 -2.6121792581486623e-05 0 -0.034813596276128046 2.0857431806514858e-05 0 -0.034737891295607892 1.2161867101760245e-05 0 -0.034885552739616764 -1.9438019169428963e-05 0 -0.034862805980418403 8.2770260050911559e-05 0 -0.034813596276128046 2.0857431806514858e-05 0 -0.034862805980418403 8.2770260050911559e-05 0 -0.034813596276128046 2.0857431806514858e-05 0 -0.034762697335998738 7.7768929595239562e-05 0 -0.034762697335998738 7.7768929595239562e-05 0 -0.034665155403156164 5.8970510436792131e-05 0 -0.034737891295607892 1.2161867101760245e-05 0 -0.034665155403156164 5.8970510436792131e-05 0 -0.034549962862752352 4.5899036253989654e-05 0 -0.034621082285983755 0.00011421432723267668 0 -0.034665155403156164 5.8970510436792131e-05 0 -0.034642793479110805 1.1785260084042519e-06 0 -0.034549962862752352 4.5899036253989654e-05 0 -0.034665155403156164 5.8970510436792131e-05 0 -0.034642793479110805 1.1785260084042519e-06 0 -0.034737891295607892 1.2161867101760245e-05 0 -0.034410254031835473 4.2493026119863469e-05 0 -0.034549962862752352 4.5899036253989654e-05 0 -0.034510311988238972 -2.063687035789796e-05 0 -0.034642793479110805 1.1785260084042519e-06 0 -0.034549962862752352 4.5899036253989654e-05 0 -0.034510311988238972 -2.063687035789796e-05 0 -0.034642793479110805 1.1785260084042519e-06 0 -0.034510311988238972 -2.063687035789796e-05 0 -0.034651334043731816 -3.9734394232198145e-05 0 -0.034510311988238972 -2.063687035789796e-05 0 -0.034651334043731816 -3.9734394232198145e-05 0 -0.034621695056179083 -7.7253937070120813e-05 0 -0.034510311988238972 -2.063687035789796e-05 0 -0.034621695056179083 -7.7253937070120813e-05 0 -0.034494337115202001 -7.6944132949767014e-05 0 -0.034642793479110805 1.1785260084042519e-06 0 -0.034737891295607892 1.2161867101760245e-05 0 -0.034739422102647508 -3.3149777201900951e-05 0 -0.034824998060087826 -2.6121792581486623e-05 0 -0.034737891295607892 1.2161867101760245e-05 0 -0.034739422102647508 -3.3149777201900951e-05 0 -0.034642793479110805 1.1785260084042519e-06 0 -0.034739422102647508 -3.3149777201900951e-05 0 -0.034651334043731816 -3.9734394232198145e-05 0 -0.034739422102647508 -3.3149777201900951e-05 0 -0.034651334043731816 -3.9734394232198145e-05 0 -0.034734371047700732 -6.5097939777080988e-05 0 -0.034651334043731816 -3.9734394232198145e-05 0 -0.034734371047700732 -6.5097939777080988e-05 0 -0.034621695056179083 -7.7253937070120813e-05 0 -0.034834870461669436 -5.8454816131525228e-05 0 -0.034739422102647508 -3.3149777201900951e-05 0 -0.034734371047700732 -6.5097939777080988e-05 0 -0.034834870461669436 -5.8454816131525228e-05 0 -0.034833123260050225 -8.3052113474217914e-05 0 -0.034734371047700732 -6.5097939777080988e-05 0 -0.034833123260050225 -8.3052113474217914e-05 0 -0.034692010385299676 -0.00010459575950468196 0 -0.034655909372512603 -0.00019299603271827592 0 -0.034833123260050225 -8.3052113474217914e-05 0 -0.034734371047700732 -6.5097939777080988e-05 0 -0.034692010385299676 -0.00010459575950468196 0 -0.034734371047700732 -6.5097939777080988e-05 0 -0.034621695056179083 -7.7253937070120813e-05 0 -0.034692010385299676 -0.00010459575950468196 0 -0.034621695056179083 -7.7253937070120813e-05 0 -0.034567580405127675 -0.00012046446734009249 0 -0.034692010385299676 -0.00010459575950468196 0 -0.034621695056179083 -7.7253937070120813e-05 0 -0.034567580405127675 -0.00012046446734009249 0 -0.034494337115202001 -7.6944132949767014e-05 0 -0.034567580405127675 -0.00012046446734009249 0 -0.034692010385299676 -0.00010459575950468196 0 -0.034655909372512603 -0.00019299603271827592 0 -0.034999423924192162 -4.1063788027771602e-07 0 -0.034999995657161172 -1.2425081209329534e-09 0 -0.034998890516123919 -1.9106730268557739e-06 0 -0.034999629744960098 -4.1681418274202862e-07 0 -0.034833123260050225 -8.3052113474217914e-05 0 -0.034655909372512603 -0.00019299603271827592 0 -0.035000001393865277 3.5931336359418238e-10 0 -0.034999423924192162 -4.1063788027771602e-07 0 -0.034999995657161172 -1.2425081209329534e-09 0 -0.034999753396707627 -8.0419460133698408e-08 0 -0.034824756207898093 -2.5687331845358175e-05 0 -0.034993963552280828 -1.1311842903212572e-05 0 -0.035000000796633929 -4.7122751984960081e-09 0 -0.034997453774625382 -6.3253800889221438e-06 0 -0.035000000796633929 -4.7122751984960081e-09 0 -0.034998890516123919 -1.9106730268557739e-06 0 -0.034997453774625382 -6.3253800889221438e-06 0 -0.034999995657161172 -1.2425081209329534e-09 0 -0.035000000796633929 -4.7122751984960081e-09 0 -0.034998890516123919 -1.9106730268557739e-06 0 -0.034999423924192162 -4.1063788027771602e-07 0 -0.034998890516123919 -1.9106730268557739e-06 0 -0.034997453774625382 -6.3253800889221438e-06 0 -0.034567580405127675 -0.00012046446734009249 0 -0.034375220251017545 -0.00014139528836409852 0 -0.034494337115202001 -7.6944132949767014e-05 0 -0.034567580405127675 -0.00012046446734009249 0 -0.034655909372512603 -0.00019299603271827592 0 -0.034375220251017545 -0.00014139528836409852 0 -0.034824756207898093 -2.5687331845358175e-05 0 -0.034717325191685834 -4.3299739134544158e-05 0 -0.034644059917029138 -4.8254307878287063e-05 0 -0.034717325191685834 -4.3299739134544158e-05 0 -0.034283774915520919 -7.5343536695166025e-05 0 -0.034375220251017545 -0.00014139528836409852 0 -0.034328155108954303 -6.462809820056433e-05 0 -0.034375220251017545 -0.00014139528836409852 0 -0.034328155108954303 -6.462809820056433e-05 0 -0.034392313212943726 -4.5861068489572656e-05 0 -0.034328155108954303 -6.462809820056433e-05 0 -0.034392313212943726 -4.5861068489572656e-05 0 -0.034324362806450702 -2.2204018853009648e-05 0 -0.034300380378074709 -5.4634541411439497e-05 0 -0.034328155108954303 -6.462809820056433e-05 0 -0.034324362806450702 -2.2204018853009648e-05 0 -0.034510311988238972 -2.063687035789796e-05 0 -0.034494337115202001 -7.6944132949767014e-05 0 -0.034392313212943726 -4.5861068489572656e-05 0 -0.034375220251017545 -0.00014139528836409852 0 -0.034494337115202001 -7.6944132949767014e-05 0 -0.034392313212943726 -4.5861068489572656e-05 0 -0.034392313212943726 -4.5861068489572656e-05 0 -0.034353361851809351 1.825917147589525e-05 0 -0.034324362806450702 -2.2204018853009648e-05 0 -0.034510311988238972 -2.063687035789796e-05 0 -0.034392313212943726 -4.5861068489572656e-05 0 -0.034353361851809351 1.825917147589525e-05 0 -0.034410254031835473 4.2493026119863469e-05 0 -0.034510311988238972 -2.063687035789796e-05 0 -0.034353361851809351 1.825917147589525e-05 0 -0.034353361851809351 1.825917147589525e-05 0 -0.034324362806450702 -2.2204018853009648e-05 0 -0.034297628079548656 -9.4456714273108753e-06 0 -0.034300411432556924 -4.6696898249340795e-05 0 -0.034324362806450702 -2.2204018853009648e-05 0 -0.034297628079548656 -9.4456714273108753e-06 0 -0.034307244912481022 -0.00010364926903781904 0 -0.034297628079548656 -9.4456714273108753e-06 0 -0.034263772653508419 -0.00011974512672479832 0 -0.034297628079548656 -9.4456714273108753e-06 0 -0.034263772653508419 -0.00011974512672479832 0 -0.034232296204888192 -3.7769318285462233e-05 0 -0.034307244912481022 -0.00010364926903781904 0 -0.034310968471487714 -0.00016748500249260195 0 -0.034263772653508419 -0.00011974512672479832 0 -0.034232296204888192 -3.7769318285462233e-05 0 -0.034112593798307514 -5.8653380476400395e-05 0 -0.034122206074779886 -0.00017123382806024715 0 -0.034263772653508419 -0.00011974512672479832 0 -0.034232296204888192 -3.7769318285462233e-05 0 -0.034122206074779886 -0.00017123382806024715 0 -0.034232296204888192 -3.7769318285462233e-05 0 -0.034275770894243239 9.6186893855780358e-05 0 -0.034112593798307514 -5.8653380476400395e-05 0 -0.034297628079548656 -9.4456714273108753e-06 0 -0.034232296204888192 -3.7769318285462233e-05 0 -0.034275770894243239 9.6186893855780358e-05 0 -0.034353361851809351 1.825917147589525e-05 0 -0.034297628079548656 -9.4456714273108753e-06 0 -0.034275770894243239 9.6186893855780358e-05 0 -0.034410254031835473 4.2493026119863469e-05 0 -0.034353361851809351 1.825917147589525e-05 0 -0.034275770894243239 9.6186893855780358e-05 0 -0.034410254031835473 4.2493026119863469e-05 0 -0.034275770894243239 9.6186893855780358e-05 0 -0.034539101674760646 0.00014617815675107768 0 -0.034410254031835473 4.2493026119863469e-05 0 -0.034549962862752352 4.5899036253989654e-05 0 -0.034539101674760646 0.00014617815675107768 0 -0.034549962862752352 4.5899036253989654e-05 0 -0.034539101674760646 0.00014617815675107768 0 -0.034621082285983755 0.00011421432723267668 0 -0.034275770894243239 9.6186893855780358e-05 0 -0.034539101674760646 0.00014617815675107768 0 -0.034549030027600805 0.00033581655298580809 0 -0.033885665150503924 0.00012201823718167923 0 -0.033724635282080924 4.5595151276896886e-05 0 -0.034762697335998738 7.7768929595239562e-05 0 -0.034665155403156164 5.8970510436792131e-05 0 -0.034699735338513733 0.00013560862929782395 0 -0.034665155403156164 5.8970510436792131e-05 0 -0.034699735338513733 0.00013560862929782395 0 -0.034621082285983755 0.00011421432723267668 0 -0.034539101674760646 0.00014617815675107768 0 -0.034643648077932174 0.00018617427628938088 0 -0.034668529859687228 0.00023928156816965376 0 -0.034539101674760646 0.00014617815675107768 0 -0.034621082285983755 0.00011421432723267668 0 -0.034643648077932174 0.00018617427628938088 0 -0.034699735338513733 0.00013560862929782395 0 -0.034621082285983755 0.00011421432723267668 0 -0.034643648077932174 0.00018617427628938088 0 -0.034738575414955883 0.00018287888966083448 0 -0.034699735338513733 0.00013560862929782395 0 -0.034700941066411167 0.00019885789166910884 0 -0.034699735338513733 0.00013560862929782395 0 -0.034643648077932174 0.00018617427628938088 0 -0.034700941066411167 0.00019885789166910884 0 -0.034643648077932174 0.00018617427628938088 0 -0.034700941066411167 0.00019885789166910884 0 -0.034703993442869514 0.00024045304589271474 0 -0.034740510487089114 0.0002342107470382292 0 -0.034738575414955883 0.00018287888966083448 0 -0.034700941066411167 0.00019885789166910884 0 -0.033769757530278215 0.00027768640886714616 0 -0.033025721120510075 -0.00033595749797481829 0 -0.034539101674760646 0.00014617815675107768 0 -0.034668529859687228 0.00023928156816965376 0 -0.034711598209903723 0.00034590938238883591 0 -0.034539101674760646 0.00014617815675107768 0 -0.034793230967183557 0.0005144399404544758 0 -0.034549030027600805 0.00033581655298580809 0 -0.034740510487089114 0.0002342107470382292 0 -0.034734079199722163 0.00027681694577333507 0 -0.034703993442869514 0.00024045304589271474 0 -0.034734079199722163 0.00027681694577333507 0 -0.034703993442869514 0.00024045304589271474 0 -0.034668529859687228 0.00023928156816965376 0 -0.034740510487089114 0.0002342107470382292 0 -0.034700941066411167 0.00019885789166910884 0 -0.034703993442869514 0.00024045304589271474 0 -0.034643648077932174 0.00018617427628938088 0 -0.034703993442869514 0.00024045304589271474 0 -0.034668529859687228 0.00023928156816965376 0 -0.033540419458985421 -0.00022749201078653758 0 -0.033855127984778931 -1.6352135781239966e-05 0 -0.03373166220258271 -0.00028646654789277572 0 -0.033025721120510075 -0.00033595749797481829 0 -0.033724635282080924 4.5595151276896886e-05 0 -0.034734079199722163 0.00027681694577333507 0 -0.034668529859687228 0.00023928156816965376 0 -0.034711598209903723 0.00034590938238883591 0 -0.034275770894243239 9.6186893855780358e-05 0 -0.034112593798307514 -5.8653380476400395e-05 0 -0.033855127984778931 -1.6352135781239966e-05 0 -0.033855127984778931 -1.6352135781239966e-05 0 -0.033944848565455488 -0.0001804562550102859 0 -0.03373166220258271 -0.00028646654789277572 0 -0.034112593798307514 -5.8653380476400395e-05 0 -0.033855127984778931 -1.6352135781239966e-05 0 -0.033944848565455488 -0.0001804562550102859 0 -0.034112593798307514 -5.8653380476400395e-05 0 -0.033944848565455488 -0.0001804562550102859 0 -0.034122206074779886 -0.00017123382806024715 0 -0.033944848565455488 -0.0001804562550102859 0 -0.033888976717539689 -0.0003108311005656685 0 -0.034122206074779886 -0.00017123382806024715 0 -0.033944848565455488 -0.0001804562550102859 0 -0.033888976717539689 -0.0003108311005656685 0 -0.03373166220258271 -0.00028646654789277572 0 -0.033888976717539689 -0.0003108311005656685 0 -0.03373166220258271 -0.00028646654789277572 0 -0.033708395039664579 -0.00039481973149503287 0 -0.033888976717539689 -0.0003108311005656685 0 -0.033708395039664579 -0.00039481973149503287 0 -0.03367316465243253 -0.00050391551115580905 0 -0.033723451973526275 -0.00037339755607428555 0 -0.033689321200051463 -0.00035903411177057933 0 -0.03370465165611311 -0.00036172990306591462 0 -0.033689321200051463 -0.00035903411177057933 0 -0.033697667291435203 -0.00035115871438545104 0 -0.03373166220258271 -0.00028646654789277572 0 -0.033025721120510075 -0.00033595749797481829 0 -0.033122944483622074 -0.00035611157825653206 0 -0.033689321200051463 -0.00035903411177057933 0 -0.03370465165611311 -0.00036172990306591462 0 -0.033697667291435203 -0.00035115871438545104 0 -0.03370465165611311 -0.00036172990306591462 0 -0.033697667291435203 -0.00035115871438545104 0 -0.033704664424502408 -0.00035622379465544802 0 -0.033697667291435203 -0.00035115871438545104 0 -0.033704664424502408 -0.00035622379465544802 0 -0.03373166220258271 -0.00028646654789277572 0 -0.033704664424502408 -0.00035622379465544802 0 -0.03373166220258271 -0.00028646654789277572 0 -0.033708395039664579 -0.00039481973149503287 0 -0.033704664424502408 -0.00035622379465544802 0 -0.033708395039664579 -0.00039481973149503287 0 -0.033710639824265497 -0.00038009696576210518 0 -0.033710639824265497 -0.00038009696576210518 0 -0.033724263229247708 -0.00038471375561405973 0 -0.033718105832283081 -0.00040810044339955877 0 -0.033708395039664579 -0.00039481973149503287 0 -0.033710639824265497 -0.00038009696576210518 0 -0.033718105832283081 -0.00040810044339955877 0 -0.03370465165611311 -0.00036172990306591462 0 -0.033704664424502408 -0.00035622379465544802 0 -0.033710639824265497 -0.00038009696576210518 0 -0.033723451973526275 -0.00037339755607428555 0 -0.033710639824265497 -0.00038009696576210518 0 -0.033724263229247708 -0.00038471375561405973 0 -0.033723451973526275 -0.00037339755607428555 0 -0.03370465165611311 -0.00036172990306591462 0 -0.033710639824265497 -0.00038009696576210518 0 -0.033743795628022585 -0.00038637453476328729 0 -0.033724263229247708 -0.00038471375561405973 0 -0.033718105832283081 -0.00040810044339955877 0 -0.033708395039664579 -0.00039481973149503287 0 -0.033718105832283081 -0.00040810044339955877 0 -0.03367316465243253 -0.00050391551115580905 0 -0.033718105832283081 -0.00040810044339955877 0 -0.03367316465243253 -0.00050391551115580905 0 -0.033687602252324186 -0.00032552197854180775 0 -0.033718105832283081 -0.00040810044339955877 0 -0.033687602252324186 -0.00032552197854180775 0 -0.033776681055269847 -0.00031787063960300851 0 -0.033539030256672021 -0.00043791700474692634 0 -0.033480926570040863 -0.00041664110963285123 0 -0.03367316465243253 -0.00050391551115580905 0 -0.032899175941600758 -0.00065504458299354518 0 -0.033285733529886515 -1.9719057935591182e-05 0 -0.033888976717539689 -0.0003108311005656685 0 -0.03367316465243253 -0.00050391551115580905 0 -0.034207743216985879 -0.00036682195769816516 0 -0.033430492363583197 -0.00034825496245968041 0 -0.033480926570040863 -0.00041664110963285123 0 -0.032145726289208192 -0.00058237559441720631 0 -0.032280478473543164 -0.00037366192599764555 0 -0.032899175941600758 -0.00065504458299354518 0 -0.034310968471487714 -0.00016748500249260195 0 -0.034263772653508419 -0.00011974512672479832 0 -0.034207743216985879 -0.00036682195769816516 0 -0.034322698377556748 -0.0002004455930440345 0 -0.034310968471487714 -0.00016748500249260195 0 -0.034207743216985879 -0.00036682195769816516 0 -0.034263772653508419 -0.00011974512672479832 0 -0.034207743216985879 -0.00036682195769816516 0 -0.034122206074779886 -0.00017123382806024715 0 -0.033888976717539689 -0.0003108311005656685 0 -0.034207743216985879 -0.00036682195769816516 0 -0.034122206074779886 -0.00017123382806024715 0 -0.032899175941600758 -0.00065504458299354518 0 -0.032524075541338335 1.2758099578087592e-05 0 -0.033285733529886515 -1.9719057935591182e-05 0 -0.032280478473543164 -0.00037366192599764555 0 -0.032899175941600758 -0.00065504458299354518 0 -0.032524075541338335 1.2758099578087592e-05 0 -0.03083046119821051 -0.0007650658119215415 0 -0.030951512071910717 -0.0010053462881702076 0 -0.028603139246529644 -0.0012548270879315848 0 -0.028442413737585891 -0.0018028254626449864 0 -0.028433105312982269 -0.001644890757089505 0 -0.03367316465243253 -0.00050391551115580905 0 -0.033687602252324186 -0.00032552197854180775 0 -0.033285733529886515 -1.9719057935591182e-05 0 -0.03105977447044854 -0.001306880266441278 0 -0.030951512071910717 -0.0010053462881702076 0 -0.033687602252324186 -0.00032552197854180775 0 -0.033762081958766427 -0.00020287261797682815 0 -0.033285733529886515 -1.9719057935591182e-05 0 -0.033687602252324186 -0.00032552197854180775 0 -0.033762081958766427 -0.00020287261797682815 0 -0.033776681055269847 -0.00031787063960300851 0 -0.028686507204222705 -0.0021447327122335841 0 -0.028505992523017391 -0.001857721813266906 0 -0.028728869579830094 -0.0019727169894283463 0 -0.028442413737585891 -0.0018028254626449864 0 -0.028505992523017391 -0.001857721813266906 0 -0.028433105312982269 -0.001644890757089505 0 -0.028686507204222705 -0.0021447327122335841 0 -0.028442413737585891 -0.0018028254626449864 0 -0.028505992523017391 -0.001857721813266906 0 -0.028505992523017391 -0.001857721813266906 0 -0.028374364139357778 -0.0018453225954567476 0 -0.028433105312982269 -0.001644890757089505 0 -0.028505992523017391 -0.001857721813266906 0 -0.028618420237986421 -0.0018851860223707308 0 -0.028728869579830094 -0.0019727169894283463 0 -0.028618420237986421 -0.0018851860223707308 0 -0.028374364139357778 -0.0018453225954567476 0 -0.028442242083010036 -0.0018657213463420207 0 -0.028505992523017391 -0.001857721813266906 0 -0.028618420237986421 -0.0018851860223707308 0 -0.028374364139357778 -0.0018453225954567476 0 -0.028374364139357778 -0.0018453225954567476 0 -0.028433105312982269 -0.001644890757089505 0 -0.028412108559057989 -0.0018702446042075046 0 -0.028738328427701632 -0.0014840714544230266 0 -0.028433105312982269 -0.001644890757089505 0 -0.028412108559057989 -0.0018702446042075046 0 -0.028738328427701632 -0.0014840714544230266 0 -0.028603139246529644 -0.0012548270879315848 0 -0.028433105312982269 -0.001644890757089505 0 -0.028412108559057989 -0.0018702446042075046 0 -0.028269989107718458 -0.0019525757186270192 0 -0.028043937220151589 -0.0021819557817151524 0 -0.028374364139357778 -0.0018453225954567476 0 -0.028412108559057989 -0.0018702446042075046 0 -0.028269989107718458 -0.0019525757186270192 0 -0.028269989107718458 -0.0019525757186270192 0 -0.028043937220151589 -0.0021819557817151524 0 -0.028309297983717854 -0.0017523977358218446 0 -0.027839992493231346 -0.0015020302261005811 0 -0.028285608019933666 -0.0010518303569053645 0 -0.028309297983717854 -0.0017523977358218446 0 -0.027374227069774052 -0.001653766084887252 0 -0.028043937220151589 -0.0021819557817151524 0 -0.027839992493231346 -0.0015020302261005811 0 -0.028043937220151589 -0.0021819557817151524 0 -0.027839992493231346 -0.0015020302261005811 0 -0.028309297983717854 -0.0017523977358218446 0 -0.027839992493231346 -0.0015020302261005811 0 -0.028285608019933666 -0.0010518303569053645 0 -0.027670077681680148 -0.00097481430109599802 0 -0.02692147562181876 -0.0013109992974249295 0 -0.027374227069774052 -0.001653766084887252 0 -0.027839992493231346 -0.0015020302261005811 0 -0.02692147562181876 -0.0013109992974249295 0 -0.027839992493231346 -0.0015020302261005811 0 -0.027670077681680148 -0.00097481430109599802 0 -0.028285608019933666 -0.0010518303569053645 0 -0.028663764622037236 -0.0014212084050121148 0 -0.028309297983717854 -0.0017523977358218446 0 -0.028285608019933666 -0.0010518303569053645 0 -0.028663764622037236 -0.0014212084050121148 0 -0.028798278532124095 -0.000891918302389104 0 -0.028663764622037236 -0.0014212084050121148 0 -0.028631949827267841 -0.0017405269502708482 0 -0.028879883105914578 -0.0015632249215513901 0 -0.028663764622037236 -0.0014212084050121148 0 -0.028631949827267841 -0.0017405269502708482 0 -0.028309297983717854 -0.0017523977358218446 0 -0.028269989107718458 -0.0019525757186270192 0 -0.028309297983717854 -0.0017523977358218446 0 -0.028442242083010036 -0.0018657213463420207 0 -0.028631949827267841 -0.0017405269502708482 0 -0.028309297983717854 -0.0017523977358218446 0 -0.028442242083010036 -0.0018657213463420207 0 -0.028374364139357778 -0.0018453225954567476 0 -0.028269989107718458 -0.0019525757186270192 0 -0.028442242083010036 -0.0018657213463420207 0 -0.028618420237986421 -0.0018851860223707308 0 -0.028631949827267841 -0.0017405269502708482 0 -0.028442242083010036 -0.0018657213463420207 0 -0.028618420237986421 -0.0018851860223707308 0 -0.028631949827267841 -0.0017405269502708482 0 -0.028949486381810836 -0.0018035704335821071 0 -0.028949486381810836 -0.0018035704335821071 0 -0.028879883105914578 -0.0015632249215513901 0 -0.029134789502391952 -0.0015203467589082649 0 -0.028949486381810836 -0.0018035704335821071 0 -0.029134789502391952 -0.0015203467589082649 0 -0.029322114529798986 -0.0018103959085840249 0 -0.028631949827267841 -0.0017405269502708482 0 -0.028949486381810836 -0.0018035704335821071 0 -0.028879883105914578 -0.0015632249215513901 0 -0.028663764622037236 -0.0014212084050121148 0 -0.028879883105914578 -0.0015632249215513901 0 -0.029005087366961991 -0.001277273101009786 0 -0.029005087366961991 -0.001277273101009786 0 -0.029134789502391952 -0.0015203467589082649 0 -0.029287046300762423 -0.0011885434106517056 0 -0.028879883105914578 -0.0015632249215513901 0 -0.029005087366961991 -0.001277273101009786 0 -0.029134789502391952 -0.0015203467589082649 0 -0.029005087366961991 -0.001277273101009786 0 -0.029287046300762423 -0.0011885434106517056 0 -0.029218593546472577 -0.0008859108761014073 0 -0.028663764622037236 -0.0014212084050121148 0 -0.029005087366961991 -0.001277273101009786 0 -0.028798278532124095 -0.000891918302389104 0 -0.029005087366961991 -0.001277273101009786 0 -0.029218593546472577 -0.0008859108761014073 0 -0.028798278532124095 -0.000891918302389104 0 -0.029631734078074498 -0.0011361144218593659 0 -0.029473520802889432 -0.0010730313954698326 0 -0.02948784382745567 -0.0013455200794546959 0 -0.029631734078074498 -0.0011361144218593659 0 -0.029750398467980631 -0.0010383226242363891 0 -0.029610607786968987 -0.00096927372407070507 0 -0.029631734078074498 -0.0011361144218593659 0 -0.029473520802889432 -0.0010730313954698326 0 -0.029610607786968987 -0.00096927372407070507 0 -0.029355722067906841 -0.0009883957240897918 0 -0.029287046300762423 -0.0011885434106517056 0 -0.029218593546472577 -0.0008859108761014073 0 -0.029473520802889432 -0.0010730313954698326 0 -0.029355722067906841 -0.0009883957240897918 0 -0.029287046300762423 -0.0011885434106517056 0 -0.029473520802889432 -0.0010730313954698326 0 -0.029287046300762423 -0.0011885434106517056 0 -0.02948784382745567 -0.0013455200794546959 0 -0.029134789502391952 -0.0015203467589082649 0 -0.029287046300762423 -0.0011885434106517056 0 -0.02948784382745567 -0.0013455200794546959 0 -0.029631734078074498 -0.0011361144218593659 0 -0.02948784382745567 -0.0013455200794546959 0 -0.029760893240561043 -0.0012649009412411807 0 -0.02948784382745567 -0.0013455200794546959 0 -0.029743835653849096 -0.0015186456970062944 0 -0.029760893240561043 -0.0012649009412411807 0 -0.029249675664230698 -0.0015796066725082642 0 -0.029285021149770291 -0.0014850338462595175 0 -0.02948784382745567 -0.0013455200794546959 0 -0.029322114529798986 -0.0018103959085840249 0 -0.029743835653849096 -0.0015186456970062944 0 -0.029322114529798986 -0.0018103959085840249 0 -0.029350018496409846 -0.0020402132094327649 0 -0.029338046398235434 -0.0020857042161887486 0 -0.029134789502391952 -0.0015203467589082649 0 -0.02948784382745567 -0.0013455200794546959 0 -0.029322114529798986 -0.0018103959085840249 0 -0.029322114529798986 -0.0018103959085840249 0 -0.029346381059091622 -0.0020140124675305255 0 -0.02919527036145041 -0.001970687420542233 0 -0.028949486381810836 -0.0018035704335821071 0 -0.029322114529798986 -0.0018103959085840249 0 -0.02919527036145041 -0.001970687420542233 0 -0.029322114529798986 -0.0018103959085840249 0 -0.029346381059091622 -0.0020140124675305255 0 -0.029350018496409846 -0.0020402132094327649 0 -0.029346381059091622 -0.0020140124675305255 0 -0.029341841778281905 -0.0020434307213672751 0 -0.02919527036145041 -0.001970687420542233 0 -0.029346381059091622 -0.0020140124675305255 0 -0.029341841778281905 -0.0020434307213672751 0 -0.029356182863864391 -0.0020675963577910556 0 -0.029341841778281905 -0.0020434307213672751 0 -0.029366084691434004 -0.0020549104033642709 0 -0.029356182863864391 -0.0020675963577910556 0 -0.029341841778281905 -0.0020434307213672751 0 -0.029366084691434004 -0.0020549104033642709 0 -0.029334123460749338 -0.0020679682034826165 0 -0.029334123460749338 -0.0020679682034826165 0 -0.02919527036145041 -0.001970687420542233 0 -0.029086684139038796 -0.0020495455141432005 0 -0.029341841778281905 -0.0020434307213672751 0 -0.029334123460749338 -0.0020679682034826165 0 -0.02919527036145041 -0.001970687420542233 0 -0.028949486381810836 -0.0018035704335821071 0 -0.02919527036145041 -0.001970687420542233 0 -0.028904264955593891 -0.001959806843367942 0 -0.028618420237986421 -0.0018851860223707308 0 -0.028949486381810836 -0.0018035704335821071 0 -0.028904264955593891 -0.001959806843367942 0 -0.028618420237986421 -0.0018851860223707308 0 -0.028904264955593891 -0.001959806843367942 0 -0.028728869579830094 -0.0019727169894283463 0 -0.028904264955593891 -0.001959806843367942 0 -0.028728869579830094 -0.0019727169894283463 0 -0.028920923199192768 -0.0020952400030401419 0 -0.02919527036145041 -0.001970687420542233 0 -0.028904264955593891 -0.001959806843367942 0 -0.029086684139038796 -0.0020495455141432005 0 -0.028904264955593891 -0.001959806843367942 0 -0.029086684139038796 -0.0020495455141432005 0 -0.028920923199192768 -0.0020952400030401419 0 -0.028920923199192768 -0.0020952400030401419 0 -0.029039461274210098 -0.0023124940687632147 0 -0.029165824124550464 -0.0021958798822201502 0 -0.029086684139038796 -0.0020495455141432005 0 -0.028920923199192768 -0.0020952400030401419 0 -0.029165824124550464 -0.0021958798822201502 0 -0.028686507204222705 -0.0021447327122335841 0 -0.028920923199192768 -0.0020952400030401419 0 -0.029039461274210098 -0.0023124940687632147 0 -0.028686507204222705 -0.0021447327122335841 0 -0.028728869579830094 -0.0019727169894283463 0 -0.028920923199192768 -0.0020952400030401419 0 -0.03105977447044854 -0.001306880266441278 0 -0.030483077050824037 -0.0016305108840867328 0 -0.033762081958766427 -0.00020287261797682815 0 -0.033776681055269847 -0.00031787063960300851 0 -0.033891690164419057 -0.00028029105262718858 0 -0.030483077050824037 -0.0016305108840867328 0 -0.030029380094926564 -0.0019937713265214098 0 -0.029491708983890218 -0.0019772801299589239 0 -0.02951962158274752 -0.0019400715999429066 0 -0.029445751116634677 -0.0019952747174986608 0 -0.030059460708654898 -0.0016925961750320743 0 -0.030371238876946597 -0.0020920055089441699 0 -0.02951962158274752 -0.0019400715999429066 0 -0.029491708983890218 -0.0019772801299589239 0 -0.029445751116634677 -0.0019952747174986608 0 -0.029465370887322161 -0.0020056683696177417 0 -0.030483077050824037 -0.0016305108840867328 0 -0.029986339640151041 -0.0016604646262527469 0 -0.029385294536265229 -0.0017919846827093144 0 -0.02951962158274752 -0.0019400715999429066 0 -0.029377992686813445 -0.0019492580726821877 0 -0.029433965643309166 -0.0019774261084170006 0 -0.029381361979505281 -0.0020088056071967809 0 -0.029377992686813445 -0.0019492580726821877 0 -0.02951962158274752 -0.0019400715999429066 0 -0.029433965643309166 -0.0019774261084170006 0 -0.029377992686813445 -0.0019492580726821877 0 -0.02951962158274752 -0.0019400715999429066 0 -0.029433965643309166 -0.0019774261084170006 0 -0.029445751116634677 -0.0019952747174986608 0 -0.029366084691434004 -0.0020549104033642709 0 -0.029334123460749338 -0.0020679682034826165 0 -0.029445751116634677 -0.0019952747174986608 0 -0.029433965643309166 -0.0019774261084170006 0 -0.029445751116634677 -0.0019952747174986608 0 -0.029381361979505281 -0.0020088056071967809 0 -0.029366084691434004 -0.0020549104033642709 0 -0.029445751116634677 -0.0019952747174986608 0 -0.029381361979505281 -0.0020088056071967809 0 -0.02991257952063996 -0.0020733985511220692 0 -0.030029380094926564 -0.0019937713265214098 0 -0.029334123460749338 -0.0020679682034826165 0 -0.029086684139038796 -0.0020495455141432005 0 -0.029165824124550464 -0.0021958798822201502 0 -0.029334123460749338 -0.0020679682034826165 0 -0.029445751116634677 -0.0019952747174986608 0 -0.029465370887322161 -0.0020056683696177417 0 -0.029851500572458761 -0.0016201962449150259 0 -0.029635183060093738 -0.001784885894181425 0 -0.029332523207030149 -0.0020210047054915782 0 -0.029253528176027527 -0.0019923693121080581 0 -0.029313238712150719 -0.002049626801787204 0 -0.029332523207030149 -0.0020210047054915782 0 -0.02930129709791 -0.0019685149917870307 0 -0.029253528176027527 -0.0019923693121080581 0 -0.029366084691434004 -0.0020549104033642709 0 -0.029381361979505281 -0.0020088056071967809 0 -0.029332523207030149 -0.0020210047054915782 0 -0.029381361979505281 -0.0020088056071967809 0 -0.029332523207030149 -0.0020210047054915782 0 -0.029343660007799064 -0.0019884718265977988 0 -0.029332523207030149 -0.0020210047054915782 0 -0.029343660007799064 -0.0019884718265977988 0 -0.02930129709791 -0.0019685149917870307 0 -0.029922405585717082 -0.0015407384684115208 0 -0.029851500572458761 -0.0016201962449150259 0 -0.029343660007799064 -0.0019884718265977988 0 -0.029377992686813445 -0.0019492580726821877 0 -0.02930129709791 -0.0019685149917870307 0 -0.029385294536265229 -0.0017919846827093144 0 -0.029377992686813445 -0.0019492580726821877 0 -0.02930129709791 -0.0019685149917870307 0 -0.030490441250836678 -0.0011074539133029233 0 -0.03080973363113158 -0.0010876376012888967 0 -0.030770703979574175 -0.0012089769872043053 0 -0.029381361979505281 -0.0020088056071967809 0 -0.029343660007799064 -0.0019884718265977988 0 -0.029377992686813445 -0.0019492580726821877 0 -0.03080973363113158 -0.0010876376012888967 0 -0.030770703979574175 -0.0012089769872043053 0 -0.030319473523479336 -0.0010695417087629713 0 -0.030770703979574175 -0.0012089769872043053 0 -0.030319473523479336 -0.0010695417087629713 0 -0.029937233093276384 -0.0017336801525048998 0 -0.029683988494667125 -0.000912925826452238 0 -0.029089036833873743 -0.0014494071437320532 0 -0.029937233093276384 -0.0017336801525048998 0 -0.030319473523479336 -0.0010695417087629713 0 -0.029683988494667125 -0.000912925826452238 0 -0.029937233093276384 -0.0017336801525048998 0 -0.028886053334483488 -0.00043820274967086055 0 -0.029683988494667125 -0.000912925826452238 0 -0.029089036833873743 -0.0014494071437320532 0 -0.029089036833873743 -0.0014494071437320532 0 -0.029937233093276384 -0.0017336801525048998 0 -0.029099474716920103 -0.0020421690364431904 0 -0.029635183060093738 -0.001784885894181425 0 -0.029476487682311658 -0.0018930413731732252 0 -0.029253528176027527 -0.0019923693121080581 0 -0.029099474716920103 -0.0020421690364431904 0 -0.029289714272041127 -0.0021115003436718775 0 -0.029089036833873743 -0.0014494071437320532 0 -0.029099474716920103 -0.0020421690364431904 0 -0.028584760436076731 -0.0020564514899749898 0 -0.029099474716920103 -0.0020421690364431904 0 -0.029051991062026352 -0.0023624628588457585 0 -0.028584760436076731 -0.0020564514899749898 0 -0.029099474716920103 -0.0020421690364431904 0 -0.029051991062026352 -0.0023624628588457585 0 -0.029289714272041127 -0.0021115003436718775 0 -0.029051991062026352 -0.0023624628588457585 0 -0.029289714272041127 -0.0021115003436718775 0 -0.029279330503101587 -0.0022809125811065313 0 -0.029289714272041127 -0.0021115003436718775 0 -0.02934972976585256 -0.0021241344801431546 0 -0.029279330503101587 -0.0022809125811065313 0 -0.029289714272041127 -0.0021115003436718775 0 -0.029356182863864391 -0.0020675963577910556 0 -0.02934972976585256 -0.0021241344801431546 0 -0.029313238712150719 -0.002049626801787204 0 -0.029289714272041127 -0.0021115003436718775 0 -0.029356182863864391 -0.0020675963577910556 0 -0.029253528176027527 -0.0019923693121080581 0 -0.029313238712150719 -0.002049626801787204 0 -0.029289714272041127 -0.0021115003436718775 0 -0.029366084691434004 -0.0020549104033642709 0 -0.029332523207030149 -0.0020210047054915782 0 -0.029356182863864391 -0.0020675963577910556 0 -0.029332523207030149 -0.0020210047054915782 0 -0.029313238712150719 -0.002049626801787204 0 -0.029356182863864391 -0.0020675963577910556 0 -0.029346381059091622 -0.0020140124675305255 0 -0.029356182863864391 -0.0020675963577910556 0 -0.02934972976585256 -0.0021241344801431546 0 -0.02934972976585256 -0.0021241344801431546 0 -0.029350018496409846 -0.0020402132094327649 0 -0.029331955646010485 -0.0021765763909326998 0 -0.029346381059091622 -0.0020140124675305255 0 -0.02934972976585256 -0.0021241344801431546 0 -0.029350018496409846 -0.0020402132094327649 0 -0.02934972976585256 -0.0021241344801431546 0 -0.029331955646010485 -0.0021765763909326998 0 -0.029279330503101587 -0.0022809125811065313 0 -0.029331955646010485 -0.0021765763909326998 0 -0.029338046398235434 -0.0020857042161887486 0 -0.029321975107635834 -0.0021723862606550289 0 -0.029331955646010485 -0.0021765763909326998 0 -0.029321975107635834 -0.0021723862606550289 0 -0.029276495304098558 -0.0021345098452047839 0 -0.029350018496409846 -0.0020402132094327649 0 -0.029331955646010485 -0.0021765763909326998 0 -0.029338046398235434 -0.0020857042161887486 0 -0.029285021149770291 -0.0014850338462595175 0 -0.029158395066740901 -0.001235731096262219 0 -0.029743835653849096 -0.0015186456970062944 0 -0.029760893240561043 -0.0012649009412411807 0 -0.029978637551015184 -0.0012872327609280531 0 -0.029760893240561043 -0.0012649009412411807 0 -0.029978637551015184 -0.0012872327609280531 0 -0.029861386943066236 -0.001122604839859721 0 -0.029978637551015184 -0.0012872327609280531 0 -0.029952213872097032 -0.0010452731376134733 0 -0.030051029396251403 -0.0010716451997491493 0 -0.029978637551015184 -0.0012872327609280531 0 -0.029861386943066236 -0.001122604839859721 0 -0.029952213872097032 -0.0010452731376134733 0 -0.029861386943066236 -0.001122604839859721 0 -0.029952213872097032 -0.0010452731376134733 0 -0.029839532856873966 -0.00096229960929088566 0 -0.029760893240561043 -0.0012649009412411807 0 -0.029861386943066236 -0.001122604839859721 0 -0.029750398467980631 -0.0010383226242363891 0 -0.029861386943066236 -0.001122604839859721 0 -0.029750398467980631 -0.0010383226242363891 0 -0.029839532856873966 -0.00096229960929088566 0 -0.029631734078074498 -0.0011361144218593659 0 -0.029760893240561043 -0.0012649009412411807 0 -0.029750398467980631 -0.0010383226242363891 0 -0.030205460876479642 -0.0010162143163066966 0 -0.030133167072079834 -0.0011505852026307026 0 -0.030305668377195037 -0.0010737581704384706 0 -0.030205460876479642 -0.0010162143163066966 0 -0.030133167072079834 -0.0011505852026307026 0 -0.030115083378979897 -0.00098015435835936172 0 -0.028308073338694482 -0.00090827275328914017 0 -0.024560276089390421 -0.0010609267973417805 0 -0.030051029396251403 -0.0010716451997491493 0 -0.030133167072079834 -0.0011505852026307026 0 -0.030115083378979897 -0.00098015435835936172 0 -0.029952213872097032 -0.0010452731376134733 0 -0.030051029396251403 -0.0010716451997491493 0 -0.030020104648784175 -0.00095946981376681458 0 -0.029978637551015184 -0.0012872327609280531 0 -0.030051029396251403 -0.0010716451997491493 0 -0.030133167072079834 -0.0011505852026307026 0 -0.029158395066740901 -0.001235731096262219 0 -0.028308073338694482 -0.00090827275328914017 0 -0.029321975107635834 -0.0021723862606550289 0 -0.029223635403829024 -0.0021733322074350453 0 -0.029228401950687773 -0.0022335240681295989 0 -0.029223635403829024 -0.0021733322074350453 0 -0.029141281821436014 -0.0021677125294672539 0 -0.029154755726679062 -0.0022109102823045798 0 -0.029223635403829024 -0.0021733322074350453 0 -0.029228401950687773 -0.0022335240681295989 0 -0.029154755726679062 -0.0022109102823045798 0 -0.029223635403829024 -0.0021733322074350453 0 -0.029178173034260062 -0.0021180870305749491 0 -0.029276495304098558 -0.0021345098452047839 0 -0.029223635403829024 -0.0021733322074350453 0 -0.029178173034260062 -0.0021180870305749491 0 -0.029141281821436014 -0.0021677125294672539 0 -0.027636336406637155 -0.0014072919588502704 0 -0.028574772644042686 -0.0016520180952906264 0 -0.029321975107635834 -0.0021723862606550289 0 -0.029223635403829024 -0.0021733322074350453 0 -0.029276495304098558 -0.0021345098452047839 0 -0.029051991062026352 -0.0023624628588457585 0 -0.029187907272592371 -0.002607860953023026 0 -0.029279330503101587 -0.0022809125811065313 0 -0.029331955646010485 -0.0021765763909326998 0 -0.029187907272592371 -0.002607860953023026 0 -0.029279330503101587 -0.0022809125811065313 0 -0.028811509395017282 -0.0017200347507220516 0 -0.028574772644042686 -0.0016520180952906264 0 -0.029051991062026352 -0.0023624628588457585 0 -0.028752694463691837 -0.0029861855062343584 0 -0.028512186414695832 -0.0025623757140155233 0 -0.029051991062026352 -0.0023624628588457585 0 -0.028752694463691837 -0.0029861855062343584 0 -0.029187907272592371 -0.002607860953023026 0 -0.028752694463691837 -0.0029861855062343584 0 -0.028512186414695832 -0.0025623757140155233 0 -0.028200061094149582 -0.0029170562879784014 0 -0.028512186414695832 -0.0025623757140155233 0 -0.028200061094149582 -0.0029170562879784014 0 -0.027870679259990188 -0.0025149362791206638 0 -0.027843761101986948 -0.0029038917811453663 0 -0.027538943282174412 -0.0028328087563469118 0 -0.027870679259990188 -0.0025149362791206638 0 -0.027843761101986948 -0.0029038917811453663 0 -0.027598271080534902 -0.0029848897758721713 0 -0.027538943282174412 -0.0028328087563469118 0 -0.028200061094149582 -0.0029170562879784014 0 -0.027843761101986948 -0.0029038917811453663 0 -0.027870679259990188 -0.0025149362791206638 0 -0.028200061094149582 -0.0029170562879784014 0 -0.027843761101986948 -0.0029038917811453663 0 -0.028035984070860175 -0.0031433872351338769 0 -0.027843761101986948 -0.0029038917811453663 0 -0.027771522543627237 -0.0031797793717620888 0 -0.028035984070860175 -0.0031433872351338769 0 -0.027771522543627237 -0.0031797793717620888 0 -0.027598271080534902 -0.0029848897758721713 0 -0.027551973109702151 -0.0031542987040315113 0 -0.027771522543627237 -0.0031797793717620888 0 -0.027620451143519312 -0.0032531647437579326 0 -0.027551973109702151 -0.0031542987040315113 0 -0.027843761101986948 -0.0029038917811453663 0 -0.027771522543627237 -0.0031797793717620888 0 -0.027598271080534902 -0.0029848897758721713 0 -0.024884352632210612 -0.00097438211065861734 0 -0.023963451983543736 -0.0013529010943696075 0 -0.024884352632210612 -0.00097438211065861734 0 -0.024567841565070456 -0.00094917276654473857 0 -0.027709955579840698 -0.0034164982411458663 0 -0.028093836411740025 -0.0034678882764953485 0 -0.027377989664074925 -0.0036105538582325565 0 -0.018100673400977457 -0.000310822132044641 0 -0.018390320761950876 -0.00011355284735156312 0 -0.018682754206858339 -0.00025219875024001478 0 -0.027709955579840698 -0.0034164982411458663 0 -0.027898529555409973 -0.0032995275553757654 0 -0.028093836411740025 -0.0034678882764953485 0 -0.027771522543627237 -0.0031797793717620888 0 -0.027709955579840698 -0.0034164982411458663 0 -0.027620451143519312 -0.0032531647437579326 0 -0.027709955579840698 -0.0034164982411458663 0 -0.027620451143519312 -0.0032531647437579326 0 -0.027450554960081159 -0.0032656349749614934 0 -0.027771522543627237 -0.0031797793717620888 0 -0.027898529555409973 -0.0032995275553757654 0 -0.028035984070860175 -0.0031433872351338769 0 -0.027771522543627237 -0.0031797793717620888 0 -0.027709955579840698 -0.0034164982411458663 0 -0.027898529555409973 -0.0032995275553757654 0 -0.028200061094149582 -0.0029170562879784014 0 -0.028035984070860175 -0.0031433872351338769 0 -0.028092785332373811 -0.0033104730642371542 0 -0.027898529555409973 -0.0032995275553757654 0 -0.028035984070860175 -0.0031433872351338769 0 -0.028093836411740025 -0.0034678882764953485 0 -0.024966489126792109 -0.0011380470590847535 0 -0.024884352632210612 -0.00097438211065861734 0 -0.018100673400977457 -0.000310822132044641 0 -0.018390320761950876 -0.00011355284735156312 0 -0.018231302377339179 9.124605143822991e-05 0 -0.029071794931389967 -0.0021252021277496655 0 -0.029141281821436014 -0.0021677125294672539 0 -0.029095454056363837 -0.0022047007748641589 0 -0.029178173034260062 -0.0021180870305749491 0 -0.029071794931389967 -0.0021252021277496655 0 -0.029141281821436014 -0.0021677125294672539 0 -0.028752694463691837 -0.0029861855062343584 0 -0.028200061094149582 -0.0029170562879784014 0 -0.028092785332373811 -0.0033104730642371542 0 -0.027636336406637155 -0.0014072919588502704 0 -0.024884352632210612 -0.00097438211065861734 0 -0.029154755726679062 -0.0022109102823045798 0 -0.029095454056363837 -0.0022047007748641589 0 -0.0291117741032835 -0.0022815526079285257 0 -0.029141281821436014 -0.0021677125294672539 0 -0.029154755726679062 -0.0022109102823045798 0 -0.029095454056363837 -0.0022047007748641589 0 -0.017990653525095893 0.00019044451649066096 0 -0.018231302377339179 9.124605143822991e-05 0 -0.01805873272602224 0.00036190043324324766 0 -0.018100673400977457 -0.000310822132044641 0 -0.017990653525095893 0.00019044451649066096 0 -0.018231302377339179 9.124605143822991e-05 0 -0.018231302377339179 9.124605143822991e-05 0 -0.01805873272602224 0.00036190043324324766 0 -0.018438159175296429 0.00024425069082480459 0 -0.018231302377339179 9.124605143822991e-05 0 -0.018438159175296429 0.00024425069082480459 0 -0.018588472096277772 4.5339560720540177e-05 0 -0.018390320761950876 -0.00011355284735156312 0 -0.018231302377339179 9.124605143822991e-05 0 -0.018588472096277772 4.5339560720540177e-05 0 -0.017990653525095893 0.00019044451649066096 0 -0.01805873272602224 0.00036190043324324766 0 -0.017906979603943399 0.00039884995292923867 0 -0.01805873272602224 0.00036190043324324766 0 -0.01791931271539092 0.0003828113138916259 0 -0.017820939278409931 0.00036210879164330552 0 -0.01805873272602224 0.00036190043324324766 0 -0.017946046482464176 0.00041244547500142876 0 -0.017906979603943399 0.00039884995292923867 0 -0.01805873272602224 0.00036190043324324766 0 -0.01791931271539092 0.0003828113138916259 0 -0.017946046482464176 0.00041244547500142876 0 -0.01791931271539092 0.0003828113138916259 0 -0.017946046482464176 0.00041244547500142876 0 -0.01793279072228586 0.000376701319589001 0 -0.029228401950687773 -0.0022335240681295989 0 -0.029154755726679062 -0.0022109102823045798 0 -0.0291117741032835 -0.0022815526079285257 0 -0.024567841565070456 -0.00094917276654473857 0 -0.024560276089390421 -0.0010609267973417805 0 -0.017946046482464176 0.00041244547500142876 0 -0.017976446057291571 0.00044788034313943082 0 -0.01793279072228586 0.000376701319589001 0 -0.024383120010192876 -0.0011007771181495746 0 -0.024560276089390421 -0.0010609267973417805 0 -0.030205460876479642 -0.0010162143163066966 0 -0.030305668377195037 -0.0010737581704384706 0 -0.030261307981215183 -0.0009807545970047923 0 -0.018200182168135241 5.3235022511344201e-07 0 -0.018128312922354808 0.00029129165222196833 0 -0.017344217665774493 0.00025359978306292101 0 -0.018200182168135241 5.3235022511344201e-07 0 -0.018128312922354808 0.00029129165222196833 0 -0.018713580124122938 0.00017797894762172929 0 -0.01805873272602224 0.00036190043324324766 0 -0.018128312922354808 0.00029129165222196833 0 -0.017820939278409931 0.00036210879164330552 0 -0.01805873272602224 0.00036190043324324766 0 -0.018128312922354808 0.00029129165222196833 0 -0.018438159175296429 0.00024425069082480459 0 -0.018128312922354808 0.00029129165222196833 0 -0.018713580124122938 0.00017797894762172929 0 -0.018438159175296429 0.00024425069082480459 0 -0.018713580124122938 0.00017797894762172929 0 -0.018438159175296429 0.00024425069082480459 0 -0.01897798061890018 0.00010764343388420363 0 -0.018588472096277772 4.5339560720540177e-05 0 -0.01897798061890018 0.00010764343388420363 0 -0.018963247989424049 8.898442451550353e-06 0 -0.018438159175296429 0.00024425069082480459 0 -0.018588472096277772 4.5339560720540177e-05 0 -0.01897798061890018 0.00010764343388420363 0 -0.018713580124122938 0.00017797894762172929 0 -0.01897798061890018 0.00010764343388420363 0 -0.019459974570856294 7.6174439969456327e-05 0 -0.018200182168135241 5.3235022511344201e-07 0 -0.019459974570856294 7.6174439969456327e-05 0 -0.020266832484811141 -6.1261693394670377e-09 0 -0.018200182168135241 5.3235022511344201e-07 0 -0.018713580124122938 0.00017797894762172929 0 -0.019459974570856294 7.6174439969456327e-05 0 -0.019459974570856294 7.6174439969456327e-05 0 -0.020269932163078399 -2.1596287083863024e-05 0 -0.020266832484811141 -6.1261693394670377e-09 0 -0.018390320761950876 -0.00011355284735156312 0 -0.018588472096277772 4.5339560720540177e-05 0 -0.018682754206858339 -0.00025219875024001478 0 -0.023727590114056275 -0.0010795481410979444 0 -0.023963451983543736 -0.0013529010943696075 0 -0.018588472096277772 4.5339560720540177e-05 0 -0.018963247989424049 8.898442451550353e-06 0 -0.018962558178360914 -0.00022808020695950465 0 -0.023963451983543736 -0.0013529010943696075 0 -0.023814630362776684 -0.0013598765988358246 0 -0.018963247989424049 8.898442451550353e-06 0 -0.018962558178360914 -0.00022808020695950465 0 -0.019434366922499634 -6.4510650255725856e-05 0 -0.01897798061890018 0.00010764343388420363 0 -0.019459974570856294 7.6174439969456327e-05 0 -0.019434366922499634 -6.4510650255725856e-05 0 -0.019459974570856294 7.6174439969456327e-05 0 -0.020269932163078399 -2.1596287083863024e-05 0 -0.019434366922499634 -6.4510650255725856e-05 0 -0.01897798061890018 0.00010764343388420363 0 -0.018963247989424049 8.898442451550353e-06 0 -0.019434366922499634 -6.4510650255725856e-05 0 -0.020269932163078399 -2.1596287083863024e-05 0 -0.01936879773126976 -6.0488153152734446e-05 0 -0.019434366922499634 -6.4510650255725856e-05 0 -0.027709955579840698 -0.0034164982411458663 0 -0.027377989664074925 -0.0036105538582325565 0 -0.027450554960081159 -0.0032656349749614934 0 -0.027377989664074925 -0.0036105538582325565 0 -0.026873996860835591 -0.0027844784627365994 0 -0.02704621956206155 -0.0028739337996057839 0 -0.020269932163078399 -2.1596287083863024e-05 0 -0.01936879773126976 -6.0488153152734446e-05 0 -0.020810490379241514 -9.8084610402510565e-05 0 -0.027377989664074925 -0.0036105538582325565 0 -0.027450554960081159 -0.0032656349749614934 0 -0.02704621956206155 -0.0028739337996057839 0 -0.023963451983543736 -0.0013529010943696075 0 -0.023897024625661276 -0.00090535066116777534 0 -0.027450554960081159 -0.0032656349749614934 0 -0.027383967612649433 -0.0029928276884480377 0 -0.02704621956206155 -0.0028739337996057839 0 -0.027598271080534902 -0.0029848897758721713 0 -0.027383967612649433 -0.0029928276884480377 0 -0.027551973109702151 -0.0031542987040315113 0 -0.027598271080534902 -0.0029848897758721713 0 -0.027383967612649433 -0.0029928276884480377 0 -0.027538943282174412 -0.0028328087563469118 0 -0.027450554960081159 -0.0032656349749614934 0 -0.027383967612649433 -0.0029928276884480377 0 -0.027551973109702151 -0.0031542987040315113 0 -0.027620451143519312 -0.0032531647437579326 0 -0.027450554960081159 -0.0032656349749614934 0 -0.027551973109702151 -0.0031542987040315113 0 -0.027383967612649433 -0.0029928276884480377 0 -0.02704621956206155 -0.0028739337996057839 0 -0.027538943282174412 -0.0028328087563469118 0 -0.02704621956206155 -0.0028739337996057839 0 -0.027538943282174412 -0.0028328087563469118 0 -0.027870679259990188 -0.0025149362791206638 0 -0.020269932163078399 -2.1596287083863024e-05 0 -0.020266832484811141 -6.1261693394670377e-09 0 -0.022332813304503162 1.6927445354753373e-07 0 -0.020269932163078399 -2.1596287083863024e-05 0 -0.020810490379241514 -9.8084610402510565e-05 0 -0.022332813304503162 1.6927445354753373e-07 0 -0.023897024625661276 -0.00090535066116777534 0 -0.023939823214051234 -0.00043908063944804205 0 -0.020810490379241514 -9.8084610402510565e-05 0 -0.022332813304503162 1.6927445354753373e-07 0 -0.022587184611055147 -0.00010118525617590617 0 -0.022587184611055147 -0.00010118525617590617 0 -0.024777190575416622 -4.6766088954644289e-05 0 -0.024402491080429637 -1.6366069523879747e-06 0 -0.022332813304503162 1.6927445354753373e-07 0 -0.022587184611055147 -0.00010118525617590617 0 -0.024402491080429637 -1.6366069523879747e-06 0 -0.023939823214051234 -0.00043908063944804205 0 -0.023949768189462491 -0.00012710726407817011 0 -0.026099329239482938 -0.0018674675364441264 0 -0.027620140068484667 -0.0016319269821465211 0 -0.027068993843253841 -0.00053398676810708604 0 -0.027443287714527951 -0.002400915778512753 0 -0.027785511371769378 -0.0018025314552363044 0 -0.026873996860835591 -0.0027844784627365994 0 -0.026099329239482938 -0.0018674675364441264 0 -0.027620140068484667 -0.0016319269821465211 0 -0.02704621956206155 -0.0028739337996057839 0 -0.027870679259990188 -0.0025149362791206638 0 -0.027898262071902845 -0.0019375485348710677 0 -0.026873996860835591 -0.0027844784627365994 0 -0.02704621956206155 -0.0028739337996057839 0 -0.027620140068484667 -0.0016319269821465211 0 -0.027870679259990188 -0.0025149362791206638 0 -0.028584760436076731 -0.0020564514899749898 0 -0.027898262071902845 -0.0019375485348710677 0 -0.028512186414695832 -0.0025623757140155233 0 -0.027870679259990188 -0.0025149362791206638 0 -0.028584760436076731 -0.0020564514899749898 0 -0.029051991062026352 -0.0023624628588457585 0 -0.028512186414695832 -0.0025623757140155233 0 -0.028584760436076731 -0.0020564514899749898 0 -0.028584760436076731 -0.0020564514899749898 0 -0.027898262071902845 -0.0019375485348710677 0 -0.028416763410949425 -0.001282997496516086 0 -0.027785511371769378 -0.0018025314552363044 0 -0.028331897159713869 -0.00086727067832848568 0 -0.027620140068484667 -0.0016319269821465211 0 -0.028331917289007753 -0.0003010187024605111 0 -0.027068993843253841 -0.00053398676810708604 0 -0.029089036833873743 -0.0014494071437320532 0 -0.028584760436076731 -0.0020564514899749898 0 -0.028416763410949425 -0.001282997496516086 0 -0.028886053334483488 -0.00043820274967086055 0 -0.029089036833873743 -0.0014494071437320532 0 -0.028416763410949425 -0.001282997496516086 0 -0.028794461379113272 -9.2496964337445702e-05 0 -0.028331897159713869 -0.00086727067832848568 0 -0.028805028240164832 0.00027746810268770812 0 -0.028331917289007753 -0.0003010187024605111 0 -0.027904580118424636 7.7797621168912057e-05 0 -0.028331917289007753 -0.0003010187024605111 0 -0.027904580118424636 7.7797621168912057e-05 0 -0.027068993843253841 -0.00053398676810708604 0 -0.027904580118424636 7.7797621168912057e-05 0 -0.026867622577513319 6.6977369248175309e-05 0 -0.027068993843253841 -0.00053398676810708604 0 -0.026469118965943408 8.4730950067851264e-07 0 -0.024777190575416622 -4.6766088954644289e-05 0 -0.024402491080429637 -1.6366069523879747e-06 0 -0.026469118965943408 8.4730950067851264e-07 0 -0.026867622577513319 6.6977369248175309e-05 0 -0.024777190575416622 -4.6766088954644289e-05 0 -0.026867622577513319 6.6977369248175309e-05 0 -0.024777190575416622 -4.6766088954644289e-05 0 -0.027068993843253841 -0.00053398676810708604 0 -0.026099329239482938 -0.0018674675364441264 0 -0.024777190575416622 -4.6766088954644289e-05 0 -0.027068993843253841 -0.00053398676810708604 0 -0.010815391174820718 9.1990705679498511e-05 0 -0.01093698819817239 0.00021834567174960583 0 -0.010788205160776485 0.00017228378550221597 0 -0.0091765104454784308 -1.3106706664303009e-06 0 -0.010788205160776485 0.00017228378550221597 0 -0.010953241219244559 1.3287033917561086e-06 0 -0.010815391174820718 9.1990705679498511e-05 0 -0.0091765104454784308 -1.3106706664303009e-06 0 -0.010788205160776485 0.00017228378550221597 0 -0.010815391174820718 9.1990705679498511e-05 0 -0.0091765104454784308 -1.3106706664303009e-06 0 -0.010773942162506116 -0.00051839338589535942 0 -0.0095243800208242649 -0.00020635686859593074 0 -0.0088547043649105876 -5.3835230331180814e-05 0 -0.0081951604389638392 0.00039647428450375428 0 -0.0079215546649494019 -0.00011204135296310675 0 -0.0078196930560988139 7.5484536352019152e-05 0 -0.010815391174820718 9.1990705679498511e-05 0 -0.011145538945223972 -4.9118555434818547e-05 0 -0.010773942162506116 -0.00051839338589535942 0 -0.0095243800208242649 -0.00020635686859593074 0 -0.0073568947988821975 -0.00026237430161476903 0 -0.0043042905238979742 0.00020862665450168958 0 -0.0044415112097011917 6.2520365546573321e-05 0 -0.0044232533753875833 0.00031622037148240433 0 -0.0043042905238979742 0.00020862665450168958 0 -0.0044415112097011917 6.2520365546573321e-05 0 -0.0043145134588832611 8.9666171466408189e-05 0 -0.0044415112097011917 6.2520365546573321e-05 0 -0.0043145134588832611 8.9666171466408189e-05 0 -0.0043028792644202512 -4.602006761391567e-05 0 -0.0095243800208242649 -0.00020635686859593074 0 -0.010140018775795409 -0.00026155301151693008 0 -0.0095243800208242649 -0.00020635686859593074 0 -0.01123798025817019 0.00042487158095600808 0 -0.011145538945223972 -4.9118555434818547e-05 0 -0.011192779383232194 0.00017458820415349759 0 -0.011024304283997723 0.00012469378560047353 0 -0.013273293831033926 -0.00022033197849230518 0 -0.013358471323772913 -8.5590414275133267e-05 0 -0.013398976483935057 -0.00011419259842412316 0 -0.013384184766311752 -9.5677112832869674e-05 0 -0.013389357950793173 -9.9862779133635512e-05 0 -0.013391714033676535 -8.7702814014462479e-05 0 -0.01123798025817019 0.00042487158095600808 0 -0.011284683507205696 0.00040594026069976362 0 -0.013358471323772913 -8.5590414275133267e-05 0 -0.013389357950793173 -9.9862779133635512e-05 0 -0.013398976483935057 -0.00011419259842412316 0 -0.010815391174820718 9.1990705679498511e-05 0 -0.011024304283997723 0.00012469378560047353 0 -0.01093698819817239 0.00021834567174960583 0 -0.010815391174820718 9.1990705679498511e-05 0 -0.011145538945223972 -4.9118555434818547e-05 0 -0.011024304283997723 0.00012469378560047353 0 -0.011192779383232194 0.00017458820415349759 0 -0.011024304283997723 0.00012469378560047353 0 -0.01093698819817239 0.00021834567174960583 0 -0.013391767123396353 -8.8901095987393687e-05 0 -0.013380569892542837 -9.1330272092049908e-05 0 -0.013392873494649307 -7.9540982817182781e-05 0 -0.01123798025817019 0.00042487158095600808 0 -0.011975231449813186 0.00015801222276635719 0 -0.013391767123396353 -8.8901095987393687e-05 0 -0.013391714033676535 -8.7702814014462479e-05 0 -0.013392873494649307 -7.9540982817182781e-05 0 -0.01123798025817019 0.00042487158095600808 0 -0.011255685723282494 0.00043031560032697868 0 -0.013380569892542837 -9.1330272092049908e-05 0 -0.013392873494649307 -7.9540982817182781e-05 0 -0.013395385960305555 -5.2471441738657263e-05 0 -0.013391714033676535 -8.7702814014462479e-05 0 -0.013392873494649307 -7.9540982817182781e-05 0 -0.013403584089509452 -6.6499937848312859e-05 0 -0.013403584089509452 -6.6499937848312859e-05 0 -0.013395385960305555 -5.2471441738657263e-05 0 -0.013414710278133801 -4.1767712233724216e-05 0 -0.013392873494649307 -7.9540982817182781e-05 0 -0.013403584089509452 -6.6499937848312859e-05 0 -0.013395385960305555 -5.2471441738657263e-05 0 -0.013380569892542837 -9.1330272092049908e-05 0 -0.013395385960305555 -5.2471441738657263e-05 0 -0.013378570770356115 -1.65819935328184e-05 0 -0.013361881478550988 -0.00011794308443031135 0 -0.013363517832624716 0.00010457551768554365 0 -0.013378570770356115 -1.65819935328184e-05 0 -0.013380569892542837 -9.1330272092049908e-05 0 -0.013361881478550988 -0.00011794308443031135 0 -0.013378570770356115 -1.65819935328184e-05 0 -0.01093698819817239 0.00021834567174960583 0 -0.011086911448797046 7.1739145560831508e-05 0 -0.010788205160776485 0.00017228378550221597 0 -0.011975231449813186 0.00015801222276635719 0 -0.012293200600799388 9.0459180242548733e-05 0 -0.011086911448797046 7.1739145560831508e-05 0 -0.010953241219244559 1.3287033917561086e-06 0 -0.012731743573030373 -1.3407168045866219e-06 0 -0.011086911448797046 7.1739145560831508e-05 0 -0.010788205160776485 0.00017228378550221597 0 -0.010953241219244559 1.3287033917561086e-06 0 -0.012293200600799388 9.0459180242548733e-05 0 -0.012733406412583673 6.3791618223218431e-08 0 -0.013361881478550988 -0.00011794308443031135 0 -0.012738097795223512 -1.1981589606105163e-08 0 -0.013363517832624716 0.00010457551768554365 0 -0.012738097795223512 -1.1981589606105163e-08 0 -0.0140620877872525 1.9196701462753892e-09 0 -0.013363517832624716 0.00010457551768554365 0 -0.0140620877872525 1.9196701462753892e-09 0 -0.013363517832624716 0.00010457551768554365 0 -0.013359806519533628 -8.807062718495469e-05 0 -0.013363517832624716 0.00010457551768554365 0 -0.013359806519533628 -8.807062718495469e-05 0 -0.013378570770356115 -1.65819935328184e-05 0 -0.015130143423049244 -0.00022911759085678462 0 -0.016246258692214157 -0.00044045683121753993 0 -0.016531545526714535 -0.00065761569193813609 0 -0.016566956645867985 2.8564459072037786e-05 0 -0.017352962211963464 -7.9920543923275473e-05 0 -0.01406763561770066 -7.5608742245460518e-07 0 -0.015130143423049244 -0.00022911759085678462 0 -0.014069274905509405 -2.4527981656614688e-06 0 -0.016531545526714535 -0.00065761569193813609 0 -0.016566956645867985 2.8564459072037786e-05 0 -0.014069274905509405 -2.4527981656614688e-06 0 -0.016133057959978658 1.038869799058819e-06 0 -0.016566956645867985 2.8564459072037786e-05 0 -0.016133057959978658 1.038869799058819e-06 0 -0.016566956645867985 2.8564459072037786e-05 0 -0.017344217665774493 0.00025359978306292101 0 -0.016566956645867985 2.8564459072037786e-05 0 -0.017491053886546471 0.00022124833631139725 0 -0.017344217665774493 0.00025359978306292101 0 -0.016566956645867985 2.8564459072037786e-05 0 -0.017491053886546471 0.00022124833631139725 0 -0.017352962211963464 -7.9920543923275473e-05 0 -0.018128312922354808 0.00029129165222196833 0 -0.017344217665774493 0.00025359978306292101 0 -0.017820939278409931 0.00036210879164330552 0 -0.017491053886546471 0.00022124833631139725 0 -0.017344217665774493 0.00025359978306292101 0 -0.017820939278409931 0.00036210879164330552 0 -0.018200182168135241 5.3235022511344201e-07 0 -0.016133057959978658 1.038869799058819e-06 0 -0.017344217665774493 0.00025359978306292101 0 -0.017976446057291571 0.00044788034313943082 0 -0.017976382718513897 0.00030033400711450227 0 -0.018100404081750926 0.0002317824215257027 0 -0.030305668377195037 -0.0010737581704384706 0 -0.030316163702026205 -0.00087977927951336679 0 -0.030261307981215183 -0.0009807545970047923 0 -0.024560276089390421 -0.0010609267973417805 0 -0.022202237345686528 -0.0011897155815583261 0 -0.017897628020587874 0.00020680257499813853 0 -0.017976382718513897 0.00030033400711450227 0 -0.018100404081750926 0.0002317824215257027 0 -0.030316163702026205 -0.00087977927951336679 0 -0.030223495771678825 -0.00094116882320511533 0 -0.030261307981215183 -0.0009807545970047923 0 -0.030316163702026205 -0.00087977927951336679 0 -0.030278119158720692 -0.00085443899160179743 0 -0.030227447984857679 -0.00088537726167848825 0 -0.030316163702026205 -0.00087977927951336679 0 -0.030227447984857679 -0.00088537726167848825 0 -0.030223495771678825 -0.00094116882320511533 0 -0.030278119158720692 -0.00085443899160179743 0 -0.030227447984857679 -0.00088537726167848825 0 -0.030162520960064079 -0.00083750517245139116 0 -0.030205460876479642 -0.0010162143163066966 0 -0.030223495771678825 -0.00094116882320511533 0 -0.030261307981215183 -0.0009807545970047923 0 -0.017976446057291571 0.00044788034313943082 0 -0.017976382718513897 0.00030033400711450227 0 -0.01793279072228586 0.000376701319589001 0 -0.01791931271539092 0.0003828113138916259 0 -0.01793279072228586 0.000376701319589001 0 -0.017832419297952123 0.00031425735454498931 0 -0.017976382718513897 0.00030033400711450227 0 -0.01793279072228586 0.000376701319589001 0 -0.017832419297952123 0.00031425735454498931 0 -0.01791931271539092 0.0003828113138916259 0 -0.017820939278409931 0.00036210879164330552 0 -0.017832419297952123 0.00031425735454498931 0 -0.017491053886546471 0.00022124833631139725 0 -0.017820939278409931 0.00036210879164330552 0 -0.017832419297952123 0.00031425735454498931 0 -0.017491053886546471 0.00022124833631139725 0 -0.017832419297952123 0.00031425735454498931 0 -0.017693086727449119 0.0001593769830298952 0 -0.017897628020587874 0.00020680257499813853 0 -0.017832419297952123 0.00031425735454498931 0 -0.017693086727449119 0.0001593769830298952 0 -0.017897628020587874 0.00020680257499813853 0 -0.017976382718513897 0.00030033400711450227 0 -0.017832419297952123 0.00031425735454498931 0 -0.017897628020587874 0.00020680257499813853 0 -0.017693086727449119 0.0001593769830298952 0 -0.017866116615257121 -3.6736304768395635e-05 0 -0.017491053886546471 0.00022124833631139725 0 -0.017693086727449119 0.0001593769830298952 0 -0.017352962211963464 -7.9920543923275473e-05 0 -0.017693086727449119 0.0001593769830298952 0 -0.017352962211963464 -7.9920543923275473e-05 0 -0.017866116615257121 -3.6736304768395635e-05 0 -0.017352962211963464 -7.9920543923275473e-05 0 -0.017866116615257121 -3.6736304768395635e-05 0 -0.017677959283727181 -0.00052104066698707078 0 -0.017866116615257121 -3.6736304768395635e-05 0 -0.018138323729881334 0.00014397550247579531 0 -0.018304294676156969 -0.00032102596329220475 0 -0.021754884916703236 -0.001296601293455245 0 -0.018656027346479767 -0.00047760029583374108 0 -0.017897628020587874 0.00020680257499813853 0 -0.018100404081750926 0.0002317824215257027 0 -0.017866116615257121 -3.6736304768395635e-05 0 -0.018100404081750926 0.0002317824215257027 0 -0.017866116615257121 -3.6736304768395635e-05 0 -0.018138323729881334 0.00014397550247579531 0 -0.030278119158720692 -0.00085443899160179743 0 -0.030162520960064079 -0.00083750517245139116 0 -0.030411154092709874 -0.00075499057788404864 0 -0.030316163702026205 -0.00087977927951336679 0 -0.030278119158720692 -0.00085443899160179743 0 -0.030411154092709874 -0.00075499057788404864 0 -0.022202237345686528 -0.0011897155815583261 0 -0.021754884916703236 -0.001296601293455245 0 -0.018656027346479767 -0.00047760029583374108 0 -0.016246258692214157 -0.00044045683121753993 0 -0.017866116615257121 -3.6736304768395635e-05 0 -0.018304294676156969 -0.00032102596329220475 0 -0.017677959283727181 -0.00052104066698707078 0 -0.013408407182665007 -2.7453070726807579e-05 0 -0.013384657674169794 -4.0919918001796987e-05 0 -0.013391581792468132 -3.4541555171181359e-05 0 -0.016531545526714535 -0.00065761569193813609 0 -0.017352962211963464 -7.9920543923275473e-05 0 -0.017677959283727181 -0.00052104066698707078 0 -0.013395385960305555 -5.2471441738657263e-05 0 -0.013378570770356115 -1.65819935328184e-05 0 -0.013391581792468132 -3.4541555171181359e-05 0 -0.013359806519533628 -8.807062718495469e-05 0 -0.013384657674169794 -4.0919918001796987e-05 0 -0.013378570770356115 -1.65819935328184e-05 0 -0.013384657674169794 -4.0919918001796987e-05 0 -0.013378570770356115 -1.65819935328184e-05 0 -0.013391581792468132 -3.4541555171181359e-05 0 -0.013408407182665007 -2.7453070726807579e-05 0 -0.013391581792468132 -3.4541555171181359e-05 0 -0.013414710278133801 -4.1767712233724216e-05 0 -0.013395385960305555 -5.2471441738657263e-05 0 -0.013391581792468132 -3.4541555171181359e-05 0 -0.013414710278133801 -4.1767712233724216e-05 0 -0.018656027346479767 -0.00047760029583374108 0 -0.015167442519490098 -4.3019071037597756e-05 0 -0.016995765902870826 -7.2903309876576632e-05 0 -0.016942244647448788 9.2799100921034025e-05 0 -0.016869412564635235 1.5741913630458256e-05 0 -0.016869412564635235 1.5741913630458256e-05 0 -0.016771786963519993 -2.6798607548544222e-05 0 -0.016777838708633391 0.00014454222214275842 0 -0.016942244647448788 9.2799100921034025e-05 0 -0.016869412564635235 1.5741913630458256e-05 0 -0.016777838708633391 0.00014454222214275842 0 -0.02329312275670152 -0.001124824481763648 0 -0.022414022754499142 -0.0013298309611735834 0 -0.021194630754923942 0.00011706349407597002 0 -0.022098197920521468 -0.00070906661538128332 0 -0.019450313979660759 2.3738687414350597e-06 0 -0.016869412564635235 1.5741913630458256e-05 0 -0.016886708839751192 -9.7659099235399772e-05 0 -0.016771786963519993 -2.6798607548544222e-05 0 -0.016995765902870826 -7.2903309876576632e-05 0 -0.016869412564635235 1.5741913630458256e-05 0 -0.016886708839751192 -9.7659099235399772e-05 0 -0.018656027346479767 -0.00047760029583374108 0 -0.022098197920521468 -0.00070906661538128332 0 -0.020740132519475114 -0.00034659165742649528 0 -0.020663897998592553 -4.3246825315609066e-05 0 -0.020348857182293838 -0.00011685866570469592 0 -0.030162520960064079 -0.00083750517245139116 0 -0.02900381163817977 9.018979315428452e-05 0 -0.02850257116534579 -2.5678060372252892e-05 0 -0.030162520960064079 -0.00083750517245139116 0 -0.030411154092709874 -0.00075499057788404864 0 -0.02900381163817977 9.018979315428452e-05 0 -0.021754884916703236 -0.001296601293455245 0 -0.022098197920521468 -0.00070906661538128332 0 -0.030162520960064079 -0.00083750517245139116 0 -0.030020221984865401 -0.00078099215728187935 0 -0.030072666174592335 -0.00085391209953438818 0 -0.027759485859031558 -0.0014391325899754839 0 -0.024510684546058151 -0.00047474950442717777 0 -0.022098197920521468 -0.00070906661538128332 0 -0.024510684546058151 -0.00047474950442717777 0 -0.030020221984865401 -0.00078099215728187935 0 -0.029980365430178138 -0.00086105248699288911 0 -0.030072666174592335 -0.00085391209953438818 0 -0.029980365430178138 -0.00086105248699288911 0 -0.030072666174592335 -0.00085391209953438818 0 -0.030056408938896436 -0.00090063930142374334 0 -0.029980365430178138 -0.00086105248699288911 0 -0.030056408938896436 -0.00090063930142374334 0 -0.030020104648784175 -0.00095946981376681458 0 -0.030051029396251403 -0.0010716451997491493 0 -0.030020104648784175 -0.00095946981376681458 0 -0.030115083378979897 -0.00098015435835936172 0 -0.030056408938896436 -0.00090063930142374334 0 -0.030020104648784175 -0.00095946981376681458 0 -0.030115083378979897 -0.00098015435835936172 0 -0.030115083378979897 -0.00098015435835936172 0 -0.030167649910005631 -0.00094566816701407703 0 -0.030126482223091687 -0.00088775478928183155 0 -0.030162520960064079 -0.00083750517245139116 0 -0.030072666174592335 -0.00085391209953438818 0 -0.030126482223091687 -0.00088775478928183155 0 -0.030205460876479642 -0.0010162143163066966 0 -0.030223495771678825 -0.00094116882320511533 0 -0.030167649910005631 -0.00094566816701407703 0 -0.030205460876479642 -0.0010162143163066966 0 -0.030115083378979897 -0.00098015435835936172 0 -0.030167649910005631 -0.00094566816701407703 0 -0.030167649910005631 -0.00094566816701407703 0 -0.030176179134512274 -0.00089890084640916845 0 -0.030126482223091687 -0.00088775478928183155 0 -0.030162520960064079 -0.00083750517245139116 0 -0.030176179134512274 -0.00089890084640916845 0 -0.030126482223091687 -0.00088775478928183155 0 -0.030227447984857679 -0.00088537726167848825 0 -0.030223495771678825 -0.00094116882320511533 0 -0.030176179134512274 -0.00089890084640916845 0 -0.030223495771678825 -0.00094116882320511533 0 -0.030167649910005631 -0.00094566816701407703 0 -0.030176179134512274 -0.00089890084640916845 0 -0.030227447984857679 -0.00088537726167848825 0 -0.030162520960064079 -0.00083750517245139116 0 -0.030176179134512274 -0.00089890084640916845 0 -0.030072666174592335 -0.00085391209953438818 0 -0.030056408938896436 -0.00090063930142374334 0 -0.030126482223091687 -0.00088775478928183155 0 -0.030056408938896436 -0.00090063930142374334 0 -0.030115083378979897 -0.00098015435835936172 0 -0.030126482223091687 -0.00088775478928183155 0 -0.029735346804683933 -0.00081701714362295062 0 -0.029839532856873966 -0.00096229960929088566 0 -0.029863974459203274 -0.00086020161943239676 0 -0.029735346804683933 -0.00081701714362295062 0 -0.029863974459203274 -0.00086020161943239676 0 -0.029730941537602067 -0.00070502343841192746 0 -0.029735346804683933 -0.00081701714362295062 0 -0.029721797463727676 -0.00091111670456162791 0 -0.02966366256294696 -0.00078083711485302037 0 -0.029750398467980631 -0.0010383226242363891 0 -0.029721797463727676 -0.00091111670456162791 0 -0.029839532856873966 -0.00096229960929088566 0 -0.029735346804683933 -0.00081701714362295062 0 -0.029721797463727676 -0.00091111670456162791 0 -0.029839532856873966 -0.00096229960929088566 0 -0.029750398467980631 -0.0010383226242363891 0 -0.029721797463727676 -0.00091111670456162791 0 -0.029610607786968987 -0.00096927372407070507 0 -0.029952213872097032 -0.0010452731376134733 0 -0.029839532856873966 -0.00096229960929088566 0 -0.029937997910651219 -0.00093166085392564358 0 -0.029839532856873966 -0.00096229960929088566 0 -0.029937997910651219 -0.00093166085392564358 0 -0.029863974459203274 -0.00086020161943239676 0 -0.029952213872097032 -0.0010452731376134733 0 -0.030020104648784175 -0.00095946981376681458 0 -0.029937997910651219 -0.00093166085392564358 0 -0.029980365430178138 -0.00086105248699288911 0 -0.029937997910651219 -0.00093166085392564358 0 -0.029863974459203274 -0.00086020161943239676 0 -0.029980365430178138 -0.00086105248699288911 0 -0.030020104648784175 -0.00095946981376681458 0 -0.029937997910651219 -0.00093166085392564358 0 -0.030020221984865401 -0.00078099215728187935 0 -0.029980365430178138 -0.00086105248699288911 0 -0.029893338820799656 -0.0007873075622172851 0 -0.024464084460859997 9.2998463630482672e-05 0 -0.024455632036625336 9.6068488577052299e-05 0 -0.024453306336245779 0.00010420103907197028 0 -0.029980365430178138 -0.00086105248699288911 0 -0.029863974459203274 -0.00086020161943239676 0 -0.029893338820799656 -0.0007873075622172851 0 -0.024510684546058151 -0.00047474950442717777 0 -0.026215421870706163 -0.00033399647428439049 0 -0.024455632036625336 9.6068488577052299e-05 0 -0.024450022157788343 0.00010214807036636369 0 -0.024453306336245779 0.00010420103907197028 0 -0.026215421870706163 -0.00033399647428439049 0 -0.026861121389353031 -0.00038254689301285273 0 -0.029863974459203274 -0.00086020161943239676 0 -0.029893338820799656 -0.0007873075622172851 0 -0.029766833015725254 -0.00080694670598260908 0 -0.024455632036625336 9.6068488577052299e-05 0 -0.024450022157788343 0.00010214807036636369 0 -0.024446862250269489 9.6159709230191935e-05 0 -0.02758029170867584 -0.00069865315688496447 0 -0.026861121389353031 -0.00038254689301285273 0 -0.029735346804683933 -0.00081701714362295062 0 -0.029702880885338116 -0.00070398993605598969 0 -0.02966366256294696 -0.00078083711485302037 0 -0.029735346804683933 -0.00081701714362295062 0 -0.029730941537602067 -0.00070502343841192746 0 -0.029702880885338116 -0.00070398993605598969 0 -0.026861121389353031 -0.00038254689301285273 0 -0.026884053754152613 -0.00037927698078199843 0 -0.024446862250269489 9.6159709230191935e-05 0 -0.024444058044435127 0.00010601438491159612 0 -0.02443953571316752 0.00010654240079460917 0 -0.024450022157788343 0.00010214807036636369 0 -0.024446862250269489 9.6159709230191935e-05 0 -0.024444058044435127 0.00010601438491159612 0 -0.024444058044435127 0.00010601438491159612 0 -0.024449565518427491 0.00010800223566594542 0 -0.024435449745943714 0.00011656242168360051 0 -0.021567419067704284 0.00017992927708960823 0 -0.022708799019234359 0.00043055409655708599 0 -0.02059722234979406 0.00018733895106722075 0 -0.020697160166491747 0.00016233752615077941 0 -0.020763005852760807 0.00018876209557271972 0 -0.024450022157788343 0.00010214807036636369 0 -0.024444058044435127 0.00010601438491159612 0 -0.024449565518427491 0.00010800223566594542 0 -0.019718646569221735 -1.0328241866815962e-05 0 -0.01831537020913605 0.00067464902217582523 0 -0.018932862566667322 0.0012106121792929785 0 -0.019718646569221735 -1.0328241866815962e-05 0 -0.020363835781328977 -0.00032543886999983378 0 -0.01909748675088118 0.0013536163289515491 0 -0.021567419067704284 0.00017992927708960823 0 -0.019009732594821718 0.00069764062081541928 0 -0.02059722234979406 0.00018733895106722075 0 -0.020684611070853495 0.00015084652594761673 0 -0.020697160166491747 0.00016233752615077941 0 -0.019009732594821718 0.00069764062081541928 0 -0.019017164860021318 0.00070012444407827816 0 -0.019450313979660759 2.3738687414350597e-06 0 -0.017504251992390491 0.00038713738958714858 0 -0.021194630754923942 0.00011706349407597002 0 -0.020363835781328977 -0.00032543886999983378 0 -0.01909748675088118 0.0013536163289515491 0 -0.024510684546058151 -0.00047474950442717777 0 -0.022258568343646232 2.0329620775194715e-05 0 -0.022414022754499142 -0.0013298309611735834 0 -0.021194630754923942 0.00011706349407597002 0 -0.020363835781328977 -0.00032543886999983378 0 -0.024450022157788343 0.00010214807036636369 0 -0.024449565518427491 0.00010800223566594542 0 -0.024453306336245779 0.00010420103907197028 0 -0.021567419067704284 0.00017992927708960823 0 -0.022258568343646232 2.0329620775194715e-05 0 -0.016771786963519993 -2.6798607548544222e-05 0 -0.016662224186961484 3.9582402205191347e-05 0 -0.016777838708633391 0.00014454222214275842 0 -0.017504251992390491 0.00038713738958714858 0 -0.014644797985214092 0.00044602649632815411 0 -0.017792299288537816 -4.5667038852353038e-05 0 -0.017853285270629363 7.3112960032331456e-06 0 -0.017075477727933244 -5.7304927768924869e-06 0 -0.018936644172581764 0.00050193247918556641 0 -0.019155865139621409 0.00069232281037102863 0 -0.018469489090520187 0.00073075750128823917 0 -0.019009732594821718 0.00069764062081541928 0 -0.017872067035813368 0.00047538987958194417 0 -0.019718646569221735 -1.0328241866815962e-05 0 -0.018932862566667322 0.0012106121792929785 0 -0.01909748675088118 0.0013536163289515491 0 -0.017872067035813368 0.00047538987958194417 0 -0.017504251992390491 0.00038713738958714858 0 -0.01310046971128914 0.0020905305747590461 0 -0.013332310601531323 0.00050775873359185054 0 -0.012203861231107574 0.0013198694681200087 0 -0.013332310601531323 0.00050775873359185054 0 -0.012212212100043796 0.00033493156389208245 0 -0.012203861231107574 0.0013198694681200087 0 -0.014644797985214092 0.00044602649632815411 0 -0.011715014028923769 0.00017491061366780528 0 -0.016942244647448788 9.2799100921034025e-05 0 -0.016777838708633391 0.00014454222214275842 0 -0.016889647681769749 0.00024972899172682892 0 -0.013403584089509452 -6.6499937848312859e-05 0 -0.013414710278133801 -4.1767712233724216e-05 0 -0.013425944069418189 -7.7696029924662015e-05 0 -0.015167442519490098 -4.3019071037597756e-05 0 -0.011715014028923769 0.00017491061366780528 0 -0.013389357950793173 -9.9862779133635512e-05 0 -0.013391714033676535 -8.7702814014462479e-05 0 -0.013425944069418189 -7.7696029924662015e-05 0 -0.013391714033676535 -8.7702814014462479e-05 0 -0.013403584089509452 -6.6499937848312859e-05 0 -0.013425944069418189 -7.7696029924662015e-05 0 -0.013389357950793173 -9.9862779133635512e-05 0 -0.013398976483935057 -0.00011419259842412316 0 -0.013425944069418189 -7.7696029924662015e-05 0 -0.010140018775795409 -0.00026155301151693008 0 -0.011715014028923769 0.00017491061366780528 0 -0.012212212100043796 0.00033493156389208245 0 -0.012203861231107574 0.0013198694681200087 0 -0.011312263854075969 0.00055052169156173051 0 -0.012212212100043796 0.00033493156389208245 0 -0.011312263854075969 0.00055052169156173051 0 -0.011558771768209871 -0.00046006682040461102 0 -0.012212212100043796 0.00033493156389208245 0 -0.011558771768209871 -0.00046006682040461102 0 -0.012563930639323954 -0.00048246224631215748 0 -0.0043145134588832611 8.9666171466408189e-05 0 -0.0043028792644202512 -4.602006761391567e-05 0 -0.0041905025732479791 0.00014226504117440344 0 -0.0043028792644202512 -4.602006761391567e-05 0 -0.0041905025732479791 0.00014226504117440344 0 -0.0040921770947040031 9.0774822897412831e-05 0 -0.0043028792644202512 -4.602006761391567e-05 0 -0.0041696462072522414 -0.00016846984779906923 0 -0.0040921770947040031 9.0774822897412831e-05 0 -0.011715014028923769 0.00017491061366780528 0 -0.0089520936746507931 -7.395485645672518e-06 0 -0.0043042905238979742 0.00020862665450168958 0 -0.0041905025732479791 0.00014226504117440344 0 -0.0040972302668940176 0.00022571108588712019 0 -0.0041905025732479791 0.00014226504117440344 0 -0.0040921770947040031 9.0774822897412831e-05 0 -0.0040972302668940176 0.00022571108588712019 0 -0.0043042905238979742 0.00020862665450168958 0 -0.0043145134588832611 8.9666171466408189e-05 0 -0.0041905025732479791 0.00014226504117440344 0 -0.011558771768209871 -0.00046006682040461102 0 -0.012563930639323954 -0.00048246224631215748 0 -0.011799733176078679 -0.0014667844898248416 0 -0.0040921770947040031 9.0774822897412831e-05 0 -0.0041060409344243366 0.00023292567637532311 0 -0.0040972302668940176 0.00022571108588712019 0 -0.0089520936746507931 -7.395485645672518e-06 0 -0.00679151451020861 -0.00026875224664382248 0 -0.010438901104839856 0.00019314545202428314 0 -0.00679151451020861 -0.00026875224664382248 0 -0.010427310392484464 -0.00018564631205574824 0 -0.011483512267682565 2.737071678174364e-05 0 -0.011417357219384458 -0.00088020749335774131 0 -0.010427310392484464 -0.00018564631205574824 0 -0.011417357219384458 -0.00088020749335774131 0 -0.010601210204312692 -0.0012423771790960535 0 -0.011145772123043894 0.00072831989204643352 0 -0.010427310392484464 -0.00018564631205574824 0 -0.011483512267682565 2.737071678174364e-05 0 -0.01279732461597353 0.00036614919519162113 0 -0.010438901104839856 0.00019314545202428314 0 -0.013332310601531323 0.00050775873359185054 0 -0.012212212100043796 0.00033493156389208245 0 -0.012563930639323954 -0.00048246224631215748 0 -0.012343154127780545 0.0004645725870594899 0 -0.011483512267682565 2.737071678174364e-05 0 -0.012283271980141012 -0.00046880125167022895 0 -0.012343154127780545 0.0004645725870594899 0 -0.011483512267682565 2.737071678174364e-05 0 -0.011836216500403266 0.00090904107553376465 0 -0.011483512267682565 2.737071678174364e-05 0 -0.012283271980141012 -0.00046880125167022895 0 -0.011417357219384458 -0.00088020749335774131 0 -0.012283271980141012 -0.00046880125167022895 0 -0.013127283241290455 3.9566383394055131e-05 0 -0.013182550236326286 -0.0010459703263762598 0 -0.013127283241290455 3.9566383394055131e-05 0 -0.0141719939806029 -0.00054764283800729939 0 -0.013182550236326286 -0.0010459703263762598 0 -0.013127283241290455 3.9566383394055131e-05 0 -0.013877642082547329 0.00050964158351003968 0 -0.0141719939806029 -0.00054764283800729939 0 -0.012343154127780545 0.0004645725870594899 0 -0.012283271980141012 -0.00046880125167022895 0 -0.013127283241290455 3.9566383394055131e-05 0 -0.012343154127780545 0.0004645725870594899 0 -0.013127283241290455 3.9566383394055131e-05 0 -0.012985536687803778 0.00097295705034353944 0 -0.013127283241290455 3.9566383394055131e-05 0 -0.012985536687803778 0.00097295705034353944 0 -0.013877642082547329 0.00050964158351003968 0 -0.012985536687803778 0.00097295705034353944 0 -0.01359703363229141 0.0012025655056052398 0 -0.013877642082547329 0.00050964158351003968 0 -0.01359703363229141 0.0012025655056052398 0 -0.012934843635257589 0.0016412223577495218 0 -0.013418470846085884 0.0019171796514257115 0 -0.01359703363229141 0.0012025655056052398 0 -0.013418470846085884 0.0019171796514257115 0 -0.014294673477383703 0.0014372009873969891 0 -0.012985536687803778 0.00097295705034353944 0 -0.012571694652761683 0.0012502601448710284 0 -0.012934843635257589 0.0016412223577495218 0 -0.012985536687803778 0.00097295705034353944 0 -0.01359703363229141 0.0012025655056052398 0 -0.012934843635257589 0.0016412223577495218 0 -0.013929338356538973 0.0014789843812360681 0 -0.014272154388025005 0.0013861473610014725 0 -0.012571694652761683 0.0012502601448710284 0 -0.012545183729729362 0.0015974489118141309 0 -0.012934843635257589 0.0016412223577495218 0 -0.012414529469723179 0.0013207838330310322 0 -0.011836216500403266 0.00090904107553376465 0 -0.011860598720127132 0.0016490764667753005 0 -0.01310046971128914 0.0020905305747590461 0 -0.013332310601531323 0.00050775873359185054 0 -0.014098260362396696 0.0015038435231227137 0 -0.014272154388025005 0.0013861473610014725 0 -0.015890128122417697 0.00078080785442284509 0 -0.012571694652761683 0.0012502601448710284 0 -0.012143797665925349 0.0015141389859637548 0 -0.012545183729729362 0.0015974489118141309 0 -0.012343154127780545 0.0004645725870594899 0 -0.012985536687803778 0.00097295705034353944 0 -0.012414529469723179 0.0013207838330310322 0 -0.012343154127780545 0.0004645725870594899 0 -0.012414529469723179 0.0013207838330310322 0 -0.011836216500403266 0.00090904107553376465 0 -0.011145772123043894 0.00072831989204643352 0 -0.011483512267682565 2.737071678174364e-05 0 -0.011836216500403266 0.00090904107553376465 0 -0.011145772123043894 0.00072831989204643352 0 -0.011836216500403266 0.00090904107553376465 0 -0.011860598720127132 0.0016490764667753005 0 -0.01279732461597353 0.00036614919519162113 0 -0.015890128122417697 0.00078080785442284509 0 -0.017872067035813368 0.00047538987958194417 0 -0.018741055176803523 0.00051883702203384683 0 -0.017504251992390491 0.00038713738958714858 0 -0.015890128122417697 0.00078080785442284509 0 -0.017853285270629363 7.3112960032331456e-06 0 -0.016866377363069441 0.00059005118617317949 0 -0.017075477727933244 -5.7304927768924869e-06 0 -0.016866377363069441 0.00059005118617317949 0 -0.017075477727933244 -5.7304927768924869e-06 0 -0.016594357612211948 0.00022965079996943526 0 -0.018741055176803523 0.00051883702203384683 0 -0.018192882620624112 0.0006072852539041998 0 -0.019009732594821718 0.00069764062081541928 0 -0.018741055176803523 0.00051883702203384683 0 -0.020684732020879424 0.00015186733993578861 0 -0.020697160166491747 0.00016233752615077941 0 -0.020767011209852585 0.00011557008586571808 0 -0.012545183729729362 0.0015974489118141309 0 -0.012456810314124406 0.001938032839171359 0 -0.012934843635257589 0.0016412223577495218 0 -0.012545183729729362 0.0015974489118141309 0 -0.012427543488397768 0.001745936713288743 0 -0.012456810314124406 0.001938032839171359 0 -0.012143797665925349 0.0015141389859637548 0 -0.012545183729729362 0.0015974489118141309 0 -0.012427543488397768 0.001745936713288743 0 -0.015890128122417697 0.00078080785442284509 0 -0.018192882620624112 0.0006072852539041998 0 -0.012143797665925349 0.0015141389859637548 0 -0.012347293801107159 0.0017847471542553016 0 -0.012427543488397768 0.001745936713288743 0 -0.012347355048147195 0.0017858472658941313 0 -0.012427543488397768 0.001745936713288743 0 -0.012456810314124406 0.001938032839171359 0 -0.018192882620624112 0.0006072852539041998 0 -0.01812508026690527 0.00063488880706794959 0 -0.018741055176803523 0.00051883702203384683 0 -0.019574739571920002 0.00044680994135657971 0 -0.020767011209852585 0.00011557008586571808 0 -0.020876284036882815 0.00011232921077673152 0 -0.020834452345988564 0.00015008392041266776 0 -0.018823457382613113 -8.7918098981510712e-05 0 -0.018310289812957254 0.00016303237145534296 0 -0.018148828984896302 -5.0514415544722199e-05 0 -0.018192882620624112 0.0006072852539041998 0 -0.019574739571920002 0.00044680994135657971 0 -0.020834452345988564 0.00015008392041266776 0 -0.020763005852760807 0.00018876209557271972 0 -0.02093900946450258 0.00019302955762519257 0 -0.022708799019234359 0.00043055409655708599 0 -0.024089748306214406 0.00084719797686697777 0 -0.024435449745943714 0.00011656242168360051 0 -0.024431650163122817 0.00010802961094629649 0 -0.024414343069604164 0.0001254484060152675 0 -0.026103540088064456 -7.1481962701818046e-05 0 -0.024089748306214406 0.00084719797686697777 0 -0.020876284036882815 0.00011232921077673152 0 -0.020834452345988564 0.00015008392041266776 0 -0.02093900946450258 0.00019302955762519257 0 -0.023244246597848881 0.0013722872577042282 0 -0.023116667929065807 0.0012005079763773639 0 -0.023079022192151646 0.0012232825210764244 0 -0.019574739571920002 0.00044680994135657971 0 -0.024089748306214406 0.00084719797686697777 0 -0.020697160166491747 0.00016233752615077941 0 -0.020767011209852585 0.00011557008586571808 0 -0.020763005852760807 0.00018876209557271972 0 -0.020767011209852585 0.00011557008586571808 0 -0.020834452345988564 0.00015008392041266776 0 -0.020763005852760807 0.00018876209557271972 0 -0.024435449745943714 0.00011656242168360051 0 -0.02443953571316752 0.00010654240079460917 0 -0.024431650163122817 0.00010802961094629649 0 -0.024444058044435127 0.00010601438491159612 0 -0.024435449745943714 0.00011656242168360051 0 -0.02443953571316752 0.00010654240079460917 0 -0.026861121389353031 -0.00038254689301285273 0 -0.026103540088064456 -7.1481962701818046e-05 0 -0.029702880885338116 -0.00070398993605598969 0 -0.029556280545889522 -0.00067115204475721893 0 -0.029499881220236723 -0.00051204012457370135 0 -0.024446862250269489 9.6159709230191935e-05 0 -0.02443953571316752 0.00010654240079460917 0 -0.024431650163122817 0.00010802961094629649 0 -0.029733607089274638 -0.00069885647591125494 0 -0.029702880885338116 -0.00070398993605598969 0 -0.029499881220236723 -0.00051204012457370135 0 -0.029702880885338116 -0.00070398993605598969 0 -0.029556280545889522 -0.00067115204475721893 0 -0.02966366256294696 -0.00078083711485302037 0 -0.029499881220236723 -0.00051204012457370135 0 -0.029362088945668437 -0.00060690389028638129 0 -0.029298972065287563 -0.00038281498199942859 0 -0.029556280545889522 -0.00067115204475721893 0 -0.029362088945668437 -0.00060690389028638129 0 -0.029452429484207076 -0.0008325828190860002 0 -0.029556280545889522 -0.00067115204475721893 0 -0.029499881220236723 -0.00051204012457370135 0 -0.029362088945668437 -0.00060690389028638129 0 -0.029355722067906841 -0.0009883957240897918 0 -0.029452429484207076 -0.0008325828190860002 0 -0.029218593546472577 -0.0008859108761014073 0 -0.029362088945668437 -0.00060690389028638129 0 -0.029452429484207076 -0.0008325828190860002 0 -0.029218593546472577 -0.0008859108761014073 0 -0.029473520802889432 -0.0010730313954698326 0 -0.029355722067906841 -0.0009883957240897918 0 -0.029452429484207076 -0.0008325828190860002 0 -0.029452429484207076 -0.0008325828190860002 0 -0.029610607786968987 -0.00096927372407070507 0 -0.029602068463584392 -0.00082209695658914722 0 -0.029473520802889432 -0.0010730313954698326 0 -0.029452429484207076 -0.0008325828190860002 0 -0.029610607786968987 -0.00096927372407070507 0 -0.029721797463727676 -0.00091111670456162791 0 -0.029610607786968987 -0.00096927372407070507 0 -0.029602068463584392 -0.00082209695658914722 0 -0.029721797463727676 -0.00091111670456162791 0 -0.029602068463584392 -0.00082209695658914722 0 -0.02966366256294696 -0.00078083711485302037 0 -0.029556280545889522 -0.00067115204475721893 0 -0.029602068463584392 -0.00082209695658914722 0 -0.02966366256294696 -0.00078083711485302037 0 -0.029556280545889522 -0.00067115204475721893 0 -0.029452429484207076 -0.0008325828190860002 0 -0.029602068463584392 -0.00082209695658914722 0 -0.029218593546472577 -0.0008859108761014073 0 -0.029169341162799976 -0.00049202490759356441 0 -0.028798278532124095 -0.000891918302389104 0 -0.029362088945668437 -0.00060690389028638129 0 -0.029218593546472577 -0.0008859108761014073 0 -0.029169341162799976 -0.00049202490759356441 0 -0.029362088945668437 -0.00060690389028638129 0 -0.029169341162799976 -0.00049202490759356441 0 -0.029298972065287563 -0.00038281498199942859 0 -0.029169341162799976 -0.00049202490759356441 0 -0.028939223651990167 -0.00011782412546234867 0 -0.029235859505728354 -4.0833571471734917e-05 0 -0.029169341162799976 -0.00049202490759356441 0 -0.028658452173955375 -0.000340472133423837 0 -0.028798278532124095 -0.000891918302389104 0 -0.029169341162799976 -0.00049202490759356441 0 -0.028939223651990167 -0.00011782412546234867 0 -0.028658452173955375 -0.000340472133423837 0 -0.028939223651990167 -0.00011782412546234867 0 -0.028954478804200438 0.00019870441496034759 0 -0.028694970897494787 6.5298286569657311e-05 0 -0.028994675083826214 0.00060996236265520374 0 -0.029316867451962558 0.00059817854415513446 0 -0.029076814925301241 0.00076115271873876649 0 -0.028939223651990167 -0.00011782412546234867 0 -0.028954478804200438 0.00019870441496034759 0 -0.029235859505728354 -4.0833571471734917e-05 0 -0.028954478804200438 0.00019870441496034759 0 -0.029235859505728354 -4.0833571471734917e-05 0 -0.02955858832358153 0.00014268853904109857 0 -0.02561353181660133 0.0012369988975352837 0 -0.024089748306214406 0.00084719797686697777 0 -0.029169341162799976 -0.00049202490759356441 0 -0.029235859505728354 -4.0833571471734917e-05 0 -0.029628236431699706 0.00010753529547752588 0 -0.027852667660367831 0.00048032079389187553 0 -0.024684005499290066 0.00066029544507663926 0 -0.029235859505728354 -4.0833571471734917e-05 0 -0.029628236431699706 0.00010753529547752588 0 -0.02955858832358153 0.00014268853904109857 0 -0.024089748306214406 0.00084719797686697777 0 -0.024684005499290066 0.00066029544507663926 0 -0.019574739571920002 0.00044680994135657971 0 -0.023092650884199081 0.0010717955517771916 0 -0.023244246597848881 0.0013722872577042282 0 -0.023079022192151646 0.0012232825210764244 0 -0.022783576489030486 0.0014038619092175755 0 -0.024684005499290066 0.00066029544507663926 0 -0.023092650884199081 0.0010717955517771916 0 -0.012456810314124406 0.001938032839171359 0 -0.012934843635257589 0.0016412223577495218 0 -0.013418470846085884 0.0019171796514257115 0 -0.023092650884199081 0.0010717955517771916 0 -0.026655622851557041 0.00094095195408487858 0 -0.028994675083826214 0.00060996236265520374 0 -0.029076814925301241 0.00076115271873876649 0 -0.028737024000285789 0.00082230999704050378 0 -0.029770896331480882 0.0010042933597366732 0 -0.029029673657695293 0.0010624651098623266 0 -0.02880629960857058 0.0016433734639750136 0 -0.023092650884199081 0.0010717955517771916 0 -0.021440918555235788 0.0012407230715300347 0 -0.028994675083826214 0.00060996236265520374 0 -0.028737024000285789 0.00082230999704050378 0 -0.028442426194954188 0.00056565360652254535 0 -0.028222485511463825 0.001054926076737292 0 -0.027601026599883671 0.001588285750642768 0 -0.02880629960857058 0.0016433734639750136 0 -0.026655622851557041 0.00094095195408487858 0 -0.027334945641847089 0.00092641369213142309 0 -0.029029673657695293 0.0010624651098623266 0 -0.028222485511463825 0.001054926076737292 0 -0.02880629960857058 0.0016433734639750136 0 -0.028737024000285789 0.00082230999704050378 0 -0.028222485511463825 0.001054926076737292 0 -0.028442426194954188 0.00056565360652254535 0 -0.028222485511463825 0.001054926076737292 0 -0.028442426194954188 0.00056565360652254535 0 -0.027918273001259937 0.00048804873589879523 0 -0.028442426194954188 0.00056565360652254535 0 -0.02840985500201703 7.105526174548438e-05 0 -0.027918273001259937 0.00048804873589879523 0 -0.02840985500201703 7.105526174548438e-05 0 -0.028081241621666222 -0.00011855342945115988 0 -0.027918273001259937 0.00048804873589879523 0 -0.028954478804200438 0.00019870441496034759 0 -0.028442426194954188 0.00056565360652254535 0 -0.028694970897494787 6.5298286569657311e-05 0 -0.027852667660367831 0.00048032079389187553 0 -0.028227022639406445 0.00047232529549874809 0 -0.028442426194954188 0.00056565360652254535 0 -0.02840985500201703 7.105526174548438e-05 0 -0.028694970897494787 6.5298286569657311e-05 0 -0.028939223651990167 -0.00011782412546234867 0 -0.028694970897494787 6.5298286569657311e-05 0 -0.028658452173955375 -0.000340472133423837 0 -0.02840985500201703 7.105526174548438e-05 0 -0.028694970897494787 6.5298286569657311e-05 0 -0.028658452173955375 -0.000340472133423837 0 -0.028081241621666222 -0.00011855342945115988 0 -0.028359529826452855 -0.00056970055695193783 0 -0.027886095999988925 -0.0005609713596941453 0 -0.02840985500201703 7.105526174548438e-05 0 -0.028658452173955375 -0.000340472133423837 0 -0.028359529826452855 -0.00056970055695193783 0 -0.02840985500201703 7.105526174548438e-05 0 -0.028081241621666222 -0.00011855342945115988 0 -0.028359529826452855 -0.00056970055695193783 0 -0.028285608019933666 -0.0010518303569053645 0 -0.028359529826452855 -0.00056970055695193783 0 -0.027886095999988925 -0.0005609713596941453 0 -0.028285608019933666 -0.0010518303569053645 0 -0.028359529826452855 -0.00056970055695193783 0 -0.028798278532124095 -0.000891918302389104 0 -0.028658452173955375 -0.000340472133423837 0 -0.028359529826452855 -0.00056970055695193783 0 -0.028798278532124095 -0.000891918302389104 0 -0.02692147562181876 -0.0013109992974249295 0 -0.027670077681680148 -0.00097481430109599802 0 -0.027300825323472458 -0.00053100694871686114 0 -0.028285608019933666 -0.0010518303569053645 0 -0.027670077681680148 -0.00097481430109599802 0 -0.027886095999988925 -0.0005609713596941453 0 -0.027670077681680148 -0.00097481430109599802 0 -0.027886095999988925 -0.0005609713596941453 0 -0.027300825323472458 -0.00053100694871686114 0 -0.028081241621666222 -0.00011855342945115988 0 -0.027886095999988925 -0.0005609713596941453 0 -0.027425361679624415 4.1782649086666672e-05 0 -0.027425361679624415 4.1782649086666672e-05 0 -0.026801949684966155 0.0006407899792989952 0 -0.026694826964063081 -0.00029194004255196453 0 -0.027300825323472458 -0.00053100694871686114 0 -0.027425361679624415 4.1782649086666672e-05 0 -0.026694826964063081 -0.00029194004255196453 0 -0.027886095999988925 -0.0005609713596941453 0 -0.027300825323472458 -0.00053100694871686114 0 -0.027425361679624415 4.1782649086666672e-05 0 -0.027425361679624415 4.1782649086666672e-05 0 -0.026801949684966155 0.0006407899792989952 0 -0.027423372401308571 0.00060773076241921111 0 -0.026801949684966155 0.0006407899792989952 0 -0.027423372401308571 0.00060773076241921111 0 -0.027221688207917791 0.0011195290621389673 0 -0.028081241621666222 -0.00011855342945115988 0 -0.027425361679624415 4.1782649086666672e-05 0 -0.027918273001259937 0.00048804873589879523 0 -0.027425361679624415 4.1782649086666672e-05 0 -0.027423372401308571 0.00060773076241921111 0 -0.027918273001259937 0.00048804873589879523 0 -0.027423372401308571 0.00060773076241921111 0 -0.027918273001259937 0.00048804873589879523 0 -0.027700505474979455 0.00099533747176323655 0 -0.028222485511463825 0.001054926076737292 0 -0.027918273001259937 0.00048804873589879523 0 -0.027700505474979455 0.00099533747176323655 0 -0.027423372401308571 0.00060773076241921111 0 -0.027700505474979455 0.00099533747176323655 0 -0.027221688207917791 0.0011195290621389673 0 -0.027700505474979455 0.00099533747176323655 0 -0.027221688207917791 0.0011195290621389673 0 -0.027601026599883671 0.001588285750642768 0 -0.028222485511463825 0.001054926076737292 0 -0.027700505474979455 0.00099533747176323655 0 -0.027601026599883671 0.001588285750642768 0 -0.027221688207917791 0.0011195290621389673 0 -0.026674578254066304 0.0016533869532967742 0 -0.027601026599883671 0.001588285750642768 0 -0.026801949684966155 0.0006407899792989952 0 -0.027221688207917791 0.0011195290621389673 0 -0.026674578254066304 0.0016533869532967742 0 -0.026674578254066304 0.0016533869532967742 0 -0.026792958817379441 0.0022647302336191426 0 -0.027601026599883671 0.001588285750642768 0 -0.026792958817379441 0.0022647302336191426 0 -0.027747866460584362 0.0024236080409806597 0 -0.026571521319542882 0.0032203073945180185 0 -0.019988289730745235 0.0010351455457847981 0 -0.014675912940800128 0.0020571096731992022 0 -0.026792958817379441 0.0022647302336191426 0 -0.027747866460584362 0.0024236080409806597 0 -0.027601026599883671 0.001588285750642768 0 -0.019988289730745235 0.0010351455457847981 0 -0.021440918555235788 0.0012407230715300347 0 -0.027747866460584362 0.0024236080409806597 0 -0.027601026599883671 0.001588285750642768 0 -0.02880629960857058 0.0016433734639750136 0 -0.01359703363229141 0.0012025655056052398 0 -0.014294673477383703 0.0014372009873969891 0 -0.013877642082547329 0.00050964158351003968 0 -0.014294673477383703 0.0014372009873969891 0 -0.013877642082547329 0.00050964158351003968 0 -0.014629955508028401 0.00045112704968841815 0 -0.015195733568409368 0.00091239078524556834 0 -0.014294673477383703 0.0014372009873969891 0 -0.014629955508028401 0.00045112704968841815 0 -0.014629955508028401 0.00045112704968841815 0 -0.0141719939806029 -0.00054764283800729939 0 -0.01513013470135121 -7.0442967014045323e-05 0 -0.013877642082547329 0.00050964158351003968 0 -0.014629955508028401 0.00045112704968841815 0 -0.0141719939806029 -0.00054764283800729939 0 -0.0076897853938875426 0.0007381691053967393 0 -0.0093985666066686707 0.00096611771689460971 0 -0.00048868877205023931 0.0027139111626003857 0 -0.001282842923346084 0.0031844489279158643 0 -0.0013357090307210358 0.0024266384232785672 0 -0.0020070016670921402 0.0028843317364802556 0 -0.001282842923346084 0.0031844489279158643 0 -0.0013357090307210358 0.0024266384232785672 0 -0.0057280252621011015 0.0018391661681787007 0 -0.0034130398463909865 0.0015641393652658191 0 -0.014675912940800128 0.0020571096731992022 0 -0.0093985666066686707 0.00096611771689460971 0 -0.0020070016670921402 0.0028843317364802556 0 -0.0022673206565515486 0.0036841264091288313 0 -0.001282842923346084 0.0031844489279158643 0 -0.015195733568409368 0.00091239078524556834 0 -0.014629955508028401 0.00045112704968841815 0 -0.01513013470135121 -7.0442967014045323e-05 0 -0.015195733568409368 0.00091239078524556834 0 -0.016083005056890701 0.00039296924051404381 0 -0.01513013470135121 -7.0442967014045323e-05 0 -0.0018480209151632021 0.0021646496954961076 0 -0.00077703803308248887 0.0020973969661544603 0 -0.0013350664250145606 0.0014045294237011595 0 -0.0018480209151632021 0.0021646496954961076 0 -0.0015422030446483595 0.003108768504064528 0 -0.00077703803308248887 0.0020973969661544603 0 -0.0018480209151632021 0.0021646496954961076 0 -0.0025505992797888763 0.002158766995517869 0 -0.0024667166094060741 0.0015441924800841658 0 -0.0025505992797888763 0.002158766995517869 0 -0.0024667166094060741 0.0015441924800841658 0 -0.0032294463233886769 0.0021533215188095913 0 -0.0025505992797888763 0.002158766995517869 0 -0.0026706901493450141 0.0028161500576555473 0 -0.0032294463233886769 0.0021533215188095913 0 -0.0018480209151632021 0.0021646496954961076 0 -0.0025505992797888763 0.002158766995517869 0 -0.0026706901493450141 0.0028161500576555473 0 -0.0025388480749418329 0.0040902542942915657 0 -0.0026706901493450141 0.0028161500576555473 0 -0.0015422030446483595 0.003108768504064528 0 -0.0025388480749418329 0.0040902542942915657 0 -0.0026706901493450141 0.0028161500576555473 0 -0.0032849576532586913 0.0033881224352943179 0 -0.0018480209151632021 0.0021646496954961076 0 -0.0026706901493450141 0.0028161500576555473 0 -0.0015422030446483595 0.003108768504064528 0 -0.00048868877205023931 0.0027139111626003857 0 -0.0013357090307210358 0.0024266384232785672 0 -0.00077703803308248887 0.0020973969661544603 0 -0.0034130398463909865 0.0015641393652658191 0 -0.0026855573767540436 0.0014333803055267601 0 -0.00048868877205023931 0.0027139111626003857 0 -0.00023630088490222379 0.0020077809914316983 0 -0.00077703803308248887 0.0020973969661544603 0 -0.00023630088490222379 0.0020077809914316983 0 -0.00077703803308248887 0.0020973969661544603 0 -0.00040181897943482591 0.001379298649762937 0 -0.00040181897943482591 0.001379298649762937 0 -0.00063912849475775027 0.00091264662797424924 0 -0.0013350664250145606 0.0014045294237011595 0 -0.00077703803308248887 0.0020973969661544603 0 -0.00040181897943482591 0.001379298649762937 0 -0.0013350664250145606 0.0014045294237011595 0 -0.00023630088490222379 0.0020077809914316983 0 -0.00040181897943482591 0.001379298649762937 0 -7.9299937816297439e-05 0.0015178801295896848 0 -0.00040181897943482591 0.001379298649762937 0 -8.8334671179982223e-05 0.0011977618836920051 0 -7.9299937816297439e-05 0.0015178801295896848 0 -0.00040181897943482591 0.001379298649762937 0 -0.00033845363944007506 0.00097752068544928561 0 -8.8334671179982223e-05 0.0011977618836920051 0 -0.00040181897943482591 0.001379298649762937 0 -0.00063912849475775027 0.00091264662797424924 0 -0.00033845363944007506 0.00097752068544928561 0 -0.001219678773966825 0.00082666777924287086 0 -0.0018029857566389475 0.00089515011139617976 0 -0.00063912849475775027 0.00091264662797424924 0 -0.0013350664250145606 0.0014045294237011595 0 -0.0022791991876598299 0.00069386249549453912 0 -0.00063912849475775027 0.00091264662797424924 0 -0.00024822132130911128 0.00081546027393351785 0 -0.00044505374920528895 0.00086108648003009993 0 -0.0018480209151632021 0.0021646496954961076 0 -0.0013350664250145606 0.0014045294237011595 0 -0.0024667166094060741 0.0015441924800841658 0 -0.0013350664250145606 0.0014045294237011595 0 -0.0024667166094060741 0.0015441924800841658 0 -0.0022791991876598299 0.00069386249549453912 0 -0.00024822132130911128 0.00081546027393351785 0 -0.00045143742592865807 0.00071414482864370411 0 -0.00070809826377619175 0.00058360231362734633 0 -0.00024822132130911128 0.00081546027393351785 0 -0.00045143742592865807 0.00071414482864370411 0 -0.00044505374920528895 0.00086108648003009993 0 -0.00045143742592865807 0.00071414482864370411 0 -0.00042819027634271423 0.00080959062911984639 0 -0.0003842448779294254 0.00078609320641798641 0 -0.00045143742592865807 0.00071414482864370411 0 -0.00044505374920528895 0.00086108648003009993 0 -0.00042819027634271423 0.00080959062911984639 0 -0.00044505374920528895 0.00086108648003009993 0 -0.00042819027634271423 0.00080959062911984639 0 -0.00039482552474863703 0.00086568174819647589 0 -0.00042819027634271423 0.00080959062911984639 0 -0.00039632938733210981 0.0008170523397640181 0 -0.00039482552474863703 0.00086568174819647589 0 -0.00042819027634271423 0.00080959062911984639 0 -0.00036648109997337175 0.00082990872809939119 0 -0.0003842448779294254 0.00078609320641798641 0 -0.00042819027634271423 0.00080959062911984639 0 -0.00036648109997337175 0.00082990872809939119 0 -0.00039632938733210981 0.0008170523397640181 0 -0.00036648109997337175 0.00082990872809939119 0 -0.00042631763667963979 0.00080630579960586524 0 -0.00012753947218860443 0.0009328791796885987 0 -0.00036648109997337175 0.00082990872809939119 0 -0.00039632938733210981 0.0008170523397640181 0 -0.00042631763667963979 0.00080630579960586524 0 -0.00039632938733210981 0.0008170523397640181 0 -0.00042631763667963979 0.00080630579960586524 0 -0.00029918468998732045 0.00075595319349804665 0 0.00074035156497542223 0.00068540042093785984 0 0.00074845065431696216 0.00032578687957333084 0 0.00088316991267136887 0.000420130853534208 0 0.00012489259374932676 0.00066608700513682585 0 0.00015335129784160029 0.00057872078577834399 0 -0.00042631763667963979 0.00080630579960586524 0 -0.00029918468998732045 0.00075595319349804665 0 -0.00028216765240709839 0.00057311972883246083 0 0.00074035156497542223 0.00068540042093785984 0 0.0004285837586297897 0.00053281354625682789 0 0.00088316991267136887 0.000420130853534208 0 -0.00014958236820294629 0.00069693312162807551 0 -1.2359851676460138e-06 0.00060033536346480103 0 -7.3342619292850593e-05 0.00057583708582902157 0 -0.00014958236820294629 0.00069693312162807551 0 -0.00020043617278996806 0.00065359671029562635 0 -7.3342619292850593e-05 0.00057583708582902157 0 -0.00014958236820294629 0.00069693312162807551 0 -2.5755558224588709e-05 0.00070233664900857585 0 -1.2359851676460138e-06 0.00060033536346480103 0 -0.00020043617278996806 0.00065359671029562635 0 -0.00029918468998732045 0.00075595319349804665 0 -0.00028216765240709839 0.00057311972883246083 0 -0.00020043617278996806 0.00065359671029562635 0 -0.00028216765240709839 0.00057311972883246083 0 -7.3342619292850593e-05 0.00057583708582902157 0 -0.00014958236820294629 0.00069693312162807551 0 -0.00020043617278996806 0.00065359671029562635 0 -0.00029918468998732045 0.00075595319349804665 0 -0.00039632938733210981 0.0008170523397640181 0 -0.00029918468998732045 0.00075595319349804665 0 -0.00039482552474863703 0.00086568174819647589 0 -0.00014958236820294629 0.00069693312162807551 0 -0.00029918468998732045 0.00075595319349804665 0 -0.00017787209965677158 0.000792389150088178 0 -0.00014958236820294629 0.00069693312162807551 0 -0.00017787209965677158 0.000792389150088178 0 -2.5755558224588709e-05 0.00070233664900857585 0 -0.00017787209965677158 0.000792389150088178 0 -0.00039482552474863703 0.00086568174819647589 0 -0.00010752403714970853 0.00093100614130486165 0 -0.00029918468998732045 0.00075595319349804665 0 -0.00017787209965677158 0.000792389150088178 0 -0.00039482552474863703 0.00086568174819647589 0 -0.00063912849475775027 0.00091264662797424924 0 -0.00044505374920528895 0.00086108648003009993 0 -0.00039482552474863703 0.00086568174819647589 0 -0.00063912849475775027 0.00091264662797424924 0 -0.00039482552474863703 0.00086568174819647589 0 -0.00033845363944007506 0.00097752068544928561 0 -0.00039482552474863703 0.00086568174819647589 0 -0.00033845363944007506 0.00097752068544928561 0 -0.00010752403714970853 0.00093100614130486165 0 -0.00033845363944007506 0.00097752068544928561 0 -0.00010752403714970853 0.00093100614130486165 0 -8.8334671179982223e-05 0.0011977618836920051 0 -0.00010752403714970853 0.00093100614130486165 0 0.00020895574923898494 0.0011339694986084467 0 -8.8334671179982223e-05 0.0011977618836920051 0 -0.00010752403714970853 0.00093100614130486165 0 0.00020895574923898494 0.0011339694986084467 0 0.00019180038504415617 0.00093531162027146036 0 0.00019180038504415617 0.00093531162027146036 0 0.00017230914050169333 0.00078211788764021082 0 0.00031470732039798544 0.00078883502284714366 0 0.00019180038504415617 0.00093531162027146036 0 -2.2711971857710158e-06 0.00080770138133532494 0 0.00017230914050169333 0.00078211788764021082 0 -0.00010752403714970853 0.00093100614130486165 0 0.00019180038504415617 0.00093531162027146036 0 -2.2711971857710158e-06 0.00080770138133532494 0 -0.00017787209965677158 0.000792389150088178 0 -0.00010752403714970853 0.00093100614130486165 0 -2.2711971857710158e-06 0.00080770138133532494 0 -0.00017787209965677158 0.000792389150088178 0 -2.2711971857710158e-06 0.00080770138133532494 0 -2.5755558224588709e-05 0.00070233664900857585 0 -2.2711971857710158e-06 0.00080770138133532494 0 -2.5755558224588709e-05 0.00070233664900857585 0 0.00010198105817209859 0.00070177602586526391 0 -2.2711971857710158e-06 0.00080770138133532494 0 0.00017230914050169333 0.00078211788764021082 0 0.00010198105817209859 0.00070177602586526391 0 0.00017230914050169333 0.00078211788764021082 0 0.00025117556790047563 0.00070081191498191822 0 0.00031470732039798544 0.00078883502284714366 0 0.00017230914050169333 0.00078211788764021082 0 0.00025117556790047563 0.00070081191498191822 0 0.00010198105817209859 0.00070177602586526391 0 0.00025117556790047563 0.00070081191498191822 0 0.00010198105817209859 0.00070177602586526391 0 0.00018543737411535032 0.00063237405224056387 0 0.00010198105817209859 0.00070177602586526391 0 0.00018543737411535032 0.00063237405224056387 0 8.4184759639951751e-05 0.0006188522515728521 0 0.00025117556790047563 0.00070081191498191822 0 0.00018543737411535032 0.00063237405224056387 0 0.00028068612694314012 0.00059870393688178593 0 0.00018543737411535032 0.00063237405224056387 0 0.00028068612694314012 0.00059870393688178593 0 0.00019053782603097692 0.00054405170260402762 0 0.00018543737411535032 0.00063237405224056387 0 8.4184759639951751e-05 0.0006188522515728521 0 0.00019053782603097692 0.00054405170260402762 0 8.4184759639951751e-05 0.0006188522515728521 0 9.7258617908225356e-05 0.00051799901295958371 0 0.00019053782603097692 0.00054405170260402762 0 -1.2359851676460138e-06 0.00060033536346480103 0 8.4184759639951751e-05 0.0006188522515728521 0 9.7258617908225356e-05 0.00051799901295958371 0 -2.5755558224588709e-05 0.00070233664900857585 0 -1.2359851676460138e-06 0.00060033536346480103 0 8.4184759639951751e-05 0.0006188522515728521 0 -2.5755558224588709e-05 0.00070233664900857585 0 0.00010198105817209859 0.00070177602586526391 0 8.4184759639951751e-05 0.0006188522515728521 0 0.00050036729837445377 0.00067761463042478041 0 0.0005024295739240309 0.00058703967468268909 0 0.0004395195818476538 0.0006241519631292146 0 0.00050036729837445377 0.00067761463042478041 0 0.0006025553142771456 0.00060984058953670618 0 0.0006182633093345278 0.0006873844040025599 0 0.00050036729837445377 0.00067761463042478041 0 0.0006025553142771456 0.00060984058953670618 0 0.0005024295739240309 0.00058703967468268909 0 0.0005024295739240309 0.00058703967468268909 0 0.00050066467433204252 0.00050892019569180093 0 0.00058295588315399115 0.00052992990207096095 0 0.0006025553142771456 0.00060984058953670618 0 0.0005024295739240309 0.00058703967468268909 0 0.00058295588315399115 0.00052992990207096095 0 0.0005024295739240309 0.00058703967468268909 0 0.0003897908840649451 0.00056671148414689772 0 0.00050066467433204252 0.00050892019569180093 0 0.0005024295739240309 0.00058703967468268909 0 0.0003897908840649451 0.00056671148414689772 0 0.0004395195818476538 0.0006241519631292146 0 0.0003897908840649451 0.00056671148414689772 0 0.00028068612694314012 0.00059870393688178593 0 0.00030311629700362843 0.00048887561940919467 0 0.00025117556790047563 0.00070081191498191822 0 0.00028068612694314012 0.00059870393688178593 0 0.00036971516521732485 0.00066712428529180771 0 0.0003897908840649451 0.00056671148414689772 0 0.00028068612694314012 0.00059870393688178593 0 0.00036971516521732485 0.00066712428529180771 0 0.0003897908840649451 0.00056671148414689772 0 0.0004395195818476538 0.0006241519631292146 0 0.00036971516521732485 0.00066712428529180771 0 0.00050036729837445377 0.00067761463042478041 0 0.0004395195818476538 0.0006241519631292146 0 0.00036971516521732485 0.00066712428529180771 0 0.00036971516521732485 0.00066712428529180771 0 0.00031470732039798544 0.00078883502284714366 0 0.00045883750948244069 0.00077752859354335573 0 0.00050036729837445377 0.00067761463042478041 0 0.00036971516521732485 0.00066712428529180771 0 0.00045883750948244069 0.00077752859354335573 0 0.00025117556790047563 0.00070081191498191822 0 0.00036971516521732485 0.00066712428529180771 0 0.00031470732039798544 0.00078883502284714366 0 0.00031470732039798544 0.00078883502284714366 0 0.00045883750948244069 0.00077752859354335573 0 0.00038892003645320554 0.00090154641430840858 0 0.00045883750948244069 0.00077752859354335573 0 0.00057497035363159336 0.00076451481246818419 0 0.00050576440292051294 0.00088511121365307912 0 0.00050036729837445377 0.00067761463042478041 0 0.00045883750948244069 0.00077752859354335573 0 0.00057497035363159336 0.00076451481246818419 0 0.00050036729837445377 0.00067761463042478041 0 0.00057497035363159336 0.00076451481246818419 0 0.0006182633093345278 0.0006873844040025599 0 0.00050576440292051294 0.00088511121365307912 0 0.00060077136992577247 0.00097118568543929696 0 0.00066645266983676786 0.00083502927692004239 0 0.00057497035363159336 0.00076451481246818419 0 0.00050576440292051294 0.00088511121365307912 0 0.00066645266983676786 0.00083502927692004239 0 0.00050576440292051294 0.00088511121365307912 0 0.00060077136992577247 0.00097118568543929696 0 0.00045657244748118625 0.0010531702280110497 0 0.00019180038504415617 0.00093531162027146036 0 0.00038892003645320554 0.00090154641430840858 0 0.00045657244748118625 0.0010531702280110497 0 0.00019180038504415617 0.00093531162027146036 0 0.00031470732039798544 0.00078883502284714366 0 0.00038892003645320554 0.00090154641430840858 0 0.00045883750948244069 0.00077752859354335573 0 0.00050576440292051294 0.00088511121365307912 0 0.00038892003645320554 0.00090154641430840858 0 0.00050576440292051294 0.00088511121365307912 0 0.00038892003645320554 0.00090154641430840858 0 0.00045657244748118625 0.0010531702280110497 0 0.00020895574923898494 0.0011339694986084467 0 0.00045657244748118625 0.0010531702280110497 0 0.00041179203251126957 0.0012610409768779413 0 0.00045657244748118625 0.0010531702280110497 0 0.00056481350565206758 0.001192127643257816 0 0.00041179203251126957 0.0012610409768779413 0 0.00020895574923898494 0.0011339694986084467 0 0.00019180038504415617 0.00093531162027146036 0 0.00045657244748118625 0.0010531702280110497 0 0.00060077136992577247 0.00097118568543929696 0 0.00045657244748118625 0.0010531702280110497 0 0.00064641989511556052 0.001093366233442337 0 0.00045657244748118625 0.0010531702280110497 0 0.00064641989511556052 0.001093366233442337 0 0.00056481350565206758 0.001192127643257816 0 0.00064641989511556052 0.001093366233442337 0 0.00056481350565206758 0.001192127643257816 0 0.00069493831278022054 0.0012185906100116647 0 0.00056481350565206758 0.001192127643257816 0 0.0006040052540066508 0.001377196634703213 0 0.00069493831278022054 0.0012185906100116647 0 0.00056481350565206758 0.001192127643257816 0 0.0006040052540066508 0.001377196634703213 0 0.00041179203251126957 0.0012610409768779413 0 0.0006040052540066508 0.001377196634703213 0 0.00044861548278754169 0.0015289866907312512 0 0.00074731484564641987 0.0016263866870950524 0 0.00044861548278754169 0.0015289866907312512 0 0.00041179203251126957 0.0012610409768779413 0 0.00016822343583202708 0.0013768349533487181 0 0.0006040052540066508 0.001377196634703213 0 0.00044861548278754169 0.0015289866907312512 0 0.00041179203251126957 0.0012610409768779413 0 0.00020895574923898494 0.0011339694986084467 0 0.00016822343583202708 0.0013768349533487181 0 -8.8334671179982223e-05 0.0011977618836920051 0 0.00020895574923898494 0.0011339694986084467 0 0.00041179203251126957 0.0012610409768779413 0 0.00016822343583202708 0.0013768349533487181 0 0.00016822343583202708 0.0013768349533487181 0 -8.8334671179982223e-05 0.0011977618836920051 0 -7.9299937816297439e-05 0.0015178801295896848 0 0.00016822343583202708 0.0013768349533487181 0 -7.9299937816297439e-05 0.0015178801295896848 0 0.00016751776307688686 0.0017401020830667907 0 0.00044861548278754169 0.0015289866907312512 0 0.00016822343583202708 0.0013768349533487181 0 0.00016751776307688686 0.0017401020830667907 0 0.00016751776307688686 0.0017401020830667907 0 8.9291704766011009e-05 0.0022485923787318278 0 0.00046282824151627387 0.0018659274745980424 0 -0.00023630088490222379 0.0020077809914316983 0 0.00016751776307688686 0.0017401020830667907 0 8.9291704766011009e-05 0.0022485923787318278 0 -0.00023630088490222379 0.0020077809914316983 0 -7.9299937816297439e-05 0.0015178801295896848 0 0.00016751776307688686 0.0017401020830667907 0 -0.0076897853938875426 0.0007381691053967393 0 -0.0066927347060757947 0.00048305203090417981 0 -0.00048868877205023931 0.0027139111626003857 0 -0.00023630088490222379 0.0020077809914316983 0 8.9291704766011009e-05 0.0022485923787318278 0 -0.0066927347060757947 0.00048305203090417981 0 -0.0058755474068633972 0.00017840444310504176 0 -0.012283271980141012 -0.00046880125167022895 0 -0.013182550236326286 -0.0010459703263762598 0 -0.012151245221265214 -0.0015506705953821382 0 -0.012283271980141012 -0.00046880125167022895 0 -0.011417357219384458 -0.00088020749335774131 0 -0.012151245221265214 -0.0015506705953821382 0 -0.0058755474068633972 0.00017840444310504176 0 -0.0050471553558810861 -0.00013434409894949253 0 -0.011417357219384458 -0.00088020749335774131 0 -0.012151245221265214 -0.0015506705953821382 0 -0.011103071524642719 -0.0020462850311851965 0 0.00044861548278754169 0.0015289866907312512 0 0.00046282824151627387 0.0018659274745980424 0 0.00074731484564641987 0.0016263866870950524 0 0.00044861548278754169 0.0015289866907312512 0 0.00016751776307688686 0.0017401020830667907 0 0.00046282824151627387 0.0018659274745980424 0 -0.010601210204312692 -0.0012423771790960535 0 -0.0098821918240903084 -0.0018192295666920049 0 -0.011103071524642719 -0.0020462850311851965 0 -0.011417357219384458 -0.00088020749335774131 0 -0.010601210204312692 -0.0012423771790960535 0 -0.011103071524642719 -0.0020462850311851965 0 -0.010601210204312692 -0.0012423771790960535 0 -0.009709934485219774 -0.0011044521337624921 0 -0.0098821918240903084 -0.0018192295666920049 0 -0.010427310392484464 -0.00018564631205574824 0 -0.010601210204312692 -0.0012423771790960535 0 -0.009709934485219774 -0.0011044521337624921 0 -0.0042941052252142417 7.5209707586321802e-05 0 -0.0043659998871735202 6.8240881772035444e-05 0 -0.0041060409344243366 0.00023292567637532311 0 -0.0040972302668940176 0.00022571108588712019 0 -0.003924658641547848 0.00017209464731610035 0 -0.0043042905238979742 0.00020862665450168958 0 -0.0040972302668940176 0.00022571108588712019 0 -0.0042931073508789847 0.0004133300054639128 0 -0.0041060409344243366 0.00023292567637532311 0 -0.0039593460198595245 7.4803415518461038e-05 0 -0.003924658641547848 0.00017209464731610035 0 -0.00679151451020861 -0.00026875224664382248 0 -0.0037329365789201901 -0.00037712948647282841 0 -0.00679151451020861 -0.00026875224664382248 0 -0.0052903574423308073 -0.00045954740824713356 0 -0.00068185222808435537 0.0010054821552512837 0 -0.00043207909113997841 0.00070071861788929195 0 -0.00072990274027320617 0.00077157463796924278 0 -0.00043207909113997841 0.00070071861788929195 0 -0.00072990274027320617 0.00077157463796924278 0 -0.00060407108640287332 0.00061969009264472902 0 -0.0052903574423308073 -0.00045954740824713356 0 -0.0037681710851772774 -0.00056637564622912277 0 -0.00072990274027320617 0.00077157463796924278 0 -0.00060407108640287332 0.00061969009264472902 0 -0.00078696852344834248 0.00053518714579853699 0 -0.00060407108640287332 0.00061969009264472902 0 -0.00047336038260240883 0.00041150848667615987 0 -0.00078696852344834248 0.00053518714579853699 0 -0.00043207909113997841 0.00070071861788929195 0 -0.00047336038260240883 0.00041150848667615987 0 -0.00020610650523391916 0.00041003711613211215 0 -0.00043207909113997841 0.00070071861788929195 0 -0.00060407108640287332 0.00061969009264472902 0 -0.00047336038260240883 0.00041150848667615987 0 -0.00047336038260240883 0.00041150848667615987 0 -0.00033957521593481652 0.00015193000778557938 0 -0.00020610650523391916 0.00041003711613211215 0 -0.00047336038260240883 0.00041150848667615987 0 -0.00071005167110691565 0.00052132902928436677 0 -0.00058741481710892259 0.00028047943332087114 0 -0.0023100560539411263 -0.00075254421765257853 0 -0.0037681710851772774 -0.00056637564622912277 0 -0.00071005167110691565 0.00052132902928436677 0 -0.00076992933288873723 0.00026556769838889291 0 -0.00058741481710892259 0.00028047943332087114 0 -0.0037681710851772774 -0.00056637564622912277 0 -0.00072039783914702889 0.00055628577786195617 0 0.00092458385060511638 0.0013390141482236644 0 0.0010410609763650391 0.0014554679289323252 0 0.00097084469140073745 0.0011621409744586135 0 0.00088457184658654773 0.0012537239976240548 0 0.00092458385060511638 0.0013390141482236644 0 0.00094892716071546038 0.0011854528482452525 0 0.00092458385060511638 0.0013390141482236644 0 0.00097084469140073745 0.0011621409744586135 0 0.00094892716071546038 0.0011854528482452525 0 0.00092458385060511638 0.0013390141482236644 0 0.0010410609763650391 0.0014554679289323252 0 0.00074731484564641987 0.0016263866870950524 0 -0.0037681710851772774 -0.00056637564622912277 0 -0.0050471553558810861 -0.00013434409894949253 0 -0.0098821918240903084 -0.0018192295666920049 0 -0.01005252639803453 -0.0025352680750398877 0 -0.011103071524642719 -0.0020462850311851965 0 0.00092458385060511638 0.0013390141482236644 0 0.00074731484564641987 0.0016263866870950524 0 0.0007756823009957191 0.0013420292266811838 0 0.0006040052540066508 0.001377196634703213 0 0.00074731484564641987 0.0016263866870950524 0 0.0007756823009957191 0.0013420292266811838 0 0.00088457184658654773 0.0012537239976240548 0 0.00092458385060511638 0.0013390141482236644 0 0.0007756823009957191 0.0013420292266811838 0 0.00088457184658654773 0.0012537239976240548 0 0.0007756823009957191 0.0013420292266811838 0 0.00081563256750449831 0.0011988642341166276 0 0.0007756823009957191 0.0013420292266811838 0 0.00069493831278022054 0.0012185906100116647 0 0.00081563256750449831 0.0011988642341166276 0 0.0006040052540066508 0.001377196634703213 0 0.0007756823009957191 0.0013420292266811838 0 0.00069493831278022054 0.0012185906100116647 0 0.00069493831278022054 0.0012185906100116647 0 0.00081563256750449831 0.0011988642341166276 0 0.0007613018105925315 0.0011116546885033291 0 0.00064641989511556052 0.001093366233442337 0 0.00069493831278022054 0.0012185906100116647 0 0.0007613018105925315 0.0011116546885033291 0 0.00081563256750449831 0.0011988642341166276 0 0.00086552131622038317 0.0011102571421175739 0 0.0007613018105925315 0.0011116546885033291 0 0.00088457184658654773 0.0012537239976240548 0 0.00081563256750449831 0.0011988642341166276 0 0.00087980766194531987 0.0011885785230331403 0 0.00081563256750449831 0.0011988642341166276 0 0.00086552131622038317 0.0011102571421175739 0 0.00087980766194531987 0.0011885785230331403 0 0.00086552131622038317 0.0011102571421175739 0 0.00091637764370370667 0.00096817138898425083 0 0.00075627765682677902 0.00098337007019059478 0 0.00086552131622038317 0.0011102571421175739 0 0.0007613018105925315 0.0011116546885033291 0 0.00075627765682677902 0.00098337007019059478 0 0.00060077136992577247 0.00097118568543929696 0 0.00064641989511556052 0.001093366233442337 0 0.00075627765682677902 0.00098337007019059478 0 0.00064641989511556052 0.001093366233442337 0 0.0007613018105925315 0.0011116546885033291 0 0.00075627765682677902 0.00098337007019059478 0 8.6059992863829683e-05 0.00048631700125923745 0 4.905840531359542e-05 0.00033227930547740443 0 0.00023267434358681535 0.00033053000568189673 0 0.00086552131622038317 0.0011102571421175739 0 0.00097101828242015132 0.0011605891615962445 0 0.00094892716071546038 0.0011854528482452525 0 -0.00072039783914702889 0.00055628577786195617 0 -0.00071234500650504506 0.00055399227360988638 0 0.00088457184658654773 0.0012537239976240548 0 0.00094892716071546038 0.0011854528482452525 0 0.00087980766194531987 0.0011885785230331403 0 0.00086552131622038317 0.0011102571421175739 0 0.00094892716071546038 0.0011854528482452525 0 0.00087980766194531987 0.0011885785230331403 0 -0.00072039783914702889 0.00055628577786195617 0 0.00020457630406642578 0.00058024890509873143 0 0.00086552131622038317 0.0011102571421175739 0 0.00097101828242015132 0.0011605891615962445 0 0.00091637764370370667 0.00096817138898425083 0 -0.00072039783914702889 0.00055628577786195617 0 -0.00022892622663128973 0.00030990915642020294 0 4.905840531359542e-05 0.00033227930547740443 0 0.00018797205789710427 0.00022277988535425526 0 0.00023267434358681535 0.00033053000568189673 0 4.905840531359542e-05 0.00033227930547740443 0 1.2015987351009141e-05 0.0001785513081437641 0 0.00018797205789710427 0.00022277988535425526 0 0.00020457630406642578 0.00058024890509873143 0 0.0010541924412292021 0.00050239645706911271 0 0.00075627765682677902 0.00098337007019059478 0 0.00066645266983676786 0.00083502927692004239 0 0.00086139539464503718 0.0007727881684699839 0 0.00091637764370370667 0.00096817138898425083 0 0.00075627765682677902 0.00098337007019059478 0 0.00086139539464503718 0.0007727881684699839 0 0.00060077136992577247 0.00097118568543929696 0 0.00075627765682677902 0.00098337007019059478 0 0.00066645266983676786 0.00083502927692004239 0 0.00057497035363159336 0.00076451481246818419 0 0.00066645266983676786 0.00083502927692004239 0 0.00068353502038363161 0.00074253113369642963 0 0.00068353502038363161 0.00074253113369642963 0 0.0007763607386389172 0.0007961820572668938 0 0.0007068632377153131 0.00055915938849660451 0 0.00057497035363159336 0.00076451481246818419 0 0.00068353502038363161 0.00074253113369642963 0 0.0006182633093345278 0.0006873844040025599 0 0.00066645266983676786 0.00083502927692004239 0 0.00068353502038363161 0.00074253113369642963 0 0.0007763607386389172 0.0007961820572668938 0 0.00095296992812417822 0.00054991203841269853 0 0.0010541924412292021 0.00050239645706911271 0 1.2015987351009141e-05 0.0001785513081437641 0 0.00026790039365431965 9.825952871043109e-05 0 0.00018797205789710427 0.00022277988535425526 0 0.0018358973588485819 -9.9345141655596817e-05 0 0.0017672487886483232 1.3779426499604132e-05 0 0.001644766849554733 -4.1559273112445406e-05 0 0.0010541924412292021 0.00050239645706911271 0 0.0009424022045679321 0.0002110302783556859 0 0.0018358973588485819 -9.9345141655596817e-05 0 0.0017672487886483232 1.3779426499604132e-05 0 0.0018883697973602412 0.00010102566468500207 0 0.0027821457849598959 0.00018835315131581707 0 0.0025022626763010754 2.1647204753182377e-05 0 0.0017672487886483232 1.3779426499604132e-05 0 0.0018883697973602412 0.00010102566468500207 0 0.0016600126957734911 9.233310269529759e-05 0 0.0010541924412292021 0.00050239645706911271 0 0.0027821457849598959 0.00018835315131581707 0 0.00068353502038363161 0.00074253113369642963 0 0.0006182633093345278 0.0006873844040025599 0 0.0007068632377153131 0.00055915938849660451 0 0.0027821457849598959 0.00018835315131581707 0 0.0027387739874887981 0.00018921994451574436 0 0.0006025553142771456 0.00060984058953670618 0 0.00067049414417941862 0.0005581141838370083 0 0.00058295588315399115 0.00052992990207096095 0 0.0006025553142771456 0.00060984058953670618 0 0.0007068632377153131 0.00055915938849660451 0 0.00067049414417941862 0.0005581141838370083 0 0.0006025553142771456 0.00060984058953670618 0 0.0006182633093345278 0.0006873844040025599 0 0.0007068632377153131 0.00055915938849660451 0 0.0015616091580828036 3.5360987278474862e-05 0 0.0015107429374449863 8.0317054998449605e-06 0 0.001644766849554733 -4.1559273112445406e-05 0 0.0015616091580828036 3.5360987278474862e-05 0 0.0016600126957734911 9.233310269529759e-05 0 0.0014309457965102485 8.293062537822675e-05 0 0.0015616091580828036 3.5360987278474862e-05 0 0.0015107429374449863 8.0317054998449605e-06 0 0.0014309457965102485 8.293062537822675e-05 0 0.0035815626531799606 -0.00040420577118023115 0 0.0034025691790352465 -0.00041225001613910358 0 0.0035007046733526157 -0.00034461607401544011 0 0.0025022626763010754 2.1647204753182377e-05 0 0.0016550115322624675 -2.3952848431959508e-05 0 0.0017672487886483232 1.3779426499604132e-05 0 0.0016600126957734911 9.233310269529759e-05 0 0.001644766849554733 -4.1559273112445406e-05 0 0.0015616091580828036 3.5360987278474862e-05 0 0.0016600126957734911 9.233310269529759e-05 0 0.001644766849554733 -4.1559273112445406e-05 0 0.00026790039365431965 9.825952871043109e-05 0 0.00037887572428249241 0.00017444500581363521 0 0.00018797205789710427 0.00022277988535425526 0 0.0015107429374449863 8.0317054998449605e-06 0 0.001644766849554733 -4.1559273112445406e-05 0 0.0014517387951672484 1.475754550551104e-05 0 0.00026790039365431965 9.825952871043109e-05 0 0.00037887572428249241 0.00017444500581363521 0 0.00052469490289403203 1.7788935491105072e-05 0 -0.00042946088483039352 -6.1498764859987642e-05 0 -0.00027917560809552109 -4.5343148743314929e-05 0 -0.00025347016388180211 -0.00020373533627735598 0 0.0009424022045679321 0.0002110302783556859 0 0.00065015890409921158 7.9247219315560581e-05 0 0.0001597448030610651 0.00019065208612708911 0 0.00065015890409921158 7.9247219315560581e-05 0 -0.00042946088483039352 -6.1498764859987642e-05 0 -0.00060572180962594163 9.8619574464652157e-05 0 -0.00033957521593481652 0.00015193000778557938 0 -0.00042946088483039352 -6.1498764859987642e-05 0 -0.00033957521593481652 0.00015193000778557938 0 -0.00027917560809552109 -4.5343148743314929e-05 0 0.00037887572428249241 0.00017444500581363521 0 0.00018797205789710427 0.00022277988535425526 0 0.00023267434358681535 0.00033053000568189673 0 0.0001597448030610651 0.00019065208612708911 0 -0.00022892622663128973 0.00030990915642020294 0 -0.00060572180962594163 9.8619574464652157e-05 0 -0.00058741481710892259 0.00028047943332087114 0 -0.00033957521593481652 0.00015193000778557938 0 -0.00076992933288873723 0.00026556769838889291 0 -0.00060572180962594163 9.8619574464652157e-05 0 -0.00058741481710892259 0.00028047943332087114 0 -0.00047336038260240883 0.00041150848667615987 0 -0.00058741481710892259 0.00028047943332087114 0 -0.00033957521593481652 0.00015193000778557938 0 -0.00033957521593481652 0.00015193000778557938 0 -5.4152528618705335e-06 0.00014150031336025563 0 -0.00020610650523391916 0.00041003711613211215 0 -0.0036983853749710813 0.00014078846269107573 0 -0.0037383053173054631 4.4645458103203223e-05 0 -0.0037655961997543198 -2.7251535693954494e-05 0 -0.0018846362120528543 0.00010799966811723063 0 -0.0025458895824972162 -9.6984067672629861e-05 0 -5.4152528618705335e-06 0.00014150031336025563 0 -0.00015244968172833698 -1.6366682346194154e-06 0 -4.0880215166892606e-06 -0.00013201182005646305 0 -0.00033957521593481652 0.00015193000778557938 0 -0.00015244968172833698 -1.6366682346194154e-06 0 -0.00027917560809552109 -4.5343148743314929e-05 0 -0.00033957521593481652 0.00015193000778557938 0 -5.4152528618705335e-06 0.00014150031336025563 0 -0.00015244968172833698 -1.6366682346194154e-06 0 -0.00027917560809552109 -4.5343148743314929e-05 0 -0.00015947875496482485 -0.0001244766627853528 0 -0.00025347016388180211 -0.00020373533627735598 0 -0.00015244968172833698 -1.6366682346194154e-06 0 -0.00027917560809552109 -4.5343148743314929e-05 0 -0.00015947875496482485 -0.0001244766627853528 0 -0.00015244968172833698 -1.6366682346194154e-06 0 -0.00015947875496482485 -0.0001244766627853528 0 -4.0880215166892606e-06 -0.00013201182005646305 0 -0.00015947875496482485 -0.0001244766627853528 0 -4.0880215166892606e-06 -0.00013201182005646305 0 -0.0001152311291693218 -0.0002147376621523122 0 0.0010056499587218022 7.0116481489731643e-06 0 0.00036917849336763338 -2.5372183690947707e-05 0 -0.00014903255002142284 -0.00026362201267000689 0 -0.0001152311291693218 -0.0002147376621523122 0 6.8252768369682465e-05 -0.00018243919112926842 0 -4.0880215166892606e-06 -0.00013201182005646305 0 -0.0001152311291693218 -0.0002147376621523122 0 6.8252768369682465e-05 -0.00018243919112926842 0 0.00038820045119378714 0.00012191807506933631 0 0.00057701263839707686 7.6058589702791233e-05 0 0.00044015487548066491 6.2439715098351359e-05 0 0.0010056499587218022 7.0116481489731643e-06 0 0.00094921173225547364 4.5261864617566026e-05 0 0.00044054672793518754 7.26447323719721e-05 0 0.00043934482187645577 7.5047409682417983e-05 0 0.00044015487548066491 6.2439715098351359e-05 0 0.0010056499587218022 7.0116481489731643e-06 0 0.0016550115322624675 -2.3952848431959508e-05 0 0.0013896694459307232 7.8174771883782369e-05 0 0.0014297239384820752 8.0080269205737731e-05 0 0.0014517387951672484 1.475754550551104e-05 0 0.0010056499587218022 7.0116481489731643e-06 0 0.00065015890409921158 7.9247219315560581e-05 0 0.0016200701414430254 1.0015294554225177e-06 0 0.0016550115322624675 -2.3952848431959508e-05 0 0.0015107429374449863 8.0317054998449605e-06 0 0.0014297239384820752 8.0080269205737731e-05 0 0.0014517387951672484 1.475754550551104e-05 0 -0.00014903255002142284 -0.00026362201267000689 0 -0.0002219131471777386 -0.00018160256290254665 0 -0.0001152311291693218 -0.0002147376621523122 0 0.00065015890409921158 7.9247219315560581e-05 0 0.00050342150289376482 9.3824126233012245e-05 0 -0.00015947875496482485 -0.0001244766627853528 0 -0.00025347016388180211 -0.00020373533627735598 0 -0.0001152311291693218 -0.0002147376621523122 0 -1.2830005951213488e-05 -3.089083391105561e-05 0 8.3964487454353843e-05 -0.00014041447070583182 0 0.00014330620219814869 -0.00014100971815205436 0 -0.00015147439234450453 1.6930516475767598e-07 0 -0.0012129300657613867 0.00020677733496605785 0 -1.2830005951213488e-05 -3.089083391105561e-05 0 -0.00014486242675917701 3.3289133940002285e-07 0 0.00014330620219814869 -0.00014100971815205436 0 -1.2830005951213488e-05 -3.089083391105561e-05 0 -0.00014486242675917701 3.3289133940002285e-07 0 0.00057330987979514205 0.00018982813713856552 0 -1.2830005951213488e-05 -3.089083391105561e-05 0 0.00057701263839707686 7.6058589702791233e-05 0 0.00057330987979514205 0.00018982813713856552 0 0.00018533767558055812 -3.2229902208251426e-05 0 0.00036917849336763338 -2.5372183690947707e-05 0 -1.2830005951213488e-05 -3.089083391105561e-05 0 6.8252768369682465e-05 -0.00018243919112926842 0 8.3964487454353843e-05 -0.00014041447070583182 0 -4.0880215166892606e-06 -0.00013201182005646305 0 6.8252768369682465e-05 -0.00018243919112926842 0 8.3964487454353843e-05 -0.00014041447070583182 0 -5.4152528618705335e-06 0.00014150031336025563 0 -4.0880215166892606e-06 -0.00013201182005646305 0 0.00014330620219814869 -0.00014100971815205436 0 -4.0880215166892606e-06 -0.00013201182005646305 0 8.3964487454353843e-05 -0.00014041447070583182 0 0.00014330620219814869 -0.00014100971815205436 0 -0.00015140008347949322 -8.8605798443464905e-07 0 -0.0027937007913311092 -0.00013901770008377758 0 -0.0018285912088799314 1.9023756613564621e-07 0 -0.0027937007913311092 -0.00013901770008377758 0 -0.0018285912088799314 1.9023756613564621e-07 0 -0.003176274611828094 0.0001113649150983323 0 -0.0018285912088799314 1.9023756613564621e-07 0 -0.003176274611828094 0.0001113649150983323 0 -0.0035068237524852105 3.4004668194203728e-07 0 -0.0018846362120528543 0.00010799966811723063 0 -0.0012129300657613867 0.00020677733496605785 0 -0.0036983853749710813 0.00014078846269107573 0 -0.0027937007913311092 -0.00013901770008377758 0 -0.003176274611828094 0.0001113649150983323 0 -0.0036983853749710813 0.00014078846269107573 0 -0.003176274611828094 0.0001113649150983323 0 -0.0037889057285948754 0.00017492569160663531 0 -0.0036983853749710813 0.00014078846269107573 0 -0.0037889057285948754 0.00017492569160663531 0 -0.0037383053173054631 4.4645458103203223e-05 0 -0.003176274611828094 0.0001113649150983323 0 -0.0037889057285948754 0.00017492569160663531 0 -0.0035068237524852105 3.4004668194203728e-07 0 -0.0037889057285948754 0.00017492569160663531 0 -0.0035068237524852105 3.4004668194203728e-07 0 -0.0045599160464658926 4.8780117760998961e-05 0 -0.0051854263415723346 4.5924575692610654e-07 0 -0.0045599160464658926 4.8780117760998961e-05 0 -0.0055340366855458414 4.6634751820503932e-05 0 -0.0035068237524852105 3.4004668194203728e-07 0 -0.0051854263415723346 4.5924575692610654e-07 0 -0.0045599160464658926 4.8780117760998961e-05 0 -0.0045599160464658926 4.8780117760998961e-05 0 -0.0055340366855458414 4.6634751820503932e-05 0 -0.0055705246290009679 6.8417538609597724e-05 0 -0.0051854263415723346 4.5924575692610654e-07 0 -0.0055340366855458414 4.6634751820503932e-05 0 -0.0068614850816824634 -1.0900750883466588e-06 0 -0.0055340366855458414 4.6634751820503932e-05 0 -0.0055705246290009679 6.8417538609597724e-05 0 -0.0058810184746409255 -7.0234842080970497e-05 0 -0.0055340366855458414 4.6634751820503932e-05 0 -0.0068614850816824634 -1.0900750883466588e-06 0 -0.0058810184746409255 -7.0234842080970497e-05 0 -0.0058003926838903321 -0.00022201650673305098 0 -0.0062593461979724091 -9.9208888928342793e-06 0 -0.0038598948717753229 -0.001152780887382898 0 -0.0034926854421204012 -0.00047772438941909182 0 -0.0039078103153707055 -0.00010095020401498161 0 -0.0062593461979724091 -9.9208888928342793e-06 0 -0.0052748928361145576 7.503222442304129e-05 0 -0.0045599160464658926 4.8780117760998961e-05 0 -0.0038598948717753229 -0.001152780887382898 0 -0.0039078103153707055 -0.00010095020401498161 0 -0.0052748928361145576 7.503222442304129e-05 0 -0.0052349989638936396 9.9116779807117796e-05 0 -0.0037932788863888258 -0.00013617431955946331 0 -0.0039078103153707055 -0.00010095020401498161 0 -0.0037449023769736112 -3.3813875578648176e-05 0 -0.0052748928361145576 7.503222442304129e-05 0 -0.0051209933656333247 -2.1615385047812613e-05 0 -0.0037889057285948754 0.00017492569160663531 0 -0.0045599160464658926 4.8780117760998961e-05 0 -0.0039078103153707055 -0.00010095020401498161 0 -0.0039078103153707055 -0.00010095020401498161 0 -0.0037383053173054631 4.4645458103203223e-05 0 -0.0037449023769736112 -3.3813875578648176e-05 0 -0.0037889057285948754 0.00017492569160663531 0 -0.0039078103153707055 -0.00010095020401498161 0 -0.0037383053173054631 4.4645458103203223e-05 0 -0.0037383053173054631 4.4645458103203223e-05 0 -0.0037449023769736112 -3.3813875578648176e-05 0 -0.0037655961997543198 -2.7251535693954494e-05 0 -0.0039593460198595245 7.4803415518461038e-05 0 -0.0037655961997543198 -2.7251535693954494e-05 0 -0.0037762940395748117 6.4635939129968175e-05 0 -0.0037329365789201901 -0.00037712948647282841 0 -0.0025458895824972162 -9.6984067672629861e-05 0 -0.0047425688799558269 0.00060575265634946912 0 -0.0046673750888689657 0.00074180724398851844 0 -0.0044813385073198151 0.00057781720439017037 0 -0.0037298658336122259 -8.5497592449386301e-06 0 -0.0037449023769736112 -3.3813875578648176e-05 0 -0.0037762940395748117 6.4635939129968175e-05 0 -0.0052748928361145576 7.503222442304129e-05 0 -0.0046180444577959764 3.7936840359530238e-05 0 -0.0037449023769736112 -3.3813875578648176e-05 0 -0.0037655961997543198 -2.7251535693954494e-05 0 -0.0037762940395748117 6.4635939129968175e-05 0 -0.0044813385073198151 0.00057781720439017037 0 -0.0044232533753875833 0.00031622037148240433 0 -0.0045932360708378335 0.00032901966314771974 0 -0.0047425688799558269 0.00060575265634946912 0 -0.0044813385073198151 0.00057781720439017037 0 -0.0045932360708378335 0.00032901966314771974 0 -0.0046180444577959764 3.7936840359530238e-05 0 -0.0043659998871735202 6.8240881772035444e-05 0 -0.0044813385073198151 0.00057781720439017037 0 -0.0042931073508789847 0.0004133300054639128 0 -0.0044232533753875833 0.00031622037148240433 0 -0.0039593460198595245 7.4803415518461038e-05 0 -0.0037762940395748117 6.4635939129968175e-05 0 -0.003924658641547848 0.00017209464731610035 0 -0.0043042905238979742 0.00020862665450168958 0 -0.0042931073508789847 0.0004133300054639128 0 -0.0044232533753875833 0.00031622037148240433 0 -0.0044415112097011917 6.2520365546573321e-05 0 -0.0044232533753875833 0.00031622037148240433 0 -0.0045932360708378335 0.00032901966314771974 0 -0.0079215546649494019 -0.00011204135296310675 0 -0.0078196930560988139 7.5484536352019152e-05 0 -0.0074487903280019679 -0.00024458754759815681 0 -0.0088547043649105876 -5.3835230331180814e-05 0 -0.0077329462435418222 -2.9903070084839707e-05 0 -0.0091707809578880084 -5.9773201560190076e-07 0 -0.0077329462435418222 -2.9903070084839707e-05 0 -0.0091719092134966967 2.5366417999960196e-10 0 -0.0080185579399964894 3.5274501206336233e-10 0 -0.0076108874779529561 2.7441903859836461e-07 0 -0.0091765104454784308 -1.3106706664303009e-06 0 -0.010773942162506116 -0.00051839338589535942 0 -0.0098151371791211084 -0.0012869207525104094 0 -0.0055705246290009679 6.8417538609597724e-05 0 -0.0057986854613481468 -0.00074342083548482949 0 -0.0058810184746409255 -7.0234842080970497e-05 0 -0.0080185579399964894 3.5274501206336233e-10 0 -0.0076108874779529561 2.7441903859836461e-07 0 -0.0068652063860759087 5.4577860972557245e-10 0 -0.0077329462435418222 -2.9903070084839707e-05 0 -0.0068657742882439277 -7.3597022202257735e-07 0 -0.0057986854613481468 -0.00074342083548482949 0 -0.0068614850816824634 -1.0900750883466588e-06 0 -0.0058810184746409255 -7.0234842080970497e-05 0 -0.0062593461979724091 -9.9208888928342793e-06 0 -0.0073568947988821975 -0.00026237430161476903 0 -0.0062593461979724091 -9.9208888928342793e-06 0 -0.0077329462435418222 -2.9903070084839707e-05 0 -0.0076516470691366054 -0.00061733732545006146 0 -0.0079215546649494019 -0.00011204135296310675 0 -0.0074487903280019679 -0.00024458754759815681 0 -0.013547021087155305 0.0049108105301353478 0 -0.013251178547264288 0.0048390872567094035 0 -0.013232895958078715 0.0051810164419711152 0 -0.013547021087155305 0.0049108105301353478 0 -0.013251178547264288 0.0048390872567094035 0 -0.013441720623992806 0.004732792058661746 0 -0.013251178547264288 0.0048390872567094035 0 -0.013441720623992806 0.004732792058661746 0 -0.013290768651163076 0.0046087817116187901 0 -0.013547021087155305 0.0049108105301353478 0 -0.013441720623992806 0.004732792058661746 0 -0.013669738308995772 0.0045753962611001274 0 -0.0086951397930145179 0.0018984629637213615 0 -0.0096440677005769256 0.0015440182042641974 0 -0.013547021087155305 0.0049108105301353478 0 -0.013669738308995772 0.0045753962611001274 0 -0.013988516328203353 0.0049300153727485085 0 -0.013547021087155305 0.0049108105301353478 0 -0.013653238075474904 0.0051863064614293799 0 -0.013988516328203353 0.0049300153727485085 0 -0.013653238075474904 0.0051863064614293799 0 -0.013988516328203353 0.0049300153727485085 0 -0.013909946558816152 0.0053537780310489299 0 -0.013653238075474904 0.0051863064614293799 0 -0.013232895958078715 0.0051810164419711152 0 -0.013494142409764646 0.0054575512780224798 0 -0.013547021087155305 0.0049108105301353478 0 -0.013653238075474904 0.0051863064614293799 0 -0.013232895958078715 0.0051810164419711152 0 -0.015188538638279646 0.0020443651909275566 0 -0.016257192843708135 0.00088752419674102462 0 -0.011596370407886095 0.0042937777382339214 0 -0.012441214066097868 0.0042767027712568365 0 -0.01232815169061909 0.0032963654926287007 0 -0.012441214066097868 0.0042767027712568365 0 -0.013315021586270848 0.004331243344486411 0 -0.01232815169061909 0.0032963654926287007 0 -0.013315021586270848 0.004331243344486411 0 -0.01410492551642191 0.0026635491488479482 0 -0.01232815169061909 0.0032963654926287007 0 -0.012441214066097868 0.0042767027712568365 0 -0.012938872416354811 0.0045392721352789924 0 -0.012917181611872946 0.0049082448013562686 0 -0.012441214066097868 0.0042767027712568365 0 -0.012938872416354811 0.0045392721352789924 0 -0.013315021586270848 0.004331243344486411 0 -0.011596370407886095 0.0042937777382339214 0 -0.012441214066097868 0.0042767027712568365 0 -0.012917181611872946 0.0049082448013562686 0 -0.015188538638279646 0.0020443651909275566 0 -0.014926059694518648 0.0024510109315906184 0 -0.015249110470606685 0.0034191994773612598 0 -0.013315021586270848 0.004331243344486411 0 -0.017698036988621574 0.0041089479999825282 0 -0.014996741521328641 0.0035254028939305949 0 -0.017095856517351977 0.0033421639950987638 0 -0.013315021586270848 0.004331243344486411 0 -0.012793753706583255 0.0048122570171355121 0 -0.012274227225721414 0.0050988355419836571 0 -0.014996741521328641 0.0035254028939305949 0 -0.014678372893197816 0.0041496697444157191 0 -0.015249110470606685 0.0034191994773612598 0 -0.013315021586270848 0.004331243344486411 0 -0.01410492551642191 0.0026635491488479482 0 -0.012938872416354811 0.0045392721352789924 0 -0.013315021586270848 0.004331243344486411 0 -0.012956402515030257 0.004682086744078346 0 -0.013315021586270848 0.004331243344486411 0 -0.012956402515030257 0.004682086744078346 0 -0.012793753706583255 0.0048122570171355121 0 -0.012956402515030257 0.004682086744078346 0 -0.012793753706583255 0.0048122570171355121 0 -0.012917181611872946 0.0049082448013562686 0 -0.012793753706583255 0.0048122570171355121 0 -0.012917181611872946 0.0049082448013562686 0 -0.012769599673957211 0.004663785054602871 0 -0.012793753706583255 0.0048122570171355121 0 -0.012503488037636103 0.0047081569519314198 0 -0.012769599673957211 0.004663785054602871 0 -0.013251178547264288 0.0048390872567094035 0 -0.013232895958078715 0.0051810164419711152 0 -0.012917181611872946 0.0049082448013562686 0 -0.012938872416354811 0.0045392721352789924 0 -0.012956402515030257 0.004682086744078346 0 -0.012917181611872946 0.0049082448013562686 0 -0.012917181611872946 0.0049082448013562686 0 -0.013066640735985392 0.0046296164977701164 0 -0.012769599673957211 0.004663785054602871 0 -0.013251178547264288 0.0048390872567094035 0 -0.012917181611872946 0.0049082448013562686 0 -0.013066640735985392 0.0046296164977701164 0 -0.013251178547264288 0.0048390872567094035 0 -0.013066640735985392 0.0046296164977701164 0 -0.013290768651163076 0.0046087817116187901 0 -0.013066640735985392 0.0046296164977701164 0 -0.013223396873040145 0.0043800446826851571 0 -0.013290768651163076 0.0046087817116187901 0 -0.013066640735985392 0.0046296164977701164 0 -0.012942575097081414 0.0043512825891715559 0 -0.013223396873040145 0.0043800446826851571 0 -0.013066640735985392 0.0046296164977701164 0 -0.012942575097081414 0.0043512825891715559 0 -0.012769599673957211 0.004663785054602871 0 -0.012942575097081414 0.0043512825891715559 0 -0.013223396873040145 0.0043800446826851571 0 -0.013038823393292067 0.0040995131548924903 0 -0.012942575097081414 0.0043512825891715559 0 -0.012414862882856642 0.0043676057313530373 0 -0.012727591777628451 0.0039973508394518225 0 -0.012942575097081414 0.0043512825891715559 0 -0.012769599673957211 0.004663785054602871 0 -0.012414862882856642 0.0043676057313530373 0 -0.012503488037636103 0.0047081569519314198 0 -0.012769599673957211 0.004663785054602871 0 -0.012414862882856642 0.0043676057313530373 0 -0.012414862882856642 0.0043676057313530373 0 -0.012727591777628451 0.0039973508394518225 0 -0.012281061753259818 0.0038821676983635217 0 -0.012727591777628451 0.0039973508394518225 0 -0.012923966523525648 0.0035697403665199798 0 -0.012485505955109015 0.0036278580204198462 0 -0.012727591777628451 0.0039973508394518225 0 -0.012281061753259818 0.0038821676983635217 0 -0.012485505955109015 0.0036278580204198462 0 -0.0035192964031377535 0.00034086565080662976 0 -0.0071120260234300882 0.0016497543756430592 0 -0.013038823393292067 0.0040995131548924903 0 -0.013337565743178733 0.0041405848295973701 0 -0.012923966523525648 0.0035697403665199798 0 -0.0080380794333254346 0.0019903253778510129 0 -0.0071120260234300882 0.0016497543756430592 0 -0.0026523800251795943 0.00061601624851523751 0 -0.0026818421610950781 0.00051831963012675952 0 -0.00301853461379767 0.00078360952661824803 0 -0.013223396873040145 0.0043800446826851571 0 -0.013038823393292067 0.0040995131548924903 0 -0.013337565743178733 0.0041405848295973701 0 -0.012942575097081414 0.0043512825891715559 0 -0.012727591777628451 0.0039973508394518225 0 -0.013038823393292067 0.0040995131548924903 0 -0.012727591777628451 0.0039973508394518225 0 -0.013038823393292067 0.0040995131548924903 0 -0.012923966523525648 0.0035697403665199798 0 -0.00090855649397167436 2.6932747706973494e-05 0 -0.0012807327979291914 -8.8665226362004084e-05 0 -0.0016370262548457957 0.00025009834997526435 0 -0.0035192964031377535 0.00034086565080662976 0 -0.0026103945816100607 0.00012234777434760334 0 -0.0026523800251795943 0.00061601624851523751 0 -0.0026818421610950781 0.00051831963012675952 0 -0.002426853352707098 0.00047004688712059807 0 -0.00090855649397167436 2.6932747706973494e-05 0 -0.0012807327979291914 -8.8665226362004084e-05 0 -0.0010626772512676596 -0.00035565973822160779 0 -0.0080380794333254346 0.0019903253778510129 0 -0.0086951397930145179 0.0018984629637213615 0 -0.013223396873040145 0.0043800446826851571 0 -0.013337565743178733 0.0041405848295973701 0 -0.013669738308995772 0.0045753962611001274 0 -0.0026818421610950781 0.00051831963012675952 0 -0.0024405291348089408 0.00039346260757827282 0 -0.002426853352707098 0.00047004688712059807 0 -0.013441720623992806 0.004732792058661746 0 -0.013290768651163076 0.0046087817116187901 0 -0.013669738308995772 0.0045753962611001274 0 -0.013223396873040145 0.0043800446826851571 0 -0.013290768651163076 0.0046087817116187901 0 -0.013669738308995772 0.0045753962611001274 0 -0.0024405291348089408 0.00039346260757827282 0 -0.002426853352707098 0.00047004688712059807 0 -0.0023961922090692447 0.00036255785750255698 0 -0.0016370262548457957 0.00025009834997526435 0 -0.001680148790534684 -0.00012712475249693171 0 -0.0021368637474679531 -4.4143736318660585e-05 0 -0.0012807327979291914 -8.8665226362004084e-05 0 -0.001680148790534684 -0.00012712475249693171 0 -0.0014233011864094698 -0.00030542990160204868 0 -0.0012807327979291914 -8.8665226362004084e-05 0 -0.0016370262548457957 0.00025009834997526435 0 -0.001680148790534684 -0.00012712475249693171 0 -0.0021368637474679531 -4.4143736318660585e-05 0 -0.0025920659828014762 -5.8819934780031844e-07 0 -0.0023961922090692447 0.00036255785750255698 0 -0.001680148790534684 -0.00012712475249693171 0 -0.0021368637474679531 -4.4143736318660585e-05 0 -0.001903574055881384 -0.00043059268421661152 0 -0.0025920659828014762 -5.8819934780031844e-07 0 -0.0029896382284582529 -0.00014287218355966882 0 -0.0026266234778320489 -0.00038059749805360415 0 -0.0021368637474679531 -4.4143736318660585e-05 0 -0.0025920659828014762 -5.8819934780031844e-07 0 -0.0026266234778320489 -0.00038059749805360415 0 -0.0025920659828014762 -5.8819934780031844e-07 0 -0.0028547738001022077 0.00017889015580698178 0 -0.0029896382284582529 -0.00014287218355966882 0 -0.0025920659828014762 -5.8819934780031844e-07 0 -0.0028547738001022077 0.00017889015580698178 0 -0.0023961922090692447 0.00036255785750255698 0 -0.0028547738001022077 0.00017889015580698178 0 -0.0023961922090692447 0.00036255785750255698 0 -0.0028012289552771007 0.00045534781817999282 0 -0.0026103945816100607 0.00012234777434760334 0 -0.0024829302117059205 0.00012052779875502132 0 -0.0016370262548457957 0.00025009834997526435 0 -0.0021368637474679531 -4.4143736318660585e-05 0 -0.0023961922090692447 0.00036255785750255698 0 -0.0036300304150159958 -0.00015388464792612494 0 -0.0033022543001737371 -7.8567601629266989e-06 0 -0.0032814649874153465 -0.00037659552451008149 0 -0.0029896382284582529 -0.00014287218355966882 0 -0.0033022543001737371 -7.8567601629266989e-06 0 -0.0032814649874153465 -0.00037659552451008149 0 -0.0028547738001022077 0.00017889015580698178 0 -0.0033022543001737371 -7.8567601629266989e-06 0 -0.0032227991899548632 0.00037044536726144132 0 -0.0028547738001022077 0.00017889015580698178 0 -0.0029896382284582529 -0.00014287218355966882 0 -0.0033022543001737371 -7.8567601629266989e-06 0 -0.0037010453721185474 0.00012044225751456188 0 -0.0033022543001737371 -7.8567601629266989e-06 0 -0.0032227991899548632 0.00037044536726144132 0 -0.0037010453721185474 0.00012044225751456188 0 -0.0036300304150159958 -0.00015388464792612494 0 -0.0033022543001737371 -7.8567601629266989e-06 0 -0.0037010453721185474 0.00012044225751456188 0 -0.0037185137558721315 0.00048262109884601462 0 -0.0032227991899548632 0.00037044536726144132 0 -0.0028547738001022077 0.00017889015580698178 0 -0.0032227991899548632 0.00037044536726144132 0 -0.0028012289552771007 0.00045534781817999282 0 -0.0032227991899548632 0.00037044536726144132 0 -0.0030308079618667997 0.00055939387013548389 0 -0.0028012289552771007 0.00045534781817999282 0 -0.0032227991899548632 0.00037044536726144132 0 -0.0030308079618667997 0.00055939387013548389 0 -0.0031586183482308263 0.00075954468826547003 0 -0.0030308079618667997 0.00055939387013548389 0 -0.0031586183482308263 0.00075954468826547003 0 -0.0028536287824413469 0.00063482669323403388 0 -0.015959306758813557 -0.0012177563481102652 0 -0.020251060064264734 -0.0026030318790214637 0 -0.015708180015258318 -0.004579097904956103 0 -0.015959306758813557 -0.0012177563481102652 0 -0.012190140637697869 -0.0031881160805639782 0 -0.015708180015258318 -0.004579097904956103 0 -0.0094727618668328205 -0.00027678392937191136 0 -0.015959306758813557 -0.0012177563481102652 0 -0.012190140637697869 -0.0031881160805639782 0 -0.0037185137558721315 0.00048262109884601462 0 -0.0032227991899548632 0.00037044536726144132 0 -0.0031586183482308263 0.00075954468826547003 0 -0.0074678832249651418 0.0004973029637798344 0 -0.0096155443840905928 0.00047482178030898377 0 -0.0094727618668328205 -0.00027678392937191136 0 -0.008844242090617252 -0.0036807581689260382 0 -0.012190140637697869 -0.0031881160805639782 0 -0.0024405291348089408 0.00039346260757827282 0 -0.0023961922090692447 0.00036255785750255698 0 -0.0024162052246433203 0.00051486559497812394 0 -0.0023961922090692447 0.00036255785750255698 0 -0.0024162052246433203 0.00051486559497812394 0 -0.0026137444690058653 0.00057173325601669693 0 -0.0023961922090692447 0.00036255785750255698 0 -0.0028012289552771007 0.00045534781817999282 0 -0.0026137444690058653 0.00057173325601669693 0 -0.0028012289552771007 0.00045534781817999282 0 -0.0026137444690058653 0.00057173325601669693 0 -0.0028536287824413469 0.00063482669323403388 0 -0.0030308079618667997 0.00055939387013548389 0 -0.0028012289552771007 0.00045534781817999282 0 -0.0028536287824413469 0.00063482669323403388 0 -0.0031586183482308263 0.00075954468826547003 0 -0.0028536287824413469 0.00063482669323403388 0 -0.0026756843878552659 0.00085755389070934986 0 -0.015959306758813557 -0.0012177563481102652 0 -0.020251060064264734 -0.0026030318790214637 0 -0.022620755745757511 -0.0025953587784462205 0 -0.0096155443840905928 0.00047482178030898377 0 -0.011431058737738573 0.00084145870294270589 0 -0.0026137444690058653 0.00057173325601669693 0 -0.0028536287824413469 0.00063482669323403388 0 -0.0026756843878552659 0.00085755389070934986 0 -0.020251060064264734 -0.0026030318790214637 0 -0.022620755745757511 -0.0025953587784462205 0 -0.020767970735569935 -0.00310047771987835 0 -0.0096440677005769256 0.0015440182042641974 0 -0.011431058737738573 0.00084145870294270589 0 -0.013988516328203353 0.0049300153727485085 0 -0.014308014553148557 0.0052537410203089153 0 -0.013909946558816152 0.0053537780310489299 0 -0.0024162052246433203 0.00051486559497812394 0 -0.0026137444690058653 0.00057173325601669693 0 -0.0026756843878552659 0.00085755389070934986 0 -0.020451558712692764 -0.0034072426296857228 0 -0.020075373811518537 -0.0027899829236483391 0 -0.019265584081551341 -0.0031513658786919705 0 -0.011431058737738573 0.00084145870294270589 0 -0.015067964740443012 0.00072119308370239079 0 -0.020075373811518537 -0.0027899829236483391 0 -0.019538819591581207 -0.0023100487471823124 0 -0.019265584081551341 -0.0031513658786919705 0 -0.020075373811518537 -0.0027899829236483391 0 -0.020243343435321168 -0.0020478804238233772 0 -0.019538819591581207 -0.0023100487471823124 0 -0.020451558712692764 -0.0034072426296857228 0 -0.020075373811518537 -0.0027899829236483391 0 -0.020467252600251212 -0.0029967627224333853 0 -0.011431058737738573 0.00084145870294270589 0 -0.011837268814467812 0.00097238314140881961 0 -0.020451558712692764 -0.0034072426296857228 0 -0.020467252600251212 -0.0029967627224333853 0 -0.020767970735569935 -0.00310047771987835 0 -0.020467252600251212 -0.0029967627224333853 0 -0.020767970735569935 -0.00310047771987835 0 -0.020576413699942363 -0.0027085306127847828 0 -0.020251060064264734 -0.0026030318790214637 0 -0.020767970735569935 -0.00310047771987835 0 -0.020946460837771973 -0.0028944013847111739 0 -0.020767970735569935 -0.00310047771987835 0 -0.020576413699942363 -0.0027085306127847828 0 -0.020946460837771973 -0.0028944013847111739 0 -0.020576413699942363 -0.0027085306127847828 0 -0.020805987196069391 -0.0023434149720163071 0 -0.020946460837771973 -0.0028944013847111739 0 -0.020075373811518537 -0.0027899829236483391 0 -0.020576413699942363 -0.0027085306127847828 0 -0.020243343435321168 -0.0020478804238233772 0 -0.020075373811518537 -0.0027899829236483391 0 -0.020467252600251212 -0.0029967627224333853 0 -0.020576413699942363 -0.0027085306127847828 0 -0.020243343435321168 -0.0020478804238233772 0 -0.020805987196069391 -0.0023434149720163071 0 -0.020650125800756317 -0.0017945353404220056 0 -0.020576413699942363 -0.0027085306127847828 0 -0.020243343435321168 -0.0020478804238233772 0 -0.020805987196069391 -0.0023434149720163071 0 -0.020805987196069391 -0.0023434149720163071 0 -0.020650125800756317 -0.0017945353404220056 0 -0.021116012551259489 -0.0016225846829631011 0 -0.020650125800756317 -0.0017945353404220056 0 -0.021116012551259489 -0.0016225846829631011 0 -0.020454927831762962 -0.0011539843498553036 0 -0.020243343435321168 -0.0020478804238233772 0 -0.020650125800756317 -0.0017945353404220056 0 -0.020454927831762962 -0.0011539843498553036 0 -0.019538819591581207 -0.0023100487471823124 0 -0.019740690302189196 -0.00091065684872422873 0 -0.018796488396515054 -0.0019235169022269883 0 -0.020243343435321168 -0.0020478804238233772 0 -0.019538819591581207 -0.0023100487471823124 0 -0.019740690302189196 -0.00091065684872422873 0 -0.008844242090617252 -0.0036807581689260382 0 -0.012190140637697869 -0.0031881160805639782 0 -0.01140791819281672 -0.0061672463091838985 0 -0.012190140637697869 -0.0031881160805639782 0 -0.01140791819281672 -0.0061672463091838985 0 -0.015708180015258318 -0.004579097904956103 0 -0.016735737402838964 -0.0028952873848452484 0 -0.017905216694480797 -0.0027357818340383866 0 -0.022686692682576663 -0.0030965625386920755 0 -0.022339453443577111 -0.0029804345899805884 0 -0.022310348853826878 -0.0024394571076740319 0 -0.022339453443577111 -0.0029804345899805884 0 -0.021677706372518118 -0.0027665682982066188 0 -0.022310348853826878 -0.0024394571076740319 0 -0.022655395920638609 -0.0030653192226168654 0 -0.022339453443577111 -0.0029804345899805884 0 -0.021471860458723801 -0.0031935786089559268 0 -0.016735737402838964 -0.0028952873848452484 0 -0.016881113172577553 -0.0029036620583187361 0 -0.021677706372518118 -0.0027665682982066188 0 -0.021471860458723801 -0.0031935786089559268 0 -0.020946460837771973 -0.0028944013847111739 0 -0.022339453443577111 -0.0029804345899805884 0 -0.021677706372518118 -0.0027665682982066188 0 -0.021471860458723801 -0.0031935786089559268 0 -0.020251060064264734 -0.0026030318790214637 0 -0.021471860458723801 -0.0031935786089559268 0 -0.020946460837771973 -0.0028944013847111739 0 -0.018498704713164869 -0.0025638022768764098 0 -0.017905216694480797 -0.0027357818340383866 0 -0.020805987196069391 -0.0023434149720163071 0 -0.020946460837771973 -0.0028944013847111739 0 -0.021417877913210051 -0.0022975821190822448 0 -0.021677706372518118 -0.0027665682982066188 0 -0.020946460837771973 -0.0028944013847111739 0 -0.021417877913210051 -0.0022975821190822448 0 -0.020805987196069391 -0.0023434149720163071 0 -0.021417877913210051 -0.0022975821190822448 0 -0.021116012551259489 -0.0016225846829631011 0 -0.021417877913210051 -0.0022975821190822448 0 -0.021116012551259489 -0.0016225846829631011 0 -0.021900458853732308 -0.0015747751733937569 0 -0.021677706372518118 -0.0027665682982066188 0 -0.021417877913210051 -0.0022975821190822448 0 -0.022310348853826878 -0.0024394571076740319 0 -0.021417877913210051 -0.0022975821190822448 0 -0.021900458853732308 -0.0015747751733937569 0 -0.022310348853826878 -0.0024394571076740319 0 -0.021900458853732308 -0.0015747751733937569 0 -0.022310348853826878 -0.0024394571076740319 0 -0.022958693314531778 -0.001731623472098025 0 -0.023477865203605043 -0.002507386216426035 0 -0.022310348853826878 -0.0024394571076740319 0 -0.022958693314531778 -0.001731623472098025 0 -0.023477865203605043 -0.002507386216426035 0 -0.022686692682576663 -0.0030965625386920755 0 -0.022310348853826878 -0.0024394571076740319 0 -0.02351325228014127 -0.00055055388439636036 0 -0.021900458853732308 -0.0015747751733937569 0 -0.022958693314531778 -0.001731623472098025 0 -0.02351325228014127 -0.00055055388439636036 0 -0.021900458853732308 -0.0015747751733937569 0 -0.0214836074127937 -0.00024700937276038204 0 -0.021116012551259489 -0.0016225846829631011 0 -0.021900458853732308 -0.0015747751733937569 0 -0.0214836074127937 -0.00024700937276038204 0 -0.0229684571184058 -0.00037816183623029748 0 -0.024451775547118852 -0.00020241094622998299 0 -0.023623876792069398 -0.0012346307327893618 0 -0.025241738235997967 -0.0014613681204763802 0 -0.024451775547118852 -0.00020241094622998299 0 -0.023623876792069398 -0.0012346307327893618 0 -0.024174325365944424 -0.0011049578453506226 0 -0.022647300321256239 -0.00076742160545213982 0 -0.019740690302189196 -0.00091065684872422873 0 -0.020454927831762962 -0.0011539843498553036 0 -0.020114871479930477 -0.00016206759182383376 0 -0.020243343435321168 -0.0020478804238233772 0 -0.019740690302189196 -0.00091065684872422873 0 -0.020454927831762962 -0.0011539843498553036 0 -0.021116012551259489 -0.0016225846829631011 0 -0.0214836074127937 -0.00024700937276038204 0 -0.020454927831762962 -0.0011539843498553036 0 -0.0214836074127937 -0.00024700937276038204 0 -0.020454927831762962 -0.0011539843498553036 0 -0.020114871479930477 -0.00016206759182383376 0 -0.0229684571184058 -0.00037816183623029748 0 -0.023623876792069398 -0.0012346307327893618 0 -0.021785029608374615 -0.00090291922895355736 0 -0.022647300321256239 -0.00076742160545213982 0 -0.021277547193161262 -0.00047870169720134938 0 -0.019740690302189196 -0.00091065684872422873 0 -0.020114871479930477 -0.00016206759182383376 0 -0.01971250327457132 -0.00051869211343400585 0 -0.019818085564823125 -0.00029604036926103317 0 -0.01971250327457132 -0.00051869211343400585 0 -0.019642966700173924 -0.00047104265713905809 0 -0.019818085564823125 -0.00029604036926103317 0 -0.020114871479930477 -0.00016206759182383376 0 -0.01971250327457132 -0.00051869211343400585 0 -0.01971250327457132 -0.00051869211343400585 0 -0.019642966700173924 -0.00047104265713905809 0 -0.019574456997048316 -0.0005722883229424278 0 -0.01955606192090598 -0.00034352050021030947 0 -0.019515553969483151 -0.00051721600018705819 0 -0.019427367506415723 -0.00048216575434648995 0 -0.01955606192090598 -0.00034352050021030947 0 -0.019515553969483151 -0.00051721600018705819 0 -0.019642966700173924 -0.00047104265713905809 0 -0.019515553969483151 -0.00051721600018705819 0 -0.019642966700173924 -0.00047104265713905809 0 -0.019574456997048316 -0.0005722883229424278 0 -0.019515553969483151 -0.00051721600018705819 0 -0.019574456997048316 -0.0005722883229424278 0 -0.019484305993859297 -0.0005559293075475942 0 -0.019574456997048316 -0.0005722883229424278 0 -0.019539140979057276 -0.00059705908037595106 0 -0.019484305993859297 -0.0005559293075475942 0 -0.019539140979057276 -0.00059705908037595106 0 -0.019475370051129641 -0.00052876797477734584 0 -0.019484305993859297 -0.0005559293075475942 0 -0.019574456997048316 -0.0005722883229424278 0 -0.019539140979057276 -0.00059705908037595106 0 -0.019623700840664362 -0.00070086725552216927 0 -0.019740690302189196 -0.00091065684872422873 0 -0.01971250327457132 -0.00051869211343400585 0 -0.019623700840664362 -0.00070086725552216927 0 -0.01971250327457132 -0.00051869211343400585 0 -0.019574456997048316 -0.0005722883229424278 0 -0.019623700840664362 -0.00070086725552216927 0 -0.019740690302189196 -0.00091065684872422873 0 -0.019623700840664362 -0.00070086725552216927 0 -0.019582810434401771 -0.00064175339163180382 0 -0.017732234037687099 0.00024261232832381848 0 -0.017320964800338599 0.00031928606507733806 0 -0.019539140979057276 -0.00059705908037595106 0 -0.019623700840664362 -0.00070086725552216927 0 -0.019582810434401771 -0.00064175339163180382 0 -0.019582810434401771 -0.00064175339163180382 0 -0.019527462305175602 -0.0005490959659127133 0 -0.019526540349294068 -0.00055067536876643886 0 -0.019539140979057276 -0.00059705908037595106 0 -0.019582810434401771 -0.00064175339163180382 0 -0.019527462305175602 -0.0005490959659127133 0 -0.019539140979057276 -0.00059705908037595106 0 -0.019527462305175602 -0.0005490959659127133 0 -0.01950464421836938 -0.00050125533900751448 0 -0.016257192843708135 0.00088752419674102462 0 -0.01666988702074149 0.00069930080637852453 0 -0.019527462305175602 -0.0005490959659127133 0 -0.019526540349294068 -0.00055067536876643886 0 -0.019505191863979324 -0.00042063235381789018 0 -0.011596370407886095 0.0042937777382339214 0 -0.009887943054113061 0.0024381003938189795 0 -0.01232815169061909 0.0032963654926287007 0 -0.018796488396515054 -0.0019235169022269883 0 -0.017998375640582494 -0.0028657167283356274 0 -0.019265584081551341 -0.0031513658786919705 0 -0.013653238075474904 0.0051863064614293799 0 -0.013494142409764646 0.0054575512780224798 0 -0.013909946558816152 0.0053537780310489299 0 -0.019538819591581207 -0.0023100487471823124 0 -0.018796488396515054 -0.0019235169022269883 0 -0.019265584081551341 -0.0031513658786919705 0 -0.016257192843708135 0.00088752419674102462 0 -0.015067964740443012 0.00072119308370239079 0 -0.017320964800338599 0.00031928606507733806 0 -0.016257192843708135 0.00088752419674102462 0 -0.01666988702074149 0.00069930080637852453 0 -0.017828452215434342 0.0004331587711657652 0 -0.01410492551642191 0.0026635491488479482 0 -0.01264157735208935 0.0016205852864603595 0 -0.016239890158198367 0.00061314972110838287 0 -0.015928323908022186 0.0026271832603914289 0 -0.01410492551642191 0.0026635491488479482 0 -0.016239890158198367 0.00061314972110838287 0 -0.015249110470606685 0.0034191994773612598 0 -0.015928323908022186 0.0026271832603914289 0 -0.01410492551642191 0.0026635491488479482 0 -0.01410492551642191 0.0026635491488479482 0 -0.01232815169061909 0.0032963654926287007 0 -0.01264157735208935 0.0016205852864603595 0 -0.009887943054113061 0.0024381003938189795 0 -0.01232815169061909 0.0032963654926287007 0 -0.01264157735208935 0.0016205852864603595 0 -0.019527462305175602 -0.0005490959659127133 0 -0.019505191863979324 -0.00042063235381789018 0 -0.01950464421836938 -0.00050125533900751448 0 -0.019505191863979324 -0.00042063235381789018 0 -0.01950464421836938 -0.00050125533900751448 0 -0.019515533984650564 -0.00040173338911158126 0 -0.019505191863979324 -0.00042063235381789018 0 -0.019515533984650564 -0.00040173338911158126 0 -0.019619984528190023 -0.00014442650743676626 0 -0.019515533984650564 -0.00040173338911158126 0 -0.019693008872222254 -0.00026864351778981612 0 -0.019619984528190023 -0.00014442650743676626 0 -0.019515533984650564 -0.00040173338911158126 0 -0.019563040468092874 -0.00048871646893283585 0 -0.019693008872222254 -0.00026864351778981612 0 -0.019515533984650564 -0.00040173338911158126 0 -0.01948563820763732 -0.00055989550865780601 0 -0.019563040468092874 -0.00048871646893283585 0 -0.01948563820763732 -0.00055989550865780601 0 -0.019563040468092874 -0.00048871646893283585 0 -0.019564038993459671 -0.00063504512314427298 0 -0.019563040468092874 -0.00048871646893283585 0 -0.019564038993459671 -0.00063504512314427298 0 -0.019689856427549376 -0.00061735435744247132 0 -0.019539140979057276 -0.00059705908037595106 0 -0.01950464421836938 -0.00050125533900751448 0 -0.019475370051129641 -0.00052876797477734584 0 -0.019515533984650564 -0.00040173338911158126 0 -0.01948563820763732 -0.00055989550865780601 0 -0.019475370051129641 -0.00052876797477734584 0 -0.01950464421836938 -0.00050125533900751448 0 -0.019515533984650564 -0.00040173338911158126 0 -0.019475370051129641 -0.00052876797477734584 0 -0.01948563820763732 -0.00055989550865780601 0 -0.019475370051129641 -0.00052876797477734584 0 -0.019447259443935785 -0.00056696453122084649 0 -0.019475370051129641 -0.00052876797477734584 0 -0.019484305993859297 -0.0005559293075475942 0 -0.019447259443935785 -0.00056696453122084649 0 -0.019484305993859297 -0.0005559293075475942 0 -0.019447259443935785 -0.00056696453122084649 0 -0.01943676794961802 -0.00053304160326676558 0 -0.019515553969483151 -0.00051721600018705819 0 -0.019484305993859297 -0.0005559293075475942 0 -0.01943676794961802 -0.00053304160326676558 0 -0.01948563820763732 -0.00055989550865780601 0 -0.019447259443935785 -0.00056696453122084649 0 -0.019485407273887045 -0.00062939504883303651 0 -0.019447259443935785 -0.00056696453122084649 0 -0.019415242289029223 -0.00056820932337977215 0 -0.019485407273887045 -0.00062939504883303651 0 -0.019447259443935785 -0.00056696453122084649 0 -0.019415242289029223 -0.00056820932337977215 0 -0.01943676794961802 -0.00053304160326676558 0 -0.019515553969483151 -0.00051721600018705819 0 -0.019427367506415723 -0.00048216575434648995 0 -0.01943676794961802 -0.00053304160326676558 0 -0.019415242289029223 -0.00056820932337977215 0 -0.019427367506415723 -0.00048216575434648995 0 -0.01943676794961802 -0.00053304160326676558 0 -0.020212196236678939 -0.00024577300044314868 0 -0.019942186246456776 -0.00045674632513701384 0 -0.019325813671267275 -0.00045476946307429798 0 -0.019415242289029223 -0.00056820932337977215 0 -0.019688080527177146 -0.00089178401300031866 0 -0.019415242289029223 -0.00056820932337977215 0 -0.019485407273887045 -0.00062939504883303651 0 -0.019688080527177146 -0.00089178401300031866 0 -0.019564038993459671 -0.00063504512314427298 0 -0.019485407273887045 -0.00062939504883303651 0 -0.019688080527177146 -0.00089178401300031866 0 -0.019564038993459671 -0.00063504512314427298 0 -0.019688080527177146 -0.00089178401300031866 0 -0.019689856427549376 -0.00061735435744247132 0 -0.01948563820763732 -0.00055989550865780601 0 -0.019564038993459671 -0.00063504512314427298 0 -0.019485407273887045 -0.00062939504883303651 0 -0.022928335326431071 -0.0028402345672687368 0 -0.022246385795922113 -0.002859455041677368 0 -0.01977175974478745 -0.00072856280543320015 0 -0.019688080527177146 -0.00089178401300031866 0 -0.019910468902295045 -0.0012031115923782048 0 -0.019688080527177146 -0.00089178401300031866 0 -0.019910468902295045 -0.0012031115923782048 0 -0.019840907235604523 -0.00083395999855445592 0 -0.019840907235604523 -0.00083395999855445592 0 -0.019904044383862739 -0.00055146425280680803 0 -0.020208561431235429 -0.00082508358890403285 0 -0.019910468902295045 -0.0012031115923782048 0 -0.019840907235604523 -0.00083395999855445592 0 -0.020208561431235429 -0.00082508358890403285 0 -0.019688080527177146 -0.00089178401300031866 0 -0.019840907235604523 -0.00083395999855445592 0 -0.019689856427549376 -0.00061735435744247132 0 -0.019840907235604523 -0.00083395999855445592 0 -0.019689856427549376 -0.00061735435744247132 0 -0.019904044383862739 -0.00055146425280680803 0 -0.019563040468092874 -0.00048871646893283585 0 -0.019689856427549376 -0.00061735435744247132 0 -0.019693008872222254 -0.00026864351778981612 0 -0.019689856427549376 -0.00061735435744247132 0 -0.019904044383862739 -0.00055146425280680803 0 -0.019693008872222254 -0.00026864351778981612 0 -0.019904044383862739 -0.00055146425280680803 0 -0.019693008872222254 -0.00026864351778981612 0 -0.020310407805557117 -0.00029780177470208595 0 -0.019904044383862739 -0.00055146425280680803 0 -0.020310407805557117 -0.00029780177470208595 0 -0.020208561431235429 -0.00082508358890403285 0 -0.020310407805557117 -0.00029780177470208595 0 -0.02086206668757884 -0.00081990339336026296 0 -0.020208561431235429 -0.00082508358890403285 0 -0.020310407805557117 -0.00029780177470208595 0 -0.02086206668757884 -0.00081990339336026296 0 -0.02118214266032354 -0.00019256456485746589 0 -0.02086206668757884 -0.00081990339336026296 0 -0.020208561431235429 -0.00082508358890403285 0 -0.020620614191974314 -0.0013282454211840545 0 -0.019910468902295045 -0.0012031115923782048 0 -0.020208561431235429 -0.00082508358890403285 0 -0.020620614191974314 -0.0013282454211840545 0 -0.020355142140067149 -0.0019870194491026288 0 -0.019910468902295045 -0.0012031115923782048 0 -0.020620614191974314 -0.0013282454211840545 0 -0.02086206668757884 -0.00081990339336026296 0 -0.021440996202154002 -0.0012999865695849603 0 -0.021966786372314868 -0.00077381797095278019 0 -0.021253760091822782 -0.0019480377113666614 0 -0.020620614191974314 -0.0013282454211840545 0 -0.021440996202154002 -0.0012999865695849603 0 -0.021253760091822782 -0.0019480377113666614 0 -0.021440996202154002 -0.0012999865695849603 0 -0.022240108443021839 -0.0016429852311200398 0 -0.021440996202154002 -0.0012999865695849603 0 -0.021966786372314868 -0.00077381797095278019 0 -0.022240108443021839 -0.0016429852311200398 0 -0.02086206668757884 -0.00081990339336026296 0 -0.020620614191974314 -0.0013282454211840545 0 -0.021440996202154002 -0.0012999865695849603 0 -0.022240108443021839 -0.0016429852311200398 0 -0.022835627973329078 -0.00079300041109060359 0 -0.023272902526875829 -0.0014226598713336358 0 -0.021966786372314868 -0.00077381797095278019 0 -0.022240108443021839 -0.0016429852311200398 0 -0.022835627973329078 -0.00079300041109060359 0 -0.022835627973329078 -0.00079300041109060359 0 -0.022277614307534051 -6.6746470684634702e-05 0 -0.023178944683993494 -6.0562004083476752e-06 0 -0.021966786372314868 -0.00077381797095278019 0 -0.022835627973329078 -0.00079300041109060359 0 -0.022277614307534051 -6.6746470684634702e-05 0 -0.02086206668757884 -0.00081990339336026296 0 -0.021966786372314868 -0.00077381797095278019 0 -0.02118214266032354 -0.00019256456485746589 0 -0.021966786372314868 -0.00077381797095278019 0 -0.022277614307534051 -6.6746470684634702e-05 0 -0.02118214266032354 -0.00019256456485746589 0 -0.021737088312012102 0.00067099593093407903 0 -0.020992335409432256 0.0016000648845332394 0 -0.01995188965821806 0.00032379897042872434 0 -0.02118214266032354 -0.00019256456485746589 0 -0.021737088312012102 0.00067099593093407903 0 -0.01995188965821806 0.00032379897042872434 0 -0.022277614307534051 -6.6746470684634702e-05 0 -0.02118214266032354 -0.00019256456485746589 0 -0.021737088312012102 0.00067099593093407903 0 -0.022277614307534051 -6.6746470684634702e-05 0 -0.021737088312012102 0.00067099593093407903 0 -0.023199798409406953 0.001022013399277774 0 -0.022277614307534051 -6.6746470684634702e-05 0 -0.023178944683993494 -6.0562004083476752e-06 0 -0.023199798409406953 0.001022013399277774 0 -0.021737088312012102 0.00067099593093407903 0 -0.022321239696767851 0.0016560117272047821 0 -0.023199798409406953 0.001022013399277774 0 -0.022321239696767851 0.0016560117272047821 0 -0.023199798409406953 0.001022013399277774 0 -0.023126905706547358 0.001910974667985549 0 -0.022321239696767851 0.0016560117272047821 0 -0.023126905706547358 0.001910974667985549 0 -0.022555588481856993 0.0028595957764695409 0 -0.023406093922766734 0.0022863661092447753 0 -0.023126905706547358 0.001910974667985549 0 -0.022555588481856993 0.0028595957764695409 0 -0.021737088312012102 0.00067099593093407903 0 -0.022321239696767851 0.0016560117272047821 0 -0.020992335409432256 0.0016000648845332394 0 -0.022321239696767851 0.0016560117272047821 0 -0.020992335409432256 0.0016000648845332394 0 -0.020755873693126078 0.0033251580640783936 0 -0.020992335409432256 0.0016000648845332394 0 -0.019504575636861015 0.0022879683095132944 0 -0.020755873693126078 0.0033251580640783936 0 -0.020992335409432256 0.0016000648845332394 0 -0.019504575636861015 0.0022879683095132944 0 -0.01995188965821806 0.00032379897042872434 0 -0.019504575636861015 0.0022879683095132944 0 -0.017586624870143317 0.0022794375097312902 0 -0.01995188965821806 0.00032379897042872434 0 -0.019504575636861015 0.0022879683095132944 0 -0.017586624870143317 0.0022794375097312902 0 -0.017698036988621574 0.0041089479999825282 0 -0.017586624870143317 0.0022794375097312902 0 -0.016239890158198367 0.00061314972110838287 0 -0.01995188965821806 0.00032379897042872434 0 -0.015928323908022186 0.0026271832603914289 0 -0.017586624870143317 0.0022794375097312902 0 -0.017698036988621574 0.0041089479999825282 0 -0.015928323908022186 0.0026271832603914289 0 -0.017586624870143317 0.0022794375097312902 0 -0.016239890158198367 0.00061314972110838287 0 -0.019693008872222254 -0.00026864351778981612 0 -0.019619984528190023 -0.00014442650743676626 0 -0.01995188965821806 0.00032379897042872434 0 -0.017828452215434342 0.0004331587711657652 0 -0.018548668520135297 0.00030340273873400927 0 -0.019693008872222254 -0.00026864351778981612 0 -0.020310407805557117 -0.00029780177470208595 0 -0.01995188965821806 0.00032379897042872434 0 -0.020310407805557117 -0.00029780177470208595 0 -0.02118214266032354 -0.00019256456485746589 0 -0.01995188965821806 0.00032379897042872434 0 -0.026694826964063081 -0.00029194004255196453 0 -0.025900607803549486 -0.00060131512844414892 0 -0.025944742834194755 0.00041510992761235172 0 -0.02692147562181876 -0.0013109992974249295 0 -0.026694826964063081 -0.00029194004255196453 0 -0.025900607803549486 -0.00060131512844414892 0 -0.02692147562181876 -0.0013109992974249295 0 -0.027300825323472458 -0.00053100694871686114 0 -0.026694826964063081 -0.00029194004255196453 0 -0.02692147562181876 -0.0013109992974249295 0 -0.025900607803549486 -0.00060131512844414892 0 -0.025583139107841952 -0.0013878725816386472 0 -0.025900607803549486 -0.00060131512844414892 0 -0.025583139107841952 -0.0013878725816386472 0 -0.025040747960077579 -0.00084403344039951167 0 -0.025900607803549486 -0.00060131512844414892 0 -0.025347990011227468 -2.0480152181592832e-05 0 -0.025040747960077579 -0.00084403344039951167 0 -0.025900607803549486 -0.00060131512844414892 0 -0.025347990011227468 -2.0480152181592832e-05 0 -0.025944742834194755 0.00041510992761235172 0 -0.025347990011227468 -2.0480152181592832e-05 0 -0.024487659069888465 -0.00026579569648455009 0 -0.024880483450300549 0.00055158364474345613 0 -0.024487659069888465 -0.00026579569648455009 0 -0.023970314893986652 0.00035708546404827879 0 -0.024880483450300549 0.00055158364474345613 0 -0.025347990011227468 -2.0480152181592832e-05 0 -0.024487659069888465 -0.00026579569648455009 0 -0.025040747960077579 -0.00084403344039951167 0 -0.024750912059305383 -0.0016091292107775106 0 -0.025040747960077579 -0.00084403344039951167 0 -0.024189323349212692 -0.0011239655105574208 0 -0.024750912059305383 -0.0016091292107775106 0 -0.025583139107841952 -0.0013878725816386472 0 -0.025040747960077579 -0.00084403344039951167 0 -0.023958494533296324 -0.0019532647477178543 0 -0.024750912059305383 -0.0016091292107775106 0 -0.024189323349212692 -0.0011239655105574208 0 -0.024487659069888465 -0.00026579569648455009 0 -0.025040747960077579 -0.00084403344039951167 0 -0.024189323349212692 -0.0011239655105574208 0 -0.024189323349212692 -0.0011239655105574208 0 -0.023272902526875829 -0.0014226598713336358 0 -0.023647836812707962 -0.0005987209912592681 0 -0.023958494533296324 -0.0019532647477178543 0 -0.024189323349212692 -0.0011239655105574208 0 -0.023272902526875829 -0.0014226598713336358 0 -0.022835627973329078 -0.00079300041109060359 0 -0.023272902526875829 -0.0014226598713336358 0 -0.023647836812707962 -0.0005987209912592681 0 -0.022835627973329078 -0.00079300041109060359 0 -0.023647836812707962 -0.0005987209912592681 0 -0.023178944683993494 -6.0562004083476752e-06 0 -0.023647836812707962 -0.0005987209912592681 0 -0.023178944683993494 -6.0562004083476752e-06 0 -0.023970314893986652 0.00035708546404827879 0 -0.024487659069888465 -0.00026579569648455009 0 -0.023647836812707962 -0.0005987209912592681 0 -0.023970314893986652 0.00035708546404827879 0 -0.024487659069888465 -0.00026579569648455009 0 -0.024189323349212692 -0.0011239655105574208 0 -0.023647836812707962 -0.0005987209912592681 0 -0.023178944683993494 -6.0562004083476752e-06 0 -0.023970314893986652 0.00035708546404827879 0 -0.023199798409406953 0.001022013399277774 0 -0.023970314893986652 0.00035708546404827879 0 -0.023199798409406953 0.001022013399277774 0 -0.024390625766984128 0.0010767526663258173 0 -0.023199798409406953 0.001022013399277774 0 -0.023126905706547358 0.001910974667985549 0 -0.023907757209705893 0.0017700859235430192 0 -0.023199798409406953 0.001022013399277774 0 -0.023907757209705893 0.0017700859235430192 0 -0.024390625766984128 0.0010767526663258173 0 -0.023406093922766734 0.0022863661092447753 0 -0.023126905706547358 0.001910974667985549 0 -0.023907757209705893 0.0017700859235430192 0 -0.023406093922766734 0.0022863661092447753 0 -0.023907757209705893 0.0017700859235430192 0 -0.024030640951248947 0.0026033423268716641 0 -0.024827427269703179 0.001678356771931479 0 -0.024390625766984128 0.0010767526663258173 0 -0.025351947312406288 0.0010880689621853468 0 -0.023907757209705893 0.0017700859235430192 0 -0.024827427269703179 0.001678356771931479 0 -0.024390625766984128 0.0010767526663258173 0 -0.023907757209705893 0.0017700859235430192 0 -0.024827427269703179 0.001678356771931479 0 -0.024030640951248947 0.0026033423268716641 0 -0.024827427269703179 0.001678356771931479 0 -0.025480910459703177 0.0016530593841554784 0 -0.025125295154787397 0.0020911373076357436 0 -0.024390625766984128 0.0010767526663258173 0 -0.024880483450300549 0.00055158364474345613 0 -0.025351947312406288 0.0010880689621853468 0 -0.023970314893986652 0.00035708546404827879 0 -0.024390625766984128 0.0010767526663258173 0 -0.024880483450300549 0.00055158364474345613 0 -0.025347990011227468 -2.0480152181592832e-05 0 -0.024880483450300549 0.00055158364474345613 0 -0.025944742834194755 0.00041510992761235172 0 -0.024880483450300549 0.00055158364474345613 0 -0.025944742834194755 0.00041510992761235172 0 -0.025351947312406288 0.0010880689621853468 0 -0.025944742834194755 0.00041510992761235172 0 -0.025351947312406288 0.0010880689621853468 0 -0.026107819139691249 0.0009766887606700509 0 -0.024827427269703179 0.001678356771931479 0 -0.025351947312406288 0.0010880689621853468 0 -0.025480910459703177 0.0016530593841554784 0 -0.025480910459703177 0.0016530593841554784 0 -0.026107819139691249 0.0009766887606700509 0 -0.026046075781266952 0.0015732373142443219 0 -0.025351947312406288 0.0010880689621853468 0 -0.025480910459703177 0.0016530593841554784 0 -0.026107819139691249 0.0009766887606700509 0 -0.026674578254066304 0.0016533869532967742 0 -0.026107819139691249 0.0009766887606700509 0 -0.026046075781266952 0.0015732373142443219 0 -0.026801949684966155 0.0006407899792989952 0 -0.026674578254066304 0.0016533869532967742 0 -0.026107819139691249 0.0009766887606700509 0 -0.026801949684966155 0.0006407899792989952 0 -0.025944742834194755 0.00041510992761235172 0 -0.026107819139691249 0.0009766887606700509 0 -0.026801949684966155 0.0006407899792989952 0 -0.026694826964063081 -0.00029194004255196453 0 -0.025944742834194755 0.00041510992761235172 0 -0.024258895638254174 0.002435163608702981 0 -0.019625878950569439 0.0034564742276820899 0 -0.026792958817379441 0.0022647302336191426 0 -0.026571521319542882 0.0032203073945180185 0 -0.025275039684875326 0.0026412158726696819 0 -0.014675912940800128 0.0020571096731992022 0 -0.019625878950569439 0.0034564742276820899 0 -0.026674578254066304 0.0016533869532967742 0 -0.026046075781266952 0.0015732373142443219 0 -0.025871607286819909 0.0020358815159753603 0 -0.026674578254066304 0.0016533869532967742 0 -0.026792958817379441 0.0022647302336191426 0 -0.025871607286819909 0.0020358815159753603 0 -0.026792958817379441 0.0022647302336191426 0 -0.025871607286819909 0.0020358815159753603 0 -0.025527593554481219 0.0027213398082633145 0 -0.025871607286819909 0.0020358815159753603 0 -0.025527593554481219 0.0027213398082633145 0 -0.025125295154787397 0.0020911373076357436 0 -0.025480910459703177 0.0016530593841554784 0 -0.025871607286819909 0.0020358815159753603 0 -0.025125295154787397 0.0020911373076357436 0 -0.025480910459703177 0.0016530593841554784 0 -0.026046075781266952 0.0015732373142443219 0 -0.025871607286819909 0.0020358815159753603 0 -0.01673709328709554 0.0040655905578313566 0 -0.017674013309512664 0.0038223175043381116 0 -0.014601321761791471 0.0011705812366516913 0 -0.017900536965881477 0.0030908581128691556 0 -0.018449748737835805 0.0029484658619521689 0 -0.01961063002981614 0.0039083959450720521 0 -0.019625878950569439 0.0034564742276820899 0 -0.017844881252550134 0.0038051528535568767 0 -0.019625878950569439 0.0034564742276820899 0 -0.019553882354843292 0.0038762873631182542 0 -0.017844881252550134 0.0038051528535568767 0 -0.017822638598646686 0.004076553772887498 0 -0.014291158425593316 0.0031469610077189888 0 -0.013872882315422797 0.0032564416206943398 0 -0.014276372746670049 0.0035310008984353503 0 -0.024428072747282356 0.0050558455722251828 0 -0.024708400795935857 0.0035199865074507703 0 -0.023631625716363888 0.0041241821954777066 0 -0.017822638598646686 0.004076553772887498 0 -0.019553882354843292 0.0038762873631182542 0 -0.018838808803635695 0.0035785965190766088 0 -0.018786662642059446 0.0035931832373738461 0 -0.018797035723982211 0.0035434744088706574 0 -0.017844881252550134 0.0038051528535568767 0 -0.019553882354843292 0.0038762873631182542 0 -0.020429138560819109 0.0028327104686045718 0 -0.019553882354843292 0.0038762873631182542 0 -0.024827427269703179 0.001678356771931479 0 -0.02428353645852141 0.003010011952728776 0 -0.024611023391304488 0.0033338197833586002 0 -0.025527593554481219 0.0027213398082633145 0 -0.025125295154787397 0.0020911373076357436 0 -0.024760922650960113 0.0023658535732633545 0 -0.024827427269703179 0.001678356771931479 0 -0.025125295154787397 0.0020911373076357436 0 -0.024760922650960113 0.0023658535732633545 0 -0.024827427269703179 0.001678356771931479 0 -0.02428353645852141 0.003010011952728776 0 -0.024030640951248947 0.0026033423268716641 0 -0.02428353645852141 0.003010011952728776 0 -0.024690640620738079 0.0033620565747505002 0 -0.023485917716482348 0.002922857104311317 0 -0.019682917568723021 0.0039388621989749498 0 -0.019553882354843292 0.0038762873631182542 0 -0.022424717479322419 0.002911451783899665 0 -0.021442315550365881 0.0029741804610162281 0 -0.023485917716482348 0.002922857104311317 0 -0.022517009824620664 0.0038581363111074994 0 -0.021362521643492827 0.0026038408436845901 0 -0.024708400795935857 0.0035199865074507703 0 -0.023485917716482348 0.002922857104311317 0 -0.023631625716363888 0.0041241821954777066 0 -0.023485917716482348 0.002922857104311317 0 -0.024030640951248947 0.0026033423268716641 0 -0.021362521643492827 0.0026038408436845901 0 -0.019553882354843292 0.0038762873631182542 0 -0.020314360523673781 0.0040628841553390534 0 -0.023406093922766734 0.0022863661092447753 0 -0.024030640951248947 0.0026033423268716641 0 -0.022555588481856993 0.0028595957764695409 0 -0.02428353645852141 0.003010011952728776 0 -0.023485917716482348 0.002922857104311317 0 -0.024030640951248947 0.0026033423268716641 0 -0.023485917716482348 0.002922857104311317 0 -0.022517009824620664 0.0038581363111074994 0 -0.023631625716363888 0.0041241821954777066 0 -0.022517009824620664 0.0038581363111074994 0 -0.023631625716363888 0.0041241821954777066 0 -0.022708962631242533 0.005502749832042849 0 -0.017822638598646686 0.004076553772887498 0 -0.018525887658900547 0.0047506436867559418 0 -0.024428072747282356 0.0050558455722251828 0 -0.023631625716363888 0.0041241821954777066 0 -0.022708962631242533 0.005502749832042849 0 -0.016121596648495731 0.0054333108201031185 0 -0.016408640900298227 0.0053605022040809211 0 -0.0164523236187493 0.0051091961398508799 0 -0.016121596648495731 0.0054333108201031185 0 -0.0164523236187493 0.0051091961398508799 0 -0.016206979368379483 0.0049318243705857778 0 -0.021096040215825215 0.0061390351807586651 0 -0.021640779679909298 0.0068647452828554823 0 -0.020574275474439525 0.0062569135635601684 0 -0.016638873457829748 0.0053582090902134618 0 -0.013299006512469222 0.0044233476075894338 0 -0.012290595876461493 0.0036549373857661404 0 -0.0146404191815846 0.0048389515847949748 0 -0.0096667580912628559 0.0038840622532292412 0 -0.0092627531716797055 0.0037852421999046057 0 -0.0098273858134476071 0.0040486884103861226 0 -0.0096667580912628559 0.0038840622532292412 0 -0.0095347243373498959 0.003795208943362471 0 -0.0092627531716797055 0.0037852421999046057 0 -0.0095347243373498959 0.003795208943362471 0 -0.0093917864472936839 0.0037297027048967119 0 -0.00949689848786461 0.0037088956637603946 0 -0.0095347243373498959 0.003795208943362471 0 -0.0096133708765106726 0.003696456063609339 0 -0.00949689848786461 0.0037088956637603946 0 -0.0096667580912628559 0.0038840622532292412 0 -0.0095347243373498959 0.003795208943362471 0 -0.0096903618615750194 0.0037687535172363997 0 -0.0095347243373498959 0.003795208943362471 0 -0.0096903618615750194 0.0037687535172363997 0 -0.0096133708765106726 0.003696456063609339 0 -0.0095347243373498959 0.003795208943362471 0 -0.0092627531716797055 0.0037852421999046057 0 -0.0093917864472936839 0.0037297027048967119 0 -0.010601826201626415 0.0045014673219505212 0 -0.011978607736267225 0.0053352413179373085 0 -0.01126017706759872 0.00089717823987982856 0 -0.012290595876461493 0.0036549373857661404 0 -0.011475430435565709 0.0034482426569961322 0 -0.012290595876461493 0.0036549373857661404 0 -0.011692190302566229 0.003552545717586314 0 -0.012059886428161436 0.00099490039348787158 0 -0.014383424731172562 0.0024022831593363053 0 -0.011492333851142185 0.0041069704984832579 0 -0.0092627531716797055 0.0037852421999046057 0 -0.0093917864472936839 0.0037297027048967119 0 -0.0092881253536414472 0.0036833931590285179 0 -0.012290595876461493 0.0036549373857661404 0 -0.013299006512469222 0.0044233476075894338 0 -0.021096040215825215 0.0061390351807586651 0 -0.021640779679909298 0.0068647452828554823 0 -0.021691023585627005 0.0065791843054689297 0 -0.0055792408569990777 0.0038510667619307015 0 -0.0046056108306459899 0.00443366806284691 0 -0.0048022156944906753 0.0036531912919004509 0 -0.013723350733566658 0.0040251072554559706 0 -0.013899876616038044 0.0041557171831076338 0 -0.014035281792089667 0.0037658513939817242 0 -0.011199581855404451 0.0035501279506398621 0 -0.010600917994040225 0.0037196696697983072 0 -0.013899876616038044 0.0041557171831076338 0 -0.014035281792089667 0.0037658513939817242 0 -0.014361359747302739 0.0038801662402702651 0 -0.013299006512469222 0.0044233476075894338 0 -0.011199581855404451 0.0035501279506398621 0 -0.011978607736267225 0.0053352413179373085 0 -0.01126017706759872 0.00089717823987982856 0 -0.014934327649892436 0.0035919824792848849 0 -0.011475430435565709 0.0034482426569961322 0 -0.011199581855404451 0.0035501279506398621 0 -0.013872882315422797 0.0032564416206943398 0 -0.013723350733566658 0.0040251072554559706 0 -0.014035281792089667 0.0037658513939817242 0 -0.013872882315422797 0.0032564416206943398 0 -0.014035281792089667 0.0037658513939817242 0 -0.014276372746670049 0.0035310008984353503 0 -0.017822638598646686 0.004076553772887498 0 -0.013299006512469222 0.0044233476075894338 0 -0.017844881252550134 0.0038051528535568767 0 -0.011457022886827558 0.0030976226916373372 0 -0.010600917994040225 0.0037196696697983072 0 -0.011457022886827558 0.0030976226916373372 0 -0.014291158425593316 0.0031469610077189888 0 -0.014276372746670049 0.0035310008984353503 0 -0.01481782507673913 0.0036058904288847589 0 -0.014276372746670049 0.0035310008984353503 0 -0.014361359747302739 0.0038801662402702651 0 -0.01481782507673913 0.0036058904288847589 0 -0.014035281792089667 0.0037658513939817242 0 -0.014276372746670049 0.0035310008984353503 0 -0.014361359747302739 0.0038801662402702651 0 -0.0046056108306459899 0.00443366806284691 0 -0.0037304816647314503 0.0040190879002477238 0 -0.0036039523690175883 0.0050204984216313253 0 -0.0046056108306459899 0.00443366806284691 0 -0.0048022156944906753 0.0036531912919004509 0 -0.0043311546113371365 0.0038344558725004179 0 -0.0048022156944906753 0.0036531912919004509 0 -0.0043311546113371365 0.0038344558725004179 0 -0.0043901782053622669 0.0034621663359181184 0 -0.0043311546113371365 0.0038344558725004179 0 -0.0037304816647314503 0.0040190879002477238 0 -0.0040309678671516438 0.0033437466214432262 0 -0.0046056108306459899 0.00443366806284691 0 -0.0043311546113371365 0.0038344558725004179 0 -0.0037304816647314503 0.0040190879002477238 0 -0.0057280252621011015 0.0018391661681787007 0 -0.011457022886827558 0.0030976226916373372 0 -0.0025388480749418329 0.0040902542942915657 0 -0.0037304816647314503 0.0040190879002477238 0 -0.0032849576532586913 0.0033881224352943179 0 -0.0025388480749418329 0.0040902542942915657 0 -0.0037304816647314503 0.0040190879002477238 0 -0.0036039523690175883 0.0050204984216313253 0 -0.0020070016670921402 0.0028843317364802556 0 -0.0022673206565515486 0.0036841264091288313 0 -0.0027014565213710007 0.003438434834837311 0 -0.012833878473056545 0.0022097610112062206 0 -0.01673709328709554 0.0040655905578313566 0 -0.014601321761791471 0.0011705812366516913 0 -0.014675912940800128 0.0020571096731992022 0 -0.011457022886827558 0.0030976226916373372 0 -0.014678372893197816 0.0041496697444157191 0 -0.014888161940039769 0.0047236964475776723 0 -0.012274227225721414 0.0050988355419836571 0 -0.011045804546272797 0.0048268358763497833 0 -0.012035736630872903 0.0047268353104484902 0 -0.018701806029296844 0.0040904120143098648 0 -0.016762605947751578 0.0041988359496005672 0 -0.019007848477417922 0.0054760116011711999 0 -0.018701806029296844 0.0040904120143098648 0 -0.016762605947751578 0.0041988359496005672 0 -0.017791871484281949 0.0034442688661766073 0 -0.012503488037636103 0.0047081569519314198 0 -0.012274227225721414 0.0050988355419836571 0 -0.012035736630872903 0.0047268353104484902 0 -0.012793753706583255 0.0048122570171355121 0 -0.012503488037636103 0.0047081569519314198 0 -0.012274227225721414 0.0050988355419836571 0 -0.016762605947751578 0.0041988359496005672 0 -0.016742022221097663 0.0027680624494599527 0 -0.017791871484281949 0.0034442688661766073 0 -0.014513127009166588 0.0027815596698609569 0 -0.016762605947751578 0.0041988359496005672 0 -0.016742022221097663 0.0027680624494599527 0 -0.015249110470606685 0.0034191994773612598 0 -0.015928323908022186 0.0026271832603914289 0 -0.017698036988621574 0.0041089479999825282 0 -0.017095856517351977 0.0033421639950987638 0 -0.019460084980053277 0.0031368029476349962 0 -0.016742022221097663 0.0027680624494599527 0 -0.017791871484281949 0.0034442688661766073 0 -0.018971088451368096 0.0027216243426298531 0 -0.019504575636861015 0.0022879683095132944 0 -0.017698036988621574 0.0041089479999825282 0 -0.020755873693126078 0.0033251580640783936 0 -0.018701806029296844 0.0040904120143098648 0 -0.017791871484281949 0.0034442688661766073 0 -0.018971088451368096 0.0027216243426298531 0 -0.018971088451368096 0.0027216243426298531 0 -0.021362521643492827 0.0026038408436845901 0 -0.020116392028835365 0.0039180134235266596 0 -0.019460084980053277 0.0031368029476349962 0 -0.021442315550365881 0.0029741804610162281 0 -0.022321239696767851 0.0016560117272047821 0 -0.020755873693126078 0.0033251580640783936 0 -0.022555588481856993 0.0028595957764695409 0 -0.018701806029296844 0.0040904120143098648 0 -0.018971088451368096 0.0027216243426298531 0 -0.020116392028835365 0.0039180134235266596 0 -0.021362521643492827 0.0026038408436845901 0 -0.021389466453595355 0.0041320056559930275 0 -0.020116392028835365 0.0039180134235266596 0 -0.022517009824620664 0.0038581363111074994 0 -0.021362521643492827 0.0026038408436845901 0 -0.021389466453595355 0.0041320056559930275 0 -0.022708962631242533 0.005502749832042849 0 -0.020852136265078869 0.0049428366486929673 0 -0.020967469415029593 0.0059373510713280637 0 -0.022708962631242533 0.005502749832042849 0 -0.021389466453595355 0.0041320056559930275 0 -0.020852136265078869 0.0049428366486929673 0 -0.022517009824620664 0.0038581363111074994 0 -0.022708962631242533 0.005502749832042849 0 -0.021389466453595355 0.0041320056559930275 0 -0.021389466453595355 0.0041320056559930275 0 -0.020852136265078869 0.0049428366486929673 0 -0.020116392028835365 0.0039180134235266596 0 -0.018701806029296844 0.0040904120143098648 0 -0.020116392028835365 0.0039180134235266596 0 -0.019751865671909043 0.0049908774722504847 0 -0.020852136265078869 0.0049428366486929673 0 -0.020116392028835365 0.0039180134235266596 0 -0.019751865671909043 0.0049908774722504847 0 -0.020852136265078869 0.0049428366486929673 0 -0.019751865671909043 0.0049908774722504847 0 -0.020967469415029593 0.0059373510713280637 0 -0.018701806029296844 0.0040904120143098648 0 -0.019751865671909043 0.0049908774722504847 0 -0.019007848477417922 0.0054760116011711999 0 -0.020428106074123657 0.0055384296643096898 0 -0.020353798988635024 0.0057843414110530606 0 -0.019007848477417922 0.0054760116011711999 0 -0.0146404191815846 0.0048389515847949748 0 -0.014888161940039769 0.0047236964475776723 0 -0.019751865671909043 0.0049908774722504847 0 -0.020428106074123657 0.0055384296643096898 0 -0.019007848477417922 0.0054760116011711999 0 -0.020353798988635024 0.0057843414110530606 0 -0.020574275474439525 0.0062569135635601684 0 -0.019007848477417922 0.0054760116011711999 0 -0.010660045483704601 0.0043561357157090716 0 -0.0099930209679191268 0.0042954816762021232 0 -0.011045804546272797 0.0048268358763497833 0 -0.018705169330631186 0.0055431454608066335 0 -0.018430537868854489 0.0054353691623332829 0 -0.010660045483704601 0.0043561357157090716 0 -0.011162688973867843 0.004263909810347891 0 -0.011045804546272797 0.0048268358763497833 0 -0.016408640900298227 0.0053605022040809211 0 -0.0164523236187493 0.0051091961398508799 0 -0.016699672228918199 0.0052877956530723762 0 -0.018525887658900547 0.0047506436867559418 0 -0.018430537868854489 0.0054353691623332829 0 -0.021096040215825215 0.0061390351807586651 0 -0.020428106074123657 0.0055384296643096898 0 -0.020353798988635024 0.0057843414110530606 0 -0.016638873457829748 0.0053582090902134618 0 -0.018430537868854489 0.0054353691623332829 0 -0.021096040215825215 0.0061390351807586651 0 -0.020353798988635024 0.0057843414110530606 0 -0.020574275474439525 0.0062569135635601684 0 -0.0092627531716797055 0.0037852421999046057 0 -0.0098273858134476071 0.0040486884103861226 0 -0.0099930209679191268 0.0042954816762021232 0 -0.0098273858134476071 0.0040486884103861226 0 -0.0099930209679191268 0.0042954816762021232 0 -0.010094671484085002 0.0039277654235929486 0 -0.0099930209679191268 0.0042954816762021232 0 -0.010094671484085002 0.0039277654235929486 0 -0.010351738487082837 0.0041467637819210231 0 -0.010094671484085002 0.0039277654235929486 0 -0.0098266782560320187 0.0037921297973038501 0 -0.0099486162064523608 0.0036642927276172381 0 -0.0098273858134476071 0.0040486884103861226 0 -0.010094671484085002 0.0039277654235929486 0 -0.0098266782560320187 0.0037921297973038501 0 -0.0096667580912628559 0.0038840622532292412 0 -0.0098266782560320187 0.0037921297973038501 0 -0.0096903618615750194 0.0037687535172363997 0 -0.0098266782560320187 0.0037921297973038501 0 -0.0096903618615750194 0.0037687535172363997 0 -0.0097285306807965433 0.003667416571210517 0 -0.0096667580912628559 0.0038840622532292412 0 -0.0098273858134476071 0.0040486884103861226 0 -0.0098266782560320187 0.0037921297973038501 0 -0.010660045483704601 0.0043561357157090716 0 -0.010652197368554283 0.0040224345798578693 0 -0.011162688973867843 0.004263909810347891 0 -0.010660045483704601 0.0043561357157090716 0 -0.0099930209679191268 0.0042954816762021232 0 -0.010351738487082837 0.0041467637819210231 0 -0.010094671484085002 0.0039277654235929486 0 -0.010652197368554283 0.0040224345798578693 0 -0.010351738487082837 0.0041467637819210231 0 -0.010660045483704601 0.0043561357157090716 0 -0.010652197368554283 0.0040224345798578693 0 -0.010351738487082837 0.0041467637819210231 0 -0.010094671484085002 0.0039277654235929486 0 -0.010652197368554283 0.0040224345798578693 0 -0.010427484089969803 0.0036916596290567072 0 -0.010094671484085002 0.0039277654235929486 0 -0.010427484089969803 0.0036916596290567072 0 -0.010113247262698646 0.0035909777407380486 0 -0.010652197368554283 0.0040224345798578693 0 -0.010964653790386912 0.0037773301714446646 0 -0.010427484089969803 0.0036916596290567072 0 -0.010964653790386912 0.0037773301714446646 0 -0.011461225220792027 0.0038702198032955376 0 -0.011162688973867843 0.004263909810347891 0 -0.011461225220792027 0.0038702198032955376 0 -0.01183635944668086 0.0037243239640462025 0 -0.011418776258285766 0.0035496550562724243 0 -0.010964653790386912 0.0037773301714446646 0 -0.011461225220792027 0.0038702198032955376 0 -0.011418776258285766 0.0035496550562724243 0 -0.011461225220792027 0.0038702198032955376 0 -0.011578792561198573 0.0042331186749552819 0 -0.01190852660562621 0.0040828757461916438 0 -0.011461225220792027 0.0038702198032955376 0 -0.011578792561198573 0.0042331186749552819 0 -0.011162688973867843 0.004263909810347891 0 -0.010652197368554283 0.0040224345798578693 0 -0.010964653790386912 0.0037773301714446646 0 -0.011162688973867843 0.004263909810347891 0 -0.011500725269875639 0.0045174397094171516 0 -0.011045804546272797 0.0048268358763497833 0 -0.012035736630872903 0.0047268353104484902 0 -0.011162688973867843 0.004263909810347891 0 -0.011500725269875639 0.0045174397094171516 0 -0.011045804546272797 0.0048268358763497833 0 -0.011578792561198573 0.0042331186749552819 0 -0.011162688973867843 0.004263909810347891 0 -0.011500725269875639 0.0045174397094171516 0 -0.011578792561198573 0.0042331186749552819 0 -0.011500725269875639 0.0045174397094171516 0 -0.011842681038747346 0.0044372610384642045 0 -0.012503488037636103 0.0047081569519314198 0 -0.012414862882856642 0.0043676057313530373 0 -0.012035736630872903 0.0047268353104484902 0 -0.012414862882856642 0.0043676057313530373 0 -0.012035736630872903 0.0047268353104484902 0 -0.011842681038747346 0.0044372610384642045 0 -0.011500725269875639 0.0045174397094171516 0 -0.012035736630872903 0.0047268353104484902 0 -0.011842681038747346 0.0044372610384642045 0 -0.012414862882856642 0.0043676057313530373 0 -0.011842681038747346 0.0044372610384642045 0 -0.01190852660562621 0.0040828757461916438 0 -0.011578792561198573 0.0042331186749552819 0 -0.011842681038747346 0.0044372610384642045 0 -0.01190852660562621 0.0040828757461916438 0 -0.012414862882856642 0.0043676057313530373 0 -0.01190852660562621 0.0040828757461916438 0 -0.012281061753259818 0.0038821676983635217 0 -0.01190852660562621 0.0040828757461916438 0 -0.01183635944668086 0.0037243239640462025 0 -0.012281061753259818 0.0038821676983635217 0 -0.011461225220792027 0.0038702198032955376 0 -0.01190852660562621 0.0040828757461916438 0 -0.01183635944668086 0.0037243239640462025 0 -0.012281061753259818 0.0038821676983635217 0 -0.012157293711053086 0.0035286699395326755 0 -0.012485505955109015 0.0036278580204198462 0 -0.01183635944668086 0.0037243239640462025 0 -0.012281061753259818 0.0038821676983635217 0 -0.012157293711053086 0.0035286699395326755 0 -0.011782825593629871 0.0032855109246471247 0 -0.012304439115958439 0.0031195201018898743 0 -0.01152047436508402 0.0025560037591772994 0 -0.012157293711053086 0.0035286699395326755 0 -0.012304439115958439 0.0031195201018898743 0 -0.012485505955109015 0.0036278580204198462 0 -0.01183635944668086 0.0037243239640462025 0 -0.011782825593629871 0.0032855109246471247 0 -0.011418776258285766 0.0035496550562724243 0 -0.01183635944668086 0.0037243239640462025 0 -0.012157293711053086 0.0035286699395326755 0 -0.011782825593629871 0.0032855109246471247 0 -0.012157293711053086 0.0035286699395326755 0 -0.011782825593629871 0.0032855109246471247 0 -0.012304439115958439 0.0031195201018898743 0 -0.012590674889577191 0.0030755795752499698 0 -0.012548096281957567 0.0025682167894964946 0 -0.01152047436508402 0.0025560037591772994 0 -0.010452507031479161 0.0029534945745139738 0 -0.010948470979908406 0.0030729838480673126 0 -0.012548096281957567 0.0025682167894964946 0 -0.01152047436508402 0.0025560037591772994 0 -0.011481767437381322 0.0012348748832151713 0 -0.01152047436508402 0.0025560037591772994 0 -0.010682305806844669 0.002986026312484498 0 -0.010736835262366832 0.0019561823529800899 0 -0.01152047436508402 0.0025560037591772994 0 -0.011336231385812785 0.0031724003313800117 0 -0.010682305806844669 0.002986026312484498 0 -0.011336231385812785 0.0031724003313800117 0 -0.011030279589994871 0.0034048196391477099 0 -0.010682305806844669 0.002986026312484498 0 -0.011782825593629871 0.0032855109246471247 0 -0.011336231385812785 0.0031724003313800117 0 -0.011418776258285766 0.0035496550562724243 0 -0.011782825593629871 0.0032855109246471247 0 -0.01152047436508402 0.0025560037591772994 0 -0.011336231385812785 0.0031724003313800117 0 -0.011336231385812785 0.0031724003313800117 0 -0.011418776258285766 0.0035496550562724243 0 -0.011030279589994871 0.0034048196391477099 0 -0.010964653790386912 0.0037773301714446646 0 -0.011030279589994871 0.0034048196391477099 0 -0.010613808681171597 0.0034853187114921636 0 -0.010964653790386912 0.0037773301714446646 0 -0.011418776258285766 0.0035496550562724243 0 -0.011030279589994871 0.0034048196391477099 0 -0.010613808681171597 0.0034853187114921636 0 -0.010427484089969803 0.0036916596290567072 0 -0.010200925045520257 0.0033944153248119829 0 -0.010964653790386912 0.0037773301714446646 0 -0.010613808681171597 0.0034853187114921636 0 -0.010427484089969803 0.0036916596290567072 0 -0.010427484089969803 0.0036916596290567072 0 -0.010200925045520257 0.0033944153248119829 0 -0.010113247262698646 0.0035909777407380486 0 -0.010200925045520257 0.0033944153248119829 0 -0.0090505764096071271 0.0033630860508830815 0 -0.0098187209536520787 0.0029960437927079252 0 -0.0093187554951252374 0.0034728713776055373 0 -0.0092132026933043881 0.0034588508932610991 0 -0.010200925045520257 0.0033944153248119829 0 -0.010682305806844669 0.002986026312484498 0 -0.0098187209536520787 0.0029960437927079252 0 -0.010613808681171597 0.0034853187114921636 0 -0.010200925045520257 0.0033944153248119829 0 -0.010682305806844669 0.002986026312484498 0 -0.011030279589994871 0.0034048196391477099 0 -0.010613808681171597 0.0034853187114921636 0 -0.010682305806844669 0.002986026312484498 0 -0.0099971548149283482 0.0033181467716945625 0 -0.0097611506513007283 0.0034823373070551711 0 -0.0092881253536414472 0.0036833931590285179 0 -0.0097593282995535272 0.0035651452097439484 0 -0.0097611506513007283 0.0034823373070551711 0 -0.0096696582246985317 0.0036018365557105099 0 -0.0097593282995535272 0.0035651452097439484 0 -0.0098071217208342415 0.0035407373549110562 0 -0.0097611506513007283 0.0034823373070551711 0 -0.0097593282995535272 0.0035651452097439484 0 -0.0097285306807965433 0.003667416571210517 0 -0.0096696582246985317 0.0036018365557105099 0 -0.0098266782560320187 0.0037921297973038501 0 -0.0097285306807965433 0.003667416571210517 0 -0.0098421255305424678 0.0036061321036734476 0 -0.0096903618615750194 0.0037687535172363997 0 -0.0097285306807965433 0.003667416571210517 0 -0.0096133708765106726 0.003696456063609339 0 -0.0097593282995535272 0.0035651452097439484 0 -0.0097285306807965433 0.003667416571210517 0 -0.0098421255305424678 0.0036061321036734476 0 -0.0098266782560320187 0.0037921297973038501 0 -0.0098421255305424678 0.0036061321036734476 0 -0.0099486162064523608 0.0036642927276172381 0 -0.0098421255305424678 0.0036061321036734476 0 -0.0099551085403296238 0.0035496588961024043 0 -0.0099486162064523608 0.0036642927276172381 0 -0.0098421255305424678 0.0036061321036734476 0 -0.0098663189805422522 0.0035101147113462757 0 -0.0099551085403296238 0.0035496588961024043 0 -0.0098421255305424678 0.0036061321036734476 0 -0.0098071217208342415 0.0035407373549110562 0 -0.0098663189805422522 0.0035101147113462757 0 -0.0097593282995535272 0.0035651452097439484 0 -0.0098421255305424678 0.0036061321036734476 0 -0.0098071217208342415 0.0035407373549110562 0 -0.0098071217208342415 0.0035407373549110562 0 -0.0098663189805422522 0.0035101147113462757 0 -0.0097611506513007283 0.0034823373070551711 0 -0.0098663189805422522 0.0035101147113462757 0 -0.0099551085403296238 0.0035496588961024043 0 -0.0099267686266348628 0.0034763991799971017 0 -0.010094671484085002 0.0039277654235929486 0 -0.0099486162064523608 0.0036642927276172381 0 -0.010113247262698646 0.0035909777407380486 0 -0.0099551085403296238 0.0035496588961024043 0 -0.010113247262698646 0.0035909777407380486 0 -0.010015761109139281 0.0034552961728520032 0 -0.0099551085403296238 0.0035496588961024043 0 -0.010015761109139281 0.0034552961728520032 0 -0.0099267686266348628 0.0034763991799971017 0 -0.0099551085403296238 0.0035496588961024043 0 -0.0099486162064523608 0.0036642927276172381 0 -0.010113247262698646 0.0035909777407380486 0 -0.010200925045520257 0.0033944153248119829 0 -0.010113247262698646 0.0035909777407380486 0 -0.010015761109139281 0.0034552961728520032 0 -0.010200925045520257 0.0033944153248119829 0 -0.0099971548149283482 0.0033181467716945625 0 -0.010015761109139281 0.0034552961728520032 0 -0.0099971548149283482 0.0033181467716945625 0 -0.010015761109139281 0.0034552961728520032 0 -0.0099165226372784493 0.0034157184344458524 0 -0.010015761109139281 0.0034552961728520032 0 -0.0099267686266348628 0.0034763991799971017 0 -0.0099165226372784493 0.0034157184344458524 0 -0.0099971548149283482 0.0033181467716945625 0 -0.0099165226372784493 0.0034157184344458524 0 -0.0097611506513007283 0.0034823373070551711 0 -0.0098720384903103423 0.0034664817437613615 0 -0.0099165226372784493 0.0034157184344458524 0 -0.0097611506513007283 0.0034823373070551711 0 -0.0099267686266348628 0.0034763991799971017 0 -0.0098720384903103423 0.0034664817437613615 0 -0.0099165226372784493 0.0034157184344458524 0 -0.0098663189805422522 0.0035101147113462757 0 -0.0099267686266348628 0.0034763991799971017 0 -0.0098720384903103423 0.0034664817437613615 0 -0.0098663189805422522 0.0035101147113462757 0 -0.0098720384903103423 0.0034664817437613615 0 -0.0097611506513007283 0.0034823373070551711 0 -0.0090505764096071271 0.0033630860508830815 0 -0.0087523375341534929 0.0029495607883662667 0 -0.0068358348404406943 0.0028650526075875188 0 -0.008329241244532732 0.0024700166056343866 0 -0.0090890577477992177 0.0018850569255736396 0 -0.0077527273297902707 0.0021109274524579564 0 -0.0087523375341534929 0.0029495607883662667 0 -0.0091988575523501911 0.0026547761647164139 0 -0.008329241244532732 0.0024700166056343866 0 -0.0090505764096071271 0.0033630860508830815 0 -0.0091988575523501911 0.0026547761647164139 0 -0.0098187209536520787 0.0029960437927079252 0 -0.0090505764096071271 0.0033630860508830815 0 -0.0087523375341534929 0.0029495607883662667 0 -0.0091988575523501911 0.0026547761647164139 0 -0.0091988575523501911 0.0026547761647164139 0 -0.0099095765109715878 0.0024940376021516412 0 -0.0090890577477992177 0.0018850569255736396 0 -0.0091988575523501911 0.0026547761647164139 0 -0.008329241244532732 0.0024700166056343866 0 -0.0090890577477992177 0.0018850569255736396 0 -0.0099095765109715878 0.0024940376021516412 0 -0.0090890577477992177 0.0018850569255736396 0 -0.010736835262366832 0.0019561823529800899 0 -0.0091988575523501911 0.0026547761647164139 0 -0.0098187209536520787 0.0029960437927079252 0 -0.0099095765109715878 0.0024940376021516412 0 -0.010682305806844669 0.002986026312484498 0 -0.0098187209536520787 0.0029960437927079252 0 -0.0099095765109715878 0.0024940376021516412 0 -0.010682305806844669 0.002986026312484498 0 -0.0099095765109715878 0.0024940376021516412 0 -0.010736835262366832 0.0019561823529800899 0 -0.010106398581329529 0.0010231216639015361 0 -0.0090890577477992177 0.0018850569255736396 0 -0.010736835262366832 0.0019561823529800899 0 -0.010106398581329529 0.0010231216639015361 0 -0.0090890577477992177 0.0018850569255736396 0 -0.0087741534165804262 0.00033962184425676456 0 -0.0090890577477992177 0.0018850569255736396 0 -0.0087741534165804262 0.00033962184425676456 0 -0.0054419600806312578 0.0018190037324915627 0 -0.0087741534165804262 0.00033962184425676456 0 -0.010199818624383069 -0.00046737234511397502 0 -0.0071522435803135663 -0.00054075547263082453 0 -0.0028543647061840681 0.00020022359922588706 0 -0.0032388704717867347 0.00017834695356707525 0 -0.00015321612816061866 0.00070816629631721185 0 -0.00015246898260573523 0.00070745803633310385 0 -0.00016827330640112716 0.00069904392718168602 0 0.0014397717434961729 -0.0020341700538004546 0 0.0013887664892946443 -0.0019823116346957578 0 0.00098354229444033237 -0.0019996186748019625 0 -0.010106398581329529 0.0010231216639015361 0 -0.010199818624383069 -0.00046737234511397502 0 -0.011481767437381322 0.0012348748832151713 0 -0.010106398581329529 0.0010231216639015361 0 -0.0087741534165804262 0.00033962184425676456 0 -0.010199818624383069 -0.00046737234511397502 0 -0.0021355313803552776 -0.0001586656311150606 0 -0.0028543647061840681 0.00020022359922588706 0 -0.0028543647061840681 0.00020022359922588706 0 -0.0044838131626190464 0.00041891727100621697 0 0.00098354229444033237 -0.0019996186748019625 0 0.00060055480841451805 -0.0018593735960993369 0 0.0010038681569159865 -0.0015499323099543111 0 0.0013887664892946443 -0.0019823116346957578 0 0.00098354229444033237 -0.0019996186748019625 0 0.0010038681569159865 -0.0015499323099543111 0 0.00060055480841451805 -0.0018593735960993369 0 0.00075501673819209269 -0.0023800384845758427 0 0.00022129447624558301 -0.0018752644219975623 0 0.00036154279263857334 -0.0018791682907156985 0 0.00029437417673678815 -0.0017597391261216973 0 0.00098354229444033237 -0.0019996186748019625 0 0.00060055480841451805 -0.0018593735960993369 0 0.00072632130785490285 -0.0022740560158748574 0 0.00060055480841451805 -0.0018593735960993369 0 0.00050742437229546467 -0.0014528496165035461 0 0.00022129447624558301 -0.0018752644219975623 0 -0.0058463127219348359 0.00096516342355723139 0 -0.0044838131626190464 0.00041891727100621697 0 0.00046761406419392799 -0.00093377016335647483 0 0.00050742437229546467 -0.0014528496165035461 0 0.0010038681569159865 -0.0015499323099543111 0 0.00060055480841451805 -0.0018593735960993369 0 0.00050742437229546467 -0.0014528496165035461 0 0.0010038681569159865 -0.0015499323099543111 0 -0.010106398581329529 0.0010231216639015361 0 -0.011481767437381322 0.0012348748832151713 0 -0.010736835262366832 0.0019561823529800899 0 -0.01152047436508402 0.0025560037591772994 0 -0.011481767437381322 0.0012348748832151713 0 -0.010736835262366832 0.0019561823529800899 0 -0.0024667166094060741 0.0015441924800841658 0 -0.0032294463233886769 0.0021533215188095913 0 -0.0041596939613521792 0.0017664706355810414 0 -0.0032294463233886769 0.0021533215188095913 0 -0.0038726743372929913 0.0022893437172150036 0 -0.0041596939613521792 0.0017664706355810414 0 -0.0032294463233886769 0.0021533215188095913 0 -0.0038726743372929913 0.0022893437172150036 0 -0.0036185427263889739 0.0027857654128973053 0 -0.0038726743372929913 0.0022893437172150036 0 -0.0036185427263889739 0.0027857654128973053 0 -0.0041091070466741843 0.0025389065557651922 0 -0.0026706901493450141 0.0028161500576555473 0 -0.0032294463233886769 0.0021533215188095913 0 -0.0036185427263889739 0.0027857654128973053 0 -0.0026706901493450141 0.0028161500576555473 0 -0.0032849576532586913 0.0033881224352943179 0 -0.0036185427263889739 0.0027857654128973053 0 -0.0032849576532586913 0.0033881224352943179 0 -0.0036185427263889739 0.0027857654128973053 0 -0.0040309678671516438 0.0033437466214432262 0 -0.0037304816647314503 0.0040190879002477238 0 -0.0032849576532586913 0.0033881224352943179 0 -0.0040309678671516438 0.0033437466214432262 0 -0.0036185427263889739 0.0027857654128973053 0 -0.0040563592033697506 0.0028567251202123579 0 -0.0040309678671516438 0.0033437466214432262 0 -0.0036185427263889739 0.0027857654128973053 0 -0.0040563592033697506 0.0028567251202123579 0 -0.0041091070466741843 0.0025389065557651922 0 -0.0040563592033697506 0.0028567251202123579 0 -0.0043787120038634806 0.0029930408046337982 0 -0.0040309678671516438 0.0033437466214432262 0 -0.0065778089574535549 0.0039801298238053067 0 -0.0043891179618125572 0.0027306469882913921 0 -0.0043787120038634806 0.0029930408046337982 0 -0.0040563592033697506 0.0028567251202123579 0 -0.0043891179618125572 0.0027306469882913921 0 -0.0043787120038634806 0.0029930408046337982 0 -0.0040563592033697506 0.0028567251202123579 0 -0.0043891179618125572 0.0027306469882913921 0 -0.0041091070466741843 0.0025389065557651922 0 -0.0043311546113371365 0.0038344558725004179 0 -0.0040309678671516438 0.0033437466214432262 0 -0.0043901782053622669 0.0034621663359181184 0 -0.0043787120038634806 0.0029930408046337982 0 -0.0040309678671516438 0.0033437466214432262 0 -0.0043901782053622669 0.0034621663359181184 0 -0.0048022156944906753 0.0036531912919004509 0 -0.0043787120038634806 0.0029930408046337982 0 -0.0043901782053622669 0.0034621663359181184 0 -0.0043891179618125572 0.0027306469882913921 0 -0.0048662248844846285 0.0026541560973719898 0 -0.0052633465427050982 0.0030309702868524719 0 -0.0043731463357710729 0.0023497658307924936 0 -0.0041596939613521792 0.0017664706355810414 0 -0.0050716963913765333 0.0024196518625570229 0 -0.0048662248844846285 0.0026541560973719898 0 -0.0043731463357710729 0.0023497658307924936 0 -0.0050716963913765333 0.0024196518625570229 0 -0.0043891179618125572 0.0027306469882913921 0 -0.0048662248844846285 0.0026541560973719898 0 -0.0043731463357710729 0.0023497658307924936 0 -0.0043891179618125572 0.0027306469882913921 0 -0.0041091070466741843 0.0025389065557651922 0 -0.0043731463357710729 0.0023497658307924936 0 -0.0038726743372929913 0.0022893437172150036 0 -0.0041091070466741843 0.0025389065557651922 0 -0.0043731463357710729 0.0023497658307924936 0 -0.0038726743372929913 0.0022893437172150036 0 -0.0043731463357710729 0.0023497658307924936 0 -0.0041596939613521792 0.0017664706355810414 0 -0.0045450942766424203 0.0022235374046299852 0 -0.0068358348404406943 0.0028650526075875188 0 -0.0056858828299122437 0.0018293261417471124 0 -0.0046737372806217002 0.0021099019900608319 0 -0.006625099810869171 0.0026655257196835746 0 -0.0041596939613521792 0.0017664706355810414 0 -0.0061346552978840075 0.0022167824322365361 0 -0.0050716963913765333 0.0024196518625570229 0 -0.0061346552978840075 0.0022167824322365361 0 -0.0050716963913765333 0.0024196518625570229 0 -0.0058015170454117039 0.0028491963798966064 0 -0.0048662248844846285 0.0026541560973719898 0 -0.0050716963913765333 0.0024196518625570229 0 -0.0053134721212286908 0.0028060008803114165 0 -0.0062497301702606764 0.0039160477157302691 0 -0.0043891179618125572 0.0027306469882913921 0 -0.0052633465427050982 0.0030309702868524719 0 -0.011475430435565709 0.0034482426569961322 0 -0.007626499187046323 0.0020998687862756452 0 -0.0048662248844846285 0.0026541560973719898 0 -0.0053134721212286908 0.0028060008803114165 0 -0.0052633465427050982 0.0030309702868524719 0 -0.0065778089574535549 0.0039801298238053067 0 -0.006141016799055465 0.0042406467668754874 0 -0.0043787120038634806 0.0029930408046337982 0 -0.0055792408569990777 0.0038510667619307015 0 -0.0048022156944906753 0.0036531912919004509 0 -0.0043787120038634806 0.0029930408046337982 0 -0.011199581855404451 0.0035501279506398621 0 -0.0082485778839665666 0.0023224996604761733 0 -0.0050716963913765333 0.0024196518625570229 0 -0.0053134721212286908 0.0028060008803114165 0 -0.0058015170454117039 0.0028491963798966064 0 -0.0053134721212286908 0.0028060008803114165 0 -0.0056908316898437918 0.0031593931876148815 0 -0.0058015170454117039 0.0028491963798966064 0 -0.0053134721212286908 0.0028060008803114165 0 -0.0052633465427050982 0.0030309702868524719 0 -0.0056908316898437918 0.0031593931876148815 0 -0.0062497301702606764 0.0039160477157302691 0 -0.0060926692065229509 0.0033863493744815377 0 -0.0056908316898437918 0.0031593931876148815 0 -0.0062497301702606764 0.0039160477157302691 0 -0.0052633465427050982 0.0030309702868524719 0 -0.0056908316898437918 0.0031593931876148815 0 -0.0061346552978840075 0.0022167824322365361 0 -0.0058015170454117039 0.0028491963798966064 0 -0.0065935539084261757 0.0031567333692466399 0 -0.0060926692065229509 0.0033863493744815377 0 -0.0058015170454117039 0.0028491963798966064 0 -0.0065935539084261757 0.0031567333692466399 0 -0.0060926692065229509 0.0033863493744815377 0 -0.0056908316898437918 0.0031593931876148815 0 -0.0058015170454117039 0.0028491963798966064 0 -0.0082034057419919388 0.0027886734919989682 0 -0.0065935539084261757 0.0031567333692466399 0 -0.0064793776107958711 0.0038020903120749511 0 -0.0092132026933043881 0.0034588508932610991 0 -0.011692190302566229 0.003552545717586314 0 -0.0082034057419919388 0.0027886734919989682 0 -0.0061346552978840075 0.0022167824322365361 0 -0.0065935539084261757 0.0031567333692466399 0 -0.011540015476541371 0.0036031711159605485 0 -0.011692190302566229 0.003552545717586314 0 -0.0060926692065229509 0.0033863493744815377 0 -0.0065935539084261757 0.0031567333692466399 0 -0.0062959482843808938 0.0035948444710972387 0 -0.0065935539084261757 0.0031567333692466399 0 -0.0064761574996518544 0.0037835711228861525 0 -0.0062959482843808938 0.0035948444710972387 0 -0.0093917864472936839 0.0037297027048967119 0 -0.0092881253536414472 0.0036833931590285179 0 -0.0094742996267053268 0.0036504794699687266 0 -0.011475430435565709 0.0034482426569961322 0 -0.011692190302566229 0.003552545717586314 0 -0.0062497301702606764 0.0039160477157302691 0 -0.0064761574996518544 0.0037835711228861525 0 -0.0062959482843808938 0.0035948444710972387 0 -0.0062497301702606764 0.0039160477157302691 0 -0.0060926692065229509 0.0033863493744815377 0 -0.0062959482843808938 0.0035948444710972387 0 -0.0097611506513007283 0.0034823373070551711 0 -0.0092881253536414472 0.0036833931590285179 0 -0.0094742996267053268 0.0036504794699687266 0 -0.0097611506513007283 0.0034823373070551711 0 -0.009585678433193202 0.0036282776660785067 0 -0.0094742996267053268 0.0036504794699687266 0 -0.009585678433193202 0.0036282776660785067 0 -0.0096133708765106726 0.003696456063609339 0 -0.0096696582246985317 0.0036018365557105099 0 -0.0097285306807965433 0.003667416571210517 0 -0.0096133708765106726 0.003696456063609339 0 -0.0096696582246985317 0.0036018365557105099 0 -0.009585678433193202 0.0036282776660785067 0 -0.0096133708765106726 0.003696456063609339 0 -0.00949689848786461 0.0037088956637603946 0 -0.0093917864472936839 0.0037297027048967119 0 -0.00949689848786461 0.0037088956637603946 0 -0.0094742996267053268 0.0036504794699687266 0 -0.009585678433193202 0.0036282776660785067 0 -0.00949689848786461 0.0037088956637603946 0 -0.0094742996267053268 0.0036504794699687266 0 -0.0097611506513007283 0.0034823373070551711 0 -0.009585678433193202 0.0036282776660785067 0 -0.0096696582246985317 0.0036018365557105099 0 -0.008329241244532732 0.0024700166056343866 0 -0.0068358348404406943 0.0028650526075875188 0 -0.0077527273297902707 0.0021109274524579564 0 -0.0092132026933043881 0.0034588508932610991 0 -0.006625099810869171 0.0026655257196835746 0 -0.0068358348404406943 0.0028650526075875188 0 -0.0077527273297902707 0.0021109274524579564 0 -0.0069197426135264393 0.0013179831814040925 0 -0.0087523375341534929 0.0029495607883662667 0 -0.008329241244532732 0.0024700166056343866 0 -0.0068358348404406943 0.0028650526075875188 0 -0.0090890577477992177 0.0018850569255736396 0 -0.0077527273297902707 0.0021109274524579564 0 -0.0069197426135264393 0.0013179831814040925 0 -0.007305762544274199 0.0017430727307471672 0 -0.005848537975201247 0.0015207021265592742 0 -0.00016827330640112716 0.00069904392718168602 0 -0.00024722374046352928 0.00063191459507864437 0 -0.00018460094514281898 0.00072921938858276289 0 -0.0087741534165804262 0.00033962184425676456 0 -0.0054419600806312578 0.0018190037324915627 0 -0.0071522435803135663 -0.00054075547263082453 0 -0.0032388704717867347 0.00017834695356707525 0 -0.0022299256305540294 0.00023372255122730494 0 -0.0054419600806312578 0.0018190037324915627 0 -0.0071522435803135663 -0.00054075547263082453 0 -0.0035231372634053014 -0.0002812510904111034 0 -0.0054419600806312578 0.0018190037324915627 0 -0.0035231372634053014 -0.0002812510904111034 0 -0.0017266934052764214 0.001355442553877503 0 -0.005848537975201247 0.0015207021265592742 0 -0.0034816618999642104 0.001153716878570146 0 -0.0068358348404406943 0.0028650526075875188 0 -0.0069197426135264393 0.0013179831814040925 0 -0.0056858828299122437 0.0018293261417471124 0 -0.0069197426135264393 0.0013179831814040925 0 -0.0056858828299122437 0.0018293261417471124 0 -0.0044478097308897858 0.00090942295229213589 0 -0.0045450942766424203 0.0022235374046299852 0 -0.0056858828299122437 0.0018293261417471124 0 -0.0044478097308897858 0.00090942295229213589 0 -0.00024722374046352928 0.00063191459507864437 0 -0.00070809826377619175 0.00058360231362734633 0 -0.00035934610639651402 0.00073961242887656496 0 -0.0035231372634053014 -0.0002812510904111034 0 -0.0017266934052764214 0.001355442553877503 0 -0.00070809826377619175 0.00058360231362734633 0 -0.0022299256305540294 0.00023372255122730494 0 -0.0016292483645516068 0.000289523562329269 0 -0.00024822132130911128 0.00081546027393351785 0 -0.0017266934052764214 0.001355442553877503 0 -0.00070809826377619175 0.00058360231362734633 0 -0.0018029857566389475 0.00089515011139617976 0 -0.0034816618999642104 0.001153716878570146 0 -0.0036727185719313974 0.0018353204362099821 0 -0.0046737372806217002 0.0021099019900608319 0 -0.0024667166094060741 0.0015441924800841658 0 -0.0022791991876598299 0.00069386249549453912 0 -0.0044478097308897858 0.00090942295229213589 0 -0.0024667166094060741 0.0015441924800841658 0 -0.0045450942766424203 0.0022235374046299852 0 -0.0044478097308897858 0.00090942295229213589 0 -0.00036648109997337175 0.00082990872809939119 0 -0.0003842448779294254 0.00078609320641798641 0 -0.00012753947218860443 0.0009328791796885987 0 -0.00045143742592865807 0.00071414482864370411 0 -0.00070809826377619175 0.00058360231362734633 0 -0.0003842448779294254 0.00078609320641798641 0 -0.00070809826377619175 0.00058360231362734633 0 -0.0003842448779294254 0.00078609320641798641 0 -0.00035934610639651402 0.00073961242887656496 0 -0.0003842448779294254 0.00078609320641798641 0 -0.00035934610639651402 0.00073961242887656496 0 -0.00027652165303349474 0.00081597834511646435 0 -0.00024722374046352928 0.00063191459507864437 0 -0.00035934610639651402 0.00073961242887656496 0 -0.00024951754138935803 0.00074721221071618639 0 -0.00035934610639651402 0.00073961242887656496 0 -0.00027652165303349474 0.00081597834511646435 0 -0.00024951754138935803 0.00074721221071618639 0 -0.0003842448779294254 0.00078609320641798641 0 -0.00024533752896689398 0.00089931146601648698 0 -0.00012753947218860443 0.0009328791796885987 0 -0.0003842448779294254 0.00078609320641798641 0 -0.00027652165303349474 0.00081597834511646435 0 -0.00024533752896689398 0.00089931146601648698 0 -0.00027652165303349474 0.00081597834511646435 0 -0.00024533752896689398 0.00089931146601648698 0 -0.00025924929295254441 0.00086683817004263393 0 -0.00025924929295254441 0.00086683817004263393 0 -0.00022425685664977487 0.00084005405290968848 0 -0.0002155611716346232 0.00086671262993921836 0 -0.00025924929295254441 0.00086683817004263393 0 -0.00022425685664977487 0.00084005405290968848 0 -0.00022984368271013409 0.00080338352741348687 0 -0.00022425685664977487 0.00084005405290968848 0 -0.00022984368271013409 0.00080338352741348687 0 -0.00019009809989023924 0.00081960956454116848 0 -0.00027652165303349474 0.00081597834511646435 0 -0.00025924929295254441 0.00086683817004263393 0 -0.00022984368271013409 0.00080338352741348687 0 -0.00024722374046352928 0.00063191459507864437 0 -0.00024951754138935803 0.00074721221071618639 0 -0.00018460094514281898 0.00072921938858276289 0 -0.00027652165303349474 0.00081597834511646435 0 -0.00022984368271013409 0.00080338352741348687 0 -0.00024951754138935803 0.00074721221071618639 0 -0.00022984368271013409 0.00080338352741348687 0 -0.00024951754138935803 0.00074721221071618639 0 -0.00018460094514281898 0.00072921938858276289 0 -0.00022984368271013409 0.00080338352741348687 0 -0.00018460094514281898 0.00072921938858276289 0 -0.00019009809989023924 0.00081960956454116848 0 -0.00016827330640112716 0.00069904392718168602 0 -0.00018460094514281898 0.00072921938858276289 0 -0.00015561049886933317 0.00071382138745812603 0 -0.00086544375006046819 -0.00046472291381457418 0 -0.00090746354303444647 -0.00042345172285535308 0 -0.00092785653901270634 -0.0004777084271169408 0 -0.00018460094514281898 0.00072921938858276289 0 -0.00019009809989023924 0.00081960956454116848 0 -0.00011600521013638446 0.00080031660144769105 0 -0.00019009809989023924 0.00081960956454116848 0 -0.0002155611716346232 0.00086671262993921836 0 -0.00019482308507095546 0.0008706057940782838 0 -0.00022425685664977487 0.00084005405290968848 0 -0.00019009809989023924 0.00081960956454116848 0 -0.0002155611716346232 0.00086671262993921836 0 -0.00084439555531596157 -0.00019168247006572681 0 -0.00085210572540001558 -0.0001955938844725226 0 -0.00085210572540001558 -0.0001955938844725226 0 -0.00098219287699232902 -0.00025340851361001015 0 -0.00019009809989023924 0.00081960956454116848 0 -0.00019482308507095546 0.0008706057940782838 0 -0.00011600521013638446 0.00080031660144769105 0 -0.00090352596175344345 0.001414831317873109 0 -0.001143422642685537 0.00067306226205603148 0 -0.00033968917668496679 0.00085477153786430175 0 -0.00085210572540001558 -0.0001955938844725226 0 -0.00062319961941019778 -0.00052510608983307979 0 -0.00090352596175344345 0.001414831317873109 0 -0.001143422642685537 0.00067306226205603148 0 -0.0014027661396872298 0.0013112055454011003 0 -0.001143422642685537 0.00067306226205603148 0 -0.00033968917668496679 0.00085477153786430175 0 -0.00053284568117768977 0.00037628139281545216 0 -0.00025924929295254441 0.00086683817004263393 0 -0.0002155611716346232 0.00086671262993921836 0 -0.00033968917668496679 0.00085477153786430175 0 -0.0002155611716346232 0.00086671262993921836 0 -0.00020503103369823295 0.00087111134500659701 0 -0.00033968917668496679 0.00085477153786430175 0 -0.00024533752896689398 0.00089931146601648698 0 -0.00025924929295254441 0.00086683817004263393 0 -0.00033968917668496679 0.00085477153786430175 0 -0.00085210572540001558 -0.0001955938844725226 0 -0.00087864056511151442 0.00020618753695282501 0 -0.00024533752896689398 0.00089931146601648698 0 -0.00033968917668496679 0.00085477153786430175 0 -0.00012753947218860443 0.0009328791796885987 0 -0.00033968917668496679 0.00085477153786430175 0 -0.00012753947218860443 0.0009328791796885987 0 0.0004285837586297897 0.00053281354625682789 0 -0.00033968917668496679 0.00085477153786430175 0 0.0004285837586297897 0.00053281354625682789 0 -3.1338407939769669e-05 0.00027216719079490166 0 0.00074035156497542223 0.00068540042093785984 0 -0.00012753947218860443 0.0009328791796885987 0 0.0004285837586297897 0.00053281354625682789 0 0.00012489259374932676 0.00066608700513682585 0 6.4860282739614516e-05 0.0007315519055782801 0 -0.00035888399377185685 -0.0010015192591275074 0 -0.00049445103825956633 -0.0010209746152756145 0 -0.0004363013957140653 -0.00095884689365151668 0 -0.00035888399377185685 -0.0010015192591275074 0 -0.00043810725200883147 -0.0011092248621402117 0 -0.00049445103825956633 -0.0010209746152756145 0 6.4609476203208882e-05 -0.0018085329270998822 0 0.00029437417673678815 -0.0017597391261216973 0 0.00095122540497007298 -0.0029107537581686892 0 0.00065095571901940764 -0.0028614288629198216 0 0.00076594129000520628 -0.003170604314525241 0 0.00095122540497007298 -0.0029107537581686892 0 0.00065095571901940764 -0.0028614288629198216 0 0.00087863830707535023 -0.0024573080999020875 0 0.00065095571901940764 -0.0028614288629198216 0 0.00076594129000520628 -0.003170604314525241 0 0.00057605836914478977 -0.0031464374571469516 0 0.00098354229444033237 -0.0019996186748019625 0 0.00072632130785490285 -0.0022740560158748574 0 0.001131915856321934 -0.0022588367926697616 0 -0.00035888399377185685 -0.0010015192591275074 0 -0.00032868594066800925 -0.0011083488060959464 0 -0.00043810725200883147 -0.0011092248621402117 0 0.0014397717434961729 -0.0020341700538004546 0 0.00098354229444033237 -0.0019996186748019625 0 0.001131915856321934 -0.0022588367926697616 0 0.00029437417673678815 -0.0017597391261216973 0 -0.00021080557984912694 -0.0012050113114631456 0 -0.00021080557984912694 -0.0012050113114631456 0 -0.0012964683422896856 -0.00054732812198783284 0 0.0014397717434961729 -0.0020341700538004546 0 0.001131915856321934 -0.0022588367926697616 0 0.0015248659090439226 -0.0022456641288862737 0 -0.00043810725200883147 -0.0011092248621402117 0 -0.00054731013148136829 -0.0011103683200434332 0 -0.00049445103825956633 -0.0010209746152756145 0 -0.0021355313803552776 -0.0001586656311150606 0 -0.0012964683422896856 -0.00054732812198783284 0 -0.0021355313803552776 -0.0001586656311150606 0 -0.001229793953381555 -0.00039722689255675071 0 -0.0015540073990180001 -0.00048867955499245596 0 -0.0015816357765248887 -0.00042165725010606528 0 -0.00162080048360806 -0.00042274822526088126 0 -0.0012964683422896856 -0.00054732812198783284 0 -0.001229793953381555 -0.00039722689255675071 0 -0.00096858402052204683 -0.00038259335925137293 0 -0.00094978994356050711 -0.00038215897812030053 0 -0.00090746354303444647 -0.00042345172285535308 0 -0.00015321612816061866 0.00070816629631721185 0 -0.00016827330640112716 0.00069904392718168602 0 -0.00015561049886933317 0.00071382138745812603 0 -0.00018460094514281898 0.00072921938858276289 0 -5.2897803597725823e-05 0.00073337149675419867 0 -0.00011600521013638446 0.00080031660144769105 0 -0.00059786780603790946 -0.00015689571034992257 0 -0.001229793953381555 -0.00039722689255675071 0 -0.001229793953381555 -0.00039722689255675071 0 -0.00098219287699232902 -0.00025340851361001015 0 -0.0012964683422896856 -0.00054732812198783284 0 -0.00062319961941019778 -0.00052510608983307979 0 -0.00096858402052204683 -0.00038259335925137293 0 -0.00090746354303444647 -0.00042345172285535308 0 -0.00092785653901270634 -0.0004777084271169408 0 -0.00049445103825956633 -0.0010209746152756145 0 -0.00050331210827431715 -0.00091755440388679684 0 -0.0004363013957140653 -0.00095884689365151668 0 -0.00049445103825956633 -0.0010209746152756145 0 -0.00050331210827431715 -0.00091755440388679684 0 -0.00061831162219198746 -0.00093999426287143457 0 -0.00054731013148136829 -0.0011103683200434332 0 -0.00049445103825956633 -0.0010209746152756145 0 -0.00061831162219198746 -0.00093999426287143457 0 -0.00055953645549262898 -0.00093668768677973135 0 -0.00019606968067773677 -0.00086298886763017276 0 -0.00040166920969847051 -0.0012542450515211727 0 -0.00046843717744869407 -0.0010784306126167874 0 -0.00062319961941019778 -0.00052510608983307979 0 -0.00055953645549262898 -0.00093668768677973135 0 -0.00067151819444343538 -0.0011686570504562269 0 -0.00040166920969847051 -0.0012542450515211727 0 -0.00041200938952407648 -0.00045031692985028946 0 -0.00062319961941019778 -0.00052510608983307979 0 -5.5163848307211381e-06 -0.001321666516961855 0 -0.00019606968067773677 -0.00086298886763017276 0 -0.00040166920969847051 -0.0012542450515211727 0 -5.5163848307211381e-06 -0.001321666516961855 0 -0.00040166920969847051 -0.0012542450515211727 0 -0.00045870413630550501 -0.0016326365183339771 0 -0.00067151819444343538 -0.0011686570504562269 0 -0.00040166920969847051 -0.0012542450515211727 0 -0.00080045771613696762 -0.0014731040077422518 0 -0.00026478451507822259 -0.0016670327720514414 0 -0.00043655835419284349 -0.0018130812623259628 0 -0.0006982324754532445 -0.0026827256095831534 0 -0.00055412902676038719 -0.0024026378518468136 0 -0.00070606158694770985 -0.0022594887226451842 0 -0.00070782263625146741 -0.0027229775315501183 0 -0.0006982324754532445 -0.0026827256095831534 0 -0.00070606158694770985 -0.0022594887226451842 0 -0.00067151819444343538 -0.0011686570504562269 0 -0.00092342249587205405 -0.0010115591787823299 0 -0.00080045771613696762 -0.0014731040077422518 0 -0.00055412902676038719 -0.0024026378518468136 0 -0.00047577282849033147 -0.0022736356789152812 0 -0.00070606158694770985 -0.0022594887226451842 0 -0.00055953645549262898 -0.00093668768677973135 0 -0.00067151819444343538 -0.0011686570504562269 0 -0.00092342249587205405 -0.0010115591787823299 0 -0.00035888399377185685 -0.0010015192591275074 0 -0.0003885681777271249 -0.00089555475389065608 0 -0.0004363013957140653 -0.00095884689365151668 0 -0.00050331210827431715 -0.00091755440388679684 0 -0.0003885681777271249 -0.00089555475389065608 0 -0.0004363013957140653 -0.00095884689365151668 0 -0.00046843717744869407 -0.0010784306126167874 0 -0.00026478451507822259 -0.0016670327720514414 0 6.4609476203208882e-05 -0.0018085329270998822 0 -0.00026478451507822259 -0.0016670327720514414 0 0.0010420348398058866 -0.0033209616407193104 0 0.00076594129000520628 -0.003170604314525241 0 0.0005182189240310937 -0.0033618560634865345 0 -0.00026478451507822259 -0.0016670327720514414 0 9.1528061560855882e-05 -0.0020387050954730839 0 -0.00070782263625146741 -0.0027229775315501183 0 -0.0006982324754532445 -0.0026827256095831534 0 -0.00041836806206632063 -0.0027531868916528951 0 0.00095122540497007298 -0.0029107537581686892 0 0.0010420348398058866 -0.0033209616407193104 0 0.00076594129000520628 -0.003170604314525241 0 0.00076594129000520628 -0.003170604314525241 0 0.0005182189240310937 -0.0033618560634865345 0 0.00057605836914478977 -0.0031464374571469516 0 -0.0006982324754532445 -0.0026827256095831534 0 -0.00041836806206632063 -0.0027531868916528951 0 -0.00053382607919004162 -0.002482287213469474 0 0.00063833176916469332 -0.0023204099397239504 0 0.0012716130439486943 -0.0019648587199905245 0 -0.0006982324754532445 -0.0026827256095831534 0 -0.00036073064727408776 -0.0024649511648967373 0 -0.00055412902676038719 -0.0024026378518468136 0 -0.00036073064727408776 -0.0024649511648967373 0 -0.00055412902676038719 -0.0024026378518468136 0 -0.00047577282849033147 -0.0022736356789152812 0 -0.00036073064727408776 -0.0024649511648967373 0 -0.00033867691108103765 -0.0022719560037336071 0 -0.00047577282849033147 -0.0022736356789152812 0 0.0012716130439486943 -0.0019648587199905245 0 0.0036080505934900291 -0.00063441372577365115 0 9.1528061560855882e-05 -0.0020387050954730839 0 0.00031848078213590243 -0.0021298899888340284 0 -0.00041836806206632063 -0.0027531868916528951 0 3.8314760871096054e-05 -0.0025005102040352683 0 0.00076329355594605239 -0.0029708612788227084 0 -0.00036073064727408776 -0.0024649511648967373 0 -0.00011086025640854444 -0.0022785735435205423 0 -0.00033867691108103765 -0.0022719560037336071 0 -0.00053382607919004162 -0.002482287213469474 0 0.00014352070259417436 -0.0021264002270404959 0 0.00022802004362692824 -0.0016362183554751635 0 -0.00053382607919004162 -0.002482287213469474 0 3.8314760871096054e-05 -0.0025005102040352683 0 0.00014352070259417436 -0.0021264002270404959 0 -0.00041836806206632063 -0.0027531868916528951 0 -0.00053382607919004162 -0.002482287213469474 0 3.8314760871096054e-05 -0.0025005102040352683 0 3.8314760871096054e-05 -0.0025005102040352683 0 0.00046143752793755672 -0.0023763239205108482 0 0.00076329355594605239 -0.0029708612788227084 0 3.8314760871096054e-05 -0.0025005102040352683 0 0.00046143752793755672 -0.0023763239205108482 0 0.00014352070259417436 -0.0021264002270404959 0 0.00046143752793755672 -0.0023763239205108482 0 0.00044657735564751624 -0.002063203319676707 0 0.00078807152244436619 -0.0020451279454427691 0 0.00046143752793755672 -0.0023763239205108482 0 0.00044657735564751624 -0.002063203319676707 0 0.00014352070259417436 -0.0021264002270404959 0 0.00014352070259417436 -0.0021264002270404959 0 0.00045149718727179391 -0.0017041861085204495 0 0.00022802004362692824 -0.0016362183554751635 0 0.00044657735564751624 -0.002063203319676707 0 0.00014352070259417436 -0.0021264002270404959 0 0.00045149718727179391 -0.0017041861085204495 0 0.00044657735564751624 -0.002063203319676707 0 0.00045149718727179391 -0.0017041861085204495 0 0.00078807152244436619 -0.0020451279454427691 0 0.0035631298764875786 -0.00062156090006746701 0 0.0036080505934900291 -0.00063441372577365115 0 0.00045149718727179391 -0.0017041861085204495 0 0.00078807152244436619 -0.0020451279454427691 0 0.0013675768014741335 -0.0013718763145685535 0 0.0015268521725470548 -0.0021074897311055304 0 0.00078807152244436619 -0.0020451279454427691 0 0.0013675768014741335 -0.0013718763145685535 0 0.0015268521725470548 -0.0021074897311055304 0 0.00078807152244436619 -0.0020451279454427691 0 0.00096675530524575036 -0.0024423245026141457 0 0.00046143752793755672 -0.0023763239205108482 0 0.00078807152244436619 -0.0020451279454427691 0 0.00096675530524575036 -0.0024423245026141457 0 0.0025202367671430816 -0.0015498288153669446 0 0.0021753558999370454 -0.0023671975025434636 0 0.0030089553857229642 -0.0024726798100321327 0 0.0015268521725470548 -0.0021074897311055304 0 0.0025202367671430816 -0.0015498288153669446 0 0.0013675768014741335 -0.0013718763145685535 0 0.0015268521725470548 -0.0021074897311055304 0 0.0025202367671430816 -0.0015498288153669446 0 0.0021753558999370454 -0.0023671975025434636 0 0.0021753558999370454 -0.0023671975025434636 0 0.0021711913160761542 -0.0029243765320691403 0 0.0030089553857229642 -0.0024726798100321327 0 0.0021753558999370454 -0.0023671975025434636 0 0.0021711913160761542 -0.0029243765320691403 0 0.0014150651947793095 -0.002734926168885194 0 0.0015268521725470548 -0.0021074897311055304 0 0.0021753558999370454 -0.0023671975025434636 0 0.0014150651947793095 -0.002734926168885194 0 0.0021711913160761542 -0.0029243765320691403 0 0.0014150651947793095 -0.002734926168885194 0 0.00057909290367085062 -0.0033685253971757652 0 0.00046143752793755672 -0.0023763239205108482 0 0.00096675530524575036 -0.0024423245026141457 0 0.00076329355594605239 -0.0029708612788227084 0 0.00096675530524575036 -0.0024423245026141457 0 0.0014150651947793095 -0.002734926168885194 0 0.00076329355594605239 -0.0029708612788227084 0 0.0015268521725470548 -0.0021074897311055304 0 0.00096675530524575036 -0.0024423245026141457 0 0.0014150651947793095 -0.002734926168885194 0 0.0014150651947793095 -0.002734926168885194 0 0.00076329355594605239 -0.0029708612788227084 0 0.00057909290367085062 -0.0033685253971757652 0 0.00057909290367085062 -0.0033685253971757652 0 0.0027776635643048109 -0.0032341163836932009 0 0.0037718022606332046 -0.0038331203993321235 0 0.00057909290367085062 -0.0033685253971757652 0 0.00051389980433045603 -0.0032438011629793949 0 7.9019387344414878e-06 -0.0029555383458181729 0 0.0021711913160761542 -0.0029243765320691403 0 0.00057909290367085062 -0.0033685253971757652 0 0.0027776635643048109 -0.0032341163836932009 0 0.0010434690794493377 -0.0032661191844843038 0 0.0013393689923236844 -0.0032461637944827112 0 0.00057909290367085062 -0.0033685253971757652 0 -0.00064911873732000774 -0.0034617926603770039 0 7.9019387344414878e-06 -0.0029555383458181729 0 0.0005182189240310937 -0.0033618560634865345 0 0.00057909290367085062 -0.0033685253971757652 0 0.00051389980433045603 -0.0032438011629793949 0 0.0005182189240310937 -0.0033618560634865345 0 0.00076329355594605239 -0.0029708612788227084 0 0.00057909290367085062 -0.0033685253971757652 0 0.0005182189240310937 -0.0033618560634865345 0 0.00051389980433045603 -0.0032438011629793949 0 0.00057605836914478977 -0.0031464374571469516 0 0.00051389980433045603 -0.0032438011629793949 0 0.00057605836914478977 -0.0031464374571469516 0 0.00042510356135377436 -0.0029834406563285288 0 0.005317130504590986 -0.0020099236828573092 0 0.0037887157732153605 -0.00314847213434407 0 0.0068858465825328563 -0.002944983211096013 0 0.0049350831651504782 -0.0027348412882255151 0 0.0057170700423920858 -0.0026016621557896644 0 0.005317130504590986 -0.0020099236828573092 0 0.0066347796312057434 -0.0014028077333775155 0 0.0051849752593741832 -0.00089143159662718053 0 0.005317130504590986 -0.0020099236828573092 0 0.0066347796312057434 -0.0014028077333775155 0 0.0068858465825328563 -0.002944983211096013 0 0.005317130504590986 -0.0020099236828573092 0 0.0038856821367267793 -0.0016538895473115539 0 0.0051849752593741832 -0.00089143159662718053 0 0.0037887157732153605 -0.00314847213434407 0 0.0038856821367267793 -0.0016538895473115539 0 0.0030089553857229642 -0.0024726798100321327 0 0.005317130504590986 -0.0020099236828573092 0 0.0037887157732153605 -0.00314847213434407 0 0.0038856821367267793 -0.0016538895473115539 0 0.0025202367671430816 -0.0015498288153669446 0 0.0038856821367267793 -0.0016538895473115539 0 0.0030089553857229642 -0.0024726798100321327 0 0.0037887157732153605 -0.00314847213434407 0 0.0030089553857229642 -0.0024726798100321327 0 0.0027776635643048109 -0.0032341163836932009 0 0.0021711913160761542 -0.0029243765320691403 0 0.0030089553857229642 -0.0024726798100321327 0 0.0027776635643048109 -0.0032341163836932009 0 -0.00064911873732000774 -0.0034617926603770039 0 -0.0010504202808113627 -0.0029700736405104708 0 7.9019387344414878e-06 -0.0029555383458181729 0 0.0037887157732153605 -0.00314847213434407 0 0.0027776635643048109 -0.0032341163836932009 0 0.0037718022606332046 -0.0038331203993321235 0 0.0037887157732153605 -0.00314847213434407 0 0.0037718022606332046 -0.0038331203993321235 0 0.004408301994584354 -0.0035064891038019269 0 0.0037718022606332046 -0.0038331203993321235 0 0.004408301994584354 -0.0035064891038019269 0 0.0049961646342269947 -0.0037116322920707052 0 -0.00064911873732000774 -0.0034617926603770039 0 -0.0010504202808113627 -0.0029700736405104708 0 -0.0016763484464142016 -0.0033413249737093034 0 0.0013393689923236844 -0.0032461637944827112 0 0.0014987086428258558 -0.0030155285535164596 0 0.0037887157732153605 -0.00314847213434407 0 0.004408301994584354 -0.0035064891038019269 0 0.0049734267410645825 -0.0033506995730615287 0 -0.0010504202808113627 -0.0029700736405104708 0 -0.001597512413643028 -0.0026706074199677491 0 -0.0016763484464142016 -0.0033413249737093034 0 -0.0010504202808113627 -0.0029700736405104708 0 -0.00084218223745401079 -0.0023582600527069964 0 -0.001597512413643028 -0.0026706074199677491 0 -0.0010504202808113627 -0.0029700736405104708 0 -0.00084218223745401079 -0.0023582600527069964 0 7.9019387344414878e-06 -0.0029555383458181729 0 -0.0010064225664945213 -0.0023906876841205608 0 -0.00060719063248091364 -0.0026609118200576999 0 -0.0010073209829045355 -0.0025476710050182359 0 -0.00044155375291909655 -0.0023206895405698483 0 -0.0010529245808091345 -0.0017995334603267265 0 -0.0010073209829045355 -0.0025476710050182359 0 7.9019387344414878e-06 -0.0029555383458181729 0 -0.00044155375291909655 -0.0023206895405698483 0 -0.00084218223745401079 -0.0023582600527069964 0 -0.0017035155021499979 -0.0018111637619408114 0 -0.001597512413643028 -0.0026706074199677491 0 -0.0010064225664945213 -0.0023906876841205608 0 -0.0016494987766582838 -0.0019468798392622709 0 0.00065095571901940764 -0.0028614288629198216 0 0.00042510356135377436 -0.0029834406563285288 0 9.4285937624191785e-05 -0.0024394767386751335 0 0.00051389980433045603 -0.0032438011629793949 0 0.00042510356135377436 -0.0029834406563285288 0 7.9019387344414878e-06 -0.0029555383458181729 0 0.00065095571901940764 -0.0028614288629198216 0 0.00057605836914478977 -0.0031464374571469516 0 0.00042510356135377436 -0.0029834406563285288 0 0.00042510356135377436 -0.0029834406563285288 0 7.9019387344414878e-06 -0.0029555383458181729 0 9.4285937624191785e-05 -0.0024394767386751335 0 7.9019387344414878e-06 -0.0029555383458181729 0 -0.00044155375291909655 -0.0023206895405698483 0 9.4285937624191785e-05 -0.0024394767386751335 0 -0.00044155375291909655 -0.0023206895405698483 0 9.4285937624191785e-05 -0.0024394767386751335 0 -0.00027414677947697143 -0.0018129803126639037 0 0.00075501673819209269 -0.0023800384845758427 0 9.4285937624191785e-05 -0.0024394767386751335 0 0.00022129447624558301 -0.0018752644219975623 0 0.00029437417673678815 -0.0017597391261216973 0 0.0003020959411040777 -0.0019105984327839696 0 0.00065095571901940764 -0.0028614288629198216 0 0.00087863830707535023 -0.0024573080999020875 0 9.4285937624191785e-05 -0.0024394767386751335 0 9.4285937624191785e-05 -0.0024394767386751335 0 0.00022129447624558301 -0.0018752644219975623 0 -0.00027414677947697143 -0.0018129803126639037 0 0.00022129447624558301 -0.0018752644219975623 0 0.00011834504420794107 -0.0014997309800851618 0 -0.00027414677947697143 -0.0018129803126639037 0 0.00050742437229546467 -0.0014528496165035461 0 0.00022129447624558301 -0.0018752644219975623 0 0.00011834504420794107 -0.0014997309800851618 0 0.00046761406419392799 -0.00093377016335647483 0 0.00050742437229546467 -0.0014528496165035461 0 0.00019006949100737919 -0.001210229916123939 0 0.00011834504420794107 -0.0014997309800851618 0 0.00019006949100737919 -0.001210229916123939 0 -0.00024612489943533238 -0.0012627979345877169 0 0.00050742437229546467 -0.0014528496165035461 0 0.00011834504420794107 -0.0014997309800851618 0 0.00019006949100737919 -0.001210229916123939 0 -0.00024612489943533238 -0.0012627979345877169 0 -0.00027414677947697143 -0.0018129803126639037 0 -0.00066697456176855981 -0.0014444938399628615 0 0.00011834504420794107 -0.0014997309800851618 0 -0.00024612489943533238 -0.0012627979345877169 0 -0.00027414677947697143 -0.0018129803126639037 0 -0.00024612489943533238 -0.0012627979345877169 0 -0.00066697456176855981 -0.0014444938399628615 0 -0.00058147979068372626 -0.0010112403951749423 0 -0.00044155375291909655 -0.0023206895405698483 0 -0.00027414677947697143 -0.0018129803126639037 0 -0.0010529245808091345 -0.0017995334603267265 0 -0.00027414677947697143 -0.0018129803126639037 0 -0.0010529245808091345 -0.0017995334603267265 0 -0.00066697456176855981 -0.0014444938399628615 0 -0.0010073209829045355 -0.0025476710050182359 0 -0.0010529245808091345 -0.0017995334603267265 0 -0.0018539437044690654 -0.001987294072691929 0 -0.0010529245808091345 -0.0017995334603267265 0 -0.0019082285922191224 -0.0013217814223686463 0 -0.0018539437044690654 -0.001987294072691929 0 -0.0010529245808091345 -0.0017995334603267265 0 -0.0011812646887339297 -0.0011145302782815403 0 -0.0019082285922191224 -0.0013217814223686463 0 -0.00066697456176855981 -0.0014444938399628615 0 -0.0011812646887339297 -0.0011145302782815403 0 -0.00058147979068372626 -0.0010112403951749423 0 -0.0010529245808091345 -0.0017995334603267265 0 -0.00066697456176855981 -0.0014444938399628615 0 -0.0011812646887339297 -0.0011145302782815403 0 -0.0011812646887339297 -0.0011145302782815403 0 -0.00093544979783554924 -0.0007234108786371593 0 -0.0013818081605221646 -0.0006323874160624165 0 -0.0011812646887339297 -0.0011145302782815403 0 -0.00093544979783554924 -0.0007234108786371593 0 -0.00058147979068372626 -0.0010112403951749423 0 -0.00093544979783554924 -0.0007234108786371593 0 -0.000621327152634104 -0.00054272544073463605 0 -0.00058147979068372626 -0.0010112403951749423 0 -0.0011812646887339297 -0.0011145302782815403 0 -0.0017577149736179081 -0.00086471478765113836 0 -0.0013818081605221646 -0.0006323874160624165 0 -0.0011812646887339297 -0.0011145302782815403 0 -0.0017577149736179081 -0.00086471478765113836 0 -0.0019082285922191224 -0.0013217814223686463 0 -0.0013818081605221646 -0.0006323874160624165 0 -0.0014233011864094698 -0.00030542990160204868 0 -0.001903574055881384 -0.00043059268421661152 0 -0.0017577149736179081 -0.00086471478765113836 0 -0.0013818081605221646 -0.0006323874160624165 0 -0.001903574055881384 -0.00043059268421661152 0 -0.0013818081605221646 -0.0006323874160624165 0 -0.0014233011864094698 -0.00030542990160204868 0 -0.0010626772512676596 -0.00035565973822160779 0 -0.001680148790534684 -0.00012712475249693171 0 -0.0014233011864094698 -0.00030542990160204868 0 -0.001903574055881384 -0.00043059268421661152 0 -0.00093544979783554924 -0.0007234108786371593 0 -0.0010626772512676596 -0.00035565973822160779 0 -0.000621327152634104 -0.00054272544073463605 0 -0.00093544979783554924 -0.0007234108786371593 0 -0.0013818081605221646 -0.0006323874160624165 0 -0.0010626772512676596 -0.00035565973822160779 0 -0.0012807327979291914 -8.8665226362004084e-05 0 -0.0014233011864094698 -0.00030542990160204868 0 -0.0010626772512676596 -0.00035565973822160779 0 -0.0010626772512676596 -0.00035565973822160779 0 -0.00070025752235713967 -0.00028684814163148961 0 -0.000621327152634104 -0.00054272544073463605 0 -0.00090855649397167436 2.6932747706973494e-05 0 -0.0010626772512676596 -0.00035565973822160779 0 -0.00070025752235713967 -0.00028684814163148961 0 -0.00070025752235713967 -0.00028684814163148961 0 -0.000621327152634104 -0.00054272544073463605 0 -0.00021200066951866371 -0.00027640862097518426 0 -0.00090855649397167436 2.6932747706973494e-05 0 -0.00070025752235713967 -0.00028684814163148961 0 -0.00021200066951866371 -0.00027640862097518426 0 -0.000621327152634104 -0.00054272544073463605 0 -0.00021200066951866371 -0.00027640862097518426 0 -0.00014447627110560641 -0.00086373174512007346 0 -0.010452507031479161 0.0029534945745139738 0 -0.0071120260234300882 0.0016497543756430592 0 -0.0058463127219348359 0.00096516342355723139 0 -0.0071120260234300882 0.0016497543756430592 0 -0.012304439115958439 0.0031195201018898743 0 -0.012923966523525648 0.0035697403665199798 0 -0.012485505955109015 0.0036278580204198462 0 -0.012590674889577191 0.0030755795752499698 0 -0.012548096281957567 0.0025682167894964946 0 -0.013475731640206051 0.0035914051110224371 0 0.00046761406419392799 -0.00093377016335647483 0 -0.00021200066951866371 -0.00027640862097518426 0 -0.00014447627110560641 -0.00086373174512007346 0 0.00046761406419392799 -0.00093377016335647483 0 0.00019006949100737919 -0.001210229916123939 0 -0.00014447627110560641 -0.00086373174512007346 0 0.00019006949100737919 -0.001210229916123939 0 -0.00024612489943533238 -0.0012627979345877169 0 -0.00014447627110560641 -0.00086373174512007346 0 -0.00024612489943533238 -0.0012627979345877169 0 -0.00058147979068372626 -0.0010112403951749423 0 -0.00014447627110560641 -0.00086373174512007346 0 -0.000621327152634104 -0.00054272544073463605 0 -0.00058147979068372626 -0.0010112403951749423 0 -0.00014447627110560641 -0.00086373174512007346 0 -0.0036422217956594066 -0.00075521268178787323 0 -0.0029114844415750749 -0.00078714896273760653 0 -0.0032814649874153465 -0.00037659552451008149 0 -0.0036422217956594066 -0.00075521268178787323 0 -0.0029114844415750749 -0.00078714896273760653 0 -0.0031385849699438239 -0.0012296595442112218 0 -0.0036424158100687421 -0.00046704807374376524 0 -0.0036422217956594066 -0.00075521268178787323 0 -0.0032814649874153465 -0.00037659552451008149 0 -0.0036424158100687421 -0.00046704807374376524 0 -0.0036300304150159958 -0.00015388464792612494 0 -0.0032814649874153465 -0.00037659552451008149 0 -0.0029114844415750749 -0.00078714896273760653 0 -0.0032814649874153465 -0.00037659552451008149 0 -0.0026266234778320489 -0.00038059749805360415 0 -0.0029896382284582529 -0.00014287218355966882 0 -0.0032814649874153465 -0.00037659552451008149 0 -0.0026266234778320489 -0.00038059749805360415 0 -0.0021368637474679531 -4.4143736318660585e-05 0 -0.0026266234778320489 -0.00038059749805360415 0 -0.001903574055881384 -0.00043059268421661152 0 -0.0026266234778320489 -0.00038059749805360415 0 -0.001903574055881384 -0.00043059268421661152 0 -0.0022866258522232985 -0.00085292918377828186 0 -0.0017577149736179081 -0.00086471478765113836 0 -0.001903574055881384 -0.00043059268421661152 0 -0.0022866258522232985 -0.00085292918377828186 0 -0.0017577149736179081 -0.00086471478765113836 0 -0.0022866258522232985 -0.00085292918377828186 0 -0.0019082285922191224 -0.0013217814223686463 0 -0.0029114844415750749 -0.00078714896273760653 0 -0.0022866258522232985 -0.00085292918377828186 0 -0.0025394177890882903 -0.0013605034307815399 0 -0.0029114844415750749 -0.00078714896273760653 0 -0.0026266234778320489 -0.00038059749805360415 0 -0.0022866258522232985 -0.00085292918377828186 0 -0.0022866258522232985 -0.00085292918377828186 0 -0.0025394177890882903 -0.0013605034307815399 0 -0.0019082285922191224 -0.0013217814223686463 0 -0.0025394177890882903 -0.0013605034307815399 0 -0.0019082285922191224 -0.0013217814223686463 0 -0.0018539437044690654 -0.001987294072691929 0 -0.0020194449585449366 -0.0016843838021343154 0 -0.0016494987766582838 -0.0019468798392622709 0 -0.0025394177890882903 -0.0013605034307815399 0 -0.0024747899858625234 -0.0019611983015658681 0 -0.0030204660714929022 -0.0017640080760722725 0 -0.0025394177890882903 -0.0013605034307815399 0 -0.0017035155021499979 -0.0018111637619408114 0 -0.0024747899858625234 -0.0019611983015658681 0 -0.0024747899858625234 -0.0019611983015658681 0 -0.0030204660714929022 -0.0017640080760722725 0 -0.0028424797796376684 -0.0023814185723070708 0 -0.0029114844415750749 -0.00078714896273760653 0 -0.0025394177890882903 -0.0013605034307815399 0 -0.0031385849699438239 -0.0012296595442112218 0 -0.0025394177890882903 -0.0013605034307815399 0 -0.0030204660714929022 -0.0017640080760722725 0 -0.0031385849699438239 -0.0012296595442112218 0 -0.0030204660714929022 -0.0017640080760722725 0 -0.0031385849699438239 -0.0012296595442112218 0 -0.0036235770477598909 -0.0015338383088327068 0 -0.0036422217956594066 -0.00075521268178787323 0 -0.0031385849699438239 -0.0012296595442112218 0 -0.0036235770477598909 -0.0015338383088327068 0 -0.0025268214757061761 -0.00094385354904975122 0 -0.0022794386076277289 -0.0010857947432124815 0 -0.0030204660714929022 -0.0017640080760722725 0 -0.0036235770477598909 -0.0015338383088327068 0 -0.0035619136180229148 -0.002270232125901459 0 -0.0022794386076277289 -0.0010857947432124815 0 -0.0014535546133458966 -0.0012746949364849599 0 -0.0030204660714929022 -0.0017640080760722725 0 -0.0035619136180229148 -0.002270232125901459 0 -0.0028424797796376684 -0.0023814185723070708 0 -0.0035619136180229148 -0.002270232125901459 0 -0.0028424797796376684 -0.0023814185723070708 0 -0.003130101640219974 -0.0027093962088946678 0 -0.0028424797796376684 -0.0023814185723070708 0 -0.003130101640219974 -0.0027093962088946678 0 -0.0026147895046722764 -0.0031732335009232305 0 0.00025774908614684567 -0.0011676445493875311 0 0.0012766118330362619 -0.0024357139934764157 0 -0.003130101640219974 -0.0027093962088946678 0 -0.0034906261290806339 -0.0030232301447047538 0 -0.0026147895046722764 -0.0031732335009232305 0 -0.0035619136180229148 -0.002270232125901459 0 -0.003130101640219974 -0.0027093962088946678 0 -0.0034906261290806339 -0.0030232301447047538 0 -0.0014535546133458966 -0.0012746949364849599 0 0.00025774908614684567 -0.0011676445493875311 0 -0.0037116205985437997 -0.00093446341960970231 0 -0.0036543054892872015 -0.00089373020452762761 0 -0.0036296805463379724 -0.0010004781122055369 0 -0.0017035155021499979 -0.0018111637619408114 0 -0.0022119671600898372 -0.0025393066461801466 0 -0.001597512413643028 -0.0026706074199677491 0 -0.0024747899858625234 -0.0019611983015658681 0 -0.0028424797796376684 -0.0023814185723070708 0 -0.0022119671600898372 -0.0025393066461801466 0 -0.0017035155021499979 -0.0018111637619408114 0 -0.0024747899858625234 -0.0019611983015658681 0 -0.0022119671600898372 -0.0025393066461801466 0 -0.0028424797796376684 -0.0023814185723070708 0 -0.0022119671600898372 -0.0025393066461801466 0 -0.0026147895046722764 -0.0031732335009232305 0 -0.0022119671600898372 -0.0025393066461801466 0 -0.0020290505465192575 -0.0029324201688729762 0 -0.0026147895046722764 -0.0031732335009232305 0 -0.0022119671600898372 -0.0025393066461801466 0 -0.0020290505465192575 -0.0029324201688729762 0 -0.001597512413643028 -0.0026706074199677491 0 -0.0020290505465192575 -0.0029324201688729762 0 -0.001597512413643028 -0.0026706074199677491 0 -0.0016763484464142016 -0.0033413249737093034 0 0.004408301994584354 -0.0035064891038019269 0 0.0049961646342269947 -0.0037116322920707052 0 0.0049734267410645825 -0.0033506995730615287 0 0.0049961646342269947 -0.0037116322920707052 0 0.0052254162308019601 -0.0035314718950797091 0 0.0049734267410645825 -0.0033506995730615287 0 0.0054519784125090639 -0.003663333422859186 0 0.0052254162308019601 -0.0035314718950797091 0 0.0054375839698450647 -0.0034238583253408282 0 0.0049961646342269947 -0.0037116322920707052 0 0.0054519784125090639 -0.003663333422859186 0 0.0052254162308019601 -0.0035314718950797091 0 -0.0020290505465192575 -0.0029324201688729762 0 -0.0016763484464142016 -0.0033413249737093034 0 -0.0026147895046722764 -0.0031732335009232305 0 0.0014987086428258558 -0.0030155285535164596 0 0.0012766118330362619 -0.0024357139934764157 0 0.0097061700319072668 -0.0027664647712007046 0 0.008338409836571626 -0.0013827298815152617 0 0.011045980508770739 -0.0014632097226277066 0 0.0052254162308019601 -0.0035314718950797091 0 0.0054375839698450647 -0.0034238583253408282 0 0.0049734267410645825 -0.0033506995730615287 0 0.0097061700319072668 -0.0027664647712007046 0 0.008338409836571626 -0.0013827298815152617 0 0.0068858465825328563 -0.002944983211096013 0 0.0063514319355673669 -0.0021811652295146834 0 0.0057170700423920858 -0.0026016621557896644 0 0.008338409836571626 -0.0013827298815152617 0 0.0066347796312057434 -0.0014028077333775155 0 0.0068858465825328563 -0.002944983211096013 0 0.00025774908614684567 -0.0011676445493875311 0 0.0035936635934721421 -0.0013575380487889817 0 -0.0035457281173643745 -0.00099489363970485392 0 -0.0035831618905340693 -0.001082927016390769 0 -0.0035142872307662495 -0.0011730500991400778 0 0.0057546900894838472 -0.0036808924030012169 0 0.0055980077587153183 -0.0035504627532692099 0 0.005734634834863573 -0.0034270997332445374 0 -0.0035831618905340693 -0.001082927016390769 0 -0.0035142872307662495 -0.0011730500991400778 0 -0.0035545781040083966 -0.0011717063728732921 0 -0.0036164591968510696 -0.0011291229265154973 0 -0.0035831618905340693 -0.001082927016390769 0 -0.0035545781040083966 -0.0011717063728732921 0 -0.003694110223919632 -0.00098788348083790243 0 -0.0035457281173643745 -0.00099489363970485392 0 -0.0035831618905340693 -0.001082927016390769 0 0.0054375839698450647 -0.0034238583253408282 0 0.0055980077587153183 -0.0035504627532692099 0 0.005734634834863573 -0.0034270997332445374 0 0.0057546900894838472 -0.0036808924030012169 0 0.0054519784125090639 -0.003663333422859186 0 0.0055980077587153183 -0.0035504627532692099 0 0.0054519784125090639 -0.003663333422859186 0 0.0054375839698450647 -0.0034238583253408282 0 0.0055980077587153183 -0.0035504627532692099 0 0.0097061700319072668 -0.0027664647712007046 0 0.011045980508770739 -0.0014632097226277066 0 0.012453556721314126 -0.0026534448272308628 0 0.0063514319355673669 -0.0021811652295146834 0 0.0035936635934721421 -0.0013575380487889817 0 0.011045980508770739 -0.0014632097226277066 0 0.012453556721314126 -0.0026534448272308628 0 0.012190302464721508 -8.981866614784204e-06 0 0.0035936635934721421 -0.0013575380487889817 0 0.0056056959968513514 -0.0014245290317904116 0 -0.0035894719328273227 -0.0012086190256328643 0 -0.0035056673506075981 -0.0011691852913977734 0 -0.0035545781040083966 -0.0011717063728732921 0 0.0035936635934721421 -0.0013575380487889817 0 0.003319979418847385 -0.0013623638792016448 0 -0.0035894719328273227 -0.0012086190256328643 0 -0.0035056673506075981 -0.0011691852913977734 0 -0.0035605289825864574 -0.0012867787813807879 0 -0.0034680922806975992 -0.0013761571348617409 0 -0.0035605289825864574 -0.0012867787813807879 0 -0.0036866973405956004 -0.0013599994455723182 0 -0.0035056673506075981 -0.0011691852913977734 0 -0.0034680922806975992 -0.0013761571348617409 0 -0.0035605289825864574 -0.0012867787813807879 0 0.0056056959968513514 -0.0014245290317904116 0 0.0077773640706116139 -0.0007807391714505749 0 0.011045980508770739 -0.0014632097226277066 0 0.012190302464721508 -8.981866614784204e-06 0 0.0096594064644369374 0.00012339284167822253 0 0.0090221723918575726 0.00064520688348137178 0 0.0083781167731837407 0.0012517294779977775 0 0.0088821504311033025 0.0015037974785897875 0 0.0090221723918575726 0.00064520688348137178 0 0.0083781167731837407 0.0012517294779977775 0 0.0081373797819088104 0.00060368450841174657 0 0.0067791108826241999 -0.00010986898640021277 0 0.0067254043404895419 0.00043675203434129743 0 0.0071308049431291348 0.00019186449358379136 0 0.0056056959968513514 -0.0014245290317904116 0 0.0070910701198579652 0.00031847552501528735 0 0.0067254043404895419 0.00043675203434129743 0 0.0071308049431291348 0.00019186449358379136 0 0.0071719119036377146 0.00050648261682829173 0 0.008338409836571626 -0.0013827298815152617 0 0.0066347796312057434 -0.0014028077333775155 0 0.0070619781727015631 0.00032280214275786761 0 0.0076441640105596748 -0.00057022529266893926 0 0.0077773640706116139 -0.0007807391714505749 0 0.008338409836571626 -0.0013827298815152617 0 0.0070619781727015631 0.00032280214275786761 0 0.0096594064644369374 0.00012339284167822253 0 0.008338409836571626 -0.0013827298815152617 0 0.011045980508770739 -0.0014632097226277066 0 0.0096594064644369374 0.00012339284167822253 0 0.0083781167731837407 0.0012517294779977775 0 0.0081373797819088104 0.00060368450841174657 0 0.0075934236013426677 0.0016262685681194236 0 0.0070619781727015631 0.00032280214275786761 0 0.0081373797819088104 0.00060368450841174657 0 0.0075934236013426677 0.0016262685681194236 0 0.0070619781727015631 0.00032280214275786761 0 0.0075934236013426677 0.0016262685681194236 0 0.0065011389727264194 0.0021196098462326948 0 0.0071467346332787333 0.0021047599885838891 0 0.0075934236013426677 0.0016262685681194236 0 0.0077014445138612704 0.0023682993184245215 0 0.0071467346332787333 0.0021047599885838891 0 0.0069442275035368865 0.002235275937902462 0 0.0065011389727264194 0.0021196098462326948 0 0.0071467346332787333 0.0021047599885838891 0 0.0075934236013426677 0.0016262685681194236 0 0.0065011389727264194 0.0021196098462326948 0 0.0075934236013426677 0.0016262685681194236 0 0.0081207906016591662 0.0018783190225185504 0 0.0077014445138612704 0.0023682993184245215 0 0.0083781167731837407 0.0012517294779977775 0 0.0075934236013426677 0.0016262685681194236 0 0.0081207906016591662 0.0018783190225185504 0 0.0081207906016591662 0.0018783190225185504 0 0.0079685211381993557 0.0021944411486480016 0 0.0082653858368382273 0.0021358111596074918 0 0.0081207906016591662 0.0018783190225185504 0 0.0079685211381993557 0.0021944411486480016 0 0.0077014445138612704 0.0023682993184245215 0 0.0079685211381993557 0.0021944411486480016 0 0.0082653858368382273 0.0021358111596074918 0 0.0077650240603503477 0.0022132278298370727 0 0.0077014445138612704 0.0023682993184245215 0 0.0077650240603503477 0.0022132278298370727 0 0.0082969019384339891 0.0020203303739806172 0 0.0079685211381993557 0.0021944411486480016 0 0.0077014445138612704 0.0023682993184245215 0 0.0077650240603503477 0.0022132278298370727 0 0.0081077730667896836 0.0021562731736447412 0 0.008271158969062083 0.0020693996581986952 0 0.0077014445138612704 0.0023682993184245215 0 0.0088088719741905089 0.0019415985235538239 0 0.0082969019384339891 0.0020203303739806172 0 0.0077014445138612704 0.0023682993184245215 0 0.0088088719741905089 0.0019415985235538239 0 0.0092016685891860104 0.0019397946287395735 0 0.0071467346332787333 0.0021047599885838891 0 0.0077014445138612704 0.0023682993184245215 0 0.0069442275035368865 0.002235275937902462 0 0.0077014445138612704 0.0023682993184245215 0 0.0067779137282273066 0.0023570694969145978 0 0.0069442275035368865 0.002235275937902462 0 0.0067254043404895419 0.00043675203434129743 0 0.0070603239509414049 0.0008053867300041312 0 0.0066738779449472567 0.00098169902448876187 0 0.0067254043404895419 0.00043675203434129743 0 0.0070603239509414049 0.0008053867300041312 0 0.0071719119036377146 0.00050648261682829173 0 0.0070910701198579652 0.00031847552501528735 0 0.0083969526371759223 0.0010922449834954518 0 0.0088821504311033025 0.0015037974785897875 0 0.0082653858368382273 0.0021358111596074918 0 0.0086659334950138899 0.002264043790980465 0 0.0081207906016591662 0.0018783190225185504 0 0.0088821504311033025 0.0015037974785897875 0 0.0082653858368382273 0.0021358111596074918 0 0.0083781167731837407 0.0012517294779977775 0 0.0081207906016591662 0.0018783190225185504 0 0.0088821504311033025 0.0015037974785897875 0 0.0088725750419537397 0.0010578768129960677 0 0.008969887995004833 0.0011866478763558857 0 0.0082653858368382273 0.0021358111596074918 0 0.0084099520736020481 0.0023187188969781294 0 0.0086659334950138899 0.002264043790980465 0 0.010913132585909851 0.00043591657929805219 0 0.010723738116760131 0.0009222947674658728 0 0.010127939175419778 0.00078557286402280426 0 0.0082653858368382273 0.0021358111596074918 0 0.0084099520736020481 0.0023187188969781294 0 0.0077650240603503477 0.0022132278298370727 0 0.0088725750419537397 0.0010578768129960677 0 0.0083969526371759223 0.0010922449834954518 0 0.010913132585909851 0.00043591657929805219 0 0.011160061007779531 0.00057871096283228912 0 0.010723738116760131 0.0009222947674658728 0 0.0083533953895735501 0.00072346303923648411 0 0.0088214821683921963 0.00098931757248298439 0 0.0088719979798170708 0.00048801972384858 0 0.0088725750419537397 0.0010578768129960677 0 0.0089060353302717731 0.001032191287288048 0 0.0089060353302717731 0.001032191287288048 0 0.0083969526371759223 0.0010922449834954518 0 0.0066217864330109424 0.0011863750710383791 0 0.0069696589991505541 0.0011180881709602572 0 0.0071595417696273794 0.0014825409347725357 0 0.0066217864330109424 0.0011863750710383791 0 0.0066389858564311673 0.0010152384215197324 0 0.0069696589991505541 0.0011180881709602572 0 0.0077882176572669822 0.0011573911569455636 0 0.0083969526371759223 0.0010922449834954518 0 0.0070484093895861371 0.00082658792889044866 0 0.0066389858564311673 0.0010152384215197324 0 0.0069696589991505541 0.0011180881709602572 0 0.0089060353302717731 0.001032191287288048 0 0.0096426251119967159 0.0013488031111196504 0 0.011656915242208372 0.0015338019822404921 0 0.011965810133554189 0.0020427138032515293 0 0.012034930397366974 0.0013886226763781301 0 0.011364150413110627 0.00099629470057941176 0 0.011656915242208372 0.0015338019822404921 0 0.011266573039762732 0.0017135903683635652 0 0.011364150413110627 0.00099629470057941176 0 0.011656915242208372 0.0015338019822404921 0 0.012034930397366974 0.0013886226763781301 0 0.011266573039762732 0.0017135903683635652 0 0.011064123826444068 0.0023710691421583957 0 0.011965810133554189 0.0020427138032515293 0 0.011656915242208372 0.0015338019822404921 0 0.011266573039762732 0.0017135903683635652 0 0.011965810133554189 0.0020427138032515293 0 0.011075557425785176 0.0014902644170808749 0 0.010356339211293975 0.0019683724254522137 0 0.011064123826444068 0.0023710691421583957 0 0.0096835431628526387 0.0014512941384770565 0 0.0098928127467315628 0.0017576168728188708 0 0.011075557425785176 0.0014902644170808749 0 0.010431364191382728 0.0013721548556733937 0 0.010356339211293975 0.0019683724254522137 0 0.0089060353302717731 0.001032191287288048 0 0.0096835431628526387 0.0014512941384770565 0 0.011075557425785176 0.0014902644170808749 0 0.010723738116760131 0.0009222947674658728 0 0.010431364191382728 0.0013721548556733937 0 0.011160061007779531 0.00057871096283228912 0 0.011075557425785176 0.0014902644170808749 0 0.010723738116760131 0.0009222947674658728 0 0.010723738116760131 0.0009222947674658728 0 0.010127939175419778 0.00078557286402280426 0 0.010431364191382728 0.0013721548556733937 0 0.010127939175419778 0.00078557286402280426 0 0.010431364191382728 0.0013721548556733937 0 0.0098459672637255143 0.0016509802379959021 0 0.0077650240603503477 0.0022132278298370727 0 0.0082969019384339891 0.0020203303739806172 0 0.0089231472469511412 0.001491743543311814 0 0.010127939175419778 0.00078557286402280426 0 0.0098459672637255143 0.0016509802379959021 0 0.0089231472469511412 0.001491743543311814 0 0.008969887995004833 0.0011866478763558857 0 0.0089450291410985427 0.0012667250657382525 0 0.0088088719741905089 0.0019415985235538239 0 0.0082969019384339891 0.0020203303739806172 0 0.0089231472469511412 0.001491743543311814 0 0.0093003932363153515 0.0018171151592718394 0 0.0098459672637255143 0.0016509802379959021 0 0.0089231472469511412 0.001491743543311814 0 0.0093003932363153515 0.0018171151592718394 0 0.0098459672637255143 0.0016509802379959021 0 0.0096646123546598375 0.0022359955839101431 0 0.0093003932363153515 0.0018171151592718394 0 0.0096646123546598375 0.0022359955839101431 0 0.0091516946424198102 0.0020478582723567058 0 0.0098459672637255143 0.0016509802379959021 0 0.010356339211293975 0.0019683724254522137 0 0.0096646123546598375 0.0022359955839101431 0 0.010431364191382728 0.0013721548556733937 0 0.0098459672637255143 0.0016509802379959021 0 0.010356339211293975 0.0019683724254522137 0 0.010356339211293975 0.0019683724254522137 0 0.0096646123546598375 0.0022359955839101431 0 0.010258210948603278 0.0027027265882451036 0 0.0096646123546598375 0.0022359955839101431 0 0.0095356038739045721 0.0028411834770545553 0 0.010258210948603278 0.0027027265882451036 0 0.0096646123546598375 0.0022359955839101431 0 0.0095356038739045721 0.0028411834770545553 0 0.0092695697015849881 0.0024694420916515272 0 0.0096646123546598375 0.0022359955839101431 0 0.0092695697015849881 0.0024694420916515272 0 0.0091516946424198102 0.0020478582723567058 0 0.010258210948603278 0.0027027265882451036 0 0.011227007525239073 0.0033063460608058334 0 0.0099744179893137448 0.003306991841738337 0 0.0095356038739045721 0.0028411834770545553 0 0.010258210948603278 0.0027027265882451036 0 0.0099744179893137448 0.003306991841738337 0 0.010258210948603278 0.0027027265882451036 0 0.011227007525239073 0.0033063460608058334 0 0.011064123826444068 0.0023710691421583957 0 0.011227007525239073 0.0033063460608058334 0 0.011825561175534615 0.0027029026093622938 0 0.011064123826444068 0.0023710691421583957 0 0.013958165347061497 0.0029557316690554986 0 0.013469191256229418 0.0030364788485636425 0 0.015780375350538701 0.0030939134651038675 0 0.012787794619058638 0.0029303534599001788 0 0.013682295119482971 0.0024454066061733674 0 0.011227007525239073 0.0033063460608058334 0 0.011825561175534615 0.0027029026093622938 0 0.012787794619058638 0.0029303534599001788 0 0.011825561175534615 0.0027029026093622938 0 0.011064123826444068 0.0023710691421583957 0 0.011965810133554189 0.0020427138032515293 0 0.010356339211293975 0.0019683724254522137 0 0.010258210948603278 0.0027027265882451036 0 0.011064123826444068 0.0023710691421583957 0 0.008960339382118444 0.0024644270241004559 0 0.0089872055183029646 0.0021281878831352855 0 0.0090976754144800418 0.0027053521593021733 0 0.0091136888019008998 0.0027182694831141868 0 0.0090576347031102542 0.0027652775317361543 0 0.0090951678492344513 0.0027430796716410985 0 0.0090800400939303975 0.0027355917126686774 0 0.0090345293312137278 0.0027889700245188366 0 0.0090723300646714349 0.002786022798837785 0 0.0090706374384421275 0.0027739490580483439 0 0.00907139157049126 0.0027630375750755543 0 0.0089879017075952319 0.0025240081449544689 0 0.0090610053990284704 0.0022485430534703271 0 0.0090723300646714349 0.002786022798837785 0 0.0090681242190450793 0.0027775658031787011 0 0.0090662053936353404 0.0027689395163250012 0 0.0090723300646714349 0.002786022798837785 0 0.0090681242190450793 0.0027775658031787011 0 0.0090706374384421275 0.0027739490580483439 0 0.0090681242190450793 0.0027775658031787011 0 0.0090662053936353404 0.0027689395163250012 0 0.0090671086988598389 0.0027761779692113326 0 0.0091136888019008998 0.0027182694831141868 0 0.009137842580368925 0.0027217723362015557 0 0.0091432518184880653 0.0027058790456110154 0 0.009137842580368925 0.0027217723362015557 0 0.0091437453575840197 0.0027622305811091531 0 0.0091765544415970558 0.0027138720515458722 0 0.009137842580368925 0.0027217723362015557 0 0.0091432518184880653 0.0027058790456110154 0 0.0091765544415970558 0.0027138720515458722 0 0.0091136888019008998 0.0027182694831141868 0 0.0091432518184880653 0.0027058790456110154 0 0.0091367672856002263 0.0026916337641820459 0 0.0091432518184880653 0.0027058790456110154 0 0.0091367672856002263 0.0026916337641820459 0 0.0091601748190704817 0.0026833962261576848 0 0.0090976754144800418 0.0027053521593021733 0 0.0091136888019008998 0.0027182694831141868 0 0.0091367672856002263 0.0026916337641820459 0 0.0090951678492344513 0.0027430796716410985 0 0.0090800400939303975 0.0027355917126686774 0 0.0091364986017869361 0.0026745637528582445 0 0.0090723300646714349 0.002786022798837785 0 0.0091364986017869361 0.0026745637528582445 0 0.0090825471066971857 0.0027328873695615292 0 0.0090951678492344513 0.0027430796716410985 0 0.0091364986017869361 0.0026745637528582445 0 0.0091667626157722216 0.0026547336382605076 0 0.008960339382118444 0.0024644270241004559 0 0.0089984894485122605 0.0025172711459640453 0 0.0090976754144800418 0.0027053521593021733 0 0.0091367672856002263 0.0026916337641820459 0 0.0091667626157722216 0.0026547336382605076 0 0.0089879017075952319 0.0025240081449544689 0 0.0089996754497849267 0.0025694626674636779 0 0.0091367672856002263 0.0026916337641820459 0 0.0091601748190704817 0.0026833962261576848 0 0.0091667626157722216 0.0026547336382605076 0 0.0091364986017869361 0.0026745637528582445 0 0.0091667626157722216 0.0026547336382605076 0 0.009155342064177889 0.0026117672879023869 0 0.0091364986017869361 0.0026745637528582445 0 0.0090825471066971857 0.0027328873695615292 0 0.009103214265033896 0.0026902754619956481 0 0.0090825471066971857 0.0027328873695615292 0 0.0090682360569290504 0.0027448259905717767 0 0.009103214265033896 0.0026902754619956481 0 0.0090723300646714349 0.002786022798837785 0 0.0090825471066971857 0.0027328873695615292 0 0.0090662053936353404 0.0027689395163250012 0 0.0090662053936353404 0.0027689395163250012 0 0.0090590201674655684 0.0027880727005557514 0 0.0090671086988598389 0.0027761779692113326 0 0.0090825471066971857 0.0027328873695615292 0 0.0090662053936353404 0.0027689395163250012 0 0.0090590201674655684 0.0027880727005557514 0 0.0090825471066971857 0.0027328873695615292 0 0.0090590201674655684 0.0027880727005557514 0 0.0090682360569290504 0.0027448259905717767 0 0.0090590201674655684 0.0027880727005557514 0 0.0091132206320964568 0.0028544603331783656 0 0.0090852690370872742 0.0027756982612603324 0 0.0090590201674655684 0.0027880727005557514 0 0.0091132206320964568 0.0028544603331783656 0 0.0090641643007052779 0.0028384511177494487 0 0.0090590201674655684 0.0027880727005557514 0 0.0090671086988598389 0.0027761779692113326 0 0.0090852690370872742 0.0027756982612603324 0 0.0091132206320964568 0.0028544603331783656 0 0.0092695697015849881 0.0024694420916515272 0 0.0087950363499964181 0.0024026906829416944 0 0.0090940393322317577 0.0025407775314031412 0 0.0090711853004594948 0.0024419651329465378 0 0.0095356038739045721 0.0028411834770545553 0 0.0091132206320964568 0.0028544603331783656 0 0.0092695697015849881 0.0024694420916515272 0 0.0092695697015849881 0.0024694420916515272 0 0.0091516946424198102 0.0020478582723567058 0 0.0087950363499964181 0.0024026906829416944 0 0.0091516946424198102 0.0020478582723567058 0 0.0087950363499964181 0.0024026906829416944 0 0.0088882245217589816 0.0018519665981872216 0 0.0087950363499964181 0.0024026906829416944 0 0.0085418367581703569 0.0018588202778648541 0 0.0088882245217589816 0.0018519665981872216 0 0.0090711853004594948 0.0024419651329465378 0 0.0090610053990284704 0.0022485430534703271 0 0.0090852690370872742 0.0027756982612603324 0 0.0090706374384421275 0.0027739490580483439 0 0.00907139157049126 0.0027630375750755543 0 0.0090671086988598389 0.0027761779692113326 0 0.0090852690370872742 0.0027756982612603324 0 0.0090706374384421275 0.0027739490580483439 0 0.0090681242190450793 0.0027775658031787011 0 0.0090671086988598389 0.0027761779692113326 0 0.0090706374384421275 0.0027739490580483439 0 0.0090800400939303975 0.0027355917126686774 0 0.0090308157321151959 0.0027799429021127279 0 0.0090345293312137278 0.0027889700245188366 0 0.0090610053990284704 0.0022485430534703271 0 0.0089872055183029646 0.0021281878831352855 0 0.0090610053990284704 0.0022485430534703271 0 0.0091767565303945437 0.0019749830843979405 0 0.010217505028748011 0.00076663832479856298 0 0.010287819525714654 0.00093258997320777972 0 0.0095348440579907118 0.0013714528677403616 0 0.0085418367581703569 0.0018588202778648541 0 0.0088882245217589816 0.0018519665981872216 0 0.0089801918932441629 0.0015072688551977279 0 0.008750568601355764 0.0019785459324717148 0 0.0087425985200599715 0.0019814322388973533 0 0.0083741269841992854 0.0021015284108410548 0 0.00831569984921696 0.0019635869748423906 0 0.0088178557055747543 0.0018147066897350578 0 0.0086456641953944775 0.0019180658594076003 0 0.0086358118833323137 0.0020230775543573875 0 0.0087425985200599715 0.0019814322388973533 0 0.0086358118833323137 0.0020230775543573875 0 0.010224479062148085 0.0011237285018707952 0 0.010345405567833378 0.0011739982812024716 0 0.010312686374116411 0.0010975104577018572 0 0.0086456641953944775 0.0019180658594076003 0 0.0087425985200599715 0.0019814322388973533 0 0.009040784945633918 0.0027698881266899271 0 0.0090348766592883659 0.0027557737372626489 0 0.0090577137429597825 0.0027490059530462939 0 0.0087425985200599715 0.0019814322388973533 0 0.0089872055183029646 0.0021281878831352855 0 0.010224479062148085 0.0011237285018707952 0 0.010313371324647498 0.0010974036111366398 0 0.010212405020377038 0.00085977548194532481 0 0.0091516946424198102 0.0020478582723567058 0 0.0088882245217589816 0.0018519665981872216 0 0.0090271390121258437 0.0016859909290589108 0 0.0093003932363153515 0.0018171151592718394 0 0.0091516946424198102 0.0020478582723567058 0 0.0090271390121258437 0.0016859909290589108 0 0.0088882245217589816 0.0018519665981872216 0 0.0090271390121258437 0.0016859909290589108 0 0.0089801918932441629 0.0015072688551977279 0 0.0093003932363153515 0.0018171151592718394 0 0.0090271390121258437 0.0016859909290589108 0 0.0089231472469511412 0.001491743543311814 0 0.010287819525714654 0.00093258997320777972 0 0.0095348440579907118 0.0013714528677403616 0 0.0091614489486208303 0.0017906026530624391 0 0.010224479062148085 0.0011237285018707952 0 0.0091614489486208303 0.0017906026530624391 0 0.0092016685891860104 0.0019397946287395735 0 0.0088088719741905089 0.0019415985235538239 0 0.0089231472469511412 0.001491743543311814 0 0.0089801918932441629 0.0015072688551977279 0 0.0090271390121258437 0.0016859909290589108 0 0.0089231472469511412 0.001491743543311814 0 0.0089801918932441629 0.0015072688551977279 0 0.006849156343261156 0.0022342102978973959 0 0.0067779137282273066 0.0023570694969145978 0 0.0068057446506212165 0.0023008222298594133 0 0.006849156343261156 0.0022342102978973959 0 0.0068594641025911925 0.0022305026339157073 0 0.0068057446506212165 0.0023008222298594133 0 0.0088088719741905089 0.0019415985235538239 0 0.0095348440579907118 0.0013714528677403616 0 0.0091614489486208303 0.0017906026530624391 0 0.009122743123859316 0.0019823299571280167 0 0.0091767565303945437 0.0019749830843979405 0 0.0088088719741905089 0.0019415985235538239 0 0.0091614489486208303 0.0017906026530624391 0 0.0092016685891860104 0.0019397946287395735 0 0.0069584150249900334 0.0020092486786602659 0 0.006849156343261156 0.0022342102978973959 0 0.0067779137282273066 0.0023570694969145978 0 0.010224479062148085 0.0011237285018707952 0 0.010345405567833378 0.0011739982812024716 0 0.0092016685891860104 0.0019397946287395735 0 0.010224479062148085 0.0011237285018707952 0 0.010212405020377038 0.00085977548194532481 0 0.0091614489486208303 0.0017906026530624391 0 0.0086456641953944775 0.0019180658594076003 0 0.008271158969062083 0.0020693996581986952 0 0.0089872055183029646 0.0021281878831352855 0 0.0093805489193803469 0.0017432463460507713 0 0.0069584150249900334 0.0020092486786602659 0 0.0069141183341316446 0.0021901060445654284 0 0.0068594641025911925 0.0022305026339157073 0 0.0069584150249900334 0.0020092486786602659 0 0.006849156343261156 0.0022342102978973959 0 0.0068594641025911925 0.0022305026339157073 0 0.0069141183341316446 0.0021901060445654284 0 0.0068594641025911925 0.0022305026339157073 0 0.0068231194157034551 0.0022541815939308178 0 0.0069584150249900334 0.0020092486786602659 0 0.0069141183341316446 0.0021901060445654284 0 0.0070417700441622417 0.0021480416184758034 0 0.0070798363130667799 0.0018227991658676026 0 0.0073838215862040615 0.0017872612732081181 0 0.0071056165193044028 0.0015817979147459472 0 0.0073521218226581513 0.0015762652319570968 0 0.0071056165193044028 0.0015817979147459472 0 0.0072762112448692172 0.0014585787617251503 0 0.0073838215862040615 0.0017872612732081181 0 0.0073521218226581513 0.0015762652319570968 0 0.0071056165193044028 0.0015817979147459472 0 0.0073521218226581513 0.0015762652319570968 0 0.0072762112448692172 0.0014585787617251503 0 0.0074704669243004992 0.001471223357855399 0 0.0069173460547051514 0.0014311752777530125 0 0.0070798363130667799 0.0018227991658676026 0 0.0071056165193044028 0.0015817979147459472 0 0.0086456641953944775 0.0019180658594076003 0 0.0082429861596608825 0.0018127874569695776 0 0.0071056165193044028 0.0015817979147459472 0 0.0070715496460113476 0.0014602781901603026 0 0.0072762112448692172 0.0014585787617251503 0 0.0069173460547051514 0.0014311752777530125 0 0.0071056165193044028 0.0015817979147459472 0 0.0070715496460113476 0.0014602781901603026 0 0.0086358118833323137 0.0020230775543573875 0 0.0085853903163654079 0.0019806700136792265 0 0.0069173460547051514 0.0014311752777530125 0 0.0070715496460113476 0.0014602781901603026 0 0.0070457826926670361 0.0013465612496234021 0 0.0090976754144800418 0.0027053521593021733 0 0.0090348766592883659 0.0027557737372626489 0 0.0090577137429597825 0.0027490059530462939 0 0.0090976754144800418 0.0027053521593021733 0 0.0090576347031102542 0.0027652775317361543 0 0.0090577137429597825 0.0027490059530462939 0 0.0087700167079740512 0.0022277988602480694 0 0.0086358118833323137 0.0020230775543573875 0 0.0070457826926670361 0.0013465612496234021 0 0.0072762112448692172 0.0014585787617251503 0 0.0075435694395892183 0.0013764090030707447 0 0.0070715496460113476 0.0014602781901603026 0 0.0070457826926670361 0.0013465612496234021 0 0.0072762112448692172 0.0014585787617251503 0 0.009040784945633918 0.0027698881266899271 0 0.0090576347031102542 0.0027652775317361543 0 0.0090577137429597825 0.0027490059530462939 0 0.0070457826926670361 0.0013465612496234021 0 0.0077848796288725918 0.0011199272359529229 0 0.0075435694395892183 0.0013764090030707447 0 0.0091136888019008998 0.0027182694831141868 0 0.009137842580368925 0.0027217723362015557 0 0.0090576347031102542 0.0027652775317361543 0 0.009137842580368925 0.0027217723362015557 0 0.0090084952361908048 0.0027957351410820321 0 0.0091437453575840197 0.0027622305811091531 0 0.0072762112448692172 0.0014585787617251503 0 0.0075435694395892183 0.0013764090030707447 0 0.0074704669243004992 0.001471223357855399 0 0.0077848796288725918 0.0011199272359529229 0 0.0075435694395892183 0.0013764090030707447 0 0.0078097867271115177 0.0014628661843366533 0 0.0078097867271115177 0.0014628661843366533 0 0.0075497827692587935 0.0015769216643748531 0 0.0077417067233387848 0.0017848603789268477 0 0.0078097867271115177 0.0014628661843366533 0 0.0077417067233387848 0.0017848603789268477 0 0.0080475307692197632 0.0017034673154597115 0 0.0075435694395892183 0.0013764090030707447 0 0.0078097867271115177 0.0014628661843366533 0 0.0075497827692587935 0.0015769216643748531 0 0.0075435694395892183 0.0013764090030707447 0 0.0074704669243004992 0.001471223357855399 0 0.0075497827692587935 0.0015769216643748531 0 0.0073521218226581513 0.0015762652319570968 0 0.0074704669243004992 0.001471223357855399 0 0.0075497827692587935 0.0015769216643748531 0 0.0073838215862040615 0.0017872612732081181 0 0.0073521218226581513 0.0015762652319570968 0 0.0075497827692587935 0.0015769216643748531 0 0.0073838215862040615 0.0017872612732081181 0 0.0077417067233387848 0.0017848603789268477 0 0.0075670367591740362 0.0019815439973519568 0 0.0073838215862040615 0.0017872612732081181 0 0.0075497827692587935 0.0015769216643748531 0 0.0077417067233387848 0.0017848603789268477 0 0.0076142229695183592 0.0021968840551367685 0 0.0075670367591740362 0.0019815439973519568 0 0.0079103659147231747 0.0020700268183767084 0 0.0077417067233387848 0.0017848603789268477 0 0.0075670367591740362 0.0019815439973519568 0 0.0079103659147231747 0.0020700268183767084 0 0.0076142229695183592 0.0021968840551367685 0 0.0077618679394493122 0.00240607395706467 0 0.0079103659147231747 0.0020700268183767084 0 0.0076142229695183592 0.0021968840551367685 0 0.0075670367591740362 0.0019815439973519568 0 0.0072231462746212421 0.002212425699352039 0 0.0072231462746212421 0.002212425699352039 0 0.006940360950527245 0.0022030049837108981 0 0.0070087847897188733 0.0023450876183281105 0 0.0070798363130667799 0.0018227991658676026 0 0.0073838215862040615 0.0017872612732081181 0 0.0072231462746212421 0.002212425699352039 0 0.0073838215862040615 0.0017872612732081181 0 0.0075670367591740362 0.0019815439973519568 0 0.0072231462746212421 0.002212425699352039 0 0.0082429861596608825 0.0018127874569695776 0 0.0081432976290272165 0.001836550525687853 0 0.0070417700441622417 0.0021480416184758034 0 0.0072231462746212421 0.002212425699352039 0 0.006940360950527245 0.0022030049837108981 0 0.0076142229695183592 0.0021968840551367685 0 0.0072231462746212421 0.002212425699352039 0 0.0073994178039128635 0.00236612238934187 0 0.0072231462746212421 0.002212425699352039 0 0.0073994178039128635 0.00236612238934187 0 0.0070087847897188733 0.0023450876183281105 0 0.0073994178039128635 0.00236612238934187 0 0.0070087847897188733 0.0023450876183281105 0 0.0074739871900539765 0.0026321349681941559 0 0.0077618679394493122 0.00240607395706467 0 0.0074739871900539765 0.0026321349681941559 0 0.0079469585150498678 0.0026397331419066722 0 0.0073994178039128635 0.00236612238934187 0 0.0077618679394493122 0.00240607395706467 0 0.0074739871900539765 0.0026321349681941559 0 0.0076142229695183592 0.0021968840551367685 0 0.0073994178039128635 0.00236612238934187 0 0.0077618679394493122 0.00240607395706467 0 0.0069442275035368865 0.002235275937902462 0 0.0068164861445682446 0.0022786343727518371 0 0.0067701015234620842 0.0022121665700897447 0 0.0067779137282273066 0.0023570694969145978 0 0.0069442275035368865 0.002235275937902462 0 0.0068164861445682446 0.0022786343727518371 0 0.0068164861445682446 0.0022786343727518371 0 0.0068231194157034551 0.0022541815939308178 0 0.0067701015234620842 0.0022121665700897447 0 0.0067779137282273066 0.0023570694969145978 0 0.0068164861445682446 0.0022786343727518371 0 0.0068057446506212165 0.0023008222298594133 0 0.0068164861445682446 0.0022786343727518371 0 0.0068057446506212165 0.0023008222298594133 0 0.0068231194157034551 0.0022541815939308178 0 0.0068594641025911925 0.0022305026339157073 0 0.0068057446506212165 0.0023008222298594133 0 0.0068231194157034551 0.0022541815939308178 0 0.0067701015234620842 0.0022121665700897447 0 0.006940360950527245 0.0022030049837108981 0 0.0070087847897188733 0.0023450876183281105 0 0.0068231194157034551 0.0022541815939308178 0 0.0067701015234620842 0.0022121665700897447 0 0.006940360950527245 0.0022030049837108981 0 0.0069141183341316446 0.0021901060445654284 0 0.0068231194157034551 0.0022541815939308178 0 0.006940360950527245 0.0022030049837108981 0 0.0069141183341316446 0.0021901060445654284 0 0.0070417700441622417 0.0021480416184758034 0 0.006940360950527245 0.0022030049837108981 0 0.0069442275035368865 0.002235275937902462 0 0.0067701015234620842 0.0022121665700897447 0 0.0065011389727264194 0.0021196098462326948 0 0.0067701015234620842 0.0022121665700897447 0 0.0070087847897188733 0.0023450876183281105 0 0.0065011389727264194 0.0021196098462326948 0 0.0070619781727015631 0.00032280214275786761 0 0.0032675436593956847 0.00067403240974708324 0 0.0051849752593741832 -0.00089143159662718053 0 0.0070619781727015631 0.00032280214275786761 0 0.0065011389727264194 0.0021196098462326948 0 0.0032675436593956847 0.00067403240974708324 0 0.0058449599100811453 0.0016171227541033721 0 0.0051909824968532931 0.0010723677913180884 0 0.0070087847897188733 0.0023450876183281105 0 0.0065011389727264194 0.0021196098462326948 0 0.006971078276933813 0.002867604232590274 0 0.0025202367671430816 -0.0015498288153669446 0 0.0038856821367267793 -0.0016538895473115539 0 0.0032675436593956847 0.00067403240974708324 0 0.0038856821367267793 -0.0016538895473115539 0 0.0032675436593956847 0.00067403240974708324 0 0.0051849752593741832 -0.00089143159662718053 0 0.0066347796312057434 -0.0014028077333775155 0 0.0070619781727015631 0.00032280214275786761 0 0.0051849752593741832 -0.00089143159662718053 0 0.0076794530489424067 0.0029719006188661796 0 0.0074739871900539765 0.0026321349681941559 0 0.0079469585150498678 0.0026397331419066722 0 0.0070087847897188733 0.0023450876183281105 0 0.006971078276933813 0.002867604232590274 0 0.0074739871900539765 0.0026321349681941559 0 0.006971078276933813 0.002867604232590274 0 0.0076794530489424067 0.0029719006188661796 0 0.0074739871900539765 0.0026321349681941559 0 0.0025202367671430816 -0.0015498288153669446 0 0.0032675436593956847 0.00067403240974708324 0 0.0013675768014741335 -0.0013718763145685535 0 0.006971078276933813 0.002867604232590274 0 0.0076794530489424067 0.0029719006188661796 0 0.0075739082407904465 0.0033741123562439712 0 0.0032675436593956847 0.00067403240974708324 0 0.0013675768014741335 -0.0013718763145685535 0 3.9284433408397616e-05 -0.0013667526743595378 0 0.0051909824968532931 0.0010723677913180884 0 0.0036080505934900291 -0.00063441372577365115 0 0.00045149718727179391 -0.0017041861085204495 0 0.0013675768014741335 -0.0013718763145685535 0 3.9284433408397616e-05 -0.0013667526743595378 0 0.0076794530489424067 0.0029719006188661796 0 0.0075739082407904465 0.0033741123562439712 0 0.008150232496192962 0.0030133906296949623 0 0.0036080505934900291 -0.00063441372577365115 0 0.0041240378473416748 0.00038303899151599739 0 -0.00011086025640854444 -0.0022785735435205423 0 -0.00033867691108103765 -0.0022719560037336071 0 -0.00049673837921790256 -0.0020349915970081746 0 -0.00033867691108103765 -0.0022719560037336071 0 -0.00047577282849033147 -0.0022736356789152812 0 -0.00049673837921790256 -0.0020349915970081746 0 0.008150232496192962 0.0030133906296949623 0 0.0079469585150498678 0.0026397331419066722 0 0.0083326351135748523 0.0026101699484513893 0 0.0076794530489424067 0.0029719006188661796 0 0.008150232496192962 0.0030133906296949623 0 0.0079469585150498678 0.0026397331419066722 0 0.0041240378473416748 0.00038303899151599739 0 0.0054561468611684719 0.00087252033174455685 0 -0.00049673837921790256 -0.0020349915970081746 0 -0.00066060336285745681 -0.0019761809058250219 0 -0.00066009491107755093 -0.0019862350588572219 0 0.008150232496192962 0.0030133906296949623 0 0.0087555880843895352 0.0026398989360938048 0 0.0083326351135748523 0.0026101699484513893 0 -0.00049673837921790256 -0.0020349915970081746 0 -0.00066009491107755093 -0.0019862350588572219 0 -0.00066783943789073803 -0.0019753231134891987 0 -0.00047577282849033147 -0.0022736356789152812 0 -0.00049673837921790256 -0.0020349915970081746 0 -0.00070606158694770985 -0.0022594887226451842 0 -0.00049673837921790256 -0.0020349915970081746 0 -0.00070606158694770985 -0.0022594887226451842 0 -0.00066060336285745681 -0.0019761809058250219 0 -0.00043655835419284349 -0.0018130812623259628 0 -0.00047547212905736961 -0.0018729408892604194 0 -0.00080045771613696762 -0.0014731040077422518 0 -0.00045870413630550501 -0.0016326365183339771 0 -0.00066060336285745681 -0.0019761809058250219 0 -0.00040166920969847051 -0.0012542450515211727 0 -0.00080045771613696762 -0.0014731040077422518 0 -0.00045870413630550501 -0.0016326365183339771 0 -5.5163848307211381e-06 -0.001321666516961855 0 -0.00045870413630550501 -0.0016326365183339771 0 -0.00015471270736184671 -0.0017667674833321591 0 -0.00045870413630550501 -0.0016326365183339771 0 -0.00015471270736184671 -0.0017667674833321591 0 -0.00035829835536230095 -0.0018256377340520832 0 -0.00015471270736184671 -0.0017667674833321591 0 -0.00027092757677100868 -0.0019865581157648832 0 -3.92161876838327e-05 -0.0020753539257779854 0 -0.00015471270736184671 -0.0017667674833321591 0 -0.00035829835536230095 -0.0018256377340520832 0 -0.00027092757677100868 -0.0019865581157648832 0 -0.00035829835536230095 -0.0018256377340520832 0 -0.00027092757677100868 -0.0019865581157648832 0 -0.0004287385846638139 -0.0019792429198272343 0 -0.00045870413630550501 -0.0016326365183339771 0 -0.00050515150038064741 -0.0019032540060546005 0 -0.00066060336285745681 -0.0019761809058250219 0 -0.00045870413630550501 -0.0016326365183339771 0 -0.00035829835536230095 -0.0018256377340520832 0 -0.00050515150038064741 -0.0019032540060546005 0 -0.00035829835536230095 -0.0018256377340520832 0 -0.00050515150038064741 -0.0019032540060546005 0 -0.0004287385846638139 -0.0019792429198272343 0 -0.0005172677872988591 -0.0019993375204861064 0 -0.00056667957383701539 -0.0020287332101582576 0 -0.00040652865706011489 -0.0021013983123776159 0 -0.00050515150038064741 -0.0019032540060546005 0 -0.0004287385846638139 -0.0019792429198272343 0 -0.0005172677872988591 -0.0019993375204861064 0 -0.00027092757677100868 -0.0019865581157648832 0 -0.0004287385846638139 -0.0019792429198272343 0 -0.00040652865706011489 -0.0021013983123776159 0 -0.0004287385846638139 -0.0019792429198272343 0 -0.0005172677872988591 -0.0019993375204861064 0 -0.00040652865706011489 -0.0021013983123776159 0 -0.00050515150038064741 -0.0019032540060546005 0 -0.00059411088198941533 -0.0019828103119835169 0 -0.00066060336285745681 -0.0019761809058250219 0 -0.0005172677872988591 -0.0019993375204861064 0 -0.00056667957383701539 -0.0020287332101582576 0 -0.00059411088198941533 -0.0019828103119835169 0 -0.00050515150038064741 -0.0019032540060546005 0 -0.0005172677872988591 -0.0019993375204861064 0 -0.00059411088198941533 -0.0019828103119835169 0 -0.00059411088198941533 -0.0019828103119835169 0 -0.00066060336285745681 -0.0019761809058250219 0 -0.00066009491107755093 -0.0019862350588572219 0 -0.00056667957383701539 -0.0020287332101582576 0 -0.00059411088198941533 -0.0019828103119835169 0 -0.00066009491107755093 -0.0019862350588572219 0 -0.00056667957383701539 -0.0020287332101582576 0 -0.00066009491107755093 -0.0019862350588572219 0 -0.00063947308434110115 -0.0020691763616479159 0 0.0054561468611684719 0.00087252033174455685 0 0.0047729655237920485 0.00037390540841594939 0 -0.00056667957383701539 -0.0020287332101582576 0 -0.00063947308434110115 -0.0020691763616479159 0 -0.00040652865706011489 -0.0021013983123776159 0 0.0054561468611684719 0.00087252033174455685 0 0.0073022654176588759 0.0016715231865020808 0 0.0087555880843895352 0.0026398989360938048 0 0.008748447684280708 0.0023137579436477906 0 0.0090056969235650132 0.0021045744221044396 0 -0.00063947308434110115 -0.0020691763616479159 0 -0.00040652865706011489 -0.0021013983123776159 0 -0.00016690135387435959 -0.0024385696477971404 0 0.0054433296637761419 0.00086534481348224846 0 0.0054561468611684719 0.00087252033174455685 0 0.0089055090664043636 0.0031493948309065786 0 0.0092248351387447507 0.0029322560606337223 0 0.0090610219426874063 0.0028441785642251663 0 -0.00022907361673223307 -0.0021687978718314474 0 -0.00016690135387435959 -0.0024385696477971404 0 -3.92161876838327e-05 -0.0020753539257779854 0 -0.00040652865706011489 -0.0021013983123776159 0 -0.00022907361673223307 -0.0021687978718314474 0 -0.00016690135387435959 -0.0024385696477971404 0 -0.00027092757677100868 -0.0019865581157648832 0 -0.00022907361673223307 -0.0021687978718314474 0 -3.92161876838327e-05 -0.0020753539257779854 0 -0.00027092757677100868 -0.0019865581157648832 0 -0.00040652865706011489 -0.0021013983123776159 0 -0.00022907361673223307 -0.0021687978718314474 0 0.0092248351387447507 0.0029322560606337223 0 0.0093171537968068478 0.0027230251593476184 0 0.0092039213914701951 0.0027620088425491678 0 0.0092248351387447507 0.0029322560606337223 0 0.0090610219426874063 0.0028441785642251663 0 0.0092039213914701951 0.0027620088425491678 0 0.008748447684280708 0.0023137579436477906 0 0.0090056969235650132 0.0021045744221044396 0 0.0088007531465177351 0.0021142608945575337 0 0.0090056969235650132 0.0021045744221044396 0 0.0088007531465177351 0.0021142608945575337 0 0.009026705756600811 0.0019868060380702395 0 0.0088007531465177351 0.0021142608945575337 0 0.0085347693898182343 0.0020587093896199463 0 0.0087556382509031971 0.00192359974789879 0 0.008748447684280708 0.0023137579436477906 0 0.0088007531465177351 0.0021142608945575337 0 0.0085746106228914137 0.0022686143378638007 0 0.0088007531465177351 0.0021142608945575337 0 0.0085746106228914137 0.0022686143378638007 0 0.0085347693898182343 0.0020587093896199463 0 0.0085746106228914137 0.0022686143378638007 0 0.0082912845822331865 0.0021887749775520702 0 0.0083372383207181607 0.0023865193139063238 0 0.0085746106228914137 0.0022686143378638007 0 0.0085347693898182343 0.0020587093896199463 0 0.0082912845822331865 0.0021887749775520702 0 0.0085347693898182343 0.0020587093896199463 0 0.0082120930582708484 0.0019560472557390652 0 0.0082912845822331865 0.0021887749775520702 0 0.0082120930582708484 0.0019560472557390652 0 0.0079103659147231747 0.0020700268183767084 0 0.0082912845822331865 0.0021887749775520702 0 0.0077618679394493122 0.00240607395706467 0 0.0079103659147231747 0.0020700268183767084 0 0.0080626378148723043 0.0023191090632054324 0 0.0079103659147231747 0.0020700268183767084 0 0.0082912845822331865 0.0021887749775520702 0 0.0080626378148723043 0.0023191090632054324 0 0.0082912845822331865 0.0021887749775520702 0 0.0080626378148723043 0.0023191090632054324 0 0.0083372383207181607 0.0023865193139063238 0 0.0081696247645969174 0.0024894902807664093 0 0.0080626378148723043 0.0023191090632054324 0 0.0083372383207181607 0.0023865193139063238 0 0.0081696247645969174 0.0024894902807664093 0 0.0080626378148723043 0.0023191090632054324 0 0.0079469585150498678 0.0026397331419066722 0 0.0077618679394493122 0.00240607395706467 0 0.0080626378148723043 0.0023191090632054324 0 0.0079469585150498678 0.0026397331419066722 0 0.0081696247645969174 0.0024894902807664093 0 0.0079469585150498678 0.0026397331419066722 0 0.0083326351135748523 0.0026101699484513893 0 0.0081696247645969174 0.0024894902807664093 0 0.0083326351135748523 0.0026101699484513893 0 0.0083372383207181607 0.0023865193139063238 0 0.0087555880843895352 0.0026398989360938048 0 0.0083326351135748523 0.0026101699484513893 0 0.0085742188637252057 0.0024542704183784484 0 0.008748447684280708 0.0023137579436477906 0 0.0085746106228914137 0.0022686143378638007 0 0.0085742188637252057 0.0024542704183784484 0 0.0087555880843895352 0.0026398989360938048 0 0.008748447684280708 0.0023137579436477906 0 0.0085742188637252057 0.0024542704183784484 0 0.0085746106228914137 0.0022686143378638007 0 0.0085742188637252057 0.0024542704183784484 0 0.0083372383207181607 0.0023865193139063238 0 0.0083326351135748523 0.0026101699484513893 0 0.0085742188637252057 0.0024542704183784484 0 0.0083372383207181607 0.0023865193139063238 0 0.00040723425537719706 -2.7221566751826584e-05 0 0.0010492330254891823 0.00039225864958795042 0 0.001187674735788391 -0.00092983335829378833 0 0.00040723425537719706 -2.7221566751826584e-05 0 0.0004285837586297897 0.00053281354625682789 0 -3.1338407939769669e-05 0.00027216719079490166 0 0.00040723425537719706 -2.7221566751826584e-05 0 0.0004285837586297897 0.00053281354625682789 0 0.0010492330254891823 0.00039225864958795042 0 -3.1338407939769669e-05 0.00027216719079490166 0 -0.0003012235220900526 -0.00028733746628831409 0 -0.00053284568117768977 0.00037628139281545216 0 0.00040723425537719706 -2.7221566751826584e-05 0 -3.1338407939769669e-05 0.00027216719079490166 0 -0.0003012235220900526 -0.00028733746628831409 0 -0.0003012235220900526 -0.00028733746628831409 0 -0.00096053923150747091 5.5975635016846952e-05 0 -0.00086478029691310933 -0.00076918354436215854 0 -0.0003012235220900526 -0.00028733746628831409 0 -0.00053284568117768977 0.00037628139281545216 0 -0.00096053923150747091 5.5975635016846952e-05 0 3.6666431606788454e-05 -0.00080134219662788262 0 0.00075221267210245273 -0.0012206159734935139 0 -0.00033968917668496679 0.00085477153786430175 0 -3.1338407939769669e-05 0.00027216719079490166 0 -0.00053284568117768977 0.00037628139281545216 0 -0.00041200938952407648 -0.00045031692985028946 0 3.6666431606788454e-05 -0.00080134219662788262 0 -0.001143422642685537 0.00067306226205603148 0 -0.00053284568117768977 0.00037628139281545216 0 -0.00096053923150747091 5.5975635016846952e-05 0 -5.5163848307211381e-06 -0.001321666516961855 0 -0.00015471270736184671 -0.0017667674833321591 0 0.00018236790331333414 -0.0017689339364373696 0 0.00018236790331333414 -0.0017689339364373696 0 -3.92161876838327e-05 -0.0020753539257779854 0 0.00038377843009056536 -0.0022117526318468799 0 -0.00015471270736184671 -0.0017667674833321591 0 0.00018236790331333414 -0.0017689339364373696 0 -3.92161876838327e-05 -0.0020753539257779854 0 -3.92161876838327e-05 -0.0020753539257779854 0 0.00020310718291372652 -0.0024435109325413517 0 0.00038377843009056536 -0.0022117526318468799 0 -0.00016690135387435959 -0.0024385696477971404 0 -3.92161876838327e-05 -0.0020753539257779854 0 0.00020310718291372652 -0.0024435109325413517 0 -0.00016690135387435959 -0.0024385696477971404 0 0.00020310718291372652 -0.0024435109325413517 0 0.00031205722292039744 -0.0027780388210248892 0 0.0092248351387447507 0.0029322560606337223 0 0.0095312373436756397 0.0027110098233256623 0 0.0093171537968068478 0.0027230251593476184 0 0.0047729655237920485 0.00037390540841594939 0 0.0046415354151298372 -0.00030853384788371435 0 0.00020310718291372652 -0.0024435109325413517 0 0.00059038807492646603 -0.002663632034721209 0 0.00038377843009056536 -0.0022117526318468799 0 0.0019808871332518477 -0.0014943485726764338 0 0.00075221267210245273 -0.0012206159734935139 0 -0.00067288711109522411 -0.0020336488597293141 0 -0.00086478029691310933 -0.00076918354436215854 0 -0.00032936544327734216 -0.0011224650011940197 0 0.00020310718291372652 -0.0024435109325413517 0 0.00059038807492646603 -0.002663632034721209 0 0.00031205722292039744 -0.0027780388210248892 0 -0.0003012235220900526 -0.00028733746628831409 0 -0.00086478029691310933 -0.00076918354436215854 0 -0.00032936544327734216 -0.0011224650011940197 0 -0.0003012235220900526 -0.00028733746628831409 0 -0.00032936544327734216 -0.0011224650011940197 0 0.00025093239196384532 -0.00099990583095828042 0 0.00040723425537719706 -2.7221566751826584e-05 0 -0.0003012235220900526 -0.00028733746628831409 0 0.00025093239196384532 -0.00099990583095828042 0 -0.00067288711109522411 -0.0020336488597293141 0 -0.00032936544327734216 -0.0011224650011940197 0 8.257866916477392e-06 -0.0017301245931891187 0 -0.00067288711109522411 -0.0020336488597293141 0 8.257866916477392e-06 -0.0017301245931891187 0 0.00014905227878284885 -0.0026296799237092304 0 -0.00032936544327734216 -0.0011224650011940197 0 8.257866916477392e-06 -0.0017301245931891187 0 0.00025093239196384532 -0.00099990583095828042 0 8.257866916477392e-06 -0.0017301245931891187 0 0.00071063472446830905 -0.0019922742931817766 0 0.00025093239196384532 -0.00099990583095828042 0 0.00071063472446830905 -0.0019922742931817766 0 0.00025093239196384532 -0.00099990583095828042 0 0.001187674735788391 -0.00092983335829378833 0 8.257866916477392e-06 -0.0017301245931891187 0 0.00071063472446830905 -0.0019922742931817766 0 0.00014905227878284885 -0.0026296799237092304 0 0.00040723425537719706 -2.7221566751826584e-05 0 0.00025093239196384532 -0.00099990583095828042 0 0.001187674735788391 -0.00092983335829378833 0 0.00058064743184008528 -0.0042628933220073941 0 0.00045940599134237215 -0.003472895932746902 0 -0.00023193880615083852 -0.0035603560636958648 0 0.00058064743184008528 -0.0042628933220073941 0 0.00045940599134237215 -0.003472895932746902 0 0.0011789557133615916 -0.0037227229216132518 0 0.00045940599134237215 -0.003472895932746902 0 0.0011789557133615916 -0.0037227229216132518 0 0.00074183317012363004 -0.00291250628898672 0 0.0011789557133615916 -0.0037227229216132518 0 0.00074183317012363004 -0.00291250628898672 0 0.0014522579980775156 -0.0027964689990662484 0 0.00071063472446830905 -0.0019922742931817766 0 0.00074183317012363004 -0.00291250628898672 0 0.0014522579980775156 -0.0027964689990662484 0 0.00071063472446830905 -0.0019922742931817766 0 0.00074183317012363004 -0.00291250628898672 0 0.00014905227878284885 -0.0026296799237092304 0 0.00045940599134237215 -0.003472895932746902 0 0.00074183317012363004 -0.00291250628898672 0 0.00014905227878284885 -0.0026296799237092304 0 -0.00067288711109522411 -0.0020336488597293141 0 0.00014905227878284885 -0.0026296799237092304 0 -0.00023193880615083852 -0.0035603560636958648 0 0.0019808871332518477 -0.0014943485726764338 0 0.0041381056934052269 -0.0010675443370916609 0 0.0072132968786644755 5.9285933282321385e-05 0 0.0063985568727354938 1.7884918602564875e-06 0 0.0097909986472851981 0.0025024823365295736 0 0.0096761387410270461 0.0024633735597973665 0 0.0098365263377145611 0.0023756448320301519 0 0.00045940599134237215 -0.003472895932746902 0 0.00014905227878284885 -0.0026296799237092304 0 -0.00023193880615083852 -0.0035603560636958648 0 0.0041381056934052269 -0.0010675443370916609 0 0.0063985568727354938 1.7884918602564875e-06 0 0.0035456701187903607 -0.0011767803080976478 0 0.0041381056934052269 -0.0010675443370916609 0 0.00058064743184008528 -0.0042628933220073941 0 -0.00028291715985877074 -0.0036047086437552616 0 3.7836689022239039e-05 -0.0043993675948119232 0 0.0097909986472851981 0.0025024823365295736 0 0.0096761387410270461 0.0024633735597973665 0 0.0095765092487038878 0.0025383936590733513 0 0.0096761387410270461 0.0024633735597973665 0 0.0095765092487038878 0.0025383936590733513 0 0.0095761204578210472 0.0023815245509929699 0 0.0095765092487038878 0.0025383936590733513 0 0.0094499478168115023 0.0024927164336792291 0 0.0095761204578210472 0.0023815245509929699 0 0.0041381056934052269 -0.0010675443370916609 0 0.0046415354151298372 -0.00030853384788371435 0 0.0097909986472851981 0.0025024823365295736 0 0.0095765092487038878 0.0025383936590733513 0 0.0095312373436756397 0.0027110098233256623 0 0.00059038807492646603 -0.002663632034721209 0 0.0007960913272006577 -0.0031190194245985627 0 0.00031205722292039744 -0.0027780388210248892 0 0.0095765092487038878 0.0025383936590733513 0 0.0095312373436756397 0.0027110098233256623 0 0.0094196071674061289 0.0026205561924711532 0 0.0095312373436756397 0.0027110098233256623 0 0.0093171537968068478 0.0027230251593476184 0 0.0094196071674061289 0.0026205561924711532 0 0.0094196071674061289 0.0026205561924711532 0 0.0094499478168115023 0.0024927164336792291 0 0.0092145049940032305 0.0025536640744581282 0 0.0094499478168115023 0.0024927164336792291 0 0.0094277801214179835 0.0023824191762245365 0 0.0092145049940032305 0.0025536640744581282 0 0.0094277801214179835 0.0023824191762245365 0 0.009361553323241437 0.0022366447194652511 0 0.0092145049940032305 0.0025536640744581282 0 0.0095765092487038878 0.0025383936590733513 0 0.0094196071674061289 0.0026205561924711532 0 0.0094499478168115023 0.0024927164336792291 0 0.0094499478168115023 0.0024927164336792291 0 0.0094277801214179835 0.0023824191762245365 0 0.0095761204578210472 0.0023815245509929699 0 0.0094277801214179835 0.0023824191762245365 0 0.00951717708293821 0.0022749414719677574 0 0.009361553323241437 0.0022366447194652511 0 0.0094277801214179835 0.0023824191762245365 0 0.00951717708293821 0.0022749414719677574 0 0.0095761204578210472 0.0023815245509929699 0 0.00951717708293821 0.0022749414719677574 0 0.009361553323241437 0.0022366447194652511 0 0.0095189017529766478 0.0021955044327710434 0 0.009361553323241437 0.0022366447194652511 0 0.0095189017529766478 0.0021955044327710434 0 0.0094009368663373997 0.0021868296137655275 0 0.0095189017529766478 0.0021955044327710434 0 0.0094009368663373997 0.0021868296137655275 0 0.0094603950596293656 0.0021425824485090139 0 0.0095189017529766478 0.0021955044327710434 0 0.0094603950596293656 0.0021425824485090139 0 0.0095985569722055655 0.002143591700459066 0 0.00951717708293821 0.0022749414719677574 0 0.0095189017529766478 0.0021955044327710434 0 0.009630393211770236 0.0022693339676729939 0 0.0095189017529766478 0.0021955044327710434 0 0.009630393211770236 0.0022693339676729939 0 0.0097151518755802246 0.0021914967456085053 0 0.0095189017529766478 0.0021955044327710434 0 0.0097151518755802246 0.0021914967456085053 0 0.0095985569722055655 0.002143591700459066 0 0.009630393211770236 0.0022693339676729939 0 0.0097385628220261252 0.0022820116390714355 0 0.0097151518755802246 0.0021914967456085053 0 0.009630393211770236 0.0022693339676729939 0 0.0095761204578210472 0.0023815245509929699 0 0.0097166300054251573 0.002353116919358491 0 0.009630393211770236 0.0022693339676729939 0 0.0097166300054251573 0.002353116919358491 0 0.0097385628220261252 0.0022820116390714355 0 0.00951717708293821 0.0022749414719677574 0 0.009630393211770236 0.0022693339676729939 0 0.0095761204578210472 0.0023815245509929699 0 0.0096761387410270461 0.0024633735597973665 0 0.0095761204578210472 0.0023815245509929699 0 0.0097166300054251573 0.002353116919358491 0 0.0096761387410270461 0.0024633735597973665 0 0.0097166300054251573 0.002353116919358491 0 0.0098252660049013459 0.0023939362260774985 0 0.0097166300054251573 0.002353116919358491 0 0.0098252660049013459 0.0023939362260774985 0 0.0098098500122313029 0.0023160033566255477 0 0.0097166300054251573 0.002353116919358491 0 0.0098098500122313029 0.0023160033566255477 0 0.0097385628220261252 0.0022820116390714355 0 0.0097385628220261252 0.0022820116390714355 0 0.0098308506835123547 0.0022712590752129217 0 0.0097151518755802246 0.0021914967456085053 0 0.0098308506835123547 0.0022712590752129217 0 0.0098723509807292793 0.0021841289989630148 0 0.0097151518755802246 0.0021914967456085053 0 0.0098098500122313029 0.0023160033566255477 0 0.0098308506835123547 0.0022712590752129217 0 0.0099034969045298099 0.0022281342063203073 0 0.0098098500122313029 0.0023160033566255477 0 0.0097385628220261252 0.0022820116390714355 0 0.0098308506835123547 0.0022712590752129217 0 0.0092909695815184858 0.00082674361105812869 0 0.0092559352207520137 0.00071499633346858008 0 0.0098308506835123547 0.0022712590752129217 0 0.009982745315449135 0.0022623203620520641 0 0.0098723509807292793 0.0021841289989630148 0 0.0063985568727354938 1.7884918602564875e-06 0 0.0092559352207520137 0.00071499633346858008 0 0.0098252660049013459 0.0023939362260774985 0 0.0098098500122313029 0.0023160033566255477 0 0.0099034969045298099 0.0022281342063203073 0 0.00058064743184008528 -0.0042628933220073941 0 0.0011789557133615916 -0.0037227229216132518 0 0.0016812601595595669 -0.005282541744942932 0 0.0084890211075731407 0.0014792599403621845 0 0.0089746285369662442 0.00034008218312222112 0 0.0095786509471026699 0.00095837369971515669 0 0.0063985568727354938 1.7884918602564875e-06 0 0.006363109026422239 -0.0011368721616412884 0 0.00058064743184008528 -0.0042628933220073941 0 3.7836689022239039e-05 -0.0043993675948119232 0 0.0016812601595595669 -0.005282541744942932 0 0.0086415226153560253 0.0014226694657289366 0 0.0082718881003616285 0.0012518595133432903 0 0.008594708252414247 0.00086615013118777407 0 0.0086415226153560253 0.0014226694657289366 0 0.009097055450800617 0.0012457270100508268 0 0.008594708252414247 0.00086615013118777407 0 0.0086415226153560253 0.0014226694657289366 0 0.0082718881003616285 0.0012518595133432903 0 0.0082986259381696917 0.0014720378438064425 0 0.0077848796288725918 0.0011199272359529229 0 0.0082718881003616285 0.0012518595133432903 0 0.008594708252414247 0.00086615013118777407 0 0.0077848796288725918 0.0011199272359529229 0 0.0080542468878795261 0.0013840589407531835 0 0.0082718881003616285 0.0012518595133432903 0 0.0077848796288725918 0.0011199272359529229 0 0.0078097867271115177 0.0014628661843366533 0 0.0080542468878795261 0.0013840589407531835 0 0.0080542468878795261 0.0013840589407531835 0 0.0082718881003616285 0.0012518595133432903 0 0.0082986259381696917 0.0014720378438064425 0 0.0080542468878795261 0.0013840589407531835 0 0.0082986259381696917 0.0014720378438064425 0 0.0080475307692197632 0.0017034673154597115 0 0.0082986259381696917 0.0014720378438064425 0 0.0080475307692197632 0.0017034673154597115 0 0.0084079396884177322 0.0017683720436773398 0 0.0078097867271115177 0.0014628661843366533 0 0.0080542468878795261 0.0013840589407531835 0 0.0080475307692197632 0.0017034673154597115 0 0.0082120930582708484 0.0019560472557390652 0 0.0079103659147231747 0.0020700268183767084 0 0.0080475307692197632 0.0017034673154597115 0 0.0077417067233387848 0.0017848603789268477 0 0.0079103659147231747 0.0020700268183767084 0 0.0080475307692197632 0.0017034673154597115 0 0.0082120930582708484 0.0019560472557390652 0 0.0080475307692197632 0.0017034673154597115 0 0.0084079396884177322 0.0017683720436773398 0 0.0085347693898182343 0.0020587093896199463 0 0.0082120930582708484 0.0019560472557390652 0 0.0084079396884177322 0.0017683720436773398 0 0.0085347693898182343 0.0020587093896199463 0 0.0084079396884177322 0.0017683720436773398 0 0.0087556382509031971 0.00192359974789879 0 0.0086415226153560253 0.0014226694657289366 0 0.0087556382509031971 0.00192359974789879 0 0.009097055450800617 0.0012457270100508268 0 0.0086415226153560253 0.0014226694657289366 0 0.0082986259381696917 0.0014720378438064425 0 0.0084079396884177322 0.0017683720436773398 0 0.0086415226153560253 0.0014226694657289366 0 0.0084079396884177322 0.0017683720436773398 0 0.0087556382509031971 0.00192359974789879 0 0.0088007531465177351 0.0021142608945575337 0 0.0087556382509031971 0.00192359974789879 0 0.009026705756600811 0.0019868060380702395 0 0.0089839501915226043 0.0018856681448588257 0 0.0090642252482875958 0.0017969528734705649 0 0.0090056969235650132 0.0021045744221044396 0 0.009026705756600811 0.0019868060380702395 0 0.0091449640164178447 0.0019888218084978984 0 0.0087556382509031971 0.00192359974789879 0 0.009026705756600811 0.0019868060380702395 0 0.0091325147063026271 0.0019883281732943625 0 0.0090610219426874063 0.0028441785642251663 0 0.0092039213914701951 0.0027620088425491678 0 0.0092145049940032305 0.0025536640744581282 0 0.0093171537968068478 0.0027230251593476184 0 0.0094196071674061289 0.0026205561924711532 0 0.0092145049940032305 0.0025536640744581282 0 0.0073022654176588759 0.0016715231865020808 0 0.0082030064689980892 0.0018483524040796972 0 0.0093171537968068478 0.0027230251593476184 0 0.0092039213914701951 0.0027620088425491678 0 0.0092145049940032305 0.0025536640744581282 0 0.009361553323241437 0.0022366447194652511 0 0.0091449640164178447 0.0019888218084978984 0 0.0092192776625848304 0.0020830493573021657 0 0.0084829203513104474 0.0018675467817755491 0 0.0082030064689980892 0.0018483524040796972 0 0.0091449640164178447 0.0019888218084978984 0 0.0092192776625848304 0.0020830493573021657 0 0.0091325147063026271 0.0019883281732943625 0 0.009026705756600811 0.0019868060380702395 0 0.0091449640164178447 0.0019888218084978984 0 0.0091325147063026271 0.0019883281732943625 0 0.0092192776625848304 0.0020830493573021657 0 0.0091325147063026271 0.0019883281732943625 0 0.0093063556002970973 0.0021802691900157625 0 0.009097055450800617 0.0012457270100508268 0 0.0094391673251234334 0.00061785726679284918 0 0.008594708252414247 0.00086615013118777407 0 0.0094942948762386931 0.0026801692743012645 0 0.0093647546365234861 0.0026480813049093973 0 0.0092784726228925755 0.0027366460675551439 0 0.0090642252482875958 0.0017969528734705649 0 0.0090824732760901618 0.0018679115906499791 0 0.0090824732760901618 0.0018679115906499791 0 0.0089224629901459712 0.0018747315729079146 0 0.009361553323241437 0.0022366447194652511 0 0.0092192776625848304 0.0020830493573021657 0 0.009277692419471165 0.0021504472814842289 0 0.0092192776625848304 0.0020830493573021657 0 0.009277692419471165 0.0021504472814842289 0 0.0093063556002970973 0.0021802691900157625 0 0.0093063556002970973 0.0021802691900157625 0 0.0093023323551013285 0.0021874154864368472 0 0.0092991633044784139 0.0021774012839293282 0 0.0090824732760901618 0.0018679115906499791 0 0.0090830528149984952 0.0018681533891198266 0 0.0093023323551013285 0.0021874154864368472 0 0.0092991633044784139 0.0021774012839293282 0 0.009323385282795596 0.0021958846805445352 0 0.009277692419471165 0.0021504472814842289 0 0.0093063556002970973 0.0021802691900157625 0 0.0092991633044784139 0.0021774012839293282 0 0.0093023323551013285 0.0021874154864368472 0 0.009323385282795596 0.0021958846805445352 0 0.0094009368663373997 0.0021868296137655275 0 0.009361553323241437 0.0022366447194652511 0 0.009277692419471165 0.0021504472814842289 0 0.009323385282795596 0.0021958846805445352 0 0.009361553323241437 0.0022366447194652511 0 0.009323385282795596 0.0021958846805445352 0 0.0094009368663373997 0.0021868296137655275 0 0.009277692419471165 0.0021504472814842289 0 0.0092991633044784139 0.0021774012839293282 0 0.009323385282795596 0.0021958846805445352 0 0.0094942948762386931 0.0026801692743012645 0 0.0094565141981490658 0.002531500720195872 0 0.0095920587959509116 0.0024573311322014938 0 0.0093023323551013285 0.0021874154864368472 0 0.0094009368663373997 0.0021868296137655275 0 0.0094603950596293656 0.0021425824485090139 0 0.0090824732760901618 0.0018679115906499791 0 0.0092191085694393275 0.0021108655611077596 0 0.0092890047550078722 0.0021870290852556932 0 0.0093023323551013285 0.0021874154864368472 0 0.0094603950596293656 0.0021425824485090139 0 0.0093647546365234861 0.0026480813049093973 0 0.0093778133085373888 0.0025834726919530672 0 0.0093135129840331028 0.0026086029220438573 0 0.0093647546365234861 0.0026480813049093973 0 0.0094234050679829554 0.0026076104347064573 0 0.0093778133085373888 0.0025834726919530672 0 0.0094942948762386931 0.0026801692743012645 0 0.0094234050679829554 0.0026076104347064573 0 0.0094565141981490658 0.002531500720195872 0 0.0094942948762386931 0.0026801692743012645 0 0.0093647546365234861 0.0026480813049093973 0 0.0094234050679829554 0.0026076104347064573 0 0.0094234050679829554 0.0026076104347064573 0 0.0094565141981490658 0.002531500720195872 0 0.0093778133085373888 0.0025834726919530672 0 0.0093778133085373888 0.0025834726919530672 0 0.0093135129840331028 0.0026086029220438573 0 0.0093375297665843626 0.0025181276586290734 0 0.0094565141981490658 0.002531500720195872 0 0.0093778133085373888 0.0025834726919530672 0 0.0093375297665843626 0.0025181276586290734 0 0.0092446732365570414 0.0026173981457019877 0 0.0093135129840331028 0.0026086029220438573 0 0.0093375297665843626 0.0025181276586290734 0 0.0092446732365570414 0.0026173981457019877 0 0.0092654183405252617 0.0025368717249750193 0 0.0093375297665843626 0.0025181276586290734 0 0.0092446732365570414 0.0026173981457019877 0 0.0092620683168171195 0.0026628902563485108 0 0.0092028001081951912 0.0026547866863303989 0 0.0092446732365570414 0.0026173981457019877 0 0.0092620683168171195 0.0026628902563485108 0 0.0093135129840331028 0.0026086029220438573 0 0.0093647546365234861 0.0026480813049093973 0 0.0092620683168171195 0.0026628902563485108 0 0.0093135129840331028 0.0026086029220438573 0 0.0093647546365234861 0.0026480813049093973 0 0.0092620683168171195 0.0026628902563485108 0 0.0092784726228925755 0.0027366460675551439 0 0.0092620683168171195 0.0026628902563485108 0 0.0092784726228925755 0.0027366460675551439 0 0.0092091706898949372 0.0026893256362359587 0 0.0091437453575840197 0.0027622305811091531 0 0.0092784726228925755 0.0027366460675551439 0 0.0091765544415970558 0.0027138720515458722 0 0.0092784726228925755 0.0027366460675551439 0 0.0091765544415970558 0.0027138720515458722 0 0.0092091706898949372 0.0026893256362359587 0 0.0085853903163654079 0.0019806700136792265 0 0.0089224629901459712 0.0018747315729079146 0 0.0091432518184880653 0.0027058790456110154 0 0.0091765544415970558 0.0027138720515458722 0 0.0091601748190704817 0.0026833962261576848 0 0.0091765544415970558 0.0027138720515458722 0 0.0092091706898949372 0.0026893256362359587 0 0.0091601748190704817 0.0026833962261576848 0 0.0091601748190704817 0.0026833962261576848 0 0.0092028001081951912 0.0026547866863303989 0 0.0091667626157722216 0.0026547336382605076 0 0.0092091706898949372 0.0026893256362359587 0 0.0091601748190704817 0.0026833962261576848 0 0.0092028001081951912 0.0026547866863303989 0 0.0092620683168171195 0.0026628902563485108 0 0.0092091706898949372 0.0026893256362359587 0 0.0092028001081951912 0.0026547866863303989 0 0.0092446732365570414 0.0026173981457019877 0 0.0092028001081951912 0.0026547866863303989 0 0.0092070844756758155 0.0026016503648323558 0 0.0092446732365570414 0.0026173981457019877 0 0.0092070844756758155 0.0026016503648323558 0 0.0092654183405252617 0.0025368717249750193 0 0.0092028001081951912 0.0026547866863303989 0 0.0092070844756758155 0.0026016503648323558 0 0.0091667626157722216 0.0026547336382605076 0 0.0092070844756758155 0.0026016503648323558 0 0.0092217545520121465 0.0025232313928292569 0 0.009155342064177889 0.0026117672879023869 0 0.0092070844756758155 0.0026016503648323558 0 0.0091667626157722216 0.0026547336382605076 0 0.009155342064177889 0.0026117672879023869 0 0.0092217545520121465 0.0025232313928292569 0 0.0091664752181695956 0.0024475106030242277 0 0.009155342064177889 0.0026117672879023869 0 0.0092070844756758155 0.0026016503648323558 0 0.0092217545520121465 0.0025232313928292569 0 0.0092654183405252617 0.0025368717249750193 0 0.0092217545520121465 0.0025232313928292569 0 0.0091664752181695956 0.0024475106030242277 0 0.0093172110143007018 0.0024083046147021334 0 0.017958473878375535 0.0012287830837766772 0 0.01866987865500826 0.00067923083495924125 0 0.0091664752181695956 0.0024475106030242277 0 0.0093172110143007018 0.0024083046147021334 0 0.009338785203675844 0.0022309083459589891 0 0.0092217545520121465 0.0025232313928292569 0 0.0093172110143007018 0.0024083046147021334 0 0.0092654183405252617 0.0025368717249750193 0 0.0093172110143007018 0.0024083046147021334 0 0.0092654183405252617 0.0025368717249750193 0 0.0093375297665843626 0.0025181276586290734 0 0.0094565141981490658 0.002531500720195872 0 0.0093375297665843626 0.0025181276586290734 0 0.0094485565007984013 0.0023233746467673294 0 0.0093172110143007018 0.0024083046147021334 0 0.0093375297665843626 0.0025181276586290734 0 0.0094485565007984013 0.0023233746467673294 0 0.0095920587959509116 0.0024573311322014938 0 0.0094485565007984013 0.0023233746467673294 0 0.0096443263082902804 0.0021316097629367368 0 0.0094565141981490658 0.002531500720195872 0 0.0095920587959509116 0.0024573311322014938 0 0.0094485565007984013 0.0023233746467673294 0 0.0094485565007984013 0.0023233746467673294 0 0.0095444649762526628 0.0020296750898127999 0 0.0096443263082902804 0.0021316097629367368 0 0.0093172110143007018 0.0024083046147021334 0 0.0094485565007984013 0.0023233746467673294 0 0.009338785203675844 0.0022309083459589891 0 0.0094485565007984013 0.0023233746467673294 0 0.0095444649762526628 0.0020296750898127999 0 0.009338785203675844 0.0022309083459589891 0 0.02940330518544633 -0.00075656211274922262 0 0.028491297719837338 -0.0010577266498167266 0 0.028176619614815122 -0.00036817260097037432 0 0.019227994324851633 -4.0622587639403973e-05 0 0.01866987865500826 0.00067923083495924125 0 0.02940330518544633 -0.00075656211274922262 0 0.028866155309143743 -0.0016284360279246307 0 0.029852251119465215 -0.0017016024803338913 0 0.028491297719837338 -0.0010577266498167266 0 0.028866155309143743 -0.0016284360279246307 0 0.027976145626714698 -0.0016663260672209268 0 0.02940330518544633 -0.00075656211274922262 0 0.028491297719837338 -0.0010577266498167266 0 0.028866155309143743 -0.0016284360279246307 0 0.028491297719837338 -0.0010577266498167266 0 0.027976145626714698 -0.0016663260672209268 0 0.027559949657953088 -0.0010263179856303153 0 0.027976145626714698 -0.0016663260672209268 0 0.027283732496482117 -0.0016209305782363289 0 0.027559949657953088 -0.0010263179856303153 0 0.027283732496482117 -0.0016209305782363289 0 0.027559949657953088 -0.0010263179856303153 0 0.026716660557645999 -0.0010396071704668727 0 0.027283732496482117 -0.0016209305782363289 0 0.026749252155092617 -0.0018924312896655745 0 0.026716660557645999 -0.0010396071704668727 0 0.026900185607188151 0.00015909508259910921 0 0.027559949657953088 -0.0010263179856303153 0 0.028176619614815122 -0.00036817260097037432 0 0.026900185607188151 0.00015909508259910921 0 0.027559949657953088 -0.0010263179856303153 0 0.026716660557645999 -0.0010396071704668727 0 0.028491297719837338 -0.0010577266498167266 0 0.027559949657953088 -0.0010263179856303153 0 0.028176619614815122 -0.00036817260097037432 0 0.0098512525023113206 0.0020821639466308706 0 0.0099184434452803272 0.0019392750359583549 0 0.010197509192868963 0.0020645740840056232 0 0.0098723509807292793 0.0021841289989630148 0 0.0098512525023113206 0.0020821639466308706 0 0.010197509192868963 0.0020645740840056232 0 0.0092559352207520137 0.00071499633346858008 0 0.011103670402487022 0.0008108059004302622 0 0.009982745315449135 0.0022623203620520641 0 0.0098723509807292793 0.0021841289989630148 0 0.010197509192868963 0.0020645740840056232 0 0.0098723509807292793 0.0021841289989630148 0 0.0098512525023113206 0.0020821639466308706 0 0.0097151518755802246 0.0021914967456085053 0 0.0098512525023113206 0.0020821639466308706 0 0.0097835020612962124 0.0020094451495670752 0 0.0099184434452803272 0.0019392750359583549 0 0.0098512525023113206 0.0020821639466308706 0 0.0097835020612962124 0.0020094451495670752 0 0.0097008579730652866 0.0020988612567847667 0 0.0097835020612962124 0.0020094451495670752 0 0.0096909556748558771 0.0020284214509993215 0 0.0097008579730652866 0.0020988612567847667 0 0.0096909556748558771 0.0020284214509993215 0 0.0097008579730652866 0.0020988612567847667 0 0.0096443263082902804 0.0021316097629367368 0 0.0098512525023113206 0.0020821639466308706 0 0.0097008579730652866 0.0020988612567847667 0 0.0097151518755802246 0.0021914967456085053 0 0.0097008579730652866 0.0020988612567847667 0 0.0097151518755802246 0.0021914967456085053 0 0.0095985569722055655 0.002143591700459066 0 0.0097008579730652866 0.0020988612567847667 0 0.0095985569722055655 0.002143591700459066 0 0.0096443263082902804 0.0021316097629367368 0 0.0094603950596293656 0.0021425824485090139 0 0.0095985569722055655 0.002143591700459066 0 0.0096443263082902804 0.0021316097629367368 0 0.0092191085694393275 0.0021108655611077596 0 0.0092933683463515479 0.0021228549112304587 0 0.0095444649762526628 0.0020296750898127999 0 0.0097187611505273122 0.0018594741954632342 0 0.0097096891282321268 0.0019066831770263792 0 0.0095444649762526628 0.0020296750898127999 0 0.0096909556748558771 0.0020284214509993215 0 0.0097096891282321268 0.0019066831770263792 0 0.0095444649762526628 0.0020296750898127999 0 0.0096909556748558771 0.0020284214509993215 0 0.0096443263082902804 0.0021316097629367368 0 0.019227994324851633 -4.0622587639403973e-05 0 0.019256041492075455 -0.0011691131957987499 0 0.02940330518544633 -0.00075656211274922262 0 0.029852251119465215 -0.0017016024803338913 0 0.030706401469401727 -0.0011013683790789977 0 0.019256041492075455 -0.0011691131957987499 0 0.022767559099987768 -0.0017609441384455202 0 0.029852251119465215 -0.0017016024803338913 0 0.030706401469401727 -0.0011013683790789977 0 0.030840803530514087 -0.0023294970510596498 0 0.020567370216958168 -0.0016960375330072651 0 0.020626277753253444 -0.0018852354538350003 0 0.02056373770572345 -0.0011257643670959353 0 0.020567370216958168 -0.0016960375330072651 0 0.020626277753253444 -0.0018852354538350003 0 0.019610854967457379 -0.0016696652835780598 0 0.0097052866941533533 0.0018116235852589399 0 0.0097795358541726152 0.0018997002306597706 0 0.0097096891282321268 0.0019066831770263792 0 0.0097052866941533533 0.0018116235852589399 0 0.0097795358541726152 0.0018997002306597706 0 0.0098755352740782249 0.0018134520516060538 0 0.019256041492075455 -0.0011691131957987499 0 0.019079584645985664 -0.00093361411855933632 0 0.0096909556748558771 0.0020284214509993215 0 0.0097795358541726152 0.0018997002306597706 0 0.0097096891282321268 0.0019066831770263792 0 0.0097835020612962124 0.0020094451495670752 0 0.0096909556748558771 0.0020284214509993215 0 0.0097795358541726152 0.0018997002306597706 0 0.0099184434452803272 0.0019392750359583549 0 0.0098755352740782249 0.0018134520516060538 0 0.010130943265835435 0.0018116077169968907 0 0.0097835020612962124 0.0020094451495670752 0 0.0097795358541726152 0.0018997002306597706 0 0.0099184434452803272 0.0019392750359583549 0 0.0097795358541726152 0.0018997002306597706 0 0.0099184434452803272 0.0019392750359583549 0 0.0098755352740782249 0.0018134520516060538 0 0.020567370216958168 -0.0016960375330072651 0 0.019610854967457379 -0.0016696652835780598 0 0.019816608814147343 -0.0013759484866260202 0 0.0097052866941533533 0.0018116235852589399 0 0.0098755352740782249 0.0018134520516060538 0 0.0099716213685440477 0.0015971631362964658 0 0.020134937382441029 -0.0013543982352561901 0 0.019866327622444089 -0.0012076192705754987 0 0.020567370216958168 -0.0016960375330072651 0 0.020014707865760251 -0.0014245162145308068 0 0.020326632481858418 -0.0013369089074939291 0 0.019256041492075455 -0.0011691131957987499 0 0.015634207387920276 -0.00065908522696728786 0 0.0099716213685440477 0.0015971631362964658 0 0.010325553341880365 0.0016562828842439962 0 0.010540531890108378 0.0014926832873348194 0 0.0098755352740782249 0.0018134520516060538 0 0.0099716213685440477 0.0015971631362964658 0 0.010130943265835435 0.0018116077169968907 0 0.015634207387920276 -0.00065908522696728786 0 0.015749876998288188 -0.0014207432532225017 0 0.0099716213685440477 0.0015971631362964658 0 0.010130943265835435 0.0018116077169968907 0 0.010325553341880365 0.0016562828842439962 0 0.0099184434452803272 0.0019392750359583549 0 0.010130943265835435 0.0018116077169968907 0 0.010197509192868963 0.0020645740840056232 0 0.024856618130865198 -0.0021407976763826954 0 0.024785519049373948 -0.0018245129326977076 0 0.024493211094971157 -0.0020808260441420997 0 0.024856618130865198 -0.0021407976763826954 0 0.024492470248672925 -0.002418925890978973 0 0.024493211094971157 -0.0020808260441420997 0 0.022151914736888361 -0.001319202396106832 0 0.019393039228603012 -0.00090256926258452832 0 0.020167577542293067 -0.0011062396538764824 0 0.019988519064757401 -0.00080990779483152667 0 0.019468816345784606 -0.0011838184154221879 0 0.019866327622444089 -0.0012076192705754987 0 0.019393039228603012 -0.00090256926258452832 0 0.019610854967457379 -0.0016696652835780598 0 0.019816608814147343 -0.0013759484866260202 0 0.019028633924964688 -0.0010315871857834141 0 0.019610854967457379 -0.0016696652835780598 0 0.018522418345603472 -0.0013954008255636335 0 0.019028633924964688 -0.0010315871857834141 0 0.020014707865760251 -0.0014245162145308068 0 0.020167577542293067 -0.0011062396538764824 0 0.019468816345784606 -0.0011838184154221879 0 0.020014707865760251 -0.0014245162145308068 0 0.020326632481858418 -0.0013369089074939291 0 0.020167577542293067 -0.0011062396538764824 0 0.020167577542293067 -0.0011062396538764824 0 0.019988519064757401 -0.00080990779483152667 0 0.020514636392569278 -0.00043714483412654403 0 0.022151914736888361 -0.001319202396106832 0 0.024598173757100994 -0.0018004136767720373 0 0.022767559099987768 -0.0017609441384455202 0 0.024598173757100994 -0.0018004136767720373 0 0.030840803530514087 -0.0023294970510596498 0 0.030164000732722619 -0.0027943684933805922 0 0.030941836285447395 -0.0036195761312540799 0 0.020167577542293067 -0.0011062396538764824 0 0.02056373770572345 -0.0011257643670959353 0 0.020514636392569278 -0.00043714483412654403 0 0.020326632481858418 -0.0013369089074939291 0 0.020167577542293067 -0.0011062396538764824 0 0.02056373770572345 -0.0011257643670959353 0 0.020567370216958168 -0.0016960375330072651 0 0.020326632481858418 -0.0013369089074939291 0 0.02056373770572345 -0.0011257643670959353 0 0.030840803530514087 -0.0023294970510596498 0 0.029821435302687393 -0.0023354110225342244 0 0.030164000732722619 -0.0027943684933805922 0 0.029852251119465215 -0.0017016024803338913 0 0.030840803530514087 -0.0023294970510596498 0 0.029821435302687393 -0.0023354110225342244 0 0.029756208000070256 -0.0026723914089531575 0 0.030164000732722619 -0.0027943684933805922 0 0.029696029363791669 -0.002922918241464231 0 0.029821435302687393 -0.0023354110225342244 0 0.029756208000070256 -0.0026723914089531575 0 0.030164000732722619 -0.0027943684933805922 0 0.030164000732722619 -0.0027943684933805922 0 0.030148769358479596 -0.0035305363268506897 0 0.030941836285447395 -0.0036195761312540799 0 0.030164000732722619 -0.0027943684933805922 0 0.029696029363791669 -0.002922918241464231 0 0.030148769358479596 -0.0035305363268506897 0 0.029878820306339118 -0.0036846423798103083 0 0.030148769358479596 -0.0035305363268506897 0 0.029330863131782278 -0.0033999813987991537 0 0.02623438589234444 -0.002432195388852349 0 0.025063863702761782 -0.0018971742594730274 0 0.029878820306339118 -0.0036846423798103083 0 0.030148769358479596 -0.0035305363268506897 0 0.030827404868274445 -0.003699509256589933 0 0.027455703192630156 -0.0027580271467295466 0 0.025063863702761782 -0.0018971742594730274 0 0.027023813295399764 -0.0039670268173521567 0 0.0270510981994493 -0.0034747039009297865 0 0.026419515529447175 -0.0039228373236802165 0 0.026555957372014695 -0.0031586783229304535 0 0.026057620143358138 -0.0031733997312124503 0 0.025709927182050573 -0.003763029716488613 0 0.026555957372014695 -0.0031586783229304535 0 0.026057620143358138 -0.0031733997312124503 0 0.026145871025917453 -0.0027487213661506532 0 0.026057620143358138 -0.0031733997312124503 0 0.025751485163961241 -0.0032449685059504655 0 0.025709927182050573 -0.003763029716488613 0 0.024790758048067636 -0.0018859704330158723 0 0.025207856146663345 -0.0018037702062764418 0 0.025682904524450406 -0.0018845615801218647 0 0.025397098135807594 -0.0015204820869360149 0 0.025592479746850146 -0.0011184318479448749 0 0.025751485163961241 -0.0032449685059504655 0 0.025615666031929489 -0.0037574157350999025 0 0.025517229830910704 -0.0026468892672254578 0 0.026057620143358138 -0.0031733997312124503 0 0.025751485163961241 -0.0032449685059504655 0 0.02583062866972051 -0.0028392527847980959 0 0.026057620143358138 -0.0031733997312124503 0 0.02583062866972051 -0.0028392527847980959 0 0.026145871025917453 -0.0027487213661506532 0 0.025751485163961241 -0.0032449685059504655 0 0.02583062866972051 -0.0028392527847980959 0 0.025517229830910704 -0.0026468892672254578 0 0.025751485163961241 -0.0032449685059504655 0 0.025709927182050573 -0.003763029716488613 0 0.025615666031929489 -0.0037574157350999025 0 0.030148769358479596 -0.0035305363268506897 0 0.030827404868274445 -0.003699509256589933 0 0.030941836285447395 -0.0036195761312540799 0 0.024790758048067636 -0.0018859704330158723 0 0.024598173757100994 -0.0018004136767720373 0 0.025063863702761782 -0.0018971742594730274 0 0.024790758048067636 -0.0018859704330158723 0 0.023607210450382603 -0.0020486648346623938 0 0.024574956497603901 -0.0021096216720527606 0 0.024515180210094641 -0.0013934660562342563 0 0.025063863702761782 -0.0018971742594730274 0 0.024598173757100994 -0.0018004136767720373 0 0.025682904524450406 -0.0018845615801218647 0 0.025397098135807594 -0.0015204820869360149 0 0.02505695777655044 -0.0018545696557519672 0 0.025201618670792986 -0.0018511049848194958 0 0.025204404658275587 -0.0018841995623159542 0 0.024785519049373948 -0.0018245129326977076 0 0.024790758048067636 -0.0018859704330158723 0 0.024831892785131357 -0.0018652236912525301 0 0.024856618130865198 -0.0021407976763826954 0 0.025204404658275587 -0.0018841995623159542 0 0.024785519049373948 -0.0018245129326977076 0 0.025397098135807594 -0.0015204820869360149 0 0.024972058173783684 -0.0013353563880825151 0 0.02505695777655044 -0.0018545696557519672 0 0.025397098135807594 -0.0015204820869360149 0 0.025364297496869536 -0.0012518192367615684 0 0.025592479746850146 -0.0011184318479448749 0 0.025397098135807594 -0.0015204820869360149 0 0.025364297496869536 -0.0012518192367615684 0 0.024972058173783684 -0.0013353563880825151 0 0.024972058173783684 -0.0013353563880825151 0 0.02505695777655044 -0.0018545696557519672 0 0.024375563045210484 -0.0017839772876307555 0 0.024831892785131357 -0.0018652236912525301 0 0.024689381608918343 -0.0018482216742972484 0 0.024785519049373948 -0.0018245129326977076 0 0.024493211094971157 -0.0020808260441420997 0 0.024375563045210484 -0.0017839772876307555 0 0.028336211025564235 -0.0034253745482804117 0 0.028074813659332645 -0.0036259813886243379 0 0.028362487228413991 -0.0038731430274839985 0 0.028623608217145751 -0.0031567090695386823 0 0.028336211025564235 -0.0034253745482804117 0 0.027833217605651182 -0.0027947923269067668 0 0.028623608217145751 -0.0031567090695386823 0 0.028336211025564235 -0.0034253745482804117 0 0.028751737538747019 -0.0035138423562347605 0 0.028336211025564235 -0.0034253745482804117 0 0.028751737538747019 -0.0035138423562347605 0 0.028362487228413991 -0.0038731430274839985 0 0.028336211025564235 -0.0034253745482804117 0 0.028074813659332645 -0.0036259813886243379 0 0.027833217605651182 -0.0027947923269067668 0 0.028074813659332645 -0.0036259813886243379 0 0.027833217605651182 -0.0027947923269067668 0 0.02757582437856473 -0.0033946690335202347 0 0.028235454180658971 -0.0025372646472709786 0 0.027492459534312189 -0.0022143554025354055 0 0.027023366724074762 -0.0024219592426625879 0 0.027492459534312189 -0.0022143554025354055 0 0.027023366724074762 -0.0024219592426625879 0 0.026749252155092617 -0.0018924312896655745 0 0.02770204017091572 -0.0023799225099705428 0 0.027437840996902878 -0.0022562165247434879 0 0.027283732496482117 -0.0016209305782363289 0 0.027475867830290553 -0.0021501114055624917 0 0.026749252155092617 -0.0018924312896655745 0 0.028246231485954672 -0.002648684059815205 0 0.027346326047331865 -0.0025820999102087266 0 0.027976145626714698 -0.0016663260672209268 0 0.028172765213477335 -0.002461359963032813 0 0.027475867830290553 -0.0021501114055624917 0 0.027976145626714698 -0.0016663260672209268 0 0.027283732496482117 -0.0016209305782363289 0 0.027475867830290553 -0.0021501114055624917 0 0.028246231485954672 -0.002648684059815205 0 0.02770204017091572 -0.0023799225099705428 0 0.028866155309143743 -0.0016284360279246307 0 0.028172765213477335 -0.002461359963032813 0 0.029219493891124736 -0.0020977316194874447 0 0.028172765213477335 -0.002461359963032813 0 0.029219493891124736 -0.0020977316194874447 0 0.02934581797328999 -0.0026365683663893908 0 0.028866155309143743 -0.0016284360279246307 0 0.027976145626714698 -0.0016663260672209268 0 0.028172765213477335 -0.002461359963032813 0 0.028866155309143743 -0.0016284360279246307 0 0.029852251119465215 -0.0017016024803338913 0 0.029219493891124736 -0.0020977316194874447 0 0.029852251119465215 -0.0017016024803338913 0 0.029821435302687393 -0.0023354110225342244 0 0.029219493891124736 -0.0020977316194874447 0 0.029821435302687393 -0.0023354110225342244 0 0.029219493891124736 -0.0020977316194874447 0 0.02934581797328999 -0.0026365683663893908 0 0.029547082922001654 -0.0032645354612626507 0 0.029104616079721004 -0.0030654515688919603 0 0.029696029363791669 -0.002922918241464231 0 0.030148769358479596 -0.0035305363268506897 0 0.029082504208612008 -0.0029932446568298843 0 0.029821435302687393 -0.0023354110225342244 0 0.029756208000070256 -0.0026723914089531575 0 0.02934581797328999 -0.0026365683663893908 0 0.029756208000070256 -0.0026723914089531575 0 0.029696029363791669 -0.002922918241464231 0 0.02934581797328999 -0.0026365683663893908 0 0.029696029363791669 -0.002922918241464231 0 0.02934581797328999 -0.0026365683663893908 0 0.029082504208612008 -0.0029932446568298843 0 0.028246231485954672 -0.002648684059815205 0 0.029104616079721004 -0.0030654515688919603 0 0.028623608217145751 -0.0031567090695386823 0 0.029330863131782278 -0.0033999813987991537 0 0.028751737538747019 -0.0035138423562347605 0 0.029330863131782278 -0.0033999813987991537 0 0.028751737538747019 -0.0035138423562347605 0 0.029162659640815252 -0.0037828516606648677 0 0.027958334841864552 -0.0025038824872830241 0 0.02934581797328999 -0.0026365683663893908 0 0.029082504208612008 -0.0029932446568298843 0 0.028246231485954672 -0.002648684059815205 0 0.028681155432893971 -0.002659893420516468 0 0.028073022652072142 -0.0031506139227872477 0 0.028184076790471232 -0.0032636832650691484 0 0.027642993123067654 -0.0039891022838054839 0 0.027741233512018217 -0.0036071182586002544 0 0.028362487228413991 -0.0038731430274839985 0 0.028751737538747019 -0.0035138423562347605 0 0.029162659640815252 -0.0037828516606648677 0 0.028362487228413991 -0.0038731430274839985 0 0.027642993123067654 -0.0039891022838054839 0 0.027371841178798442 -0.0037565695804400827 0 0.027741233512018217 -0.0036071182586002544 0 0.027023813295399764 -0.0039670268173521567 0 0.027642993123067654 -0.0039891022838054839 0 0.027371841178798442 -0.0037565695804400827 0 0.027455703192630156 -0.0027580271467295466 0 0.028073022652072142 -0.0031506139227872477 0 0.029878820306339118 -0.0036846423798103083 0 0.029330863131782278 -0.0033999813987991537 0 0.029162659640815252 -0.0037828516606648677 0 0.027023813295399764 -0.0039670268173521567 0 0.0270510981994493 -0.0034747039009297865 0 0.027371841178798442 -0.0037565695804400827 0 0.0270510981994493 -0.0034747039009297865 0 0.027741233512018217 -0.0036071182586002544 0 0.027577814402489631 -0.0030168136760723415 0 0.02623438589234444 -0.002432195388852349 0 0.027173530345362847 -0.0023389718383847566 0 0.0270510981994493 -0.0034747039009297865 0 0.027371841178798442 -0.0037565695804400827 0 0.027741233512018217 -0.0036071182586002544 0 0.027741233512018217 -0.0036071182586002544 0 0.028149935168592179 -0.0035301634062495368 0 0.027577814402489631 -0.0030168136760723415 0 0.027741233512018217 -0.0036071182586002544 0 0.028149935168592179 -0.0035301634062495368 0 0.028362487228413991 -0.0038731430274839985 0 0.028149935168592179 -0.0035301634062495368 0 0.028362487228413991 -0.0038731430274839985 0 0.028389571608536314 -0.0041269184377522739 0 0.028074813659332645 -0.0036259813886243379 0 0.028389571608536314 -0.0041269184377522739 0 0.027433132263804644 -0.0040281050452572967 0 0.028074813659332645 -0.0036259813886243379 0 0.028362487228413991 -0.0038731430274839985 0 0.028389571608536314 -0.0041269184377522739 0 0.028074813659332645 -0.0036259813886243379 0 0.027433132263804644 -0.0040281050452572967 0 0.02757582437856473 -0.0033946690335202347 0 0.028389571608536314 -0.0041269184377522739 0 0.029878784924166069 -0.0036239278532582899 0 0.028854016909386288 -0.003015045591033696 0 0.028149935168592179 -0.0035301634062495368 0 0.028389571608536314 -0.0041269184377522739 0 0.028854016909386288 -0.003015045591033696 0 0.028389571608536314 -0.0041269184377522739 0 0.027402555263862791 -0.0047699460220467574 0 0.027433132263804644 -0.0040281050452572967 0 0.028568764131887043 -0.0034073705787070105 0 0.028745404856072656 -0.0031674169208588277 0 0.027402555263862791 -0.0047699460220467574 0 0.026983122984654821 -0.0047101429907897563 0 0.027433132263804644 -0.0040281050452572967 0 0.026983122984654821 -0.0047101429907897563 0 0.027433132263804644 -0.0040281050452572967 0 0.026664526057563767 -0.004417504974194378 0 0.026983122984654821 -0.0047101429907897563 0 0.026664526057563767 -0.004417504974194378 0 0.026582170302442285 -0.0047948469801925679 0 0.027433132263804644 -0.0040281050452572967 0 0.026066407080212749 -0.003653289563771772 0 0.025259043990329119 -0.0051166885154998428 0 0.026066407080212749 -0.003653289563771772 0 0.024772550499965851 -0.0036479195255987302 0 0.025259043990329119 -0.0051166885154998428 0 0.026398542739923692 -0.0036391369269960236 0 0.025841982903498841 -0.0035738571668140606 0 0.027433132263804644 -0.0040281050452572967 0 0.02757582437856473 -0.0033946690335202347 0 0.026898369275378881 -0.0032068384774605451 0 0.027833217605651182 -0.0027947923269067668 0 0.026898369275378881 -0.0032068384774605451 0 0.025856706253144443 -0.0024183390652478347 0 0.027433132263804644 -0.0040281050452572967 0 0.026898369275378881 -0.0032068384774605451 0 0.026066407080212749 -0.003653289563771772 0 0.027833217605651182 -0.0027947923269067668 0 0.02757582437856473 -0.0033946690335202347 0 0.026898369275378881 -0.0032068384774605451 0 0.026066407080212749 -0.003653289563771772 0 0.025856706253144443 -0.0024183390652478347 0 0.024772550499965851 -0.0036479195255987302 0 0.026898369275378881 -0.0032068384774605451 0 0.026066407080212749 -0.003653289563771772 0 0.025856706253144443 -0.0024183390652478347 0 0.027023366724074762 -0.0024219592426625879 0 0.025856706253144443 -0.0024183390652478347 0 0.026749252155092617 -0.0018924312896655745 0 0.025856706253144443 -0.0024183390652478347 0 0.026749252155092617 -0.0018924312896655745 0 0.025822196980331988 -0.001369815993152747 0 0.027346326047331865 -0.0025820999102087266 0 0.026706502478329442 -0.0025196543448916557 0 0.024220268346758594 -0.0026122154289745184 0 0.023381936282945145 -0.0034716750283732096 0 0.022947684805910133 -0.0022278510221174267 0 0.024220268346758594 -0.0026122154289745184 0 0.022947684805910133 -0.0022278510221174267 0 0.024412466947619168 -0.0015603694092560386 0 0.025856706253144443 -0.0024183390652478347 0 0.024220268346758594 -0.0026122154289745184 0 0.024412466947619168 -0.0015603694092560386 0 0.025856706253144443 -0.0024183390652478347 0 0.024220268346758594 -0.0026122154289745184 0 0.024772550499965851 -0.0036479195255987302 0 0.024220268346758594 -0.0026122154289745184 0 0.024772550499965851 -0.0036479195255987302 0 0.023381936282945145 -0.0034716750283732096 0 0.023381936282945145 -0.0034716750283732096 0 0.023877819770828319 -0.0045590883392133633 0 0.022623631120797235 -0.0044387306383480655 0 0.023877819770828319 -0.0045590883392133633 0 0.023419047860210981 -0.0058221003357740988 0 0.022623631120797235 -0.0044387306383480655 0 0.024772550499965851 -0.0036479195255987302 0 0.023381936282945145 -0.0034716750283732096 0 0.023877819770828319 -0.0045590883392133633 0 0.024772550499965851 -0.0036479195255987302 0 0.023877819770828319 -0.0045590883392133633 0 0.025259043990329119 -0.0051166885154998428 0 0.026664526057563767 -0.004417504974194378 0 0.026582170302442285 -0.0047948469801925679 0 0.026150527798059479 -0.0047830434616909397 0 0.026664526057563767 -0.004417504974194378 0 0.026150527798059479 -0.0047830434616909397 0 0.025920580112681023 -0.0047244726568750721 0 0.023877819770828319 -0.0045590883392133633 0 0.025259043990329119 -0.0051166885154998428 0 0.023419047860210981 -0.0058221003357740988 0 0.025841982903498841 -0.0035738571668140606 0 0.026158331140257191 -0.0023281265436399948 0 0.026150527798059479 -0.0047830434616909397 0 0.02593082237048025 -0.0047172078708211263 0 0.02626796288168827 -0.0049429491076142763 0 0.026191720843817753 -0.0024003496734158417 0 0.026158331140257191 -0.0023281265436399948 0 0.026158331140257191 -0.0023281265436399948 0 0.027932035619024416 -0.0014760600096887988 0 0.027546567530722307 0.00056137315183230226 0 0.027296792745375609 0.00046778149037842532 0 0.026637771845126678 0.00082514855351937188 0 0.023419047860210981 -0.0058221003357740988 0 0.02142162393312495 -0.0053021201565320334 0 0.022623631120797235 -0.0044387306383480655 0 0.027932035619024416 -0.0014760600096887988 0 0.026765423934555537 -0.00045036567929291509 0 0.026158331140257191 -0.0023281265436399948 0 0.024162624705325486 -0.0020235050929646565 0 0.027296792745375609 0.00046778149037842532 0 0.026637771845126678 0.00082514855351937188 0 0.026661051140236865 0.00062301225734343805 0 0.026637771845126678 0.00082514855351937188 0 0.026661051140236865 0.00062301225734343805 0 0.026012774595438156 0.00079106756161937471 0 0.02142162393312495 -0.0053021201565320334 0 0.021525002971350484 -0.0042059899816667768 0 0.022623631120797235 -0.0044387306383480655 0 0.02142162393312495 -0.0053021201565320334 0 0.021525002971350484 -0.0042059899816667768 0 0.020607231905987514 -0.004184454821936961 0 0.021525002971350484 -0.0042059899816667768 0 0.022623631120797235 -0.0044387306383480655 0 0.02210836382351837 -0.0033270180988480206 0 0.026121386788565421 6.5058517881030594e-05 0 0.025825312619557356 0.00023929147789294701 0 0.025496355188553785 0.00073322252223308334 0 0.026091003148759034 0.00085856688594892908 0 0.025324873891426333 0.00095180872921055018 0 0.025402465210520999 0.00040377474522378728 0 0.025711352410234773 0.00036506737614370896 0 0.026012774595438156 0.00079106756161937471 0 0.025703934062501273 0.0011190863918904782 0 0.025324873891426333 0.00095180872921055018 0 0.025963538388260113 0.00070999120301417338 0 0.026084080130029826 0.00053233413149045283 0 0.025955267803341699 0.00058177750174705895 0 0.025963538388260113 0.00070999120301417338 0 0.025955267803341699 0.00058177750174705895 0 0.025851499783992243 0.00060437681000112986 0 0.026765423934555537 -0.00045036567929291509 0 0.026121386788565421 6.5058517881030594e-05 0 0.024162624705325486 -0.0020235050929646565 0 0.022648131329959801 -0.0016395044563064169 0 0.026637036999559091 0.00072065998048514437 0 0.026091003148759034 0.00085856688594892908 0 0.026422937012300179 0.00059941030082629593 0 0.026637771845126678 0.00082514855351937188 0 0.026012774595438156 0.00079106756161937471 0 0.025703934062501273 0.0011190863918904782 0 0.025496355188553785 0.00073322252223308334 0 0.026091003148759034 0.00085856688594892908 0 0.026298801824845446 0.0005238208923689921 0 0.026091003148759034 0.00085856688594892908 0 0.026298801824845446 0.0005238208923689921 0 0.026422937012300179 0.00059941030082629593 0 0.02142162393312495 -0.0053021201565320334 0 0.020607231905987514 -0.004184454821936961 0 0.019462994849894458 -0.0047892095736283766 0 0.020607231905987514 -0.004184454821936961 0 0.019462994849894458 -0.0047892095736283766 0 0.019749015114816717 -0.0033361008909624326 0 0.019462994849894458 -0.0047892095736283766 0 0.019749015114816717 -0.0033361008909624326 0 0.018712799870584162 -0.0034110750093647771 0 0.019749015114816717 -0.0033361008909624326 0 0.019053121141491585 -0.0027046067970605699 0 0.018712799870584162 -0.0034110750093647771 0 0.019749015114816717 -0.0033361008909624326 0 0.019644142662806379 -0.0026532367812349142 0 0.019053121141491585 -0.0027046067970605699 0 0.020607231905987514 -0.004184454821936961 0 0.019749015114816717 -0.0033361008909624326 0 0.020890010185419288 -0.0032995960564054937 0 0.019749015114816717 -0.0033361008909624326 0 0.020890010185419288 -0.0032995960564054937 0 0.020283391643966104 -0.0026310387512268963 0 0.020292637709263168 -0.0020627212215198459 0 0.021283367554722887 -0.0023387550259266229 0 0.020588522441213206 -0.0012906997453342489 0 0.020890010185419288 -0.0032995960564054937 0 0.020283391643966104 -0.0026310387512268963 0 0.021283367554722887 -0.0023387550259266229 0 0.020292637709263168 -0.0020627212215198459 0 0.020283391643966104 -0.0026310387512268963 0 0.021283367554722887 -0.0023387550259266229 0 0.020292637709263168 -0.0020627212215198459 0 0.020283391643966104 -0.0026310387512268963 0 0.019764461991750061 -0.0022379251563020117 0 0.020292637709263168 -0.0020627212215198459 0 0.019763937962382374 -0.0018228197482113885 0 0.020075640837513183 -0.0016718336269934714 0 0.020292637709263168 -0.0020627212215198459 0 0.019764461991750061 -0.0022379251563020117 0 0.019763937962382374 -0.0018228197482113885 0 0.020283391643966104 -0.0026310387512268963 0 0.019644142662806379 -0.0026532367812349142 0 0.019764461991750061 -0.0022379251563020117 0 0.019749015114816717 -0.0033361008909624326 0 0.020283391643966104 -0.0026310387512268963 0 0.019644142662806379 -0.0026532367812349142 0 0.019644142662806379 -0.0026532367812349142 0 0.019329704211370726 -0.0023037292649329398 0 0.019053121141491585 -0.0027046067970605699 0 0.019644142662806379 -0.0026532367812349142 0 0.019764461991750061 -0.0022379251563020117 0 0.019329704211370726 -0.0023037292649329398 0 0.019764461991750061 -0.0022379251563020117 0 0.019623373427709978 -0.0020449360934420087 0 0.019478705755764027 -0.0021081181058819104 0 0.019764461991750061 -0.0022379251563020117 0 0.019623373427709978 -0.0020449360934420087 0 0.019763937962382374 -0.0018228197482113885 0 0.019522550068464303 -0.0019555510645599553 0 0.019475984560369686 -0.0018315808829862678 0 0.019763937962382374 -0.0018228197482113885 0 0.019623373427709978 -0.0020449360934420087 0 0.019522550068464303 -0.0019555510645599553 0 0.019763937962382374 -0.0018228197482113885 0 0.019478705755764027 -0.0021081181058819104 0 0.019329704211370726 -0.0023037292649329398 0 0.019475984560369686 -0.0018315808829862678 0 0.019522550068464303 -0.0019555510645599553 0 0.019478705755764027 -0.0021081181058819104 0 0.019475984560369686 -0.0018315808829862678 0 0.019623373427709978 -0.0020449360934420087 0 0.019522550068464303 -0.0019555510645599553 0 0.019478705755764027 -0.0021081181058819104 0 0.019764461991750061 -0.0022379251563020117 0 0.019478705755764027 -0.0021081181058819104 0 0.019329704211370726 -0.0023037292649329398 0 0.019329704211370726 -0.0023037292649329398 0 0.018827100936673492 -0.002073573555011872 0 0.019475984560369686 -0.0018315808829862678 0 0.019329704211370726 -0.0023037292649329398 0 0.018827100936673492 -0.002073573555011872 0 0.019053121141491585 -0.0027046067970605699 0 0.023381936282945145 -0.0034716750283732096 0 0.02210836382351837 -0.0033270180988480206 0 0.022947684805910133 -0.0022278510221174267 0 0.023381936282945145 -0.0034716750283732096 0 0.022623631120797235 -0.0044387306383480655 0 0.02210836382351837 -0.0033270180988480206 0 0.020890010185419288 -0.0032995960564054937 0 0.02210836382351837 -0.0033270180988480206 0 0.021283367554722887 -0.0023387550259266229 0 0.021525002971350484 -0.0042059899816667768 0 0.020890010185419288 -0.0032995960564054937 0 0.02210836382351837 -0.0033270180988480206 0 0.021525002971350484 -0.0042059899816667768 0 0.020607231905987514 -0.004184454821936961 0 0.020890010185419288 -0.0032995960564054937 0 0.02210836382351837 -0.0033270180988480206 0 0.021283367554722887 -0.0023387550259266229 0 0.022947684805910133 -0.0022278510221174267 0 0.021283367554722887 -0.0023387550259266229 0 0.022947684805910133 -0.0022278510221174267 0 0.021998240341574767 -0.0014672234545281587 0 0.022978313557112075 -0.00099855787829522752 0 0.021998240341574767 -0.0014672234545281587 0 0.02145929652594563 -0.00046644792923052026 0 0.022947684805910133 -0.0022278510221174267 0 0.022978313557112075 -0.00099855787829522752 0 0.021998240341574767 -0.0014672234545281587 0 0.021283367554722887 -0.0023387550259266229 0 0.021998240341574767 -0.0014672234545281587 0 0.020588522441213206 -0.0012906997453342489 0 0.021998240341574767 -0.0014672234545281587 0 0.02145929652594563 -0.00046644792923052026 0 0.020588522441213206 -0.0012906997453342489 0 0.020748774085993266 -0.00063049137765451395 0 0.021664280155327825 -0.0001422258977157321 0 0.020462256223724457 0.00036176131144154215 0 0.022469543570004528 -0.00098819446079657621 0 0.021188082455024706 -0.00055479947779469338 0 0.022483682833566186 -0.0012463762690494938 0 0.021664280155327825 -0.0001422258977157321 0 0.022715952384503271 0.00032023219182231508 0 0.022483682833566186 -0.0012463762690494938 0 0.020748774085993266 -0.00063049137765451395 0 0.021664280155327825 -0.0001422258977157321 0 0.018827100936673492 -0.002073573555011872 0 0.019204550012615718 -0.0015811291999508605 0 0.019475984560369686 -0.0018315808829862678 0 0.01917857616353259 -0.0015446191803874573 0 0.019475984560369686 -0.0018315808829862678 0 0.019664643636860886 -0.0013456096945875244 0 0.017344116071557315 -0.0011895807810919673 0 0.017423219862766664 -0.0012485656954302209 0 0.019475984560369686 -0.0018315808829862678 0 0.019763937962382374 -0.0018228197482113885 0 0.019664643636860886 -0.0013456096945875244 0 0.019763937962382374 -0.0018228197482113885 0 0.019664643636860886 -0.0013456096945875244 0 0.020075640837513183 -0.0016718336269934714 0 0.01917857616353259 -0.0015446191803874573 0 0.019664643636860886 -0.0013456096945875244 0 0.019188848113673922 -0.00060344958473759975 0 0.019664643636860886 -0.0013456096945875244 0 0.020588522441213206 -0.0012906997453342489 0 0.019894031177544291 2.8897647011496278e-05 0 0.019664643636860886 -0.0013456096945875244 0 0.020075640837513183 -0.0016718336269934714 0 0.020588522441213206 -0.0012906997453342489 0 0.020292637709263168 -0.0020627212215198459 0 0.020075640837513183 -0.0016718336269934714 0 0.020588522441213206 -0.0012906997453342489 0 0.02145929652594563 -0.00046644792923052026 0 0.020588522441213206 -0.0012906997453342489 0 0.019894031177544291 2.8897647011496278e-05 0 0.020748774085993266 -0.00063049137765451395 0 0.019449963539850353 -3.9581817815059907e-05 0 0.020462256223724457 0.00036176131144154215 0 0.021188082455024706 -0.00055479947779469338 0 0.019967317926276387 -0.00013410015770695482 0 0.019894031177544291 2.8897647011496278e-05 0 0.018338640449436734 0.0004202811331602929 0 0.018360230512601931 -6.2616604514152059e-05 0 0.01917857616353259 -0.0015446191803874573 0 0.019188848113673922 -0.00060344958473759975 0 0.018360230512601931 -6.2616604514152059e-05 0 0.019664643636860886 -0.0013456096945875244 0 0.019894031177544291 2.8897647011496278e-05 0 0.019188848113673922 -0.00060344958473759975 0 0.017344116071557315 -0.0011895807810919673 0 0.016781366262320838 -0.00035001498623319532 0 0.019894031177544291 2.8897647011496278e-05 0 0.019188848113673922 -0.00060344958473759975 0 0.018360230512601931 -6.2616604514152059e-05 0 0.019449963539850353 -3.9581817815059907e-05 0 0.019065079925671132 0.00053109392209488998 0 0.018338640449436734 0.0004202811331602929 0 0.019967317926276387 -0.00013410015770695482 0 0.019335499425317291 8.1154509066580437e-05 0 0.018717588250713405 0.00072953593517583013 0 0.019065079925671132 0.00053109392209488998 0 0.019039563509862148 0.0010102731203335867 0 0.018717588250713405 0.00072953593517583013 0 0.019039563509862148 0.0010102731203335867 0 0.018406610903404272 0.0010633242572395381 0 0.018717588250713405 0.00072953593517583013 0 0.019065079925671132 0.00053109392209488998 0 0.018338640449436734 0.0004202811331602929 0 0.019449963539850353 -3.9581817815059907e-05 0 0.019065079925671132 0.00053109392209488998 0 0.01964996552946105 0.00066784964042796401 0 0.019065079925671132 0.00053109392209488998 0 0.019039563509862148 0.0010102731203335867 0 0.01964996552946105 0.00066784964042796401 0 0.01964996552946105 0.00066784964042796401 0 0.019955756710416973 0.0013230667216735895 0 0.020462256223724457 0.00036176131144154215 0 0.019039563509862148 0.0010102731203335867 0 0.01964996552946105 0.00066784964042796401 0 0.019955756710416973 0.0013230667216735895 0 0.019449963539850353 -3.9581817815059907e-05 0 0.01964996552946105 0.00066784964042796401 0 0.020462256223724457 0.00036176131144154215 0 0.013958165347061497 0.0029557316690554986 0 0.01507171864103482 0.0026577459327664366 0 0.015780375350538701 0.0030939134651038675 0 0.017350412582641434 0.0015810025697838648 0 0.020099559267790293 0.0025574411397028159 0 0.015780375350538701 0.0030939134651038675 0 0.017350412582641434 0.0015810025697838648 0 0.013682295119482971 0.0024454066061733674 0 0.018373076855147413 0.0013738278283135512 0 0.01624463315115085 0.001852159802992308 0 0.019039563509862148 0.0010102731203335867 0 0.019955756710416973 0.0013230667216735895 0 0.018518548561729561 0.0018288550321679086 0 0.019039563509862148 0.0010102731203335867 0 0.018406610903404272 0.0010633242572395381 0 0.018518548561729561 0.0018288550321679086 0 0.021664280155327825 -0.0001422258977157321 0 0.021488151321906596 0.00085579123651041331 0 0.022715952384503271 0.00032023219182231508 0 0.019955756710416973 0.0013230667216735895 0 0.021488151321906596 0.00085579123651041331 0 0.020462256223724457 0.00036176131144154215 0 0.021664280155327825 -0.0001422258977157321 0 0.021488151321906596 0.00085579123651041331 0 0.020462256223724457 0.00036176131144154215 0 0.017350412582641434 0.0015810025697838648 0 0.021488151321906596 0.00085579123651041331 0 0.020099559267790293 0.0025574411397028159 0 0.018373076855147413 0.0013738278283135512 0 0.019736145576404046 0.0010129292370612897 0 0.0095356038739045721 0.0028411834770545553 0 0.0099744179893137448 0.003306991841738337 0 0.009142996501047761 0.0030664364205032924 0 0.021488151321906596 0.00085579123651041331 0 0.020099559267790293 0.0025574411397028159 0 0.023318699267468272 0.0015933833879075521 0 0.01507171864103482 0.0026577459327664366 0 0.016184581823728207 0.0022174190707757741 0 0.0095356038739045721 0.0028411834770545553 0 0.0091132206320964568 0.0028544603331783656 0 0.009142996501047761 0.0030664364205032924 0 0.0091132206320964568 0.0028544603331783656 0 0.009142996501047761 0.0030664364205032924 0 0.0090641643007052779 0.0028384511177494487 0 0.023318699267468272 0.0015933833879075521 0 0.022715952384503271 0.00032023219182231508 0 0.023924085516928321 -0.00010035314269991293 0 0.021488151321906596 0.00085579123651041331 0 0.023318699267468272 0.0015933833879075521 0 0.022715952384503271 0.00032023219182231508 0 0.016184581823728207 0.0022174190707757741 0 0.017136036615877145 0.0017304583332092757 0 0.023318699267468272 0.0015933833879075521 0 0.025307066046707818 0.00085638237914882859 0 0.023924085516928321 -0.00010035314269991293 0 0.009142996501047761 0.0030664364205032924 0 0.0090641643007052779 0.0028384511177494487 0 0.0090550414831747691 0.0026959279596343848 0 0.0090590201674655684 0.0027880727005557514 0 0.0090641643007052779 0.0028384511177494487 0 0.0090682360569290504 0.0027448259905717767 0 0.0090682360569290504 0.0027448259905717767 0 0.0090978962503125115 0.0026612857851517307 0 0.0090550414831747691 0.0026959279596343848 0 0.0090641643007052779 0.0028384511177494487 0 0.0090682360569290504 0.0027448259905717767 0 0.0090550414831747691 0.0026959279596343848 0 0.0090682360569290504 0.0027448259905717767 0 0.009103214265033896 0.0026902754619956481 0 0.0090978962503125115 0.0026612857851517307 0 0.0091664752181695956 0.0024475106030242277 0 0.009155342064177889 0.0026117672879023869 0 0.0090978962503125115 0.0026612857851517307 0 0.0091364986017869361 0.0026745637528582445 0 0.009155342064177889 0.0026117672879023869 0 0.009103214265033896 0.0026902754619956481 0 0.009155342064177889 0.0026117672879023869 0 0.009103214265033896 0.0026902754619956481 0 0.0090978962503125115 0.0026612857851517307 0 0.0091664752181695956 0.0024475106030242277 0 0.0090978962503125115 0.0026612857851517307 0 0.0090550414831747691 0.0026959279596343848 0 0.017958473878375535 0.0012287830837766772 0 0.017136036615877145 0.0017304583332092757 0 0.026900185607188151 0.00015909508259910921 0 0.025307066046707818 0.00085638237914882859 0 0.02598688940000192 -0.00049172921614270746 0 0.025307066046707818 0.00085638237914882859 0 0.02598688940000192 -0.00049172921614270746 0 0.024972959596945118 -0.00063404408320836278 0 0.02598688940000192 -0.00049172921614270746 0 0.025822196980331988 -0.001369815993152747 0 0.024972959596945118 -0.00063404408320836278 0 0.026900185607188151 0.00015909508259910921 0 0.02598688940000192 -0.00049172921614270746 0 0.026716660557645999 -0.0010396071704668727 0 0.026749252155092617 -0.0018924312896655745 0 0.026716660557645999 -0.0010396071704668727 0 0.025822196980331988 -0.001369815993152747 0 0.02598688940000192 -0.00049172921614270746 0 0.026716660557645999 -0.0010396071704668727 0 0.025822196980331988 -0.001369815993152747 0 0.025856706253144443 -0.0024183390652478347 0 0.025822196980331988 -0.001369815993152747 0 0.024412466947619168 -0.0015603694092560386 0 0.025822196980331988 -0.001369815993152747 0 0.024412466947619168 -0.0015603694092560386 0 0.024972959596945118 -0.00063404408320836278 0 0.022483682833566186 -0.0012463762690494938 0 0.024412466947619168 -0.0015603694092560386 0 0.023924085516928321 -0.00010035314269991293 0 0.022947684805910133 -0.0022278510221174267 0 0.022978313557112075 -0.00099855787829522752 0 0.024412466947619168 -0.0015603694092560386 0 0.022469543570004528 -0.00098819446079657621 0 0.023179781789139171 -0.0012196122175992205 0 0.022483682833566186 -0.0012463762690494938 0 0.022715952384503271 0.00032023219182231508 0 0.023924085516928321 -0.00010035314269991293 0 0.025307066046707818 0.00085638237914882859 0 0.024972959596945118 -0.00063404408320836278 0 0.023924085516928321 -0.00010035314269991293 0 0.024412466947619168 -0.0015603694092560386 0 0.024972959596945118 -0.00063404408320836278 0 0.023924085516928321 -0.00010035314269991293 0 0.0075755427626188762 0.0002479333231381086 0 0.0080100808915705198 0.00037230362934664884 0 0.0069995195184019161 0.00019727921341620045 0 0.0075755427626188762 0.0002479333231381086 0 0.0077603364690154789 5.6669037731653615e-07 0 0.0057620053704944673 3.4807281378766775e-07 0 0.0075755427626188762 0.0002479333231381086 0 0.0077603364690154789 5.6669037731653615e-07 0 0.0087644069365971061 0.0003562700399093645 0 0.0077603364690154789 5.6669037731653615e-07 0 0.0087644069365971061 0.0003562700399093645 0 0.0097590240139583447 5.2496178953768544e-07 0 0.0075755427626188762 0.0002479333231381086 0 0.0087644069365971061 0.0003562700399093645 0 0.0080100808915705198 0.00037230362934664884 0 0.0087644069365971061 0.0003562700399093645 0 0.0085908736456750782 0.00040698546330809833 0 0.0080100808915705198 0.00037230362934664884 0 0.0085908736456750782 0.00040698546330809833 0 0.008300271928603024 0.0003134542003090138 0 0.0086416593368629675 0.00038669527114282439 0 0.0085908736456750782 0.00040698546330809833 0 0.008300271928603024 0.0003134542003090138 0 0.0080100808915705198 0.00037230362934664884 0 0.0079536011591292526 7.7174796672882845e-05 0 0.0069995195184019161 0.00019727921341620045 0 0.006866867477073206 -0.00022954988035284944 0 0.0080100808915705198 0.00037230362934664884 0 0.0079536011591292526 7.7174796672882845e-05 0 0.0069995195184019161 0.00019727921341620045 0 0.008300271928603024 0.0003134542003090138 0 0.0080100808915705198 0.00037230362934664884 0 0.0079536011591292526 7.7174796672882845e-05 0 0.008300271928603024 0.0003134542003090138 0 0.0079536011591292526 7.7174796672882845e-05 0 0.0082884450549456784 8.0413362019405898e-05 0 0.0079536011591292526 7.7174796672882845e-05 0 0.006866867477073206 -0.00022954988035284944 0 0.0077000390033286981 -0.00048221427597875565 0 0.0079536011591292526 7.7174796672882845e-05 0 0.0077000390033286981 -0.00048221427597875565 0 0.0081502488429857113 -0.0002924314359411443 0 0.0069995195184019161 0.00019727921341620045 0 0.0055333651817282845 4.240812663479784e-05 0 0.006866867477073206 -0.00022954988035284944 0 0.0075755427626188762 0.0002479333231381086 0 0.0069995195184019161 0.00019727921341620045 0 0.0057620053704944673 3.4807281378766775e-07 0 0.0069995195184019161 0.00019727921341620045 0 0.0057620053704944673 3.4807281378766775e-07 0 0.0055333651817282845 4.240812663479784e-05 0 0.0057620053704944673 3.4807281378766775e-07 0 0.0055333651817282845 4.240812663479784e-05 0 0.0037624392956027404 5.3280170818257621e-07 0 0.0055333651817282845 4.240812663479784e-05 0 0.0047551220068478795 -0.00022622709163537568 0 0.0037624392956027404 5.3280170818257621e-07 0 0.0055333651817282845 4.240812663479784e-05 0 0.0047551220068478795 -0.00022622709163537568 0 0.0057891867055483194 -0.00042642505749214123 0 0.0047551220068478795 -0.00022622709163537568 0 0.0037624392956027404 5.3280170818257621e-07 0 0.0033960239216529416 -2.6671005084995699e-06 0 0.0057891867055483194 -0.00042642505749214123 0 0.0065081130850281966 -0.001074875933666205 0 0.006866867477073206 -0.00022954988035284944 0 0.0055333651817282845 4.240812663479784e-05 0 0.0057891867055483194 -0.00042642505749214123 0 0.006866867477073206 -0.00022954988035284944 0 0.0057891867055483194 -0.00042642505749214123 0 0.0065081130850281966 -0.001074875933666205 0 0.0055302529633690801 -0.001639747957258504 0 0.0065081130850281966 -0.001074875933666205 0 0.0055302529633690801 -0.001639747957258504 0 0.0065244122124181068 -0.0021019022521733184 0 0.0047551220068478795 -0.00022622709163537568 0 0.0033960239216529416 -2.6671005084995699e-06 0 0.0055302529633690801 -0.001639747957258504 0 0.0033908444585936848 7.558489909950094e-09 0 0.0023096621295948445 0.00011570089036359208 0 0.0017661212899658782 -8.0096521456575477e-09 0 0.0047551220068478795 -0.00022622709163537568 0 0.0057891867055483194 -0.00042642505749214123 0 0.0055302529633690801 -0.001639747957258504 0 0.0033598444557136303 -0.00040175463531776123 0 0.0034579114215896314 -0.00054670179134479473 0 0.001763395889405932 -5.6062141728087936e-07 0 0.0032118917247826117 -0.0004716581368268166 0 0.0023096621295948445 0.00011570089036359208 0 0.0017661212899658782 -8.0096521456575477e-09 0 0.002751745376366898 -0.00031277544857532115 0 0.00175796620307152 -3.4561414479393926e-07 0 0.00040842472302907005 -0.00011028667377424051 0 0.00057330987979514205 0.00018982813713856552 0 0.0034579114215896314 -0.00054670179134479473 0 0.0032118917247826117 -0.0004716581368268166 0 0.00040842472302907005 -0.00011028667377424051 0 0.00057330987979514205 0.00018982813713856552 0 0.00048642481843692739 6.6652790579999765e-05 0 0.00057701263839707686 7.6058589702791233e-05 0 0.00057330987979514205 0.00018982813713856552 0 0.00048642481843692739 6.6652790579999765e-05 0 -0.00014486242675917701 3.3289133940002285e-07 0 0.00175796620307152 -3.4561414479393926e-07 0 0.00057330987979514205 0.00018982813713856552 0 0.0034025691790352465 -0.00041225001613910358 0 0.0033200510430131344 -0.00033611732781979137 0 0.0034177234123650732 -0.00027798491155783589 0 0.0016550115322624675 -2.3952848431959508e-05 0 0.0022688085642772172 -0.00015007663358314641 0 0.00043934482187645577 7.5047409682417983e-05 0 0.00044015487548066491 6.2439715098351359e-05 0 0.00043616806041629687 5.2470863072425848e-05 0 0.00057701263839707686 7.6058589702791233e-05 0 0.00044015487548066491 6.2439715098351359e-05 0 0.00048642481843692739 6.6652790579999765e-05 0 0.00044015487548066491 6.2439715098351359e-05 0 0.00048642481843692739 6.6652790579999765e-05 0 0.00043616806041629687 5.2470863072425848e-05 0 0.00040842472302907005 -0.00011028667377424051 0 0.00048642481843692739 6.6652790579999765e-05 0 0.00043616806041629687 5.2470863072425848e-05 0 0.0032118917247826117 -0.0004716581368268166 0 0.0022688085642772172 -0.00015007663358314641 0 0.0032118917247826117 -0.0004716581368268166 0 0.0051761027755442652 -0.00079722253011548145 0 0.0065244122124181068 -0.0021019022521733184 0 0.0076379304814277234 -0.0019486492009766849 0 0.0071097653603210097 -0.0015185437186118779 0 0.0032365227302239576 -0.00026150055820562545 0 0.0033200510430131344 -0.00033611732781979137 0 0.0034177234123650732 -0.00027798491155783589 0 0.0076379304814277234 -0.0019486492009766849 0 0.0071097653603210097 -0.0015185437186118779 0 0.0078511330728794973 -0.0015686868540740011 0 0.0073269559727800991 -0.00088246175864207718 0 0.0071097653603210097 -0.0015185437186118779 0 0.0081702498581473632 -0.00094155926569812389 0 0.0074208493891446169 -0.0012479682642202127 0 0.0077728930938323311 -0.0011432945922663438 0 0.0073269559727800991 -0.00088246175864207718 0 0.0077000390033286981 -0.00048221427597875565 0 0.0081702498581473632 -0.00094155926569812389 0 0.0065081130850281966 -0.001074875933666205 0 0.0073269559727800991 -0.00088246175864207718 0 0.0071097653603210097 -0.0015185437186118779 0 0.0065081130850281966 -0.001074875933666205 0 0.0065244122124181068 -0.0021019022521733184 0 0.0071097653603210097 -0.0015185437186118779 0 0.0065081130850281966 -0.001074875933666205 0 0.0073269559727800991 -0.00088246175864207718 0 0.006866867477073206 -0.00022954988035284944 0 0.0073269559727800991 -0.00088246175864207718 0 0.006866867477073206 -0.00022954988035284944 0 0.0077000390033286981 -0.00048221427597875565 0 0.0081502488429857113 -0.0002924314359411443 0 0.0083697255331755208 -0.00048539598427217788 0 0.0081702498581473632 -0.00094155926569812389 0 0.0077000390033286981 -0.00048221427597875565 0 0.0081502488429857113 -0.0002924314359411443 0 0.0081702498581473632 -0.00094155926569812389 0 0.0083697255331755208 -0.00048539598427217788 0 0.0085079952396449072 -0.00032350159383699956 0 0.0083760100559090601 -0.00017412065114651628 0 0.0081502488429857113 -0.0002924314359411443 0 0.0083697255331755208 -0.00048539598427217788 0 0.0083760100559090601 -0.00017412065114651628 0 0.0083697255331755208 -0.00048539598427217788 0 0.0085349038428832874 -0.00052653758325830655 0 0.0085079952396449072 -0.00032350159383699956 0 0.0078511330728794973 -0.0015686868540740011 0 0.0081621650029052983 -0.0016521796029685724 0 0.008194345846331174 -0.0016004457644117789 0 0.0077728930938323311 -0.0011432945922663438 0 0.0080309265665648756 -0.00094816428006885595 0 0.0078511330728794973 -0.0015686868540740011 0 0.0080076093237414648 -0.0017183803368331888 0 0.0081621650029052983 -0.0016521796029685724 0 0.0083697255331755208 -0.00048539598427217788 0 0.0081702498581473632 -0.00094155926569812389 0 0.0085349038428832874 -0.00052653758325830655 0 0.0076379304814277234 -0.0019486492009766849 0 0.0078511330728794973 -0.0015686868540740011 0 0.0080076093237414648 -0.0017183803368331888 0 0.0051761027755442652 -0.00079722253011548145 0 0.0055419264603008816 -0.00069518123891888154 0 0.0076379304814277234 -0.0019486492009766849 0 0.0080076093237414648 -0.0017183803368331888 0 0.0080984272625968089 -0.0018850439773386298 0 0.0080076093237414648 -0.0017183803368331888 0 0.0082053213003920843 -0.0017796347563268135 0 0.0081621650029052983 -0.0016521796029685724 0 0.0080076093237414648 -0.0017183803368331888 0 0.0080984272625968089 -0.0018850439773386298 0 0.0082053213003920843 -0.0017796347563268135 0 0.0035815626531799606 -0.00040420577118023115 0 0.0036002073595287174 -0.00029464886778200652 0 0.0035007046733526157 -0.00034461607401544011 0 0.0034177234123650732 -0.00027798491155783589 0 0.0036002073595287174 -0.00029464886778200652 0 0.0035007046733526157 -0.00034461607401544011 0 0.0034025691790352465 -0.00041225001613910358 0 0.0034177234123650732 -0.00027798491155783589 0 0.0035007046733526157 -0.00034461607401544011 0 0.004133694409211729 -8.0629172483126147e-05 0 0.0036723041051081357 -2.1989872283415247e-05 0 0.00067049414417941862 0.0005581141838370083 0 0.00067212736476169742 0.00043286807786011543 0 0.00058295588315399115 0.00052992990207096095 0 0.00067212736476169742 0.00043286807786011543 0 0.00058295588315399115 0.00052992990207096095 0 0.00057855417775135368 0.00044708238225975685 0 0.00070557517452667724 0.000559191674354759 0 0.00067049414417941862 0.0005581141838370083 0 0.00067212736476169742 0.00043286807786011543 0 0.0027821457849598959 0.00018835315131581707 0 0.004133694409211729 -8.0629172483126147e-05 0 0.0055419264603008816 -0.00069518123891888154 0 0.004133694409211729 -8.0629172483126147e-05 0 0.0037592989077300312 -0.00039554010006694794 0 0.0035815626531799606 -0.00040420577118023115 0 0.0036002073595287174 -0.00029464886778200652 0 0.0037592989077300312 -0.00039554010006694794 0 0.0036002073595287174 -0.00029464886778200652 0 0.0037809033777657904 -0.00031331322307168787 0 0.008288495174726053 -0.0017239966011413531 0 0.0084609372348943019 -0.0016959368476810851 0 0.0081621650029052983 -0.0016521796029685724 0 0.0080984272625968089 -0.0018850439773386298 0 0.0084082475389647277 -0.0018954409063987013 0 0.0082053213003920843 -0.0017796347563268135 0 0.0084082475389647277 -0.0018954409063987013 0 0.0082053213003920843 -0.0017796347563268135 0 0.0083242640880711732 -0.0017710694461509002 0 0.0082053213003920843 -0.0017796347563268135 0 0.008288495174726053 -0.0017239966011413531 0 0.0081621650029052983 -0.0016521796029685724 0 0.0082053213003920843 -0.0017796347563268135 0 0.008288495174726053 -0.0017239966011413531 0 0.0083242640880711732 -0.0017710694461509002 0 0.004133694409211729 -8.0629172483126147e-05 0 0.0060285027574527184 -0.001237172402616542 0 0.008288495174726053 -0.0017239966011413531 0 0.0083242640880711732 -0.0017710694461509002 0 0.0084609372348943019 -0.0016959368476810851 0 0.0084082475389647277 -0.0018954409063987013 0 0.0083242640880711732 -0.0017710694461509002 0 0.0084609372348943019 -0.0016959368476810851 0 0.0085349038428832874 -0.00052653758325830655 0 0.0085993656922161571 -0.00036206788159524834 0 0.0087430486456521236 -0.00037211955707222707 0 0.0080309265665648756 -0.00094816428006885595 0 0.0072497277060037026 -0.00074887274651363534 0 0.0083748205586880054 -0.0016582750257427652 0 0.008194345846331174 -0.0016004457644117789 0 0.0083937696501269008 -0.0015759065787148622 0 0.0060285027574527184 -0.001237172402616542 0 0.0075932552674505627 -0.0014472239151762055 0 0.0083748205586880054 -0.0016582750257427652 0 0.0081621650029052983 -0.0016521796029685724 0 0.008194345846331174 -0.0016004457644117789 0 0.0085079952396449072 -0.00032350159383699956 0 0.0085314678764608111 -9.7112506181620085e-05 0 0.0083760100559090601 -0.00017412065114651628 0 0.0085349038428832874 -0.00052653758325830655 0 0.0085079952396449072 -0.00032350159383699956 0 0.0085993656922161571 -0.00036206788159524834 0 0.0085079952396449072 -0.00032350159383699956 0 0.0085993656922161571 -0.00036206788159524834 0 0.0086029490778275746 -0.00018908624851363752 0 0.0085079952396449072 -0.00032350159383699956 0 0.0086029490778275746 -0.00018908624851363752 0 0.0085314678764608111 -9.7112506181620085e-05 0 0.0085993656922161571 -0.00036206788159524834 0 0.008669267318298984 -0.00027475632138469958 0 0.0087430486456521236 -0.00037211955707222707 0 0.008669267318298984 -0.00027475632138469958 0 0.0086029490778275746 -0.00018908624851363752 0 0.0087208092617324599 -8.076097512073014e-05 0 0.0085993656922161571 -0.00036206788159524834 0 0.008669267318298984 -0.00027475632138469958 0 0.0086029490778275746 -0.00018908624851363752 0 0.0086029490778275746 -0.00018908624851363752 0 0.0085876832835163775 3.5597245943291386e-05 0 0.0085314678764608111 -9.7112506181620085e-05 0 0.0086029490778275746 -0.00018908624851363752 0 0.0085876832835163775 3.5597245943291386e-05 0 0.0087208092617324599 -8.076097512073014e-05 0 0.0085876832835163775 3.5597245943291386e-05 0 0.0085175333482978201 0.00013037186727718947 0 0.0085180518580046174 0.00021383340397858168 0 0.0085876832835163775 3.5597245943291386e-05 0 0.0085175333482978201 0.00013037186727718947 0 0.0085314678764608111 -9.7112506181620085e-05 0 0.0085175333482978201 0.00013037186727718947 0 0.0085314678764608111 -9.7112506181620085e-05 0 0.0083760100559090601 -0.00017412065114651628 0 0.0085175333482978201 0.00013037186727718947 0 0.0083760100559090601 -0.00017412065114651628 0 0.0082884450549456784 8.0413362019405898e-05 0 0.0081502488429857113 -0.0002924314359411443 0 0.0083760100559090601 -0.00017412065114651628 0 0.0082884450549456784 8.0413362019405898e-05 0 0.0079536011591292526 7.7174796672882845e-05 0 0.0081502488429857113 -0.0002924314359411443 0 0.0082884450549456784 8.0413362019405898e-05 0 0.008300271928603024 0.0003134542003090138 0 0.0082884450549456784 8.0413362019405898e-05 0 0.0084475649524154289 0.00026132207904053982 0 0.0085175333482978201 0.00013037186727718947 0 0.0082884450549456784 8.0413362019405898e-05 0 0.0084475649524154289 0.00026132207904053982 0 0.0085175333482978201 0.00013037186727718947 0 0.0084475649524154289 0.00026132207904053982 0 0.0085535522941500523 0.00029544844881406064 0 0.008300271928603024 0.0003134542003090138 0 0.0084475649524154289 0.00026132207904053982 0 0.0086416593368629675 0.00038669527114282439 0 0.0084475649524154289 0.00026132207904053982 0 0.0086416593368629675 0.00038669527114282439 0 0.0085535522941500523 0.00029544844881406064 0 0.0086416593368629675 0.00038669527114282439 0 0.0085535522941500523 0.00029544844881406064 0 0.0086646795519805444 0.00027252528633244259 0 0.0085535522941500523 0.00029544844881406064 0 0.0085217033556864875 0.00019814864170283886 0 0.0086646795519805444 0.00027252528633244259 0 0.0085535522941500523 0.00029544844881406064 0 0.0085039996463508391 0.00024843159308274759 0 0.0085217033556864875 0.00019814864170283886 0 0.0083746048007629272 0.00021268757283486548 0 0.0085039996463508391 0.00024843159308274759 0 0.0085217033556864875 0.00019814864170283886 0 0.0083746048007629272 0.00021268757283486548 0 0.0085039996463508391 0.00024843159308274759 0 0.0085180518580046174 0.00021383340397858168 0 0.0085175333482978201 0.00013037186727718947 0 0.0085039996463508391 0.00024843159308274759 0 0.0085180518580046174 0.00021383340397858168 0 0.0085175333482978201 0.00013037186727718947 0 0.0085535522941500523 0.00029544844881406064 0 0.0085039996463508391 0.00024843159308274759 0 0.0076102820731008512 -0.00043016013911147306 0 0.0076012512634001696 -0.00051309244511188034 0 0.0070381248350796528 -0.00072544875798295013 0 0.0071456490267898165 -0.0010291503793216435 0 0.0069363777337303799 -0.0011556758114138173 0 0.0070381248350796528 -0.00072544875798295013 0 0.0073485130395285064 -0.00075029400960265774 0 0.0071456490267898165 -0.0010291503793216435 0 0.0085180518580046174 0.00021383340397858168 0 0.0082077040313735614 0.00027490936864647255 0 0.0085380126925354034 0.00019157490983050238 0 0.0083746048007629272 0.00021268757283486548 0 0.0085180518580046174 0.00021383340397858168 0 0.0082077040313735614 0.00027490936864647255 0 0.0083746048007629272 0.00021268757283486548 0 0.0082077040313735614 0.00027490936864647255 0 0.008098868629923154 -3.135113160523444e-05 0 0.0070381248350796528 -0.00072544875798295013 0 0.0073485130395285064 -0.00075029400960265774 0 0.0074394108387505417 -0.00043535508894823144 0 0.0073485130395285064 -0.00075029400960265774 0 0.0075334044294168229 -0.00040188213394162266 0 0.0074394108387505417 -0.00043535508894823144 0 0.0073485130395285064 -0.00075029400960265774 0 0.0074157682412736067 -0.00077213484938373701 0 0.0075334044294168229 -0.00040188213394162266 0 0.0074157682412736067 -0.00077213484938373701 0 0.0074812087569544813 -0.00089677169189230873 0 0.0075334044294168229 -0.00040188213394162266 0 0.0096606118708780706 0.00021935950594452786 0 0.010515442538839105 0.00013316086244853011 0 0.0075205420084129256 -0.00093818899809592737 0 0.0074812087569544813 -0.00089677169189230873 0 0.0076272400582264805 -0.00096538840315786643 0 0.0075205420084129256 -0.00093818899809592737 0 0.0074812087569544813 -0.00089677169189230873 0 0.0075259927573447585 -0.00090446017313017897 0 0.0074812087569544813 -0.00089677169189230873 0 0.0072587682878868104 -0.0012868639921284489 0 0.0075259927573447585 -0.00090446017313017897 0 0.0074812087569544813 -0.00089677169189230873 0 0.0073017555949566673 -0.0010089663972015072 0 0.0072587682878868104 -0.0012868639921284489 0 0.0074157682412736067 -0.00077213484938373701 0 0.0074812087569544813 -0.00089677169189230873 0 0.0073017555949566673 -0.0010089663972015072 0 0.0073485130395285064 -0.00075029400960265774 0 0.0073017555949566673 -0.0010089663972015072 0 0.0071456490267898165 -0.0010291503793216435 0 0.0073485130395285064 -0.00075029400960265774 0 0.0074157682412736067 -0.00077213484938373701 0 0.0073017555949566673 -0.0010089663972015072 0 0.0071456490267898165 -0.0010291503793216435 0 0.0070841745007258032 -0.0012383539067371151 0 0.0070323550317744048 -0.0012084237404314387 0 0.0073017555949566673 -0.0010089663972015072 0 0.0071456490267898165 -0.0010291503793216435 0 0.0070841745007258032 -0.0012383539067371151 0 0.0070841745007258032 -0.0012383539067371151 0 0.0070220138656350174 -0.001302224614589989 0 0.0070323550317744048 -0.0012084237404314387 0 0.0073017555949566673 -0.0010089663972015072 0 0.0070841745007258032 -0.0012383539067371151 0 0.0072587682878868104 -0.0012868639921284489 0 0.0070841745007258032 -0.0012383539067371151 0 0.0072587682878868104 -0.0012868639921284489 0 0.0069088053086982983 -0.0014331641488766623 0 0.0069160673168357292 -0.0023046872125825502 0 0.0068878023693431691 -0.001919119607323052 0 0.0072587682878868104 -0.0012868639921284489 0 0.0069088053086982983 -0.0014331641488766623 0 0.0064924442475402418 -0.00150359978545631 0 0.0069088053086982983 -0.0014331641488766623 0 0.0070220138656350174 -0.001302224614589989 0 0.0070255307567362417 -0.0012247778068695655 0 0.0070841745007258032 -0.0012383539067371151 0 0.0069088053086982983 -0.0014331641488766623 0 0.0070220138656350174 -0.001302224614589989 0 0.0070220138656350174 -0.001302224614589989 0 0.0070323550317744048 -0.0012084237404314387 0 0.0070200301359490081 -0.0012550734715173033 0 0.0070220138656350174 -0.001302224614589989 0 0.0070200301359490081 -0.0012550734715173033 0 0.0070255307567362417 -0.0012247778068695655 0 0.0071456490267898165 -0.0010291503793216435 0 0.0070323550317744048 -0.0012084237404314387 0 0.0069363777337303799 -0.0011556758114138173 0 0.0070323550317744048 -0.0012084237404314387 0 0.0069363777337303799 -0.0011556758114138173 0 0.0070200301359490081 -0.0012550734715173033 0 0.0085876832835163775 3.5597245943291386e-05 0 0.0085180518580046174 0.00021383340397858168 0 0.0085380126925354034 0.00019157490983050238 0 0.0085876832835163775 3.5597245943291386e-05 0 0.0085380126925354034 0.00019157490983050238 0 0.0087208092617324599 -8.076097512073014e-05 0 0.0076012512634001696 -0.00051309244511188034 0 0.007518096690806983 -0.00062224661241382703 0 0.007518096690806983 -0.00062224661241382703 0 0.0072497277060037026 -0.00074887274651363534 0 0.008669267318298984 -0.00027475632138469958 0 0.0087208092617324599 -8.076097512073014e-05 0 0.0087430486456521236 -0.00037211955707222707 0 0.0070200301359490081 -0.0012550734715173033 0 0.0070387639213116242 -0.0011919162339305829 0 0.007057298831699632 -0.0011976310620131314 0 0.0070200301359490081 -0.0012550734715173033 0 0.0070387639213116242 -0.0011919162339305829 0 0.0070255307567362417 -0.0012247778068695655 0 0.0082251450616358177 -0.00090061342275398002 0 0.0088527524763314901 -0.0004324156130475697 0 0.0082009291158050401 4.1438670336250001e-05 0 0.0082251450616358177 -0.00090061342275398002 0 0.0082009291158050401 4.1438670336250001e-05 0 0.0075405987505760275 -0.00043206348291238743 0 0.0074073093833488908 -0.00084587671395288451 0 0.0072497277060037026 -0.00074887274651363534 0 0.0095708053088616098 -0.00011307306574241004 0 0.0088527524763314901 -0.0004324156130475697 0 0.0082009291158050401 4.1438670336250001e-05 0 0.0082251450616358177 -0.00090061342275398002 0 0.0094082610801993118 -0.0007564077084349657 0 0.0088527524763314901 -0.0004324156130475697 0 0.0095708053088616098 -0.00011307306574241004 0 0.0094082610801993118 -0.0007564077084349657 0 0.0088527524763314901 -0.0004324156130475697 0 0.0060285027574527184 -0.001237172402616542 0 0.0072497277060037026 -0.00074887274651363534 0 0.00063324242914158089 0.00023364540589095842 0 0.00052005289051669816 0.00035366576725254743 0 0.00036872534577194285 0.00027222583301388581 0 0.0060285027574527184 -0.001237172402616542 0 0.0044630058587279697 -0.00043553519112505683 0 0.00068031462672579616 0.00043778697382349169 0 0.00063324242914158089 0.00023364540589095842 0 0.00052005289051669816 0.00035366576725254743 0 0.00052005289051669816 0.00035366576725254743 0 0.00039491979618149858 0.00038548624981183364 0 0.00048583362798676466 0.0004280526005624116 0 0.00036872534577194285 0.00027222583301388581 0 0.00039491979618149858 0.00038548624981183364 0 0.00026486306734181827 0.00039636959795410489 0 0.00052005289051669816 0.00035366576725254743 0 0.00036872534577194285 0.00027222583301388581 0 0.00039491979618149858 0.00038548624981183364 0 0.00039491979618149858 0.00038548624981183364 0 0.00030311629700362843 0.00048887561940919467 0 0.00041653771814787713 0.00047442282174056942 0 0.00039491979618149858 0.00038548624981183364 0 0.00041653771814787713 0.00047442282174056942 0 0.00048583362798676466 0.0004280526005624116 0 0.00039491979618149858 0.00038548624981183364 0 0.00030311629700362843 0.00048887561940919467 0 0.00026486306734181827 0.00039636959795410489 0 0.0003897908840649451 0.00056671148414689772 0 0.00030311629700362843 0.00048887561940919467 0 0.00041653771814787713 0.00047442282174056942 0 0.0003897908840649451 0.00056671148414689772 0 0.00041653771814787713 0.00047442282174056942 0 0.00050066467433204252 0.00050892019569180093 0 0.00041653771814787713 0.00047442282174056942 0 0.00050066467433204252 0.00050892019569180093 0 0.00048583362798676466 0.0004280526005624116 0 0.00050066467433204252 0.00050892019569180093 0 0.00058295588315399115 0.00052992990207096095 0 0.00057855417775135368 0.00044708238225975685 0 0.00068031462672579616 0.00043778697382349169 0 0.00052005289051669816 0.00035366576725254743 0 0.00057855417775135368 0.00044708238225975685 0 0.00052005289051669816 0.00035366576725254743 0 0.00057855417775135368 0.00044708238225975685 0 0.00048583362798676466 0.0004280526005624116 0 0.00050066467433204252 0.00050892019569180093 0 0.00057855417775135368 0.00044708238225975685 0 0.00048583362798676466 0.0004280526005624116 0 9.7258617908225356e-05 0.00051799901295958371 0 0.0001686415740127158 0.00045462988553231719 0 8.4734530202563242e-05 0.00043224180893692567 0 4.4180713683211982e-05 0.00050550959065403752 0 9.7258617908225356e-05 0.00051799901295958371 0 8.4734530202563242e-05 0.00043224180893692567 0 4.4180713683211982e-05 0.00050550959065403752 0 8.4734530202563242e-05 0.00043224180893692567 0 9.2919023965690065e-05 0.00046107372795468134 0 -1.2359851676460138e-06 0.00060033536346480103 0 4.4180713683211982e-05 0.00050550959065403752 0 9.7258617908225356e-05 0.00051799901295958371 0 9.7258617908225356e-05 0.00051799901295958371 0 0.00019053782603097692 0.00054405170260402762 0 0.0001686415740127158 0.00045462988553231719 0 0.00030311629700362843 0.00048887561940919467 0 0.00019053782603097692 0.00054405170260402762 0 0.0001686415740127158 0.00045462988553231719 0 0.00028068612694314012 0.00059870393688178593 0 0.00030311629700362843 0.00048887561940919467 0 0.00019053782603097692 0.00054405170260402762 0 0.00030311629700362843 0.00048887561940919467 0 0.0001686415740127158 0.00045462988553231719 0 0.00026486306734181827 0.00039636959795410489 0 0.0001686415740127158 0.00045462988553231719 0 0.00026486306734181827 0.00039636959795410489 0 0.00010821882032111547 0.00037480135289733198 0 0.00036872534577194285 0.00027222583301388581 0 0.00026486306734181827 0.00039636959795410489 0 0.00010821882032111547 0.00037480135289733198 0 0.0082009291158050401 4.1438670336250001e-05 0 0.0067987678667787476 0.00025301349528563538 0 0.0075405987505760275 -0.00043206348291238743 0 0.0044630058587279697 -0.00043553519112505683 0 0.0035104459584322763 1.0850980403129177e-05 0 0.0067987678667787476 0.00025301349528563538 0 0.0057918701330855211 -0.00016880368846156928 0 0.0052117825473954917 0.00058196813934591511 0 0.00010821882032111547 0.00037480135289733198 0 8.4734530202563242e-05 0.00043224180893692567 0 0.0001559907796426152 0.00054669699781809784 0 0.0035104459584322763 1.0850980403129177e-05 0 0.0027480766450609308 0.00028017679234636087 0 0.0001686415740127158 0.00045462988553231719 0 0.00010821882032111547 0.00037480135289733198 0 8.4734530202563242e-05 0.00043224180893692567 0 0.0067987678667787476 0.00025301349528563538 0 0.0057918701330855211 -0.00016880368846156928 0 0.0063193673704178251 -0.00078139974244784518 0 0.0067987678667787476 0.00025301349528563538 0 0.0063193673704178251 -0.00078139974244784518 0 0.0069367431086388813 -0.0010909054260579655 0 0.0057918701330855211 -0.00016880368846156928 0 0.0063193673704178251 -0.00078139974244784518 0 0.0054145816691734353 -0.0007409131333353155 0 0.0082251450616358177 -0.00090061342275398002 0 0.0075405987505760275 -0.00043206348291238743 0 0.0069367431086388813 -0.0010909054260579655 0 0.0067987678667787476 0.00025301349528563538 0 0.0075405987505760275 -0.00043206348291238743 0 0.0069367431086388813 -0.0010909054260579655 0 0.0074073093833488908 -0.00084587671395288451 0 0.0072629492841624821 -0.00089414467344358956 0 0.0070387639213116242 -0.0011919162339305829 0 0.0069367431086388813 -0.0010909054260579655 0 0.0070255307567362417 -0.0012247778068695655 0 0.0069088053086982983 -0.0014331641488766623 0 0.0069367431086388813 -0.0010909054260579655 0 0.0070255307567362417 -0.0012247778068695655 0 0.0069088053086982983 -0.0014331641488766623 0 0.0069367431086388813 -0.0010909054260579655 0 0.0064924442475402418 -0.00150359978545631 0 0.0063193673704178251 -0.00078139974244784518 0 0.0064924442475402418 -0.00150359978545631 0 0.0054145816691734353 -0.0007409131333353155 0 0.0063193673704178251 -0.00078139974244784518 0 0.0069367431086388813 -0.0010909054260579655 0 0.0064924442475402418 -0.00150359978545631 0 0.0064924442475402418 -0.00150359978545631 0 0.0049977433035201793 -0.001532534485194769 0 0.0054145816691734353 -0.0007409131333353155 0 0.0049977433035201793 -0.001532534485194769 0 0.0040571150804572719 -0.0012407699910279178 0 0.0054145816691734353 -0.0007409131333353155 0 0.0064924442475402418 -0.00150359978545631 0 0.0049977433035201793 -0.001532534485194769 0 0.0048905191399425544 -0.0026783896901730895 0 0.0040571150804572719 -0.0012407699910279178 0 0.003380267676879445 -0.00059747856628021654 0 0.0028303238090396387 -0.0018917636748358086 0 0.0039355200946409527 -0.0021689570779955623 0 0.0040571150804572719 -0.0012407699910279178 0 0.0028303238090396387 -0.0018917636748358086 0 0.0049977433035201793 -0.001532534485194769 0 0.0039355200946409527 -0.0021689570779955623 0 0.0040571150804572719 -0.0012407699910279178 0 0.0049977433035201793 -0.001532534485194769 0 0.0039355200946409527 -0.0021689570779955623 0 0.0048905191399425544 -0.0026783896901730895 0 0.0043248626184645466 -0.0003088330850586846 0 0.003380267676879445 -0.00059747856628021654 0 0.00322428490316081 0.00067554579782727684 0 0.0040571150804572719 -0.0012407699910279178 0 0.0043248626184645466 -0.0003088330850586846 0 0.0054145816691734353 -0.0007409131333353155 0 0.0040571150804572719 -0.0012407699910279178 0 0.0043248626184645466 -0.0003088330850586846 0 0.003380267676879445 -0.00059747856628021654 0 0.0043248626184645466 -0.0003088330850586846 0 0.0051197159731062982 -0.00010494236934857709 0 0.0044723914565593268 0.00020966054085569752 0 0.0043248626184645466 -0.0003088330850586846 0 0.0054145816691734353 -0.0007409131333353155 0 0.0051197159731062982 -0.00010494236934857709 0 0.0057918701330855211 -0.00016880368846156928 0 0.0054145816691734353 -0.0007409131333353155 0 0.0051197159731062982 -0.00010494236934857709 0 0.0057918701330855211 -0.00016880368846156928 0 0.0051197159731062982 -0.00010494236934857709 0 0.0052117825473954917 0.00058196813934591511 0 8.4734530202563242e-05 0.00043224180893692567 0 9.2919023965690065e-05 0.00046107372795468134 0 0.0001559907796426152 0.00054669699781809784 0 9.2919023965690065e-05 0.00046107372795468134 0 0.0001559907796426152 0.00054669699781809784 0 0.00046374876018149966 0.00046391273855594397 0 0.0051197159731062982 -0.00010494236934857709 0 0.0052117825473954917 0.00058196813934591511 0 0.0044723914565593268 0.00020966054085569752 0 0.0052117825473954917 0.00058196813934591511 0 0.0044723914565593268 0.00020966054085569752 0 0.00322428490316081 0.00067554579782727684 0 0.0043248626184645466 -0.0003088330850586846 0 0.0044723914565593268 0.00020966054085569752 0 0.00322428490316081 0.00067554579782727684 0 0.0027480766450609308 0.00028017679234636087 0 0.0021092229564751313 0.00041287246356062912 0 0.0001559907796426152 0.00054669699781809784 0 0.00046374876018149966 0.00046391273855594397 0 0.00077098253819059509 0.00056615146259328007 0 0.00074845065431696216 0.00032578687957333084 0 0.00046374876018149966 0.00046391273855594397 0 0.00077098253819059509 0.00056615146259328007 0 0.00012434841606126379 0.00056339824918417373 0 0.00015335129784160029 0.00057872078577834399 0 9.2919023965690065e-05 0.00046107372795468134 0 0.00074845065431696216 0.00032578687957333084 0 0.00046374876018149966 0.00046391273855594397 0 9.2919023965690065e-05 0.00046107372795468134 0 -0.00028216765240709839 0.00057311972883246083 0 -7.3342619292850593e-05 0.00057583708582902157 0 4.4180713683211982e-05 0.00050550959065403752 0 9.2919023965690065e-05 0.00046107372795468134 0 -7.3342619292850593e-05 0.00057583708582902157 0 -1.2359851676460138e-06 0.00060033536346480103 0 4.4180713683211982e-05 0.00050550959065403752 0 -7.3342619292850593e-05 0.00057583708582902157 0 0.0004285837586297897 0.00053281354625682789 0 0.00088316991267136887 0.000420130853534208 0 0.0010492330254891823 0.00039225864958795042 0 0.00074845065431696216 0.00032578687957333084 0 0.00088316991267136887 0.000420130853534208 0 0.00077098253819059509 0.00056615146259328007 0 0.00322428490316081 0.00067554579782727684 0 0.0010492330254891823 0.00039225864958795042 0 0.0023041197941175663 -0.0007615746483500929 0 0.00088316991267136887 0.000420130853534208 0 0.00077098253819059509 0.00056615146259328007 0 0.0010492330254891823 0.00039225864958795042 0 0.0021092229564751313 0.00041287246356062912 0 0.0017347791744693091 0.00044628803647468127 0 0.0010492330254891823 0.00039225864958795042 0 0.001187674735788391 -0.00092983335829378833 0 0.0023041197941175663 -0.0007615746483500929 0 0.001187674735788391 -0.00092983335829378833 0 0.0023041197941175663 -0.0007615746483500929 0 0.0020559542614547455 -0.0014472495737038193 0 0.003380267676879445 -0.00059747856628021654 0 0.00322428490316081 0.00067554579782727684 0 0.0023041197941175663 -0.0007615746483500929 0 0.003380267676879445 -0.00059747856628021654 0 0.0023041197941175663 -0.0007615746483500929 0 0.0028303238090396387 -0.0018917636748358086 0 0.0023041197941175663 -0.0007615746483500929 0 0.0028303238090396387 -0.0018917636748358086 0 0.0020559542614547455 -0.0014472495737038193 0 0.001187674735788391 -0.00092983335829378833 0 0.0020559542614547455 -0.0014472495737038193 0 0.001602894899490335 -0.0019666260564797614 0 0.0028303238090396387 -0.0018917636748358086 0 0.001602894899490335 -0.0019666260564797614 0 0.0022898889426875503 -0.0027412793354392351 0 0.00071063472446830905 -0.0019922742931817766 0 0.001187674735788391 -0.00092983335829378833 0 0.001602894899490335 -0.0019666260564797614 0 0.0028303238090396387 -0.0018917636748358086 0 0.0020559542614547455 -0.0014472495737038193 0 0.001602894899490335 -0.0019666260564797614 0 0.00071063472446830905 -0.0019922742931817766 0 0.001602894899490335 -0.0019666260564797614 0 0.0014522579980775156 -0.0027964689990662484 0 0.001602894899490335 -0.0019666260564797614 0 0.0022898889426875503 -0.0027412793354392351 0 0.0014522579980775156 -0.0027964689990662484 0 0.0022898889426875503 -0.0027412793354392351 0 0.0014522579980775156 -0.0027964689990662484 0 0.0021233086426493296 -0.0037865850742584166 0 0.0011789557133615916 -0.0037227229216132518 0 0.0021233086426493296 -0.0037865850742584166 0 0.0016812601595595669 -0.005282541744942932 0 0.0011789557133615916 -0.0037227229216132518 0 0.0014522579980775156 -0.0027964689990662484 0 0.0021233086426493296 -0.0037865850742584166 0 0.0022898889426875503 -0.0027412793354392351 0 0.0021233086426493296 -0.0037865850742584166 0 0.0034179785537713984 -0.0034013243222037106 0 0.0034179785537713984 -0.0034013243222037106 0 0.0040032713415600971 -0.0049195535511638681 0 0.0028550707065978348 -0.0047363251520368506 0 0.0021233086426493296 -0.0037865850742584166 0 0.0034179785537713984 -0.0034013243222037106 0 0.0028550707065978348 -0.0047363251520368506 0 0.0039355200946409527 -0.0021689570779955623 0 0.0028303238090396387 -0.0018917636748358086 0 0.0034179785537713984 -0.0034013243222037106 0 0.0028303238090396387 -0.0018917636748358086 0 0.0022898889426875503 -0.0027412793354392351 0 0.0034179785537713984 -0.0034013243222037106 0 0.0039355200946409527 -0.0021689570779955623 0 0.0034179785537713984 -0.0034013243222037106 0 0.0048905191399425544 -0.0026783896901730895 0 0.0059220645336453392 -0.0035875057316154704 0 0.0064924442475402418 -0.00150359978545631 0 0.0048905191399425544 -0.0026783896901730895 0 0.0059220645336453392 -0.0035875057316154704 0 0.0048905191399425544 -0.0026783896901730895 0 0.0049310387488110978 -0.0042729433159744649 0 0.0059220645336453392 -0.0035875057316154704 0 0.0049310387488110978 -0.0042729433159744649 0 0.0054889152277000849 -0.0052950925269783971 0 0.0034179785537713984 -0.0034013243222037106 0 0.0049310387488110978 -0.0042729433159744649 0 0.0040032713415600971 -0.0049195535511638681 0 0.0034179785537713984 -0.0034013243222037106 0 0.0048905191399425544 -0.0026783896901730895 0 0.0049310387488110978 -0.0042729433159744649 0 0.0049310387488110978 -0.0042729433159744649 0 0.0040032713415600971 -0.0049195535511638681 0 0.004742991646643515 -0.0050703744283977425 0 0.0040032713415600971 -0.0049195535511638681 0 0.004742991646643515 -0.0050703744283977425 0 0.0045401079206417675 -0.0057948442106788602 0 0.0069160673168357292 -0.0023046872125825502 0 0.0071211795611602138 -0.002711442770323317 0 0.0049310387488110978 -0.0042729433159744649 0 0.004742991646643515 -0.0050703744283977425 0 0.0054889152277000849 -0.0052950925269783971 0 0.004742991646643515 -0.0050703744283977425 0 0.0054889152277000849 -0.0052950925269783971 0 0.0045401079206417675 -0.0057948442106788602 0 0.0054889152277000849 -0.0052950925269783971 0 0.0045401079206417675 -0.0057948442106788602 0 0.0051556162669243758 -0.0070144428196181295 0 0.0075205420084129256 -0.00093818899809592737 0 0.0075259927573447585 -0.00090446017313017897 0 0.0074690612010249258 -0.00097817269425365958 0 0.0071211795611602138 -0.002711442770323317 0 0.0078866420135321261 -0.0017256003562404021 0 0.0073070069890068985 -0.0018752032932603119 0 0.0078866420135321261 -0.0017256003562404021 0 0.0040032713415600971 -0.0049195535511638681 0 0.0045401079206417675 -0.0057948442106788602 0 0.0034140927366917494 -0.00618003916929171 0 0.0045401079206417675 -0.0057948442106788602 0 0.0034140927366917494 -0.00618003916929171 0 0.0051556162669243758 -0.0070144428196181295 0 0.0073070069890068985 -0.0018752032932603119 0 0.006363109026422239 -0.0011368721616412884 0 0.010665153620510336 0.00043428992443229642 0 0.0095786509471026699 0.00095837369971515669 0 0.009880649014175286 -6.8106446910170764e-05 0 0.0089746285369662442 0.00034008218312222112 0 0.0095786509471026699 0.00095837369971515669 0 0.009880649014175286 -6.8106446910170764e-05 0 0.0021233086426493296 -0.0037865850742584166 0 0.0016812601595595669 -0.005282541744942932 0 0.0028550707065978348 -0.0047363251520368506 0 0.0040032713415600971 -0.0049195535511638681 0 0.0034140927366917494 -0.00618003916929171 0 0.0028550707065978348 -0.0047363251520368506 0 0.0034140927366917494 -0.00618003916929171 0 0.0016812601595595669 -0.005282541744942932 0 0.0028550707065978348 -0.0047363251520368506 0 0.010848261541023443 -0.00090355367610305253 0 0.0105849516689627 -0.00029537632745030643 0 0.011114481800290378 -0.00054201210462536168 0 0.010848261541023443 -0.00090355367610305253 0 0.010344795850366918 -0.00074344879284542556 0 0.0105849516689627 -0.00029537632745030643 0 0.010049025089023222 -4.7013344926990018e-05 0 0.010344795850366918 -0.00074344879284542556 0 0.0105849516689627 -0.00029537632745030643 0 0.0092559352207520137 0.00071499633346858008 0 0.01017500321169495 0.00010047114161922745 0 0.01017500321169495 0.00010047114161922745 0 0.01082216180641077 -0.00028352443973660206 0 0.010665153620510336 0.00043428992443229642 0 0.009880649014175286 -6.8106446910170764e-05 0 0.010782764840060927 -0.0004585067005853545 0 0.010782764840060927 -0.0004585067005853545 0 0.01170381595113448 -7.9103342053621841e-05 0 0.011656802488885284 -0.00032530670518989653 0 0.010665153620510336 0.00043428992443229642 0 0.010782764840060927 -0.0004585067005853545 0 0.01170381595113448 -7.9103342053621841e-05 0 0.0078866420135321261 -0.0017256003562404021 0 0.00795415712154399 -0.0016219758462184743 0 0.011693408937508641 -0.00013145806016640594 0 0.011656802488885284 -0.00032530670518989653 0 0.011901847061282471 -0.00056171231681360033 0 0.011656802488885284 -0.00032530670518989653 0 0.011901847061282471 -0.00056171231681360033 0 0.01165114994362512 -0.00078348177001808699 0 0.011901847061282471 -0.00056171231681360033 0 0.01165114994362512 -0.00078348177001808699 0 0.012126212055673491 -0.0010601430633998363 0 0.011114481800290378 -0.00054201210462536168 0 0.01165114994362512 -0.00078348177001808699 0 0.011287843412736576 -0.00086739765085478131 0 0.01165114994362512 -0.00078348177001808699 0 0.011287843412736576 -0.00086739765085478131 0 0.011332352301765198 -0.0012405671781294248 0 0.010848261541023443 -0.00090355367610305253 0 0.011114481800290378 -0.00054201210462536168 0 0.011287843412736576 -0.00086739765085478131 0 0.010782764840060927 -0.0004585067005853545 0 0.011656802488885284 -0.00032530670518989653 0 0.01165114994362512 -0.00078348177001808699 0 0.01082216180641077 -0.00028352443973660206 0 0.011135063841340935 -0.00045007691980688218 0 0.010848261541023443 -0.00090355367610305253 0 0.011287843412736576 -0.00086739765085478131 0 0.011332352301765198 -0.0012405671781294248 0 0.023343358085483205 -0.0023905581587843816 0 0.023106542165561302 -0.0022495133232498018 0 0.022951051758604738 -0.0025052238206047998 0 0.016390871856468127 -0.00041908138964974934 0 0.016687290949336825 -0.00094189813024151976 0 0.01165114994362512 -0.00078348177001808699 0 0.011332352301765198 -0.0012405671781294248 0 0.012126212055673491 -0.0010601430633998363 0 0.023106542165561302 -0.0022495133232498018 0 0.023397344741782639 -0.0021598393933459697 0 0.023013883137881393 -0.001970664936266063 0 0.023343358085483205 -0.0023905581587843816 0 0.023106542165561302 -0.0022495133232498018 0 0.023397344741782639 -0.0021598393933459697 0 0.023343358085483205 -0.0023905581587843816 0 0.023397344741782639 -0.0021598393933459697 0 0.023479620056942829 -0.0022119348597091438 0 0.023397344741782639 -0.0021598393933459697 0 0.02347911892169853 -0.0021241501825685276 0 0.023479620056942829 -0.0022119348597091438 0 0.010742514124717774 0.001811133356023455 0 0.01068494540045133 0.0012485691384494014 0 0.011016485607076132 0.0011616658116807672 0 0.023343358085483205 -0.0023905581587843816 0 0.023479620056942829 -0.0022119348597091438 0 0.023634352484062773 -0.0022660820620011251 0 0.02347911892169853 -0.0021241501825685276 0 0.023534943614150351 -0.0021709295745155005 0 0.023549670257913571 -0.00208413772466933 0 0.013738381284320075 0.00054982089197140095 0 0.01676598308285503 -0.00078402537302716085 0 0.010742514124717774 0.001811133356023455 0 0.011088750817795517 0.001118827088000349 0 0.011016485607076132 0.0011616658116807672 0 0.02347911892169853 -0.0021241501825685276 0 0.023534943614150351 -0.0021709295745155005 0 0.023479620056942829 -0.0022119348597091438 0 0.023534943614150351 -0.0021709295745155005 0 0.023634352484062773 -0.0022660820620011251 0 0.023549670257913571 -0.00208413772466933 0 0.023534943614150351 -0.0021709295745155005 0 0.023479620056942829 -0.0022119348597091438 0 0.023634352484062773 -0.0022660820620011251 0 0.010848261541023443 -0.00090355367610305253 0 0.011332352301765198 -0.0012405671781294248 0 0.010639826827540746 -0.0014290162450581886 0 0.016390871856468127 -0.00041908138964974934 0 0.013738381284320075 0.00054982089197140095 0 0.010848261541023443 -0.00090355367610305253 0 0.010344795850366918 -0.00074344879284542556 0 0.010639826827540746 -0.0014290162450581886 0 0.010130943265835435 0.0018116077169968907 0 0.010197509192868963 0.0020645740840056232 0 0.010486353154739588 0.0017166486718910461 0 0.011103670402487022 0.0008108059004302622 0 0.013738381284320075 0.00054982089197140095 0 0.010130943265835435 0.0018116077169968907 0 0.010325553341880365 0.0016562828842439962 0 0.010486353154739588 0.0017166486718910461 0 0.0099716213685440477 0.0015971631362964658 0 0.010540531890108378 0.0014926832873348194 0 0.01068494540045133 0.0012485691384494014 0 0.013087067538130713 0.00049231650891479021 0 0.013738381284320075 0.00054982089197140095 0 0.010325553341880365 0.0016562828842439962 0 0.010742514124717774 0.001811133356023455 0 0.010540531890108378 0.0014926832873348194 0 0.010742514124717774 0.001811133356023455 0 0.010540531890108378 0.0014926832873348194 0 0.01068494540045133 0.0012485691384494014 0 0.010464909024814976 0.00093366430939988739 0 0.010944260907248315 0.00095075310694880803 0 0.010888297104155731 0.00073249387851416275 0 0.010820078565877285 0.0012041141620541184 0 0.010464909024814976 0.00093366430939988739 0 0.010944260907248315 0.00095075310694880803 0 0.015749876998288188 -0.0014207432532225017 0 0.019393039228603012 -0.00090256926258452832 0 0.019393039228603012 -0.00090256926258452832 0 0.018875155150022173 -0.0013246037849056096 0 0.01676598308285503 -0.00078402537302716085 0 0.019628838458964647 -0.0022906396435633295 0 0.011088750817795517 0.001118827088000349 0 0.010944260907248315 0.00095075310694880803 0 0.011377554623906553 0.00051478146349643542 0 0.023549670257913571 -0.00208413772466933 0 0.023497237757461507 -0.0020487098489960997 0 0.023507428717260217 -0.0019427917434524013 0 0.02347911892169853 -0.0021241501825685276 0 0.023549670257913571 -0.00208413772466933 0 0.023497237757461507 -0.0020487098489960997 0 0.010820078565877285 0.0012041141620541184 0 0.011016485607076132 0.0011616658116807672 0 0.010944260907248315 0.00095075310694880803 0 0.011088750817795517 0.001118827088000349 0 0.011016485607076132 0.0011616658116807672 0 0.010944260907248315 0.00095075310694880803 0 0.015749876998288188 -0.0014207432532225017 0 0.015310432970866629 -0.0012740806948731815 0 0.023843265148306661 -0.0021806357091938822 0 0.024188313698415037 -0.0023045139704565378 0 0.024213566215766456 -0.0020398978307532719 0 0.010944260907248315 0.00095075310694880803 0 0.011377554623906553 0.00051478146349643542 0 0.010888297104155731 0.00073249387851416275 0 0.019628838458964647 -0.0022906396435633295 0 0.018875155150022173 -0.0013246037849056096 0 0.023843265148306661 -0.0021806357091938822 0 0.024213566215766456 -0.0020398978307532719 0 0.023998582002903994 -0.0018358783399898121 0 0.024492470248672925 -0.002418925890978973 0 0.024188313698415037 -0.0023045139704565378 0 0.024493211094971157 -0.0020808260441420997 0 0.024188313698415037 -0.0023045139704565378 0 0.024213566215766456 -0.0020398978307532719 0 0.024493211094971157 -0.0020808260441420997 0 0.024213566215766456 -0.0020398978307532719 0 0.024493211094971157 -0.0020808260441420997 0 0.024375563045210484 -0.0017839772876307555 0 0.024213566215766456 -0.0020398978307532719 0 0.024375563045210484 -0.0017839772876307555 0 0.023998582002903994 -0.0018358783399898121 0 0.023998582002903994 -0.0018358783399898121 0 0.024099151114865221 -0.0015107457137681194 0 0.023631294236116939 -0.0016679075032508927 0 0.023843265148306661 -0.0021806357091938822 0 0.023998582002903994 -0.0018358783399898121 0 0.023631294236116939 -0.0016679075032508927 0 0.024375563045210484 -0.0017839772876307555 0 0.023998582002903994 -0.0018358783399898121 0 0.024099151114865221 -0.0015107457137681194 0 0.024099151114865221 -0.0015107457137681194 0 0.02383268814814905 -0.0012678930190483037 0 0.023631294236116939 -0.0016679075032508927 0 0.024099151114865221 -0.0015107457137681194 0 0.02383268814814905 -0.0012678930190483037 0 0.024526535363261388 -0.0011047278886683783 0 0.024972058173783684 -0.0013353563880825151 0 0.024375563045210484 -0.0017839772876307555 0 0.024526535363261388 -0.0011047278886683783 0 0.024375563045210484 -0.0017839772876307555 0 0.024099151114865221 -0.0015107457137681194 0 0.024526535363261388 -0.0011047278886683783 0 0.023391407365598114 -0.0014026770504049068 0 0.023321168915220798 -0.0016742242208779401 0 0.023141223050933364 -0.0014829195173916467 0 0.023391407365598114 -0.0014026770504049068 0 0.023631294236116939 -0.0016679075032508927 0 0.023321168915220798 -0.0016742242208779401 0 0.02407570871779308 -0.0012807478924962933 0 0.023783202624473102 -0.001332527230120951 0 0.02383268814814905 -0.0012678930190483037 0 0.023391407365598114 -0.0014026770504049068 0 0.023631294236116939 -0.0016679075032508927 0 0.019628838458964647 -0.0022906396435633295 0 0.020461609098346024 -0.0025524391919539225 0 0.023730496559160191 -0.0019941525884187798 0 0.023631294236116939 -0.0016679075032508927 0 0.02343876250674648 -0.0018621499704342206 0 0.023631294236116939 -0.0016679075032508927 0 0.023321168915220798 -0.0016742242208779401 0 0.02343876250674648 -0.0018621499704342206 0 0.023321168915220798 -0.0016742242208779401 0 0.023238297053968578 -0.0018939067214961819 0 0.02343876250674648 -0.0018621499704342206 0 0.023238297053968578 -0.0018939067214961819 0 0.023382787952242801 -0.0020094609238797828 0 0.023236043121044447 -0.0020954041434522765 0 0.023238297053968578 -0.0018939067214961819 0 0.02343876250674648 -0.0018621499704342206 0 0.023382787952242801 -0.0020094609238797828 0 0.019628838458964647 -0.0022906396435633295 0 0.020990407337807382 -0.0026167335730350092 0 0.023507428717260217 -0.0019427917434524013 0 0.02343876250674648 -0.0018621499704342206 0 0.023382787952242801 -0.0020094609238797828 0 0.023507428717260217 -0.0019427917434524013 0 0.023451432870876358 -0.002047099532808406 0 0.023382787952242801 -0.0020094609238797828 0 0.023397344741782639 -0.0021598393933459697 0 0.023451432870876358 -0.002047099532808406 0 0.023382787952242801 -0.0020094609238797828 0 0.023497237757461507 -0.0020487098489960997 0 0.023507428717260217 -0.0019427917434524013 0 0.023451432870876358 -0.002047099532808406 0 0.023397344741782639 -0.0021598393933459697 0 0.02347911892169853 -0.0021241501825685276 0 0.023451432870876358 -0.002047099532808406 0 0.02347911892169853 -0.0021241501825685276 0 0.023497237757461507 -0.0020487098489960997 0 0.023451432870876358 -0.002047099532808406 0 0.023397344741782639 -0.0021598393933459697 0 0.023382787952242801 -0.0020094609238797828 0 0.023236043121044447 -0.0020954041434522765 0 0.0232237198509988 -0.0020972297585836498 0 0.023073510119344082 -0.0020246542050564079 0 0.023073510119344082 -0.0020246542050564079 0 0.022800282079212284 -0.0018946048883250813 0 0.023013883137881393 -0.001970664936266063 0 0.022696922211922189 -0.0020481982029716748 0 0.022864780305882904 -0.0022431206532426556 0 0.023013883137881393 -0.001970664936266063 0 0.022696922211922189 -0.0020481982029716748 0 0.022681685057244109 -0.0018371970951857161 0 0.022696922211922189 -0.0020481982029716748 0 0.022681685057244109 -0.0018371970951857161 0 0.022513499049332798 -0.001915498425646205 0 0.023238297053968578 -0.0018939067214961819 0 0.022854361745206112 -0.0019620161588036621 0 0.02309358555806788 -0.001699196046152013 0 0.023238297053968578 -0.0018939067214961819 0 0.023236043121044447 -0.0020954041434522765 0 0.022854361745206112 -0.0019620161588036621 0 0.023321168915220798 -0.0016742242208779401 0 0.023238297053968578 -0.0018939067214961819 0 0.02309358555806788 -0.001699196046152013 0 0.02309358555806788 -0.001699196046152013 0 0.02282263099115105 -0.0015154520720148457 0 0.023141223050933364 -0.0014829195173916467 0 0.023321168915220798 -0.0016742242208779401 0 0.02309358555806788 -0.001699196046152013 0 0.023141223050933364 -0.0014829195173916467 0 0.022854361745206112 -0.0019620161588036621 0 0.02309358555806788 -0.001699196046152013 0 0.02282263099115105 -0.0015154520720148457 0 0.02282263099115105 -0.0015154520720148457 0 0.023141223050933364 -0.0014829195173916467 0 0.023095826934482915 -0.0011707298569319801 0 0.023391407365598114 -0.0014026770504049068 0 0.023141223050933364 -0.0014829195173916467 0 0.023095826934482915 -0.0011707298569319801 0 0.022507378756662283 -0.0014319980536646004 0 0.022293584072185776 -0.0015583335037632608 0 0.022353371161203204 -0.001278727846432975 0 0.022293584072185776 -0.0015583335037632608 0 0.02205829548353315 -0.0014739098218571366 0 0.022353371161203204 -0.001278727846432975 0 0.02282263099115105 -0.0015154520720148457 0 0.022507378756662283 -0.0014319980536646004 0 0.022669109591461185 -0.0010560731917102181 0 0.022854361745206112 -0.0019620161588036621 0 0.02282263099115105 -0.0015154520720148457 0 0.022419263868469486 -0.0017216199470968339 0 0.02282263099115105 -0.0015154520720148457 0 0.022507378756662283 -0.0014319980536646004 0 0.022419263868469486 -0.0017216199470968339 0 0.022507378756662283 -0.0014319980536646004 0 0.022419263868469486 -0.0017216199470968339 0 0.022293584072185776 -0.0015583335037632608 0 0.022419263868469486 -0.0017216199470968339 0 0.022293584072185776 -0.0015583335037632608 0 0.022243117496511977 -0.0017779726337205182 0 0.022165855330386848 -0.0013293767722483538 0 0.022313428799278379 -0.0016969214765896064 0 0.021964961296192027 -0.00090702663570540467 0 0.022241464445226278 -0.0015997789322654303 0 0.021854784309291091 -0.0012519766830208334 0 0.022243117496511977 -0.0017779726337205182 0 0.022392430268207791 -0.0018543972783012339 0 0.022385255255400711 -0.0020000300459784219 0 0.022419263868469486 -0.0017216199470968339 0 0.022243117496511977 -0.0017779726337205182 0 0.022392430268207791 -0.0018543972783012339 0 0.022800282079212284 -0.0018946048883250813 0 0.022631277423516657 -0.0018109937288039043 0 0.022681685057244109 -0.0018371970951857161 0 0.022419263868469486 -0.0017216199470968339 0 0.022513499049332798 -0.001915498425646205 0 0.022419263868469486 -0.0017216199470968339 0 0.022392430268207791 -0.0018543972783012339 0 0.022513499049332798 -0.001915498425646205 0 0.022696922211922189 -0.0020481982029716748 0 0.022513499049332798 -0.001915498425646205 0 0.022528655128776592 -0.0020702241531690207 0 0.022392430268207791 -0.0018543972783012339 0 0.022513499049332798 -0.001915498425646205 0 0.022385255255400711 -0.0020000300459784219 0 0.022513499049332798 -0.001915498425646205 0 0.022528655128776592 -0.0020702241531690207 0 0.022385255255400711 -0.0020000300459784219 0 0.021905168102275781 -0.0015390202340132204 0 0.022241464445226278 -0.0015997789322654303 0 0.02232110402548498 -0.0022539412523745334 0 0.021905168102275781 -0.0015390202340132204 0 0.022241464445226278 -0.0015997789322654303 0 0.021854784309291091 -0.0012519766830208334 0 0.021905168102275781 -0.0015390202340132204 0 0.022166498584895025 -0.0021578173958209453 0 0.021798523575065183 -0.0020127148970928168 0 0.019993652251422401 -0.0029155647740236874 0 0.019158648833142826 -0.0031656080755260571 0 0.022166498584895025 -0.0021578173958209453 0 0.021952690655119522 -0.0023821922370638811 0 0.021798523575065183 -0.0020127148970928168 0 0.019158648833142826 -0.0031656080755260571 0 0.01433611538976659 -0.0014972362262061819 0 0.02232110402548498 -0.0022539412523745334 0 0.02251563449034532 -0.0024695947284549 0 0.022578110670904119 -0.0026232476536045424 0 0.022166498584895025 -0.0021578173958209453 0 0.021952690655119522 -0.0023821922370638811 0 0.022402610118707561 -0.0025902713256033701 0 0.022524549573909241 -0.0024051672814541735 0 0.02258167775131973 -0.002312246365597753 0 0.022630268182939808 -0.0024954697507573219 0 0.022524549573909241 -0.0024051672814541735 0 0.02251563449034532 -0.0024695947284549 0 0.022469513952986662 -0.0023365576114430021 0 0.022524549573909241 -0.0024051672814541735 0 0.02251563449034532 -0.0024695947284549 0 0.022630268182939808 -0.0024954697507573219 0 0.02232110402548498 -0.0022539412523745334 0 0.02251563449034532 -0.0024695947284549 0 0.022469513952986662 -0.0023365576114430021 0 0.022469513952986662 -0.0023365576114430021 0 0.022501814872820932 -0.0023141062943950832 0 0.022489365736954793 -0.0022373160246727322 0 0.022501814872820932 -0.0023141062943950832 0 0.02258167775131973 -0.002312246365597753 0 0.022489365736954793 -0.0022373160246727322 0 0.022524549573909241 -0.0024051672814541735 0 0.022469513952986662 -0.0023365576114430021 0 0.022501814872820932 -0.0023141062943950832 0 0.022524549573909241 -0.0024051672814541735 0 0.022501814872820932 -0.0023141062943950832 0 0.02258167775131973 -0.002312246365597753 0 0.022313428799278379 -0.0016969214765896064 0 0.022403228333127197 -0.0019005943627923348 0 0.022528655128776592 -0.0020702241531690207 0 0.022385255255400711 -0.0020000300459784219 0 0.022489365736954793 -0.0022373160246727322 0 0.02258167775131973 -0.002312246365597753 0 0.022489365736954793 -0.0022373160246727322 0 0.022642821002149569 -0.0022063086501858441 0 0.022241464445226278 -0.0015997789322654303 0 0.02232110402548498 -0.0022539412523745334 0 0.022489365736954793 -0.0022373160246727322 0 0.02232110402548498 -0.0022539412523745334 0 0.022469513952986662 -0.0023365576114430021 0 0.022489365736954793 -0.0022373160246727322 0 0.022528655128776592 -0.0020702241531690207 0 0.022489365736954793 -0.0022373160246727322 0 0.022642821002149569 -0.0022063086501858441 0 0.022642821002149569 -0.0022063086501858441 0 0.022864780305882904 -0.0022431206532426556 0 0.022725193915806397 -0.0023441787457023147 0 0.022696922211922189 -0.0020481982029716748 0 0.022642821002149569 -0.0022063086501858441 0 0.022864780305882904 -0.0022431206532426556 0 0.022696922211922189 -0.0020481982029716748 0 0.022528655128776592 -0.0020702241531690207 0 0.022642821002149569 -0.0022063086501858441 0 0.02258167775131973 -0.002312246365597753 0 0.022642821002149569 -0.0022063086501858441 0 0.022725193915806397 -0.0023441787457023147 0 0.023106542165561302 -0.0022495133232498018 0 0.023013883137881393 -0.001970664936266063 0 0.022864780305882904 -0.0022431206532426556 0 0.023106542165561302 -0.0022495133232498018 0 0.022864780305882904 -0.0022431206532426556 0 0.022951051758604738 -0.0025052238206047998 0 0.022864780305882904 -0.0022431206532426556 0 0.022951051758604738 -0.0025052238206047998 0 0.022725193915806397 -0.0023441787457023147 0 0.022951051758604738 -0.0025052238206047998 0 0.022725193915806397 -0.0023441787457023147 0 0.022630268182939808 -0.0024954697507573219 0 0.02258167775131973 -0.002312246365597753 0 0.022725193915806397 -0.0023441787457023147 0 0.022630268182939808 -0.0024954697507573219 0 0.022951051758604738 -0.0025052238206047998 0 0.022630268182939808 -0.0024954697507573219 0 0.022578110670904119 -0.0026232476536045424 0 0.012126212055673491 -0.0010601430633998363 0 0.012361325831476689 -0.00047931312341107979 0 0.013049325982996417 -0.00080856487264295432 0 0.010465722256615861 -0.0012628781967775518 0 0.01433611538976659 -0.0014972362262061819 0 0.016687290949336825 -0.00094189813024151976 0 0.01433611538976659 -0.0014972362262061819 0 0.011901847061282471 -0.00056171231681360033 0 0.012126212055673491 -0.0010601430633998363 0 0.012361325831476689 -0.00047931312341107979 0 0.011693408937508641 -0.00013145806016640594 0 0.011901847061282471 -0.00056171231681360033 0 0.012361325831476689 -0.00047931312341107979 0 0.0074690612010249258 -0.00097817269425365958 0 0.0075805102901377389 -0.0010637356743428989 0 0.0075445748142762637 -0.00098668949993678751 0 0.0078866420135321261 -0.0017256003562404021 0 0.010465722256615861 -0.0012628781967775518 0 0.0075805102901377389 -0.0010637356743428989 0 0.0075445748142762637 -0.00098668949993678751 0 0.0076272400582264805 -0.00096538840315786643 0 0.0075205420084129256 -0.00093818899809592737 0 0.0075445748142762637 -0.00098668949993678751 0 0.0076272400582264805 -0.00096538840315786643 0 0.0075205420084129256 -0.00093818899809592737 0 0.0074690612010249258 -0.00097817269425365958 0 0.0075445748142762637 -0.00098668949993678751 0 0.0075805102901377389 -0.0010637356743428989 0 0.0076272400582264805 -0.00096538840315786643 0 0.0077862555464687658 -0.0011559012493923574 0 0.010515442538839105 0.00013316086244853011 0 0.01433611538976659 -0.0014972362262061819 0 0.0075677623231439929 -0.00027746559088338759 0 0.0075334044294168229 -0.00040188213394162266 0 0.0076401650843200223 -0.00020468601906257485 0 0.0075677623231439929 -0.00027746559088338759 0 0.0075334044294168229 -0.00040188213394162266 0 0.0074394108387505417 -0.00043535508894823144 0 0.0075677623231439929 -0.00027746559088338759 0 0.0074394108387505417 -0.00043535508894823144 0 0.0076470091254404234 -0.00014640722308033777 0 0.0082077040313735614 0.00027490936864647255 0 0.0076470091254404234 -0.00014640722308033777 0 0.008098868629923154 -3.135113160523444e-05 0 0.0076102820731008512 -0.00043016013911147306 0 0.0076075733787640994 -0.00041126904054678205 0 0.0070381248350796528 -0.00072544875798295013 0 0.0074394108387505417 -0.00043535508894823144 0 0.0076470091254404234 -0.00014640722308033777 0 0.0075677623231439929 -0.00027746559088338759 0 0.0076470091254404234 -0.00014640722308033777 0 0.0076290382567544253 -0.00021410625500657373 0 0.0076470091254404234 -0.00014640722308033777 0 0.008098868629923154 -3.135113160523444e-05 0 0.0077675438061063284 -0.00023873109808057177 0 0.0083746048007629272 0.00021268757283486548 0 0.008098868629923154 -3.135113160523444e-05 0 0.0083419025184691166 3.5519737479286715e-05 0 0.008098868629923154 -3.135113160523444e-05 0 0.0082341793918830342 -0.00011647004458019431 0 0.0080331173247306549 -0.00022945836399971837 0 0.008098868629923154 -3.135113160523444e-05 0 0.0080331173247306549 -0.00022945836399971837 0 0.0077675438061063284 -0.00023873109808057177 0 0.008098868629923154 -3.135113160523444e-05 0 0.0082341793918830342 -0.00011647004458019431 0 0.0083419025184691166 3.5519737479286715e-05 0 0.0082042705608684919 -0.00029781631233483352 0 0.0082341793918830342 -0.00011647004458019431 0 0.0080331173247306549 -0.00022945836399971837 0 0.014820796279025645 -0.0014080979698915775 0 0.01433611538976659 -0.0014972362262061819 0 0.0080331173247306549 -0.00022945836399971837 0 0.0076306034785337427 -0.00030879973440054006 0 0.0077675438061063284 -0.00023873109808057177 0 0.0082042705608684919 -0.00029781631233483352 0 0.0080331173247306549 -0.00022945836399971837 0 0.0076306034785337427 -0.00030879973440054006 0 0.02251563449034532 -0.0024695947284549 0 0.022630268182939808 -0.0024954697507573219 0 0.022578110670904119 -0.0026232476536045424 0 0.01433611538976659 -0.0014972362262061819 0 0.01379250759892426 -0.0015799974633558657 0 0.0075677623231439929 -0.00027746559088338759 0 0.0076401650843200223 -0.00020468601906257485 0 0.0076290382567544253 -0.00021410625500657373 0 0.0076470091254404234 -0.00014640722308033777 0 0.0076290382567544253 -0.00021410625500657373 0 0.0077675438061063284 -0.00023873109808057177 0 0.0076401650843200223 -0.00020468601906257485 0 0.0076290382567544253 -0.00021410625500657373 0 0.0077675438061063284 -0.00023873109808057177 0 0.0084495311827507691 -5.534042991830405e-05 0 0.0085217033556864875 0.00019814864170283886 0 0.0086715644654852438 9.8815601074956309e-05 0 0.0082042705608684919 -0.00029781631233483352 0 0.0082341793918830342 -0.00011647004458019431 0 0.0084495311827507691 -5.534042991830405e-05 0 0.0082341793918830342 -0.00011647004458019431 0 0.0084495311827507691 -5.534042991830405e-05 0 0.0083419025184691166 3.5519737479286715e-05 0 0.0084495311827507691 -5.534042991830405e-05 0 0.0083419025184691166 3.5519737479286715e-05 0 0.0085217033556864875 0.00019814864170283886 0 0.0083746048007629272 0.00021268757283486548 0 0.0083419025184691166 3.5519737479286715e-05 0 0.0085217033556864875 0.00019814864170283886 0 0.0085217033556864875 0.00019814864170283886 0 0.0086646795519805444 0.00027252528633244259 0 0.0086715644654852438 9.8815601074956309e-05 0 0.0086416593368629675 0.00038669527114282439 0 0.0088889813300967145 0.00028073545319592908 0 0.0091383616481383878 0.00039172759024818851 0 0.0086416593368629675 0.00038669527114282439 0 0.0086646795519805444 0.00027252528633244259 0 0.0088889813300967145 0.00028073545319592908 0 0.0088889813300967145 0.00028073545319592908 0 0.0089181615108976705 -2.2201797289987462e-07 0 0.0092591532339231022 0.000181473593706771 0 0.0088889813300967145 0.00028073545319592908 0 0.0086715644654852438 9.8815601074956309e-05 0 0.0089181615108976705 -2.2201797289987462e-07 0 0.0086646795519805444 0.00027252528633244259 0 0.0088889813300967145 0.00028073545319592908 0 0.0086715644654852438 9.8815601074956309e-05 0 0.0086715644654852438 9.8815601074956309e-05 0 0.0089181615108976705 -2.2201797289987462e-07 0 0.0085447815865471576 -0.00027167915575754454 0 0.0089181615108976705 -2.2201797289987462e-07 0 0.0092630843339389923 -8.975299475482722e-05 0 0.0092591532339231022 0.000181473593706771 0 0.0089968134972452773 -0.00043917267339203158 0 0.0092630843339389923 -8.975299475482722e-05 0 0.0096059345819970096 -0.00028725682233769555 0 0.0089181615108976705 -2.2201797289987462e-07 0 0.0089968134972452773 -0.00043917267339203158 0 0.0092630843339389923 -8.975299475482722e-05 0 0.014769477362987546 -0.0010639516288118082 0 0.014841383149390356 -0.0012403816488190304 0 0.0089181615108976705 -2.2201797289987462e-07 0 0.0089968134972452773 -0.00043917267339203158 0 0.0085447815865471576 -0.00027167915575754454 0 0.020467308047101788 -0.0018985937226046459 0 0.021305436010043605 -0.0021624296480977673 0 0.021037418891821546 -0.0016958035204319248 0 0.021305436010043605 -0.0021624296480977673 0 0.021496594661829901 -0.0016990375575087558 0 0.021037418891821546 -0.0016958035204319248 0 0.0084495311827507691 -5.534042991830405e-05 0 0.0086715644654852438 9.8815601074956309e-05 0 0.0085447815865471576 -0.00027167915575754454 0 0.014820796279025645 -0.0014080979698915775 0 0.014841383149390356 -0.0012403816488190304 0 0.0082042705608684919 -0.00029781631233483352 0 0.0084495311827507691 -5.534042991830405e-05 0 0.0085447815865471576 -0.00027167915575754454 0 0.021952690655119522 -0.0023821922370638811 0 0.021305436010043605 -0.0021624296480977673 0 0.021798523575065183 -0.0020127148970928168 0 0.021305436010043605 -0.0021624296480977673 0 0.021798523575065183 -0.0020127148970928168 0 0.021496594661829901 -0.0016990375575087558 0 0.021905168102275781 -0.0015390202340132204 0 0.021798523575065183 -0.0020127148970928168 0 0.021496594661829901 -0.0016990375575087558 0 0.021905168102275781 -0.0015390202340132204 0 0.021496594661829901 -0.0016990375575087558 0 0.021607629504329699 -0.0012966241463552859 0 0.021905168102275781 -0.0015390202340132204 0 0.021854784309291091 -0.0012519766830208334 0 0.021607629504329699 -0.0012966241463552859 0 0.021496594661829901 -0.0016990375575087558 0 0.021037418891821546 -0.0016958035204319248 0 0.021195464840879058 -0.0012543971211492677 0 0.021496594661829901 -0.0016990375575087558 0 0.021195464840879058 -0.0012543971211492677 0 0.021607629504329699 -0.0012966241463552859 0 0.021037418891821546 -0.0016958035204319248 0 0.021195464840879058 -0.0012543971211492677 0 0.020734726258876023 -0.0013872828634826477 0 0.021195464840879058 -0.0012543971211492677 0 0.021607629504329699 -0.0012966241463552859 0 0.021564625054770286 -0.00092002221407320051 0 0.021195464840879058 -0.0012543971211492677 0 0.021564625054770286 -0.00092002221407320051 0 0.021176970675463064 -0.00079819490015194605 0 0.021195464840879058 -0.0012543971211492677 0 0.021176970675463064 -0.00079819490015194605 0 0.020692617987543373 -0.00091721557930755189 0 0.021854784309291091 -0.0012519766830208334 0 0.021607629504329699 -0.0012966241463552859 0 0.021564625054770286 -0.00092002221407320051 0 0.021964961296192027 -0.00090702663570540467 0 0.021854784309291091 -0.0012519766830208334 0 0.021564625054770286 -0.00092002221407320051 0 0.021964961296192027 -0.00090702663570540467 0 0.021578321528467288 -0.00040665945856689287 0 0.021678699382774676 -0.00026280590236832179 0 0.021964961296192027 -0.00090702663570540467 0 0.021564625054770286 -0.00092002221407320051 0 0.021578321528467288 -0.00040665945856689287 0 0.022293584072185776 -0.0015583335037632608 0 0.022243117496511977 -0.0017779726337205182 0 0.02205829548353315 -0.0014739098218571366 0 0.022165855330386848 -0.0013293767722483538 0 0.022102306720447322 -0.0010520621587779794 0 0.021578321528467288 -0.00040665945856689287 0 0.021176970675463064 -0.00079819490015194605 0 0.020797082903766213 -0.00040844989589506865 0 0.021289967834839444 -0.00048308153438974801 0 0.021080023966536132 -0.00050647822373391961 0 0.021564625054770286 -0.00092002221407320051 0 0.021578321528467288 -0.00040665945856689287 0 0.021176970675463064 -0.00079819490015194605 0 0.021578321528467288 -0.00040665945856689287 0 0.02162287964529953 -0.00041762827752639457 0 0.021913846849225517 -0.00037466415698124834 0 0.02179569141323218 -0.00053785420735861882 0 0.021558788540377797 -0.00046565047118618346 0 0.021788850352678638 -0.0006715272466439816 0 0.02162287964529953 -0.00041762827752639457 0 0.02179569141323218 -0.00053785420735861882 0 0.021913846849225517 -0.00037466415698124834 0 0.022102306720447322 -0.0010520621587779794 0 0.021998899309895223 -0.00081898527803077944 0 0.02162287964529953 -0.00041762827752639457 0 0.02179569141323218 -0.00053785420735861882 0 0.021558788540377797 -0.00046565047118618346 0 0.022334464730703614 -0.0011753362398953531 0 0.022413225112322407 -0.00091216702018964094 0 0.022593531465341442 -0.0010185251360486406 0 0.022102306720447322 -0.0010520621587779794 0 0.022419842328242678 -0.0010093281770934672 0 0.021578321528467288 -0.00040665945856689287 0 0.02162287964529953 -0.00041762827752639457 0 0.021678699382774676 -0.00026280590236832179 0 0.02209158687258439 -0.0010328416252414648 0 0.022102306720447322 -0.0010520621587779794 0 0.020340699600805884 -0.00059146271232393504 0 0.020579414275508443 -0.00029380028050390047 0 0.022026415732252794 -0.00047036929745641149 0 0.022154607588219043 -0.00060164215805973565 0 0.021962977297142743 -0.00057691277459296579 0 0.022026415732252794 -0.00047036929745641149 0 0.02212118120743424 -0.00038525044875316648 0 0.022154607588219043 -0.00060164215805973565 0 0.02179569141323218 -0.00053785420735861882 0 0.021913846849225517 -0.00037466415698124834 0 0.021962977297142743 -0.00057691277459296579 0 0.022026415732252794 -0.00047036929745641149 0 0.021913846849225517 -0.00037466415698124834 0 0.021962977297142743 -0.00057691277459296579 0 0.020797082903766213 -0.00040844989589506865 0 0.020076694882102203 -0.00043589714920534353 0 0.020692617987543373 -0.00091721557930755189 0 0.021176970675463064 -0.00079819490015194605 0 0.020797082903766213 -0.00040844989589506865 0 0.020692617987543373 -0.00091721557930755189 0 0.021080023966536132 -0.00050647822373391961 0 0.020340699600805884 -0.00059146271232393504 0 0.022026415732252794 -0.00047036929745641149 0 0.021913846849225517 -0.00037466415698124834 0 0.02212118120743424 -0.00038525044875316648 0 0.020340699600805884 -0.00059146271232393504 0 0.020327378166936749 -0.00072116239226686408 0 0.020076694882102203 -0.00043589714920534353 0 0.020240877967387341 -0.0011801361398818665 0 0.020692617987543373 -0.00091721557930755189 0 0.020036043274699711 -5.927917753940638e-05 0 0.020240877967387341 -0.0011801361398818665 0 0.019541017074759345 -0.00072773572773513991 0 0.020240877967387341 -0.0011801361398818665 0 0.020692617987543373 -0.00091721557930755189 0 0.020734726258876023 -0.0013872828634826477 0 0.021195464840879058 -0.0012543971211492677 0 0.020692617987543373 -0.00091721557930755189 0 0.020734726258876023 -0.0013872828634826477 0 0.020467308047101788 -0.0018985937226046459 0 0.020240877967387341 -0.0011801361398818665 0 0.020734726258876023 -0.0013872828634826477 0 0.020467308047101788 -0.0018985937226046459 0 0.021037418891821546 -0.0016958035204319248 0 0.020734726258876023 -0.0013872828634826477 0 0.0089968134972452773 -0.00043917267339203158 0 0.009990131186592064 -0.00081794104412709248 0 0.0096059345819970096 -0.00028725682233769555 0 0.014769477362987546 -0.0010639516288118082 0 0.014776826438980225 -0.00083465176686705483 0 0.020467308047101788 -0.0018985937226046459 0 0.020240877967387341 -0.0011801361398818665 0 0.019352368983661213 -0.0015383956582469519 0 0.009990131186592064 -0.00081794104412709248 0 0.010326290857665732 -0.00019481539296857216 0 0.0096059345819970096 -0.00028725682233769555 0 0.009990131186592064 -0.00081794104412709248 0 0.011149668508058473 -0.00032894687612594853 0 0.012033618593498194 -0.0010775675239469425 0 0.009990131186592064 -0.00081794104412709248 0 0.011149668508058473 -0.00032894687612594853 0 0.010326290857665732 -0.00019481539296857216 0 0.019352368983661213 -0.0015383956582469519 0 0.018791599785547321 -0.0007063095661852479 0 0.017893514702264277 -0.0010532041251266589 0 0.014776826438980225 -0.00083465176686705483 0 0.014977069272302936 -0.00044005588734562158 0 0.019352368983661213 -0.0015383956582469519 0 0.018791599785547321 -0.0007063095661852479 0 0.019541017074759345 -0.00072773572773513991 0 0.020240877967387341 -0.0011801361398818665 0 0.019352368983661213 -0.0015383956582469519 0 0.019541017074759345 -0.00072773572773513991 0 0.020036043274699711 -5.927917753940638e-05 0 0.019541017074759345 -0.00072773572773513991 0 0.01903591609603188 -5.0532967872737309e-05 0 0.020340699600805884 -0.00059146271232393504 0 0.019029487366427233 -0.00041640303341984532 0 0.018791599785547321 -0.0007063095661852479 0 0.019541017074759345 -0.00072773572773513991 0 0.01903591609603188 -5.0532967872737309e-05 0 0.018791599785547321 -0.0007063095661852479 0 0.01903591609603188 -5.0532967872737309e-05 0 0.017871976214935404 1.0957322592916349e-05 0 0.019029487366427233 -0.00041640303341984532 0 0.018129052279413159 -0.00033239466380375981 0 0.018725714542671707 -0.00016082650629217521 0 0.018445620555637872 0.00025072585713698789 0 0.018105898826920649 -0.00036134819011885214 0 0.018725714542671707 -0.00016082650629217521 0 0.018731536173370571 0.00016790841720404703 0 0.018445620555637872 0.00025072585713698789 0 0.018986850932275895 -7.6715821387266038e-05 0 0.018731536173370571 0.00016790841720404703 0 0.018803431676521758 0.00024394766492862984 0 0.018986850932275895 -7.6715821387266038e-05 0 0.018725714542671707 -0.00016082650629217521 0 0.018731536173370571 0.00016790841720404703 0 0.015759723765528616 -2.0535768679688458e-06 0 0.016368654739713304 1.3278224628922092e-05 0 0.017634334594044034 1.4036009072623996e-06 0 0.017548445552263151 0.00014509659825163903 0 0.016368654739713304 1.3278224628922092e-05 0 0.017634334594044034 1.4036009072623996e-06 0 0.017548445552263151 0.00014509659825163903 0 0.018445620555637872 0.00025072585713698789 0 0.018105898826920649 -0.00036134819011885214 0 0.018791599785547321 -0.0007063095661852479 0 0.017871976214935404 1.0957322592916349e-05 0 0.017893514702264277 -0.0010532041251266589 0 0.018129052279413159 -0.00033239466380375981 0 0.017630422455568076 -0.00030436584650461344 0 0.017548445552263151 0.00014509659825163903 0 0.018105898826920649 -0.00036134819011885214 0 0.016368654739713304 1.3278224628922092e-05 0 0.017871976214935404 1.0957322592916349e-05 0 0.016368654739713304 1.3278224628922092e-05 0 0.017893514702264277 -0.0010532041251266589 0 0.015754969865310692 -8.1664205655183639e-07 0 0.014977069272302936 -0.00044005588734562158 0 0.015759723765528616 -2.0535768679688458e-06 0 0.016368654739713304 1.3278224628922092e-05 0 0.017893514702264277 -0.0010532041251266589 0 0.015753526066040385 -2.6640592714870103e-06 0 0.013945410480967471 -0.00024653497987988824 0 0.013756580926773718 5.445548587831746e-08 0 0.015753526066040385 -2.6640592714870103e-06 0 0.013945410480967471 -0.00024653497987988824 0 0.012033618593498194 -0.0010775675239469425 0 0.013945410480967471 -0.00024653497987988824 0 0.012033618593498194 -0.0010775675239469425 0 0.012398881680981404 -0.00012817661057245471 0 0.011149668508058473 -0.00032894687612594853 0 0.012033618593498194 -0.0010775675239469425 0 0.012398881680981404 -0.00012817661057245471 0 0.011149668508058473 -0.00032894687612594853 0 0.012398881680981404 -0.00012817661057245471 0 0.010957336928364187 4.0933372681321543e-05 0 0.013945410480967471 -0.00024653497987988824 0 0.012398881680981404 -0.00012817661057245471 0 0.013756580926773718 5.445548587831746e-08 0 0.012398881680981404 -0.00012817661057245471 0 0.013756580926773718 5.445548587831746e-08 0 0.011757757657400574 4.5840383762043122e-07 0 0.011757757657400574 4.5840383762043122e-07 0 0.010957336928364187 4.0933372681321543e-05 0 0.010024564326576686 0.00026129373471066878 0 0.012398881680981404 -0.00012817661057245471 0 0.011757757657400574 4.5840383762043122e-07 0 0.010957336928364187 4.0933372681321543e-05 0 0.010957336928364187 4.0933372681321543e-05 0 0.010326290857665732 -0.00019481539296857216 0 0.0097960542621463118 0.00022840858537404859 0 0.011149668508058473 -0.00032894687612594853 0 0.010957336928364187 4.0933372681321543e-05 0 0.010326290857665732 -0.00019481539296857216 0 0.010326290857665732 -0.00019481539296857216 0 0.0096062901189731681 -3.2547664396989683e-06 0 0.0097960542621463118 0.00022840858537404859 0 0.010326290857665732 -0.00019481539296857216 0 0.0096059345819970096 -0.00028725682233769555 0 0.0096062901189731681 -3.2547664396989683e-06 0 0.0092630843339389923 -8.975299475482722e-05 0 0.0096059345819970096 -0.00028725682233769555 0 0.0096062901189731681 -3.2547664396989683e-06 0 0.0096062901189731681 -3.2547664396989683e-06 0 0.0092591532339231022 0.000181473593706771 0 0.0097960542621463118 0.00022840858537404859 0 0.0092630843339389923 -8.975299475482722e-05 0 0.0096062901189731681 -3.2547664396989683e-06 0 0.0092591532339231022 0.000181473593706771 0 0.010957336928364187 4.0933372681321543e-05 0 0.0097960542621463118 0.00022840858537404859 0 0.010024564326576686 0.00026129373471066878 0 0.0097960542621463118 0.00022840858537404859 0 0.0091383616481383878 0.00039172759024818851 0 0.010024564326576686 0.00026129373471066878 0 0.0088889813300967145 0.00028073545319592908 0 0.0092591532339231022 0.000181473593706771 0 0.0091383616481383878 0.00039172759024818851 0 0.0092591532339231022 0.000181473593706771 0 0.0097960542621463118 0.00022840858537404859 0 0.0091383616481383878 0.00039172759024818851 0 0.0085908736456750782 0.00040698546330809833 0 0.0086416593368629675 0.00038669527114282439 0 0.0091383616481383878 0.00039172759024818851 0 0.0087644069365971061 0.0003562700399093645 0 0.0091383616481383878 0.00039172759024818851 0 0.010024564326576686 0.00026129373471066878 0 0.0087644069365971061 0.0003562700399093645 0 0.0085908736456750782 0.00040698546330809833 0 0.0091383616481383878 0.00039172759024818851 0 0.0087644069365971061 0.0003562700399093645 0 0.0097590240139583447 5.2496178953768544e-07 0 0.010024564326576686 0.00026129373471066878 0 0.011757757657400574 4.5840383762043122e-07 0 0.0097590240139583447 5.2496178953768544e-07 0 0.010024564326576686 0.00026129373471066878 0 0.024109445873519358 -1.4329492586089896e-05 0 0.024335203374652344 0.00015840658738282523 0 0.023974862731208815 9.2301820759752395e-05 0 0.024109445873519358 -1.4329492586089896e-05 0 0.024008830695145374 8.584333993756815e-05 0 0.023974862731208815 9.2301820759752395e-05 0 0.024335203374652344 0.00015840658738282523 0 0.023974862731208815 9.2301820759752395e-05 0 0.023586454981519862 1.2865536499654585e-06 0 0.024335203374652344 0.00015840658738282523 0 0.025673042999045364 -1.2467886440131815e-06 0 0.023586454981519862 1.2865536499654585e-06 0 0.025680557154964423 -2.3829479854730093e-08 0 0.026162673478393808 6.4967120852725346e-05 0 0.026734810706603555 2.5419520523188165e-08 0 0.025675845426270643 -2.4960792755870761e-07 0 0.025657139316044526 -0.00010877397896075595 0 0.024335203374652344 0.00015840658738282523 0 0.025673042999045364 -1.2467886440131815e-06 0 0.024236395601953061 -0.00040373159820003714 0 0.024109445873519358 -1.4329492586089896e-05 0 0.024335203374652344 0.00015840658738282523 0 0.024236395601953061 -0.00040373159820003714 0 0.024109445873519358 -1.4329492586089896e-05 0 0.024236395601953061 -0.00040373159820003714 0 0.023931627108693267 -0.00015953786885114493 0 0.024236395601953061 -0.00040373159820003714 0 0.023931627108693267 -0.00015953786885114493 0 0.023853634534248918 -0.00040267520958134714 0 0.023931627108693267 -0.00015953786885114493 0 0.023722696984334848 -0.00023534977298370511 0 0.023853634534248918 -0.00040267520958134714 0 0.023722696984334848 -0.00023534977298370511 0 0.023515019200506158 -0.00016641843732187036 0 0.023584571314987975 -0.00035858444742705115 0 0.023931627108693267 -0.00015953786885114493 0 0.023722696984334848 -0.00023534977298370511 0 0.023728674796384967 -4.6628083031348251e-05 0 0.024065591053191743 0.00013160730246355814 0 0.024216613462641458 0.00021163147036894233 0 0.023722696984334848 -0.00023534977298370511 0 0.023728674796384967 -4.6628083031348251e-05 0 0.023515019200506158 -0.00016641843732187036 0 0.023030781531191268 9.8682004460829182e-05 0 0.024216613462641458 0.00021163147036894233 0 0.024116182975422985 0.00014832315341822846 0 0.024071682316320748 7.4718884129479506e-05 0 0.024193336922233685 0.00019144992836033455 0 0.021378816379059321 0.000400124713560242 0 0.021803669394052996 0.00045115234324001342 0 0.021737165132229674 0.00079823915625134851 0 0.024071682316320748 7.4718884129479506e-05 0 0.024008830695145374 8.584333993756815e-05 0 0.023974862731208815 9.2301820759752395e-05 0 0.024109445873519358 -1.4329492586089896e-05 0 0.023931627108693267 -0.00015953786885114493 0 0.024008830695145374 8.584333993756815e-05 0 0.024065591053191743 0.00013160730246355814 0 0.024038136928096965 0.00011639795300956101 0 0.023931627108693267 -0.00015953786885114493 0 0.023728674796384967 -4.6628083031348251e-05 0 0.024008830695145374 8.584333993756815e-05 0 0.024116182975422985 0.00014832315341822846 0 0.024071682316320748 7.4718884129479506e-05 0 0.024008830695145374 8.584333993756815e-05 0 0.021378816379059321 0.000400124713560242 0 0.02157743825200726 0.00011909804724642675 0 0.021107154751518024 1.5566479759708912e-05 0 0.02157743825200726 0.00011909804724642675 0 0.021107154751518024 1.5566479759708912e-05 0 0.021445351496847242 -0.00017982007376815795 0 0.023030781531191268 9.8682004460829182e-05 0 0.02240620078650318 0.00015932737855761604 0 0.021378816379059321 0.000400124713560242 0 0.02157743825200726 0.00011909804724642675 0 0.021803669394052996 0.00045115234324001342 0 0.02157743825200726 0.00011909804724642675 0 0.021445351496847242 -0.00017982007376815795 0 0.02185572173396198 -0.00016124292882005762 0 0.023735494970904353 -1.1489965621391408e-05 0 0.023974862731208815 9.2301820759752395e-05 0 0.023586454981519862 1.2865536499654585e-06 0 0.024071682316320748 7.4718884129479506e-05 0 0.023735494970904353 -1.1489965621391408e-05 0 0.023974862731208815 9.2301820759752395e-05 0 0.021107154751518024 1.5566479759708912e-05 0 0.021493467593457306 -1.0477547634849081e-07 0 0.021134735704240817 -6.6944891544023667e-05 0 0.02240620078650318 0.00015932737855761604 0 0.021497888777501511 7.5555016313023576e-08 0 0.023735494970904353 -1.1489965621391408e-05 0 0.023586454981519862 1.2865536499654585e-06 0 0.021499015117943134 -1.3161680447415432e-06 0 0.021392967682825038 -1.7806122556492623e-07 0 0.021136674067611921 -8.4223182427112421e-05 0 0.020762486310001202 -0.00030939861800339331 0 0.021493467593457306 -1.0477547634849081e-07 0 0.021136674067611921 -8.4223182427112421e-05 0 0.021134735704240817 -6.6944891544023667e-05 0 0.021392967682825038 -1.7806122556492623e-07 0 0.021493467593457306 -1.0477547634849081e-07 0 0.021136674067611921 -8.4223182427112421e-05 0 0.021107154751518024 1.5566479759708912e-05 0 0.021134735704240817 -6.6944891544023667e-05 0 0.021243203055106449 -0.00014837073933205485 0 0.021136674067611921 -8.4223182427112421e-05 0 0.021134735704240817 -6.6944891544023667e-05 0 0.021097961663517552 -0.00016654281536257007 0 0.021134735704240817 -6.6944891544023667e-05 0 0.021097961663517552 -0.00016654281536257007 0 0.021243203055106449 -0.00014837073933205485 0 0.021097961663517552 -0.00016654281536257007 0 0.020762486310001202 -0.00030939861800339331 0 0.021293238823030396 -0.00039170733550902939 0 0.020722597207121201 -0.00028939597953671776 0 0.020762486310001202 -0.00030939861800339331 0 0.019078373467157052 -0.00021987813928730756 0 0.021097961663517552 -0.00016654281536257007 0 0.021293238823030396 -0.00039170733550902939 0 0.021243203055106449 -0.00014837073933205485 0 0.02048377690832788 -0.00018300437248650107 0 0.020464777822630911 -0.00015481025399824474 0 0.021388749507508263 1.2655188569643874e-09 0 0.020472653531877546 0.00019950585016522817 0 0.021392967682825038 -1.7806122556492623e-07 0 0.020722597207121201 -0.00028939597953671776 0 0.020762486310001202 -0.00030939861800339331 0 0.02138953408225849 -5.1418177224497795e-07 0 0.019444282712803122 -8.3111086271502716e-05 0 0.01951208158084345 2.3397272589793645e-08 0 0.021136674067611921 -8.4223182427112421e-05 0 0.021097961663517552 -0.00016654281536257007 0 0.020762486310001202 -0.00030939861800339331 0 0.020472653531877546 0.00019950585016522817 0 0.019809948768491299 0.00033600472297363088 0 0.019444282712803122 -8.3111086271502716e-05 0 0.01951208158084345 2.3397272589793645e-08 0 0.018306075932575983 0.00030146119217929493 0 0.020722597207121201 -0.00028939597953671776 0 0.019429836845433739 0.00037108725974364747 0 0.019078373467157052 -0.00021987813928730756 0 0.018445620555637872 0.00025072585713698789 0 0.019429836845433739 0.00037108725974364747 0 0.018771668687369319 0.00028552873593234871 0 0.017548445552263151 0.00014509659825163903 0 0.018445620555637872 0.00025072585713698789 0 0.018306075932575983 0.00030146119217929493 0 0.019580598677989336 0.00035142174688489094 0 0.019809948768491299 0.00033600472297363088 0 0.017548445552263151 0.00014509659825163903 0 0.018306075932575983 0.00030146119217929493 0 0.017634334594044034 1.4036009072623996e-06 0 0.01951208158084345 2.3397272589793645e-08 0 0.018306075932575983 0.00030146119217929493 0 0.017634334594044034 1.4036009072623996e-06 0 0.018803431676521758 0.00024394766492862984 0 0.018771668687369319 0.00028552873593234871 0 0.018647335918565988 4.8791783338394239e-05 0 0.018731536173370571 0.00016790841720404703 0 0.018803431676521758 0.00024394766492862984 0 0.018771668687369319 0.00028552873593234871 0 0.018731536173370571 0.00016790841720404703 0 0.018445620555637872 0.00025072585713698789 0 0.018771668687369319 0.00028552873593234871 0 0.019429836845433739 0.00037108725974364747 0 0.018771668687369319 0.00028552873593234871 0 0.019078373467157052 -0.00021987813928730756 0 0.018771668687369319 0.00028552873593234871 0 0.018647335918565988 4.8791783338394239e-05 0 0.019078373467157052 -0.00021987813928730756 0 0.020895108894035341 -0.00014982839115763801 0 0.020464777822630911 -0.00015481025399824474 0 0.020579414275508443 -0.00029380028050390047 0 0.020895108894035341 -0.00014982839115763801 0 0.020895108894035341 -0.00014982839115763801 0 0.02107139491295355 -0.00030737393262748994 0 0.021548790662749125 -0.00067302991993431222 0 0.021445351496847242 -0.00017982007376815795 0 0.02167820246895245 -0.00040625650270551379 0 0.021504084862410587 -0.0004392121169115833 0 0.021293238823030396 -0.00039170733550902939 0 0.021445351496847242 -0.00017982007376815795 0 0.021293238823030396 -0.00039170733550902939 0 0.021243203055106449 -0.00014837073933205485 0 0.021445351496847242 -0.00017982007376815795 0 0.021107154751518024 1.5566479759708912e-05 0 0.021243203055106449 -0.00014837073933205485 0 0.021445351496847242 -0.00017982007376815795 0 0.021445351496847242 -0.00017982007376815795 0 0.02185572173396198 -0.00016124292882005762 0 0.02167820246895245 -0.00040625650270551379 0 0.02185572173396198 -0.00016124292882005762 0 0.021931650158571958 -0.00052215860425295919 0 0.02167820246895245 -0.00040625650270551379 0 0.02185572173396198 -0.00016124292882005762 0 0.021931650158571958 -0.00052215860425295919 0 0.022152740085896561 -0.00040925953472035131 0 0.02185572173396198 -0.00016124292882005762 0 0.022152740085896561 -0.00040925953472035131 0 0.022133327149795465 -0.00011698252143896438 0 0.021931650158571958 -0.00052215860425295919 0 0.022044648695121842 -0.00067857857066832281 0 0.022152740085896561 -0.00040925953472035131 0 0.021931650158571958 -0.00052215860425295919 0 0.02167820246895245 -0.00040625650270551379 0 0.021834635326510868 -0.0007220141192635065 0 0.021548790662749125 -0.00067302991993431222 0 0.02167820246895245 -0.00040625650270551379 0 0.021834635326510868 -0.0007220141192635065 0 0.022154607588219043 -0.00060164215805973565 0 0.022183092576460475 -0.00076898899496090161 0 0.022058131429789938 -0.00074010350125661031 0 0.020895108894035341 -0.00014982839115763801 0 0.021558011092222589 -0.00039370583828040305 0 0.022058131429789938 -0.00074010350125661031 0 0.02197778796870152 -0.00070163905833319678 0 0.022015168665079392 -0.00066881118283552477 0 0.021558011092222589 -0.00039370583828040305 0 0.021720804666911068 -0.00045744966663142917 0 0.021931650158571958 -0.00052215860425295919 0 0.021834635326510868 -0.0007220141192635065 0 0.02194566354922426 -0.00066739737431107402 0 0.021931650158571958 -0.00052215860425295919 0 0.02194566354922426 -0.00066739737431107402 0 0.022044648695121842 -0.00067857857066832281 0 0.021834635326510868 -0.0007220141192635065 0 0.02194566354922426 -0.00066739737431107402 0 0.02197778796870152 -0.00070163905833319678 0 0.02194566354922426 -0.00066739737431107402 0 0.022044648695121842 -0.00067857857066832281 0 0.02197778796870152 -0.00070163905833319678 0 0.02197778796870152 -0.00070163905833319678 0 0.022015168665079392 -0.00066881118283552477 0 0.021914128309178906 -0.00064550992795280179 0 0.02179569141323218 -0.00053785420735861882 0 0.021914128309178906 -0.00064550992795280179 0 0.021962977297142743 -0.00057691277459296579 0 0.022015168665079392 -0.00066881118283552477 0 0.021914128309178906 -0.00064550992795280179 0 0.021962977297142743 -0.00057691277459296579 0 0.022154607588219043 -0.00060164215805973565 0 0.022015168665079392 -0.00066881118283552477 0 0.021962977297142743 -0.00057691277459296579 0 0.022154607588219043 -0.00060164215805973565 0 0.022058131429789938 -0.00074010350125661031 0 0.022015168665079392 -0.00066881118283552477 0 0.022334464730703614 -0.0011753362398953531 0 0.022413225112322407 -0.00091216702018964094 0 0.022198475365235282 -0.00092678777398856886 0 0.022413225112322407 -0.00091216702018964094 0 0.022198475365235282 -0.00092678777398856886 0 0.02233292280351901 -0.00070000904854369307 0 0.02179569141323218 -0.00053785420735861882 0 0.021914128309178906 -0.00064550992795280179 0 0.021788850352678638 -0.0006715272466439816 0 0.02197778796870152 -0.00070163905833319678 0 0.021914128309178906 -0.00064550992795280179 0 0.021788850352678638 -0.0006715272466439816 0 0.022044648695121842 -0.00067857857066832281 0 0.02197778796870152 -0.00070163905833319678 0 0.021788850352678638 -0.0006715272466439816 0 0.022044648695121842 -0.00067857857066832281 0 0.022198475365235282 -0.00092678777398856886 0 0.02233292280351901 -0.00070000904854369307 0 0.021975293251919891 -0.00074761904884602828 0 0.021998899309895223 -0.00081898527803077944 0 0.022044648695121842 -0.00067857857066832281 0 0.02233292280351901 -0.00070000904854369307 0 0.022242111419851426 -0.00054771784956581177 0 0.022413225112322407 -0.00091216702018964094 0 0.02233292280351901 -0.00070000904854369307 0 0.022613286568635028 -0.000708169713325484 0 0.02233292280351901 -0.00070000904854369307 0 0.022419894049391088 -0.00043574892725908583 0 0.022613286568635028 -0.000708169713325484 0 0.02233292280351901 -0.00070000904854369307 0 0.022419894049391088 -0.00043574892725908583 0 0.022242111419851426 -0.00054771784956581177 0 0.022044648695121842 -0.00067857857066832281 0 0.022242111419851426 -0.00054771784956581177 0 0.022152740085896561 -0.00040925953472035131 0 0.022419894049391088 -0.00043574892725908583 0 0.022242111419851426 -0.00054771784956581177 0 0.022152740085896561 -0.00040925953472035131 0 0.022699452744269582 -0.0004656515814934095 0 0.022457133326348182 -0.00044432878173474689 0 0.022851619234531821 -0.00055883665805864203 0 0.022152740085896561 -0.00040925953472035131 0 0.022507903379181085 -0.00016864154001285334 0 0.022152740085896561 -0.00040925953472035131 0 0.022507903379181085 -0.00016864154001285334 0 0.022133327149795465 -0.00011698252143896438 0 0.022851619234531821 -0.00055883665805864203 0 0.022507903379181085 -0.00016864154001285334 0 0.022962640764035175 -9.5984321991360896e-05 0 0.022507903379181085 -0.00016864154001285334 0 0.022648046072314597 0.00011026285127504101 0 0.022962640764035175 -9.5984321991360896e-05 0 0.022648046072314597 0.00011026285127504101 0 0.022946754323671797 0.00020079001995812725 0 0.022962640764035175 -9.5984321991360896e-05 0 0.022648046072314597 0.00011026285127504101 0 0.022946754323671797 0.00020079001995812725 0 0.022712276641830367 0.00037002494146630823 0 0.022648046072314597 0.00011026285127504101 0 0.022712276641830367 0.00037002494146630823 0 0.022438050087114227 0.00029906382519423474 0 0.022946754323671797 0.00020079001995812725 0 0.022712276641830367 0.00037002494146630823 0 0.023099511255323939 0.00043825187373555192 0 0.022438050087114227 0.00029906382519423474 0 0.022052824835869563 0.00019653549818857315 0 0.022274208293501047 0.00047522015168553468 0 0.022438050087114227 0.00029906382519423474 0 0.022359899067426869 5.0516119315358458e-05 0 0.022052824835869563 0.00019653549818857315 0 0.022438050087114227 0.00029906382519423474 0 0.022488494777118576 0.00051619024331842718 0 0.022274208293501047 0.00047522015168553468 0 0.022712276641830367 0.00037002494146630823 0 0.022438050087114227 0.00029906382519423474 0 0.022488494777118576 0.00051619024331842718 0 0.022648046072314597 0.00011026285127504101 0 0.022438050087114227 0.00029906382519423474 0 0.022359899067426869 5.0516119315358458e-05 0 0.022507903379181085 -0.00016864154001285334 0 0.022359899067426869 5.0516119315358458e-05 0 0.022133327149795465 -0.00011698252143896438 0 0.022507903379181085 -0.00016864154001285334 0 0.022648046072314597 0.00011026285127504101 0 0.022359899067426869 5.0516119315358458e-05 0 0.02185572173396198 -0.00016124292882005762 0 0.022133327149795465 -0.00011698252143896438 0 0.022052824835869563 0.00019653549818857315 0 0.022359899067426869 5.0516119315358458e-05 0 0.022133327149795465 -0.00011698252143896438 0 0.022052824835869563 0.00019653549818857315 0 0.02157743825200726 0.00011909804724642675 0 0.02185572173396198 -0.00016124292882005762 0 0.022052824835869563 0.00019653549818857315 0 0.02157743825200726 0.00011909804724642675 0 0.022052824835869563 0.00019653549818857315 0 0.021803669394052996 0.00045115234324001342 0 0.022052824835869563 0.00019653549818857315 0 0.022053299972503538 0.00044759679478075507 0 0.021803669394052996 0.00045115234324001342 0 0.022052824835869563 0.00019653549818857315 0 0.022053299972503538 0.00044759679478075507 0 0.022274208293501047 0.00047522015168553468 0 0.022053299972503538 0.00044759679478075507 0 0.022103911463777503 0.00067747669127422036 0 0.021803669394052996 0.00045115234324001342 0 0.022053299972503538 0.00044759679478075507 0 0.022103911463777503 0.00067747669127422036 0 0.022274208293501047 0.00047522015168553468 0 0.022103911463777503 0.00067747669127422036 0 0.022274208293501047 0.00047522015168553468 0 0.022376151613487761 0.00066022153325455424 0 0.022103911463777503 0.00067747669127422036 0 0.021803669394052996 0.00045115234324001342 0 0.021737165132229674 0.00079823915625134851 0 0.024216613462641458 0.00021163147036894233 0 0.025223583433946543 0.00082436844251492815 0 0.023515019200506158 -0.00016641843732187036 0 0.02333212037021571 -0.00033222569644762398 0 0.023584571314987975 -0.00035858444742705115 0 0.02455844236752008 0.00038803031181897866 0 0.025567915645200546 0.00090595851794390901 0 0.025173084495915505 0.00093433191762990809 0 0.024216613462641458 0.00021163147036894233 0 0.025777709995870115 0.00064233944031952999 0 0.022103911463777503 0.00067747669127422036 0 0.021737165132229674 0.00079823915625134851 0 0.02212342502960158 0.0010149420915197122 0 0.022103911463777503 0.00067747669127422036 0 0.022359094338146916 0.00086818458898288604 0 0.02212342502960158 0.0010149420915197122 0 0.024781486640567743 0.0010435730057729788 0 0.025042805967502461 0.00077043453658316426 0 0.025211838953175341 0.00075732092888558522 0 0.024441277970156369 0.0011087376183413658 0 0.025223583433946543 0.00082436844251492815 0 0.024781486640567743 0.0010435730057729788 0 0.024992756581805099 0.00064620105697821663 0 0.025042805967502461 0.00077043453658316426 0 0.024155758185638247 0.001205377809842489 0 0.024673584999041088 0.0012668543500334907 0 0.024155758185638247 0.001205377809842489 0 0.025366270671963991 0.0010645769462242164 0 0.024781486640567743 0.0010435730057729788 0 0.02433815253333221 0.0013231817837129867 0 0.024992756581805099 0.00064620105697821663 0 0.024534908604827134 0.00109784107928039 0 0.024516459543175283 0.0012020153391270724 0 0.024462811104836269 0.0011743355300634839 0 0.022103911463777503 0.00067747669127422036 0 0.022359094338146916 0.00086818458898288604 0 0.022376151613487761 0.00066022153325455424 0 0.024441277970156369 0.0011087376183413658 0 0.024155758185638247 0.001205377809842489 0 0.022359094338146916 0.00086818458898288604 0 0.022601457113576522 0.00072920643488155312 0 0.022376151613487761 0.00066022153325455424 0 0.022793383233267944 0.0011597493483454012 0 0.022718560515657429 0.00082308368293931128 0 0.02261156725215397 0.0014088848582969008 0 0.022793383233267944 0.0011597493483454012 0 0.022884728818926975 0.00091311312680973991 0 0.023114298918351702 0.0011742445680668131 0 0.022793383233267944 0.0011597493483454012 0 0.022884728818926975 0.00091311312680973991 0 0.022718560515657429 0.00082308368293931128 0 0.022884728818926975 0.00091311312680973991 0 0.022718560515657429 0.00082308368293931128 0 0.022756064088449643 0.00079890651981672368 0 0.022712276641830367 0.00037002494146630823 0 0.022612522023054023 0.00091711276444995146 0 0.022658464816028442 0.00088774839866516018 0 0.023951217467069585 0.00096943625967507046 0 0.024155758185638247 0.001205377809842489 0 0.022712276641830367 0.00037002494146630823 0 0.022658464816028442 0.00088774839866516018 0 0.023099511255323939 0.00043825187373555192 0 0.022712276641830367 0.00037002494146630823 0 0.022601457113576522 0.00072920643488155312 0 0.022488494777118576 0.00051619024331842718 0 0.022758817263481806 0.00079840121293492101 0 0.022813051566231864 0.00076216996051884256 0 0.023099511255323939 0.00043825187373555192 0 0.024055116343080035 0.0012176888641946984 0 0.023766682685576364 0.0011729687187076458 0 0.024155758185638247 0.001205377809842489 0 0.024055116343080035 0.0012176888641946984 0 0.022884728818926975 0.00091311312680973991 0 0.022756064088449643 0.00079890651981672368 0 0.022813051566231864 0.00076216996051884256 0 0.024055116343080035 0.0012176888641946984 0 0.02404215322105939 0.0012210705617515696 0 0.022884728818926975 0.00091311312680973991 0 0.022813051566231864 0.00076216996051884256 0 0.023118531178171958 0.00074529453027589944 0 0.022488494777118576 0.00051619024331842718 0 0.022274208293501047 0.00047522015168553468 0 0.022376151613487761 0.00066022153325455424 0 0.022601457113576522 0.00072920643488155312 0 0.022488494777118576 0.00051619024331842718 0 0.022376151613487761 0.00066022153325455424 0 0.023355264992096062 0.00053973359457814749 0 0.023118531178171958 0.00074529453027589944 0 0.023591808489830744 0.00090491689382005581 0 0.023355264992096062 0.00053973359457814749 0 0.023591808489830744 0.00090491689382005581 0 0.023669735046542188 0.00042774665684729997 0 0.023355264992096062 0.00053973359457814749 0 0.023118531178171958 0.00074529453027589944 0 0.023099511255323939 0.00043825187373555192 0 0.022813051566231864 0.00076216996051884256 0 0.023118531178171958 0.00074529453027589944 0 0.023099511255323939 0.00043825187373555192 0 0.023500026342233138 0.0014368565809360035 0 0.023650322872037381 0.0011386303310912268 0 0.022884728818926975 0.00091311312680973991 0 0.023118531178171958 0.00074529453027589944 0 0.023114298918351702 0.0011742445680668131 0 0.023118531178171958 0.00074529453027589944 0 0.023114298918351702 0.0011742445680668131 0 0.023591808489830744 0.00090491689382005581 0 0.022671836538866987 0.0014848838340866439 0 0.023464491376903939 0.0009391103536521843 0 0.023333580718363563 0.0015978884562213298 0 0.023464491376903939 0.0009391103536521843 0 0.023925498733930507 0.001151872229501247 0 0.023333580718363563 0.0015978884562213298 0 0.023464491376903939 0.0009391103536521843 0 0.023925498733930507 0.001151872229501247 0 0.024129629240505629 0.00053492104512504232 0 0.023925498733930507 0.001151872229501247 0 0.024270544664356054 0.00081922729875217009 0 0.024129629240505629 0.00053492104512504232 0 0.024999608047780449 0.00058528309614971018 0 0.025524793031070327 0.00064653821397068557 0 0.023925498733930507 0.001151872229501247 0 0.024270544664356054 0.00081922729875217009 0 0.024616484957402353 0.0016412657245489014 0 0.024270544664356054 0.00081922729875217009 0 0.025781767808575256 0.0011713129819251999 0 0.024616484957402353 0.0016412657245489014 0 0.024270544664356054 0.00081922729875217009 0 0.024381268939854487 0.00058480626930770775 0 0.024516907510451227 0.00076326847754981544 0 0.024270544664356054 0.00081922729875217009 0 0.024381268939854487 0.00058480626930770775 0 0.024129629240505629 0.00053492104512504232 0 0.024381268939854487 0.00058480626930770775 0 0.024129629240505629 0.00053492104512504232 0 0.02426108820502676 0.00038542507008643118 0 0.023650322872037381 0.0011386303310912268 0 0.023858341338610235 0.00095402156649093315 0 0.023591808489830744 0.00090491689382005581 0 0.024129629240505629 0.00053492104512504232 0 0.023669735046542188 0.00042774665684729997 0 0.024129629240505629 0.00053492104512504232 0 0.023969550321333154 0.00029619115144859933 0 0.023669735046542188 0.00042774665684729997 0 0.023969550321333154 0.00029619115144859933 0 0.023681783836871723 7.5700617317227728e-05 0 0.023669735046542188 0.00042774665684729997 0 0.023969550321333154 0.00029619115144859933 0 0.024143027897099229 0.00017249434058797176 0 0.023978307810803592 1.5966247849625537e-05 0 0.023969550321333154 0.00029619115144859933 0 0.023978307810803592 1.5966247849625537e-05 0 0.023681783836871723 7.5700617317227728e-05 0 0.023969550321333154 0.00029619115144859933 0 0.02426108820502676 0.00038542507008643118 0 0.024143027897099229 0.00017249434058797176 0 0.024129629240505629 0.00053492104512504232 0 0.023969550321333154 0.00029619115144859933 0 0.02426108820502676 0.00038542507008643118 0 0.02426108820502676 0.00038542507008643118 0 0.024143027897099229 0.00017249434058797176 0 0.024345288206582345 0.00013735376922616009 0 0.024143027897099229 0.00017249434058797176 0 0.024185889559105691 -4.637972497790806e-06 0 0.024345288206582345 0.00013735376922616009 0 0.024185889559105691 -4.637972497790806e-06 0 0.0243612579914173 -8.8751291042662143e-05 0 0.024345288206582345 0.00013735376922616009 0 0.024143027897099229 0.00017249434058797176 0 0.024185889559105691 -4.637972497790806e-06 0 0.023978307810803592 1.5966247849625537e-05 0 0.024185889559105691 -4.637972497790806e-06 0 0.023978307810803592 1.5966247849625537e-05 0 0.024120106423353323 -0.00020263341321059849 0 0.024185889559105691 -4.637972497790806e-06 0 0.024120106423353323 -0.00020263341321059849 0 0.0243612579914173 -8.8751291042662143e-05 0 0.023978307810803592 1.5966247849625537e-05 0 0.023681783836871723 7.5700617317227728e-05 0 0.023784600379571749 -0.00024836662693315722 0 0.023978307810803592 1.5966247849625537e-05 0 0.023784600379571749 -0.00024836662693315722 0 0.024120106423353323 -0.00020263341321059849 0 0.023681783836871723 7.5700617317227728e-05 0 0.023370267768001794 -0.00020569993804188023 0 0.023784600379571749 -0.00024836662693315722 0 0.023681783836871723 7.5700617317227728e-05 0 0.023310973053501941 0.00019821990761817741 0 0.023370267768001794 -0.00020569993804188023 0 0.023355264992096062 0.00053973359457814749 0 0.023669735046542188 0.00042774665684729997 0 0.023310973053501941 0.00019821990761817741 0 0.023681783836871723 7.5700617317227728e-05 0 0.023669735046542188 0.00042774665684729997 0 0.023310973053501941 0.00019821990761817741 0 0.023355264992096062 0.00053973359457814749 0 0.023099511255323939 0.00043825187373555192 0 0.023310973053501941 0.00019821990761817741 0 0.022946754323671797 0.00020079001995812725 0 0.023099511255323939 0.00043825187373555192 0 0.023310973053501941 0.00019821990761817741 0 0.022946754323671797 0.00020079001995812725 0 0.023310973053501941 0.00019821990761817741 0 0.022962640764035175 -9.5984321991360896e-05 0 0.023310973053501941 0.00019821990761817741 0 0.022962640764035175 -9.5984321991360896e-05 0 0.023370267768001794 -0.00020569993804188023 0 0.022851619234531821 -0.00055883665805864203 0 0.023370267768001794 -0.00020569993804188023 0 0.023510837866668254 -0.00059396719010023843 0 0.022851619234531821 -0.00055883665805864203 0 0.022962640764035175 -9.5984321991360896e-05 0 0.023370267768001794 -0.00020569993804188023 0 0.023370267768001794 -0.00020569993804188023 0 0.023510837866668254 -0.00059396719010023843 0 0.023784600379571749 -0.00024836662693315722 0 0.022767630736183868 -0.00044971828604802911 0 0.022613286568635028 -0.000708169713325484 0 0.022896598409062739 -0.00063525354955595403 0 0.022419894049391088 -0.00043574892725908583 0 0.022767630736183868 -0.00044971828604802911 0 0.022613286568635028 -0.000708169713325484 0 0.022699452744269582 -0.0004656515814934095 0 0.023136752202855815 -0.0004886621945030113 0 0.022613286568635028 -0.000708169713325484 0 0.022855027696526635 -0.00086136331302586085 0 0.022896598409062739 -0.00063525354955595403 0 0.022507378756662283 -0.0014319980536646004 0 0.022669109591461185 -0.0010560731917102181 0 0.022353371161203204 -0.001278727846432975 0 0.022613286568635028 -0.000708169713325484 0 0.022855027696526635 -0.00086136331302586085 0 0.022593531465341442 -0.0010185251360486406 0 0.022738117153869961 -0.00088449216675011617 0 0.022419842328242678 -0.0010093281770934672 0 0.022413225112322407 -0.00091216702018964094 0 0.022613286568635028 -0.000708169713325484 0 0.022593531465341442 -0.0010185251360486406 0 0.023095826934482915 -0.0011707298569319801 0 0.023349848890819556 -0.00082383278228202316 0 0.023362341472662879 -0.0011031573810427555 0 0.02282263099115105 -0.0015154520720148457 0 0.022669109591461185 -0.0010560731917102181 0 0.023095826934482915 -0.0011707298569319801 0 0.022669109591461185 -0.0010560731917102181 0 0.023095826934482915 -0.0011707298569319801 0 0.023024846199555461 -0.00078683072589464211 0 0.022855027696526635 -0.00086136331302586085 0 0.022896598409062739 -0.00063525354955595403 0 0.02313693479047927 -0.00069951164124340071 0 0.022738117153869961 -0.00088449216675011617 0 0.023038049330164664 -0.00072873848771618486 0 0.023024846199555461 -0.00078683072589464211 0 0.023482886633683402 -0.00047689048810384776 0 0.023349848890819556 -0.00082383278228202316 0 0.023095826934482915 -0.0011707298569319801 0 0.023024846199555461 -0.00078683072589464211 0 0.023349848890819556 -0.00082383278228202316 0 0.023038049330164664 -0.00072873848771618486 0 0.023210080915522856 -0.00063030342264414096 0 0.02313693479047927 -0.00069951164124340071 0 0.023137889339906421 -0.00044647734765964394 0 0.023482886633683402 -0.00047689048810384776 0 0.023136752202855815 -0.0004886621945030113 0 0.023602185645040807 -0.00049696775997439371 0 0.022767630736183868 -0.00044971828604802911 0 0.022896598409062739 -0.00063525354955595403 0 0.023137889339906421 -0.00044647734765964394 0 0.022896598409062739 -0.00063525354955595403 0 0.02313693479047927 -0.00069951164124340071 0 0.023137889339906421 -0.00044647734765964394 0 0.023510837866668254 -0.00059396719010023843 0 0.024080215705780984 -0.00056518957341121566 0 0.023784600379571749 -0.00024836662693315722 0 0.024080215705780984 -0.00056518957341121566 0 0.023784600379571749 -0.00024836662693315722 0 0.024120106423353323 -0.00020263341321059849 0 0.024080215705780984 -0.00056518957341121566 0 0.024337655369983637 -0.00029652437858073409 0 0.024369015922858683 -0.00042619203389853029 0 0.024080215705780984 -0.00056518957341121566 0 0.024120106423353323 -0.00020263341321059849 0 0.024337655369983637 -0.00029652437858073409 0 0.024120106423353323 -0.00020263341321059849 0 0.024337655369983637 -0.00029652437858073409 0 0.0243612579914173 -8.8751291042662143e-05 0 0.024519669047930487 -0.00015086738947352261 0 0.024337655369983637 -0.00029652437858073409 0 0.0243612579914173 -8.8751291042662143e-05 0 0.024519669047930487 -0.00015086738947352261 0 0.024520757372378122 -0.00033329591795392576 0 0.024337655369983637 -0.00029652437858073409 0 0.024520757372378122 -0.00033329591795392576 0 0.024337655369983637 -0.00029652437858073409 0 0.024369015922858683 -0.00042619203389853029 0 0.024519669047930487 -0.00015086738947352261 0 0.024520757372378122 -0.00033329591795392576 0 0.024668298781293795 -0.00021555482507596669 0 0.024520757372378122 -0.00033329591795392576 0 0.024668298781293795 -0.00021555482507596669 0 0.024692083044339494 -0.00037469426264055217 0 0.024668298781293795 -0.00021555482507596669 0 0.024692083044339494 -0.00037469426264055217 0 0.024860204691227284 -0.00027432122116403598 0 0.023614366513545159 -0.00042976380684310882 0 0.024012129434578294 -0.00073098942812546968 0 0.024348231135927885 -0.00044300730799193071 0 0.024077289201682676 -0.00050241535254182872 0 0.024545112315720114 -0.00052176748101080608 0 0.024692083044339494 -0.00037469426264055217 0 0.024522206443058303 -0.00051960260664433869 0 0.024866903206986424 -0.00051395123921715077 0 0.024520757372378122 -0.00033329591795392576 0 0.024692083044339494 -0.00037469426264055217 0 0.024522206443058303 -0.00051960260664433869 0 0.023602185645040807 -0.00049696775997439371 0 0.024077289201682676 -0.00050241535254182872 0 0.024080215705780984 -0.00056518957341121566 0 0.024369015922858683 -0.00042619203389853029 0 0.024522206443058303 -0.00051960260664433869 0 0.023137889339906421 -0.00044647734765964394 0 0.023614366513545159 -0.00042976380684310882 0 0.023482886633683402 -0.00047689048810384776 0 0.024520757372378122 -0.00033329591795392576 0 0.024369015922858683 -0.00042619203389853029 0 0.024522206443058303 -0.00051960260664433869 0 0.023614366513545159 -0.00042976380684310882 0 0.023482886633683402 -0.00047689048810384776 0 0.023597209835209344 -0.00069059968176885802 0 0.023482886633683402 -0.00047689048810384776 0 0.023349848890819556 -0.00082383278228202316 0 0.023597209835209344 -0.00069059968176885802 0 0.023349848890819556 -0.00082383278228202316 0 0.023597209835209344 -0.00069059968176885802 0 0.023626228335639172 -0.0010081129470909391 0 0.023614366513545159 -0.00042976380684310882 0 0.023597209835209344 -0.00069059968176885802 0 0.024012129434578294 -0.00073098942812546968 0 0.023597209835209344 -0.00069059968176885802 0 0.024012129434578294 -0.00073098942812546968 0 0.023626228335639172 -0.0010081129470909391 0 0.024112795229464974 -0.0013606761996759868 0 0.024012129434578294 -0.00073098942812546968 0 0.023626228335639172 -0.0010081129470909391 0 0.024112795229464974 -0.0013606761996759868 0 0.023391407365598114 -0.0014026770504049068 0 0.023626228335639172 -0.0010081129470909391 0 0.023391407365598114 -0.0014026770504049068 0 0.023095826934482915 -0.0011707298569319801 0 0.023362341472662879 -0.0011031573810427555 0 0.023391407365598114 -0.0014026770504049068 0 0.023362341472662879 -0.0011031573810427555 0 0.023626228335639172 -0.0010081129470909391 0 0.023349848890819556 -0.00082383278228202316 0 0.023362341472662879 -0.0011031573810427555 0 0.023626228335639172 -0.0010081129470909391 0 0.024825897217246241 -0.0012220799969634736 0 0.024545816656719604 -0.00090786585717633728 0 0.025057099953296573 -0.00090158613549979109 0 0.02407570871779308 -0.0012807478924962933 0 0.024594510231491905 -0.0011850270702379738 0 0.024112795229464974 -0.0013606761996759868 0 0.024012129434578294 -0.00073098942812546968 0 0.024545816656719604 -0.00090786585717633728 0 0.024112795229464974 -0.0013606761996759868 0 0.024825897217246241 -0.0012220799969634736 0 0.024545816656719604 -0.00090786585717633728 0 0.024012129434578294 -0.00073098942812546968 0 0.024545816656719604 -0.00090786585717633728 0 0.024348231135927885 -0.00044300730799193071 0 0.024545816656719604 -0.00090786585717633728 0 0.024348231135927885 -0.00044300730799193071 0 0.025110234327059746 -0.00057226090503966788 0 0.024545816656719604 -0.00090786585717633728 0 0.025057099953296573 -0.00090158613549979109 0 0.025110234327059746 -0.00057226090503966788 0 0.024545112315720114 -0.00052176748101080608 0 0.024804051099450324 -0.0005425258622117565 0 0.02501808212020375 -0.0004020285686820115 0 0.024866903206986424 -0.00051395123921715077 0 0.025110234327059746 -0.00057226090503966788 0 0.02501808212020375 -0.0004020285686820115 0 0.024866903206986424 -0.00051395123921715077 0 0.024860204691227284 -0.00027432122116403598 0 0.024692083044339494 -0.00037469426264055217 0 0.024866903206986424 -0.00051395123921715077 0 0.024860204691227284 -0.00027432122116403598 0 0.024668298781293795 -0.00021555482507596669 0 0.024860204691227284 -0.00027432122116403598 0 0.02478152156227887 -5.8823643085507801e-05 0 0.024860204691227284 -0.00027432122116403598 0 0.025075064884805754 -0.00017785654890261913 0 0.024935745346556931 -7.4782104249279555e-05 0 0.02501808212020375 -0.0004020285686820115 0 0.024860204691227284 -0.00027432122116403598 0 0.025075064884805754 -0.00017785654890261913 0 0.025075064884805754 -0.00017785654890261913 0 0.025031175432426535 1.3370661010706965e-05 0 0.025147709455340336 -1.0213493506556125e-05 0 0.025075064884805754 -0.00017785654890261913 0 0.025031175432426535 1.3370661010706965e-05 0 0.024935745346556931 -7.4782104249279555e-05 0 0.025031175432426535 1.3370661010706965e-05 0 0.02491558388853362 9.5818660316574039e-05 0 0.024935745346556931 -7.4782104249279555e-05 0 0.025031175432426535 1.3370661010706965e-05 0 0.025065282079011257 0.00018620713759990006 0 0.025147709455340336 -1.0213493506556125e-05 0 0.025065282079011257 0.00018620713759990006 0 0.025199950547207622 0.00018493949132166162 0 0.025147709455340336 -1.0213493506556125e-05 0 0.025065282079011257 0.00018620713759990006 0 0.024890345955383725 0.00028342749683216498 0 0.02491558388853362 9.5818660316574039e-05 0 0.025031175432426535 1.3370661010706965e-05 0 0.025065282079011257 0.00018620713759990006 0 0.02491558388853362 9.5818660316574039e-05 0 0.025065282079011257 0.00018620713759990006 0 0.024890345955383725 0.00028342749683216498 0 0.025040895376636698 0.00033839733814493885 0 0.025065282079011257 0.00018620713759990006 0 0.025040895376636698 0.00033839733814493885 0 0.025174759419012656 0.00034942524526540168 0 0.025065282079011257 0.00018620713759990006 0 0.025199950547207622 0.00018493949132166162 0 0.025174759419012656 0.00034942524526540168 0 0.024890345955383725 0.00028342749683216498 0 0.024735143881744314 0.00014557901482059539 0 0.024753199956764296 0.0003299055648778741 0 0.024890345955383725 0.00028342749683216498 0 0.02491558388853362 9.5818660316574039e-05 0 0.024735143881744314 0.00014557901482059539 0 0.02491558388853362 9.5818660316574039e-05 0 0.02478152156227887 -5.8823643085507801e-05 0 0.024735143881744314 0.00014557901482059539 0 0.02491558388853362 9.5818660316574039e-05 0 0.024935745346556931 -7.4782104249279555e-05 0 0.02478152156227887 -5.8823643085507801e-05 0 0.024860204691227284 -0.00027432122116403598 0 0.024935745346556931 -7.4782104249279555e-05 0 0.02478152156227887 -5.8823643085507801e-05 0 0.024668298781293795 -0.00021555482507596669 0 0.02478152156227887 -5.8823643085507801e-05 0 0.024648597506616927 -3.693281078268767e-05 0 0.024519669047930487 -0.00015086738947352261 0 0.024668298781293795 -0.00021555482507596669 0 0.024648597506616927 -3.693281078268767e-05 0 0.024519669047930487 -0.00015086738947352261 0 0.024648597506616927 -3.693281078268767e-05 0 0.024529272772732928 9.4834980989576064e-05 0 0.024648597506616927 -3.693281078268767e-05 0 0.024529272772732928 9.4834980989576064e-05 0 0.024735143881744314 0.00014557901482059539 0 0.02478152156227887 -5.8823643085507801e-05 0 0.024648597506616927 -3.693281078268767e-05 0 0.024735143881744314 0.00014557901482059539 0 0.024519669047930487 -0.00015086738947352261 0 0.0243612579914173 -8.8751291042662143e-05 0 0.024529272772732928 9.4834980989576064e-05 0 0.0243612579914173 -8.8751291042662143e-05 0 0.024529272772732928 9.4834980989576064e-05 0 0.024345288206582345 0.00013735376922616009 0 0.024529272772732928 9.4834980989576064e-05 0 0.024345288206582345 0.00013735376922616009 0 0.02444990022494677 0.00033917237316695041 0 0.024529272772732928 9.4834980989576064e-05 0 0.02444990022494677 0.00033917237316695041 0 0.024620083005350259 0.00031218158590787677 0 0.02426108820502676 0.00038542507008643118 0 0.024345288206582345 0.00013735376922616009 0 0.02444990022494677 0.00033917237316695041 0 0.024529272772732928 9.4834980989576064e-05 0 0.024735143881744314 0.00014557901482059539 0 0.024620083005350259 0.00031218158590787677 0 0.024735143881744314 0.00014557901482059539 0 0.024620083005350259 0.00031218158590787677 0 0.024753199956764296 0.0003299055648778741 0 0.024620083005350259 0.00031218158590787677 0 0.024753199956764296 0.0003299055648778741 0 0.024692990499851204 0.00048857457572814731 0 0.024620083005350259 0.00031218158590787677 0 0.024692990499851204 0.00048857457572814731 0 0.024551919150330091 0.00053943572805566849 0 0.024692990499851204 0.00048857457572814731 0 0.024551919150330091 0.00053943572805566849 0 0.02467108508949219 0.0006370880243156071 0 0.024381268939854487 0.00058480626930770775 0 0.02426108820502676 0.00038542507008643118 0 0.02444990022494677 0.00033917237316695041 0 0.024381268939854487 0.00058480626930770775 0 0.02444990022494677 0.00033917237316695041 0 0.024551919150330091 0.00053943572805566849 0 0.02444990022494677 0.00033917237316695041 0 0.024620083005350259 0.00031218158590787677 0 0.024551919150330091 0.00053943572805566849 0 0.024381268939854487 0.00058480626930770775 0 0.024551919150330091 0.00053943572805566849 0 0.024516907510451227 0.00076326847754981544 0 0.024516907510451227 0.00076326847754981544 0 0.02467108508949219 0.0006370880243156071 0 0.024739606708439402 0.00072628025526754944 0 0.024516907510451227 0.00076326847754981544 0 0.024739606708439402 0.00072628025526754944 0 0.024822893758953208 0.00086441417930487637 0 0.024551919150330091 0.00053943572805566849 0 0.024516907510451227 0.00076326847754981544 0 0.02467108508949219 0.0006370880243156071 0 0.02467108508949219 0.0006370880243156071 0 0.024739606708439402 0.00072628025526754944 0 0.024813330678535833 0.00063283984054171431 0 0.024692990499851204 0.00048857457572814731 0 0.02467108508949219 0.0006370880243156071 0 0.024813330678535833 0.00063283984054171431 0 0.024739606708439402 0.00072628025526754944 0 0.024813330678535833 0.00063283984054171431 0 0.02488255044602862 0.0007303416438187621 0 0.024739606708439402 0.00072628025526754944 0 0.02488255044602862 0.0007303416438187621 0 0.024822893758953208 0.00086441417930487637 0 0.024813330678535833 0.00063283984054171431 0 0.024953078846290781 0.00061907517091863077 0 0.02488255044602862 0.0007303416438187621 0 0.024813330678535833 0.00063283984054171431 0 0.024953078846290781 0.00061907517091863077 0 0.024845525003637361 0.00046677892864654703 0 0.024953078846290781 0.00061907517091863077 0 0.02488255044602862 0.0007303416438187621 0 0.025037588689529901 0.00077233783744450502 0 0.025037588689529901 0.00077233783744450502 0 0.025108551993170129 0.00058637013782074246 0 0.025248763073484642 0.00073959515047405044 0 0.024953078846290781 0.00061907517091863077 0 0.025108551993170129 0.00058637013782074246 0 0.024983627026235543 0.00047150783704634161 0 0.024953078846290781 0.00061907517091863077 0 0.025037588689529901 0.00077233783744450502 0 0.025108551993170129 0.00058637013782074246 0 0.025108551993170129 0.00058637013782074246 0 0.024983627026235543 0.00047150783704634161 0 0.025088391171695805 0.00044882788889495358 0 0.025108551993170129 0.00058637013782074246 0 0.025088391171695805 0.00044882788889495358 0 0.025269205760657727 0.000532675475087208 0 0.025088391171695805 0.00044882788889495358 0 0.025040895376636698 0.00033839733814493885 0 0.025174759419012656 0.00034942524526540168 0 0.024890345955383725 0.00028342749683216498 0 0.024983627026235543 0.00047150783704634161 0 0.025040895376636698 0.00033839733814493885 0 0.024983627026235543 0.00047150783704634161 0 0.025088391171695805 0.00044882788889495358 0 0.025040895376636698 0.00033839733814493885 0 0.024890345955383725 0.00028342749683216498 0 0.024983627026235543 0.00047150783704634161 0 0.024845525003637361 0.00046677892864654703 0 0.024890345955383725 0.00028342749683216498 0 0.024753199956764296 0.0003299055648778741 0 0.024845525003637361 0.00046677892864654703 0 0.024753199956764296 0.0003299055648778741 0 0.024692990499851204 0.00048857457572814731 0 0.024845525003637361 0.00046677892864654703 0 0.024692990499851204 0.00048857457572814731 0 0.024813330678535833 0.00063283984054171431 0 0.024845525003637361 0.00046677892864654703 0 0.024953078846290781 0.00061907517091863077 0 0.024983627026235543 0.00047150783704634161 0 0.024845525003637361 0.00046677892864654703 0 0.027765305627848801 0.0019097110924244875 0 0.027672503330561388 0.0021666836769689453 0 0.029164310074981412 0.0022962401519385708 0 0.034966380872740954 0.00010556378988795803 0 0.034968690332830447 0.00011041034383556234 0 0.034968925242456581 0.00010435349362000453 0 0.034966380872740954 0.00010556378988795803 0 0.034968690332830447 0.00011041034383556234 0 0.034964357555915669 0.00012298399024349344 0 0.034968690332830447 0.00011041034383556234 0 0.034964357555915669 0.00012298399024349344 0 0.034968055749335161 0.00011480943488272763 0 0.031255714808333258 0.00060069159564690537 0 0.030338578350631071 0.0010118795824432369 0 0.027765305627848801 0.0019097110924244875 0 0.028036651020543868 0.0022870646013730838 0 0.027672503330561388 0.0021666836769689453 0 0.030338578350631071 0.0010118795824432369 0 0.026857333745678027 0.00070981385259116206 0 0.028036651020543868 0.0022870646013730838 0 0.027672503330561388 0.0021666836769689453 0 0.027349888347548069 0.0018126215275389461 0 0.025037588689529901 0.00077233783744450502 0 0.025172503621306377 0.0010074354855227011 0 0.025248763073484642 0.00073959515047405044 0 0.025037588689529901 0.00077233783744450502 0 0.025172503621306377 0.0010074354855227011 0 0.024822893758953208 0.00086441417930487637 0 0.02488255044602862 0.0007303416438187621 0 0.025037588689529901 0.00077233783744450502 0 0.024822893758953208 0.00086441417930487637 0 0.027672503330561388 0.0021666836769689453 0 0.027349888347548069 0.0018126215275389461 0 0.026176521015362112 0.0025945820318579458 0 0.027349888347548069 0.0018126215275389461 0 0.02556591173303371 0.0019670315545774115 0 0.026176521015362112 0.0025945820318579458 0 0.025781767808575256 0.0011713129819251999 0 0.027349888347548069 0.0018126215275389461 0 0.02556591173303371 0.0019670315545774115 0 0.025524793031070327 0.00064653821397068557 0 0.026857333745678027 0.00070981385259116206 0 0.025781767808575256 0.0011713129819251999 0 0.02556591173303371 0.0019670315545774115 0 0.024616484957402353 0.0016412657245489014 0 0.02556591173303371 0.0019670315545774115 0 0.026176521015362112 0.0025945820318579458 0 0.024622834524102195 0.0027970684942678885 0 0.029657034313932969 0.0016175188349971605 0 0.029164310074981412 0.0022962401519385708 0 0.031500262207027285 0.0018782013821364719 0 0.027855765183656154 0.0021971528420267885 0 0.028079678804833835 0.002029278728236173 0 0.027765305627848801 0.0019097110924244875 0 0.029164310074981412 0.0022962401519385708 0 0.028832587509211478 0.0016415720142938961 0 0.02780919886831117 0.0022129583258219776 0 0.027855765183656154 0.0021971528420267885 0 0.029657034313932969 0.0016175188349971605 0 0.029164310074981412 0.0022962401519385708 0 0.028832587509211478 0.0016415720142938961 0 0.034957957418365493 9.9814656623940188e-05 0 0.034960651296626843 0.00010123993888293041 0 0.034962554196388503 0.00010172270368638001 0 0.027765305627848801 0.0019097110924244875 0 0.028832587509211478 0.0016415720142938961 0 0.028838720426427301 0.0013267349050830402 0 0.031981374757261045 9.2620435039906854e-05 0 0.033025967017903085 0.00044716129104304937 0 0.034957957418365493 9.9814656623940188e-05 0 0.034960144990242643 0.00010183450758581979 0 0.034959168328417292 0.00010408541180076404 0 0.028814365034384355 0.0012015700101065637 0 0.029236939567373173 0.00058222738408511229 0 0.028816531140171246 -0.00013103608430653168 0 0.031942029928443999 0.00016155190433096359 0 0.031981374757261045 9.2620435039906854e-05 0 0.029657034313932969 0.0016175188349971605 0 0.028832587509211478 0.0016415720142938961 0 0.029145516715635492 0.0013494740584534348 0 0.028832587509211478 0.0016415720142938961 0 0.029145516715635492 0.0013494740584534348 0 0.028827074832108227 0.0011964783453086839 0 0.029657034313932969 0.0016175188349971605 0 0.029145516715635492 0.0013494740584534348 0 0.029354812022760982 0.0011639984457008615 0 0.029354812022760982 0.0011639984457008615 0 0.029019571019045207 0.0010835469371052746 0 0.029314199282200998 0.00094133054411036038 0 0.029145516715635492 0.0013494740584534348 0 0.029354812022760982 0.0011639984457008615 0 0.029019571019045207 0.0010835469371052746 0 0.029145516715635492 0.0013494740584534348 0 0.028827074832108227 0.0011964783453086839 0 0.029019571019045207 0.0010835469371052746 0 0.031981374757261045 9.2620435039906854e-05 0 0.031944162246671973 0.00011144201484673046 0 0.028814365034384355 0.0012015700101065637 0 0.029019571019045207 0.0010835469371052746 0 0.029236939567373173 0.00058222738408511229 0 0.029314199282200998 0.00094133054411036038 0 0.029236939567373173 0.00058222738408511229 0 0.029646928469811387 0.0009330966355824556 0 0.029019571019045207 0.0010835469371052746 0 0.029314199282200998 0.00094133054411036038 0 0.029236939567373173 0.00058222738408511229 0 0.034960144990242643 0.00010183450758581979 0 0.034961858329935466 0.00010158983158598729 0 0.034961303870829775 0.0001020399072934661 0 0.034960144990242643 0.00010183450758581979 0 0.034961858329935466 0.00010158983158598729 0 0.034960651296626843 0.00010123993888293041 0 0.034961858329935466 0.00010158983158598729 0 0.034960651296626843 0.00010123993888293041 0 0.034962554196388503 0.00010172270368638001 0 0.034957957418365493 9.9814656623940188e-05 0 0.034960144990242643 0.00010183450758581979 0 0.034960651296626843 0.00010123993888293041 0 0.029657034313932969 0.0016175188349971605 0 0.030647613001287221 0.00095308904625823092 0 0.031500262207027285 0.0018782013821364719 0 0.029657034313932969 0.0016175188349971605 0 0.029646928469811387 0.0009330966355824556 0 0.030647613001287221 0.00095308904625823092 0 0.029657034313932969 0.0016175188349971605 0 0.029354812022760982 0.0011639984457008615 0 0.029646928469811387 0.0009330966355824556 0 0.029236939567373173 0.00058222738408511229 0 0.029890905351288743 0.0004509385407297069 0 0.029646928469811387 0.0009330966355824556 0 0.029890905351288743 0.0004509385407297069 0 0.029646928469811387 0.0009330966355824556 0 0.030647613001287221 0.00095308904625823092 0 0.029354812022760982 0.0011639984457008615 0 0.029314199282200998 0.00094133054411036038 0 0.029646928469811387 0.0009330966355824556 0 0.029890905351288743 0.0004509385407297069 0 0.030647613001287221 0.00095308904625823092 0 0.031072344423188784 7.8371348981913194e-06 0 0.032256271162711667 0.00016933110233386222 0 0.031905150069724574 0.00030254998677817858 0 0.032609657395944756 0.00034449828368316072 0 0.029890905351288743 0.0004509385407297069 0 0.028816531140171246 -0.00013103608430653168 0 0.031072344423188784 7.8371348981913194e-06 0 0.032256271162711667 0.00016933110233386222 0 0.031911231445145335 7.0432612126451922e-05 0 0.032591903093166917 -6.9579366632345515e-05 0 0.033025967017903085 0.00044716129104304937 0 0.03214298999946591 0.00032219576336512047 0 0.032256271162711667 0.00016933110233386222 0 0.032591903093166917 -6.9579366632345515e-05 0 0.032609657395944756 0.00034449828368316072 0 0.034961303870829775 0.0001020399072934661 0 0.034959168328417292 0.00010408541180076404 0 0.034962267346127465 0.00010140803023877607 0 0.034960144990242643 0.00010183450758581979 0 0.034961303870829775 0.0001020399072934661 0 0.034959168328417292 0.00010408541180076404 0 0.029236939567373173 0.00058222738408511229 0 0.029890905351288743 0.0004509385407297069 0 0.028816531140171246 -0.00013103608430653168 0 0.032256271162711667 0.00016933110233386222 0 0.031905150069724574 0.00030254998677817858 0 0.031911231445145335 7.0432612126451922e-05 0 0.033025967017903085 0.00044716129104304937 0 0.033692044731693314 0.00035235385782836771 0 0.035033068863500917 7.0192098960095687e-05 0 0.035015015611750716 7.6177961569440689e-05 0 0.035021852109260822 6.6047763862640973e-05 0 0.034844079903133832 9.2047466526993342e-05 0 0.034842535810709334 0.00014120134329544855 0 0.034929287632116848 0.00012363762557618429 0 0.033692044731693314 0.00035235385782836771 0 0.034396448044749034 0.00021634540849105655 0 0.034844079903133832 9.2047466526993342e-05 0 0.034929287632116848 0.00012363762557618429 0 0.034963306723006043 9.8234240719547833e-05 0 0.034959168328417292 0.00010408541180076404 0 0.034963306723006043 9.8234240719547833e-05 0 0.034962267346127465 0.00010140803023877607 0 0.033025967017903085 0.00044716129104304937 0 0.034026012449070719 0.00041944891157718212 0 0.034396448044749034 0.00021634540849105655 0 0.034578163110734153 0.00018094385003742069 0 0.034929287632116848 0.00012363762557618429 0 0.034963306723006043 9.8234240719547833e-05 0 0.034988547405929854 9.1488306900346203e-05 0 0.035015015611750716 7.6177961569440689e-05 0 0.034988547405929854 9.1488306900346203e-05 0 0.035002678302986992 7.1130971920674237e-05 0 0.034963306723006043 9.8234240719547833e-05 0 0.034964435918682507 0.00010062950191371259 0 0.034962267346127465 0.00010140803023877607 0 0.034963306723006043 9.8234240719547833e-05 0 0.034964435918682507 0.00010062950191371259 0 0.034968825944455884 9.9814353625933593e-05 0 0.034964435918682507 0.00010062950191371259 0 0.034962267346127465 0.00010140803023877607 0 0.034962938564881287 0.0001014613262988703 0 0.034961303870829775 0.0001020399072934661 0 0.034962267346127465 0.00010140803023877607 0 0.034962938564881287 0.0001014613262988703 0 0.034966380872740954 0.00010556378988795803 0 0.034957957418365493 9.9814656623940188e-05 0 0.034962554196388503 0.00010172270368638001 0 0.034961858329935466 0.00010158983158598729 0 0.034961303870829775 0.0001020399072934661 0 0.034962938564881287 0.0001014613262988703 0 0.031255714808333258 0.00060069159564690537 0 0.031981374757261045 9.2620435039906854e-05 0 0.034961858329935466 0.00010158983158598729 0 0.034963719415616032 0.00010159793273164979 0 0.034962554196388503 0.00010172270368638001 0 0.034961858329935466 0.00010158983158598729 0 0.034962938564881287 0.0001014613262988703 0 0.034963719415616032 0.00010159793273164979 0 0.034962938564881287 0.0001014613262988703 0 0.034963719415616032 0.00010159793273164979 0 0.034965080038516817 0.00010107465158471022 0 0.034963719415616032 0.00010159793273164979 0 0.034965080038516817 0.00010107465158471022 0 0.034965683791734058 0.00010255302822436359 0 0.034964435918682507 0.00010062950191371259 0 0.034962938564881287 0.0001014613262988703 0 0.034965080038516817 0.00010107465158471022 0 0.034964435918682507 0.00010062950191371259 0 0.034968825944455884 9.9814353625933593e-05 0 0.034965080038516817 0.00010107465158471022 0 0.034968825944455884 9.9814353625933593e-05 0 0.034965080038516817 0.00010107465158471022 0 0.034965683791734058 0.00010255302822436359 0 0.034966380872740954 0.00010556378988795803 0 0.034965683791734058 0.00010255302822436359 0 0.034968925242456581 0.00010435349362000453 0 0.034968825944455884 9.9814353625933593e-05 0 0.034965683791734058 0.00010255302822436359 0 0.034968925242456581 0.00010435349362000453 0 0.034966380872740954 0.00010556378988795803 0 0.034965683791734058 0.00010255302822436359 0 0.034962554196388503 0.00010172270368638001 0 0.034963719415616032 0.00010159793273164979 0 0.034965683791734058 0.00010255302822436359 0 0.034962554196388503 0.00010172270368638001 0 0.034968690332830447 0.00011041034383556234 0 0.034973042262329668 0.00010314355718415115 0 0.034968055749335161 0.00011480943488272763 0 0.034968690332830447 0.00011041034383556234 0 0.034973042262329668 0.00010314355718415115 0 0.034968925242456581 0.00010435349362000453 0 0.034968825944455884 9.9814353625933593e-05 0 0.034973042262329668 0.00010314355718415115 0 0.034968925242456581 0.00010435349362000453 0 0.034968825944455884 9.9814353625933593e-05 0 0.034973042262329668 0.00010314355718415115 0 0.03497683772996716 9.6289615647832856e-05 0 0.034973042262329668 0.00010314355718415115 0 0.034977328124321416 9.7453486104847432e-05 0 0.03497683772996716 9.6289615647832856e-05 0 0.034973042262329668 0.00010314355718415115 0 0.034977328124321416 9.7453486104847432e-05 0 0.034968055749335161 0.00011480943488272763 0 0.034977328124321416 9.7453486104847432e-05 0 0.03497683772996716 9.6289615647832856e-05 0 0.034988547405929854 9.1488306900346203e-05 0 0.034977328124321416 9.7453486104847432e-05 0 0.034988547405929854 9.1488306900346203e-05 0 0.034980994327688267 8.3411189430030328e-05 0 0.034963306723006043 9.8234240719547833e-05 0 0.034968825944455884 9.9814353625933593e-05 0 0.03497683772996716 9.6289615647832856e-05 0 0.034963306723006043 9.8234240719547833e-05 0 0.03497683772996716 9.6289615647832856e-05 0 0.034988547405929854 9.1488306900346203e-05 0 0.034988547405929854 9.1488306900346203e-05 0 0.034991693244935833 6.9681514400144902e-05 0 0.035002678302986992 7.1130971920674237e-05 0 0.034988547405929854 9.1488306900346203e-05 0 0.034991693244935833 6.9681514400144902e-05 0 0.034980994327688267 8.3411189430030328e-05 0 0.034991693244935833 6.9681514400144902e-05 0 0.034980994327688267 8.3411189430030328e-05 0 0.034985382528241467 6.4977810625348379e-05 0 0.034991693244935833 6.9681514400144902e-05 0 0.034993809436230351 4.9191278050641888e-05 0 0.034985382528241467 6.4977810625348379e-05 0 0.034991693244935833 6.9681514400144902e-05 0 0.035002244966675491 5.9400408817682459e-05 0 0.035002678302986992 7.1130971920674237e-05 0 0.034991693244935833 6.9681514400144902e-05 0 0.035002244966675491 5.9400408817682459e-05 0 0.034993809436230351 4.9191278050641888e-05 0 0.035002244966675491 5.9400408817682459e-05 0 0.034993809436230351 4.9191278050641888e-05 0 0.035008025863676712 4.5515369854377926e-05 0 0.035015015611750716 7.6177961569440689e-05 0 0.035021852109260822 6.6047763862640973e-05 0 0.03501221709956201 6.2467767055656212e-05 0 0.035021852109260822 6.6047763862640973e-05 0 0.03501221709956201 6.2467767055656212e-05 0 0.035019415391593617 5.275783801554242e-05 0 0.035002244966675491 5.9400408817682459e-05 0 0.03501221709956201 6.2467767055656212e-05 0 0.035002678302986992 7.1130971920674237e-05 0 0.035015015611750716 7.6177961569440689e-05 0 0.03501221709956201 6.2467767055656212e-05 0 0.035002678302986992 7.1130971920674237e-05 0 0.035002244966675491 5.9400408817682459e-05 0 0.03501221709956201 6.2467767055656212e-05 0 0.035008025863676712 4.5515369854377926e-05 0 0.03501221709956201 6.2467767055656212e-05 0 0.035019415391593617 5.275783801554242e-05 0 0.035008025863676712 4.5515369854377926e-05 0 0.035019415391593617 5.275783801554242e-05 0 0.035008025863676712 4.5515369854377926e-05 0 0.035011814597916129 3.064154475712112e-05 0 0.035008025863676712 4.5515369854377926e-05 0 0.035011814597916129 3.064154475712112e-05 0 0.035000380456898197 3.4427191885889354e-05 0 0.034993809436230351 4.9191278050641888e-05 0 0.035000380456898197 3.4427191885889354e-05 0 0.03499076893126337 2.9364992686747906e-05 0 0.034993809436230351 4.9191278050641888e-05 0 0.035008025863676712 4.5515369854377926e-05 0 0.035000380456898197 3.4427191885889354e-05 0 0.035011814597916129 3.064154475712112e-05 0 0.035000380456898197 3.4427191885889354e-05 0 0.035000601637821448 1.886756414042509e-05 0 0.035000380456898197 3.4427191885889354e-05 0 0.035000601637821448 1.886756414042509e-05 0 0.03499076893126337 2.9364992686747906e-05 0 0.035000601637821448 1.886756414042509e-05 0 0.03499076893126337 2.9364992686747906e-05 0 0.034995798615477081 1.1350711323108366e-05 0 0.035000601637821448 1.886756414042509e-05 0 0.035000080344214854 6.1153838422553681e-06 0 0.034995798615477081 1.1350711323108366e-05 0 0.035011814597916129 3.064154475712112e-05 0 0.035000601637821448 1.886756414042509e-05 0 0.035009024632633022 1.2486568981352431e-05 0 0.035011814597916129 3.064154475712112e-05 0 0.035009024632633022 1.2486568981352431e-05 0 0.035028711447114981 2.9759116934466312e-05 0 0.035000601637821448 1.886756414042509e-05 0 0.035009024632633022 1.2486568981352431e-05 0 0.035000080344214854 6.1153838422553681e-06 0 0.035000002978615864 6.5535509997285999e-09 0 0.035006174278155049 2.540425876533508e-07 0 0.035000080344214854 6.1153838422553681e-06 0 0.035009024632633022 1.2486568981352431e-05 0 0.035006174278155049 2.540425876533508e-07 0 0.035000080344214854 6.1153838422553681e-06 0 0.035000002978615864 6.5535509997285999e-09 0 0.035006174278155049 2.540425876533508e-07 0 0.035000053507336301 -1.6722292565364975e-08 0 0.035000002978615864 6.5535509997285999e-09 0 0.035000080344214854 6.1153838422553681e-06 0 0.034999987856862078 3.2255283502849513e-09 0 0.035003789268925146 -1.2373692408885663e-05 0 0.035001580534560969 -4.298037276606339e-05 0 0.034999983244968287 2.6582321292970185e-09 0 0.035003789268925146 -1.2373692408885663e-05 0 0.035000053507336301 -1.6722292565364975e-08 0 0.034999983244968287 2.6582321292970185e-09 0 0.035006174278155049 2.540425876533508e-07 0 0.035013130509007874 -4.0705674173221761e-06 0 0.035000053507336301 -1.6722292565364975e-08 0 0.035003789268925146 -1.2373692408885663e-05 0 0.035013130509007874 -4.0705674173221761e-06 0 0.035000053507336301 -1.6722292565364975e-08 0 0.035009024632633022 1.2486568981352431e-05 0 0.035006174278155049 2.540425876533508e-07 0 0.035013130509007874 -4.0705674173221761e-06 0 0.035003789268925146 -1.2373692408885663e-05 0 0.035013130509007874 -4.0705674173221761e-06 0 0.035052894498424372 -8.0642104993340388e-05 0 0.035009024632633022 1.2486568981352431e-05 0 0.035013130509007874 -4.0705674173221761e-06 0 0.035028711447114981 2.9759116934466312e-05 0 0.034519037815541255 -4.217068356468542e-06 0 0.034345297501411236 3.2235100208131126e-05 0 0.035003789268925146 -1.2373692408885663e-05 0 0.035001580534560969 -4.298037276606339e-05 0 0.035052894498424372 -8.0642104993340388e-05 0 0.035001580534560969 -4.298037276606339e-05 0 0.035003597433498623 -9.30491690928746e-05 0 0.035052894498424372 -8.0642104993340388e-05 0 0.035003597433498623 -9.30491690928746e-05 0 0.035052894498424372 -8.0642104993340388e-05 0 0.0350284887479538 -0.00012426243023251515 0 0.035019415391593617 5.275783801554242e-05 0 0.035011814597916129 3.064154475712112e-05 0 0.035028711447114981 2.9759116934466312e-05 0 0.035059959637939744 -0.00016305501480209228 0 0.035052894498424372 -8.0642104993340388e-05 0 0.0350284887479538 -0.00012426243023251515 0 0.035033068863500917 7.0192098960095687e-05 0 0.035019415391593617 5.275783801554242e-05 0 0.035028711447114981 2.9759116934466312e-05 0 0.033692044731693314 0.00035235385782836771 0 0.034345297501411236 3.2235100208131126e-05 0 0.035033068863500917 7.0192098960095687e-05 0 0.035021852109260822 6.6047763862640973e-05 0 0.035019415391593617 5.275783801554242e-05 0 0.035059959637939744 -0.00016305501480209228 0 0.0350284887479538 -0.00012426243023251515 0 0.034994388145563542 -0.0001629852763909688 0 0.035003597433498623 -9.30491690928746e-05 0 0.0350284887479538 -0.00012426243023251515 0 0.034994388145563542 -0.0001629852763909688 0 0.033692044731693314 0.00035235385782836771 0 0.033848167565460212 7.7501400678037314e-05 0 0.033848167565460212 7.7501400678037314e-05 0 0.034085689060909828 -7.6483034382374707e-05 0 0.034994388145563542 -0.0001629852763909688 0 0.034885285913706793 -0.00020923248156936604 0 0.034961042275636352 -0.00011155290852695077 0 0.032591903093166917 -6.9579366632345515e-05 0 0.033375010841889707 -0.00025661883080380776 0 0.033010699330531551 0.00010279683401226428 0 0.033375010841889707 -0.00025661883080380776 0 0.033496995080599071 0.00012888552650495207 0 0.033010699330531551 0.00010279683401226428 0 0.034885285913706793 -0.00020923248156936604 0 0.034899321790261208 -0.00011024702312404416 0 0.034961042275636352 -0.00011155290852695077 0 0.034961042275636352 -0.00011155290852695077 0 0.034981249965750319 -6.0030102984934646e-05 0 0.034949724518766628 -5.0130320752651235e-05 0 0.034899321790261208 -0.00011024702312404416 0 0.034961042275636352 -0.00011155290852695077 0 0.034949724518766628 -5.0130320752651235e-05 0 0.034899321790261208 -0.00011024702312404416 0 0.034949724518766628 -5.0130320752651235e-05 0 0.03489487084660705 -6.537062272592701e-05 0 0.035003597433498623 -9.30491690928746e-05 0 0.034994388145563542 -0.0001629852763909688 0 0.034961042275636352 -0.00011155290852695077 0 0.035003597433498623 -9.30491690928746e-05 0 0.034961042275636352 -0.00011155290852695077 0 0.034981249965750319 -6.0030102984934646e-05 0 0.034981249965750319 -6.0030102984934646e-05 0 0.034949724518766628 -5.0130320752651235e-05 0 0.034999983244968287 2.6582321292970185e-09 0 0.035001580534560969 -4.298037276606339e-05 0 0.034981249965750319 -6.0030102984934646e-05 0 0.034999983244968287 2.6582321292970185e-09 0 0.035001580534560969 -4.298037276606339e-05 0 0.035003597433498623 -9.30491690928746e-05 0 0.034981249965750319 -6.0030102984934646e-05 0 0.034999983244968287 2.6582321292970185e-09 0 0.034999890248381391 -2.5822894202147925e-08 0 0.034952271194592578 -2.3545471530790087e-05 0 0.034949724518766628 -5.0130320752651235e-05 0 0.034999983244968287 2.6582321292970185e-09 0 0.034952271194592578 -2.3545471530790087e-05 0 0.034970916105964658 -1.1079206685395885e-05 0 0.034918825590280277 -3.1444017664042727e-05 0 0.034997169279210635 -2.7788214691822755e-08 0 0.034970916105964658 -1.1079206685395885e-05 0 0.034999890248381391 -2.5822894202147925e-08 0 0.034999951692555563 -8.6315724034119084e-09 0 0.034898140620111803 -0.00013484562549999693 0 0.034980013430057945 -1.7959719870168502e-05 0 0.034970916105964658 -1.1079206685395885e-05 0 0.034997169279210635 -2.7788214691822755e-08 0 0.034999951692555563 -8.6315724034119084e-09 0 0.034970916105964658 -1.1079206685395885e-05 0 0.034999890248381391 -2.5822894202147925e-08 0 0.034952271194592578 -2.3545471530790087e-05 0 0.034952271194592578 -2.3545471530790087e-05 0 0.034918825590280277 -3.1444017664042727e-05 0 0.03489487084660705 -6.537062272592701e-05 0 0.034949724518766628 -5.0130320752651235e-05 0 0.034952271194592578 -2.3545471530790087e-05 0 0.03489487084660705 -6.537062272592701e-05 0 0.034970916105964658 -1.1079206685395885e-05 0 0.034952271194592578 -2.3545471530790087e-05 0 0.034918825590280277 -3.1444017664042727e-05 0 0.034529366030585158 -0.0002529015783503247 0 0.034754040895665361 -0.00018450171808166943 0 0.034477963681251292 -0.00023601668389165674 0 0.034529366030585158 -0.0002529015783503247 0 0.034477963681251292 -0.00023601668389165674 0 0.034603532895916021 -0.00022787548545431132 0 0.034898140620111803 -0.00013484562549999693 0 0.03488524162399919 -0.00018387087986609419 0 0.034918825590280277 -3.1444017664042727e-05 0 0.03489487084660705 -6.537062272592701e-05 0 0.034754040895665361 -0.00018450171808166943 0 0.034899321790261208 -0.00011024702312404416 0 0.03489487084660705 -6.537062272592701e-05 0 0.034754040895665361 -0.00018450171808166943 0 0.033375010841889707 -0.00025661883080380776 0 0.034477963681251292 -0.00023601668389165674 0 0.033982544094203017 0.00012400485769947878 0 0.034885285913706793 -0.00020923248156936604 0 0.034754040895665361 -0.00018450171808166943 0 0.034477963681251292 -0.00023601668389165674 0 0.034085689060909828 -7.6483034382374707e-05 0 0.034226129156947241 -0.00012896874661131916 0 0.034885285913706793 -0.00020923248156936604 0 0.034899321790261208 -0.00011024702312404416 0 0.034754040895665361 -0.00018450171808166943 0 0.033375010841889707 -0.00025661883080380776 0 0.033982544094203017 0.00012400485769947878 0 0.033496995080599071 0.00012888552650495207 0 0.034477963681251292 -0.00023601668389165674 0 0.034414746960432438 0.00019507130109713155 0 0.034621296252460375 -8.7239641115737833e-05 0 0.034477963681251292 -0.00023601668389165674 0 0.034414746960432438 0.00019507130109713155 0 0.033982544094203017 0.00012400485769947878 0 0.034414746960432438 0.00019507130109713155 0 0.034516740065131404 0.00063637315825556715 0 0.033919670607750065 0.00042741674210465454 0 0.034414746960432438 0.00019507130109713155 0 0.033919670607750065 0.00042741674210465454 0 0.033982544094203017 0.00012400485769947878 0 0.028481940968467123 0.0010421655405347557 0 0.028326338290224771 0.001668070392352795 0 0.022533496907663597 0.0030828152318707561 0 0.022900347062443593 0.0026720462807189966 0 0.023486454956367427 0.0029163893058315204 0 0.034516740065131404 0.00063637315825556715 0 0.033571175305100225 0.001169751752358461 0 0.033919670607750065 0.00042741674210465454 0 0.022533496907663597 0.0030828152318707561 0 0.022900347062443593 0.0026720462807189966 0 0.022388406167239683 0.0027488493239109699 0 0.033571175305100225 0.001169751752358461 0 0.033919670607750065 0.00042741674210465454 0 0.033310876346894121 0.00039525478657605732 0 0.033919670607750065 0.00042741674210465454 0 0.033496995080599071 0.00012888552650495207 0 0.033310876346894121 0.00039525478657605732 0 0.033919670607750065 0.00042741674210465454 0 0.033982544094203017 0.00012400485769947878 0 0.033496995080599071 0.00012888552650495207 0 0.032547183541023712 0.00033480603506884127 0 0.03214298999946591 0.00032219576336512047 0 0.033310876346894121 0.00039525478657605732 0 0.031072344423188784 7.8371348981913194e-06 0 0.032141866625715783 0.0008479466649007597 0 0.033496995080599071 0.00012888552650495207 0 0.033010699330531551 0.00010279683401226428 0 0.033310876346894121 0.00039525478657605732 0 0.033010699330531551 0.00010279683401226428 0 0.033310876346894121 0.00039525478657605732 0 0.032609657395944756 0.00034449828368316072 0 0.032591903093166917 -6.9579366632345515e-05 0 0.033010699330531551 0.00010279683401226428 0 0.032609657395944756 0.00034449828368316072 0 0.030647613001287221 0.00095308904625823092 0 0.031072344423188784 7.8371348981913194e-06 0 0.032141866625715783 0.0008479466649007597 0 0.030647613001287221 0.00095308904625823092 0 0.032141866625715783 0.0008479466649007597 0 0.031500262207027285 0.0018782013821364719 0 0.028326338290224771 0.001668070392352795 0 0.028079678804833835 0.002029278728236173 0 0.033571175305100225 0.001169751752358461 0 0.033310876346894121 0.00039525478657605732 0 0.032141866625715783 0.0008479466649007597 0 0.033571175305100225 0.001169751752358461 0 0.032141866625715783 0.0008479466649007597 0 0.031500262207027285 0.0018782013821364719 0 0.023799175152230779 0.0024390433976807192 0 0.024622834524102195 0.0027970684942678885 0 0.023903274443298851 0.0018427570315889649 0 0.023486454956367427 0.0029163893058315204 0 0.023799175152230779 0.0024390433976807192 0 0.024622834524102195 0.0027970684942678885 0 0.02556591173303371 0.0019670315545774115 0 0.024622834524102195 0.0027970684942678885 0 0.024616484957402353 0.0016412657245489014 0 0.024622834524102195 0.0027970684942678885 0 0.024616484957402353 0.0016412657245489014 0 0.023903274443298851 0.0018427570315889649 0 0.023925498733930507 0.001151872229501247 0 0.024616484957402353 0.0016412657245489014 0 0.023903274443298851 0.0018427570315889649 0 0.023925498733930507 0.001151872229501247 0 0.023903274443298851 0.0018427570315889649 0 0.023333580718363563 0.0015978884562213298 0 0.023903274443298851 0.0018427570315889649 0 0.023333580718363563 0.0015978884562213298 0 0.023246765733451281 0.0022025908464988531 0 0.023333580718363563 0.0015978884562213298 0 0.022825897881753026 0.0019599163086386328 0 0.023246765733451281 0.0022025908464988531 0 0.022671836538866987 0.0014848838340866439 0 0.022825897881753026 0.0019599163086386328 0 0.022381330134096118 0.0021252446963676919 0 0.022671836538866987 0.0014848838340866439 0 0.023333580718363563 0.0015978884562213298 0 0.022825897881753026 0.0019599163086386328 0 0.022900347062443593 0.0026720462807189966 0 0.022617521870419051 0.0024100183968325368 0 0.023246765733451281 0.0022025908464988531 0 0.022825897881753026 0.0019599163086386328 0 0.022617521870419051 0.0024100183968325368 0 0.023246765733451281 0.0022025908464988531 0 0.022825897881753026 0.0019599163086386328 0 0.022617521870419051 0.0024100183968325368 0 0.022381330134096118 0.0021252446963676919 0 0.022900347062443593 0.0026720462807189966 0 0.022617521870419051 0.0024100183968325368 0 0.022388406167239683 0.0027488493239109699 0 0.023799175152230779 0.0024390433976807192 0 0.023903274443298851 0.0018427570315889649 0 0.023246765733451281 0.0022025908464988531 0 0.023486454956367427 0.0029163893058315204 0 0.023799175152230779 0.0024390433976807192 0 0.023246765733451281 0.0022025908464988531 0 0.022900347062443593 0.0026720462807189966 0 0.023486454956367427 0.0029163893058315204 0 0.023246765733451281 0.0022025908464988531 0 0.025623854606595522 0.0012068006295625974 0 0.02623534975524805 0.00087278085352174935 0 0.025285130105504126 0.00114785065875977 0 0.025407256662342562 0.0013102512070306705 0 0.024975750127540979 0.00092747392559866808 0 0.025285130105504126 0.00114785065875977 0 0.025407256662342562 0.0013102512070306705 0 0.025456987096124206 0.001048156131713651 0 0.02196302172483405 0.0021866031628521012 0 0.021811004426573213 0.0023886864634013348 0 0.021871188127202412 0.0020296078124529544 0 0.025623854606595522 0.0012068006295625974 0 0.024772807161683844 0.0013010588157119629 0 0.02196302172483405 0.0021866031628521012 0 0.021811004426573213 0.0023886864634013348 0 0.02202681676335003 0.0023208443707582781 0 0.02196302172483405 0.0021866031628521012 0 0.021990432542871141 0.0020722097997057259 0 0.021871188127202412 0.0020296078124529544 0 0.024820710608777649 0.001276687130920368 0 0.024772807161683844 0.0013010588157119629 0 0.021831882143912715 0.0023984013058100133 0 0.021952863172905956 0.0025099621326362229 0 0.021933518980507816 0.0026945121507961356 0 0.021811004426573213 0.0023886864634013348 0 0.021952863172905956 0.0025099621326362229 0 0.02202681676335003 0.0023208443707582781 0 0.025623854606595522 0.0012068006295625974 0 0.025541722910861039 0.0011809233184580262 0 0.021952863172905956 0.0025099621326362229 0 0.022123712062991761 0.0026213019267271498 0 0.021933518980507816 0.0026945121507961356 0 0.021952863172905956 0.0025099621326362229 0 0.022123712062991761 0.0026213019267271498 0 0.022108278373620564 0.0024387626114813878 0 0.022123712062991761 0.0026213019267271498 0 0.022108278373620564 0.0024387626114813878 0 0.022303835501391228 0.0024515755396448532 0 0.022108278373620564 0.0024387626114813878 0 0.022303835501391228 0.0024515755396448532 0 0.022192779181811419 0.0023104810834295693 0 0.021952863172905956 0.0025099621326362229 0 0.022108278373620564 0.0024387626114813878 0 0.02202681676335003 0.0023208443707582781 0 0.022123712062991761 0.0026213019267271498 0 0.022303835501391228 0.0024515755396448532 0 0.022388406167239683 0.0027488493239109699 0 0.022617521870419051 0.0024100183968325368 0 0.022303835501391228 0.0024515755396448532 0 0.022388406167239683 0.0027488493239109699 0 0.022303835501391228 0.0024515755396448532 0 0.022381330134096118 0.0021252446963676919 0 0.022192779181811419 0.0023104810834295693 0 0.022617521870419051 0.0024100183968325368 0 0.022303835501391228 0.0024515755396448532 0 0.022381330134096118 0.0021252446963676919 0 0.022381330134096118 0.0021252446963676919 0 0.022192779181811419 0.0023104810834295693 0 0.022100218827796402 0.0021687987899093389 0 0.022381330134096118 0.0021252446963676919 0 0.022100218827796402 0.0021687987899093389 0 0.022046295989226011 0.0020088778312652052 0 0.02202681676335003 0.0023208443707582781 0 0.022192779181811419 0.0023104810834295693 0 0.022100218827796402 0.0021687987899093389 0 0.022108278373620564 0.0024387626114813878 0 0.02202681676335003 0.0023208443707582781 0 0.022192779181811419 0.0023104810834295693 0 0.02196302172483405 0.0021866031628521012 0 0.022100218827796402 0.0021687987899093389 0 0.021990432542871141 0.0020722097997057259 0 0.02196302172483405 0.0021866031628521012 0 0.02202681676335003 0.0023208443707582781 0 0.022100218827796402 0.0021687987899093389 0 0.022100218827796402 0.0021687987899093389 0 0.021990432542871141 0.0020722097997057259 0 0.022046295989226011 0.0020088778312652052 0 0.022793383233267944 0.0011597493483454012 0 0.023114298918351702 0.0011742445680668131 0 0.022663731502446126 0.0014352199099468888 0 0.022671836538866987 0.0014848838340866439 0 0.022046295989226011 0.0020088778312652052 0 0.021966380340704836 0.0019695227859816231 0 0.022671836538866987 0.0014848838340866439 0 0.022381330134096118 0.0021252446963676919 0 0.022046295989226011 0.0020088778312652052 0 0.023500026342233138 0.0014368565809360035 0 0.024501356250818441 0.0013014477659836451 0 0.021990432542871141 0.0020722097997057259 0 0.022046295989226011 0.0020088778312652052 0 0.021972026937560844 0.001970938421515361 0 0.024481005716300568 0.0012963883166964359 0 0.024501356250818441 0.0013014477659836451 0 0.022793383233267944 0.0011597493483454012 0 0.02261156725215397 0.0014088848582969008 0 0.022663731502446126 0.0014352199099468888 0 0.024673584999041088 0.0012668543500334907 0 0.024501356250818441 0.0013014477659836451 0 0.025471730150003907 0.00097163998222045943 0 0.025457199569673395 0.0010475372629265734 0 0.025272570727256957 0.00097714117046011212 0 0.021990432542871141 0.0020722097997057259 0 0.021871188127202412 0.0020296078124529544 0 0.021972026937560844 0.001970938421515361 0 0.024772807161683844 0.0013010588157119629 0 0.024501356250818441 0.0013014477659836451 0 0.024819004147497371 0.0010278687572315545 0 0.024657680852460569 0.0018717679921588101 0 0.025507238423296639 0.0013779148727721257 0 0.024673584999041088 0.0012668543500334907 0 0.024772807161683844 0.0013010588157119629 0 0.025471730150003907 0.00097163998222045943 0 0.025272570727256957 0.00097714117046011212 0 0.025113994503644956 0.00078881635705784717 0 0.025285130105504126 0.00114785065875977 0 0.025272570727256957 0.00097714117046011212 0 0.024975750127540979 0.00092747392559866808 0 0.025285130105504126 0.00114785065875977 0 0.025457199569673395 0.0010475372629265734 0 0.025272570727256957 0.00097714117046011212 0 0.024673584999041088 0.0012668543500334907 0 0.025366270671963991 0.0010645769462242164 0 0.024992756581805099 0.00064620105697821663 0 0.025042805967502461 0.00077043453658316426 0 0.025212364106602676 0.0007574464219922139 0 0.027619448576816166 0.00070148546067083856 0 0.027339323103570262 0.0004542877119749234 0 0.028066769116663243 -0.00027144675863043338 0 0.025366270671963991 0.0010645769462242164 0 0.02623534975524805 0.00087278085352174935 0 0.026414711149920774 0.00068725808352900354 0 0.025825912108128228 0.00066098380182716919 0 0.02589936468417605 0.001202819773646192 0 0.026414711149920774 0.00068725808352900354 0 0.025825912108128228 0.00066098380182716919 0 0.025802041267944189 0.00037497487148409618 0 0.025218932134634244 0.00082405248183174771 0 0.025223583433946543 0.00082436844251492815 0 0.025366270671963991 0.0010645769462242164 0 0.025223583433946543 0.00082436844251492815 0 0.025223583433946543 0.00082436844251492815 0 0.02597785977205222 0.00064025791156135578 0 0.025223583433946543 0.00082436844251492815 0 0.025777709995870115 0.00064233944031952999 0 0.026049405407520456 0.00071153565502472262 0 0.025865489731138887 0.00081248613669460102 0 0.025774145942416473 0.00073124302498792288 0 0.025825912108128228 0.00066098380182716919 0 0.025802041267944189 0.00037497487148409618 0 0.025285057169600497 0.00065939889050736322 0 0.02597785977205222 0.00064025791156135578 0 0.025777709995870115 0.00064233944031952999 0 0.02597785977205222 0.00064025791156135578 0 0.02623534975524805 0.00087278085352174935 0 0.025825912108128228 0.00066098380182716919 0 0.025285057169600497 0.00065939889050736322 0 0.02589936468417605 0.001202819773646192 0 0.025272570727256957 0.00097714117046011212 0 0.025113994503644956 0.00078881635705784717 0 0.024975750127540979 0.00092747392559866808 0 0.030106347236410057 -0.00051637669663310659 0 0.029820585222198218 -0.00046035354851484887 0 0.029659594617385591 -0.00020637768118771986 0 0.029820585222198218 -0.00046035354851484887 0 0.030056263067948293 -0.00055945812980497578 0 0.029734305836875502 -0.0005387549409405939 0 0.02597785977205222 0.00064025791156135578 0 0.029085610411203892 -0.00013657694583884322 0 0.025777709995870115 0.00064233944031952999 0 0.026362334887203829 0.0002263385183001628 0 0.030106347236410057 -0.00051637669663310659 0 0.029820585222198218 -0.00046035354851484887 0 0.030056263067948293 -0.00055945812980497578 0 0.027619448576816166 0.00070148546067083856 0 0.028066769116663243 -0.00027144675863043338 0 0.028682389172095046 3.1842321441734637e-05 0 0.029674949605752027 0.00011514524860059159 0 0.029085610411203892 -0.00013657694583884322 0 0.02623534975524805 0.00087278085352174935 0 0.029674949605752027 0.00011514524860059159 0 0.027607503631068588 0.00062529826059206164 0 0.027404202247554604 0.00044477398416241387 0 0.027389261530032384 0.00073511698394605664 0 0.027404202247554604 0.00044477398416241387 0 0.027209319442393371 0.00064319641744648934 0 0.027389261530032384 0.00073511698394605664 0 0.029674949605752027 0.00011514524860059159 0 0.029349969702984268 0.00066138427596713358 0 0.029349969702984268 0.00066138427596713358 0 0.027524497398119369 0.00087496357489391468 0 0.035141900514062616 -0.00095414497147667133 0 0.035111896945089316 -0.00081549886942282649 0 0.035002965887138797 -0.00088638366350905177 0 0.035141900514062616 -0.00095414497147667133 0 0.035111896945089316 -0.00081549886942282649 0 0.035244194283235476 -0.00081527955960267716 0 0.034980146224451975 -0.0010304635999960204 0 0.035002965887138797 -0.00088638366350905177 0 0.034805651354270328 -0.00085961507049295087 0 0.035002965887138797 -0.00088638366350905177 0 0.034979497508542054 -0.00077198821354482119 0 0.034805651354270328 -0.00085961507049295087 0 0.034980146224451975 -0.0010304635999960204 0 0.035141900514062616 -0.00095414497147667133 0 0.035002965887138797 -0.00088638366350905177 0 0.035111896945089316 -0.00081549886942282649 0 0.035002965887138797 -0.00088638366350905177 0 0.034979497508542054 -0.00077198821354482119 0 0.035111896945089316 -0.00081549886942282649 0 0.034979497508542054 -0.00077198821354482119 0 0.035097878543399255 -0.00069830828742451965 0 0.034979497508542054 -0.00077198821354482119 0 0.034997929092045035 -0.00065944346496248562 0 0.035097878543399255 -0.00069830828742451965 0 0.034997929092045035 -0.00065944346496248562 0 0.035097878543399255 -0.00069830828742451965 0 0.035091287696237927 -0.00057343871370342417 0 0.034979497508542054 -0.00077198821354482119 0 0.034997929092045035 -0.00065944346496248562 0 0.034869560130362784 -0.00068264107948880746 0 0.035111896945089316 -0.00081549886942282649 0 0.035171630621805103 -0.00074425084883725158 0 0.035244194283235476 -0.00081527955960267716 0 0.035171630621805103 -0.00074425084883725158 0 0.035223716260399281 -0.00072504462983396612 0 0.035244194283235476 -0.00081527955960267716 0 0.035111896945089316 -0.00081549886942282649 0 0.035171630621805103 -0.00074425084883725158 0 0.035097878543399255 -0.00069830828742451965 0 0.035097878543399255 -0.00069830828742451965 0 0.035186678882120709 -0.00067646523511803518 0 0.035148713736800327 -0.00062759689708095142 0 0.035097878543399255 -0.00069830828742451965 0 0.035091287696237927 -0.00057343871370342417 0 0.035148713736800327 -0.00062759689708095142 0 0.035171630621805103 -0.00074425084883725158 0 0.035097878543399255 -0.00069830828742451965 0 0.035186678882120709 -0.00067646523511803518 0 0.035186678882120709 -0.00067646523511803518 0 0.035148713736800327 -0.00062759689708095142 0 0.035204937507342382 -0.00062194191597688667 0 0.035171630621805103 -0.00074425084883725158 0 0.035223716260399281 -0.00072504462983396612 0 0.035186678882120709 -0.00067646523511803518 0 0.035223716260399281 -0.00072504462983396612 0 0.035186678882120709 -0.00067646523511803518 0 0.0352393691151466 -0.00068729657236962685 0 0.035186678882120709 -0.00067646523511803518 0 0.0352393691151466 -0.00068729657236962685 0 0.035204937507342382 -0.00062194191597688667 0 0.0352393691151466 -0.00068729657236962685 0 0.035243226183529715 -0.00062208371797081903 0 0.035204937507342382 -0.00062194191597688667 0 0.0352393691151466 -0.00068729657236962685 0 0.035292077039099999 -0.00075435828851918641 0 0.035243226183529715 -0.00062208371797081903 0 0.035223716260399281 -0.00072504462983396612 0 0.0352393691151466 -0.00068729657236962685 0 0.035265385024057093 -0.00074597954200763584 0 0.034874541251008973 0.00024671895588724343 0 0.035010837400651203 0.00032225524957367414 0 0.034912585297648915 0.00011197122590155581 0 0.034874541251008973 0.00024671895588724343 0 0.034793160569085817 0.00020718043718105392 0 0.034912585297648915 0.00011197122590155581 0 0.034874541251008973 0.00024671895588724343 0 0.035010837400651203 0.00032225524957367414 0 0.034770394038480604 0.00035751652212807748 0 0.035223716260399281 -0.00072504462983396612 0 0.035265385024057093 -0.00074597954200763584 0 0.035244194283235476 -0.00081527955960267716 0 0.0352393691151466 -0.00068729657236962685 0 0.035265385024057093 -0.00074597954200763584 0 0.035292077039099999 -0.00075435828851918641 0 0.029510850667279414 -0.00040184326376134624 0 0.029456788864302377 -0.00038957971884660841 0 0.035265385024057093 -0.00074597954200763584 0 0.035288560300156917 -0.0007531297965322971 0 0.035244194283235476 -0.00081527955960267716 0 0.029456788864302377 -0.00038957971884660841 0 0.027524497398119369 0.00087496357489391468 0 0.035141900514062616 -0.00095414497147667133 0 0.035244194283235476 -0.00081527955960267716 0 0.035305789583433445 -0.00087133153114300668 0 0.027607503631068588 0.00062529826059206164 0 0.027389261530032384 0.00073511698394605664 0 0.027570288365322156 0.00082679283520725418 0 0.025623854606595522 0.0012068006295625974 0 0.027524497398119369 0.00087496357489391468 0 0.035288560300156917 -0.0007531297965322971 0 0.035244194283235476 -0.00081527955960267716 0 0.035305789583433445 -0.00087133153114300668 0 0.021831882143912715 0.0023984013058100133 0 0.021739541300297018 0.0029529716846003994 0 0.021933518980507816 0.0026945121507961356 0 0.021739541300297018 0.0029529716846003994 0 0.022068287881115371 0.0028437804119153041 0 0.022124963216815608 0.0031334316892888464 0 0.027524497398119369 0.00087496357489391468 0 0.026655374757210037 0.00073580490792513737 0 0.021726163410439966 0.0032836407836032227 0 0.021794441270592851 0.0029589045984023876 0 0.022124963216815608 0.0031334316892888464 0 0.021739541300297018 0.0029529716846003994 0 0.021933518980507816 0.0026945121507961356 0 0.022068287881115371 0.0028437804119153041 0 0.022123712062991761 0.0026213019267271498 0 0.022388406167239683 0.0027488493239109699 0 0.022068287881115371 0.0028437804119153041 0 0.022123712062991761 0.0026213019267271498 0 0.021933518980507816 0.0026945121507961356 0 0.022068287881115371 0.0028437804119153041 0 0.022388406167239683 0.0027488493239109699 0 0.022068287881115371 0.0028437804119153041 0 0.022124963216815608 0.0031334316892888464 0 0.022533496907663597 0.0030828152318707561 0 0.022388406167239683 0.0027488493239109699 0 0.022124963216815608 0.0031334316892888464 0 0.034516740065131404 0.00063637315825556715 0 0.035010837400651203 0.00032225524957367414 0 0.034770394038480604 0.00035751652212807748 0 0.034516740065131404 0.00063637315825556715 0 0.034770394038480604 0.00035751652212807748 0 0.034642423869431692 0.00029990101083524176 0 0.022533496907663597 0.0030828152318707561 0 0.021726163410439966 0.0032836407836032227 0 0.022124963216815608 0.0031334316892888464 0 0.034414746960432438 0.00019507130109713155 0 0.034516740065131404 0.00063637315825556715 0 0.034642423869431692 0.00029990101083524176 0 0.028481940968467123 0.0010421655405347557 0 0.029456788864302377 -0.00038957971884660841 0 0.034770394038480604 0.00035751652212807748 0 0.034793160569085817 0.00020718043718105392 0 0.034642423869431692 0.00029990101083524176 0 0.034793160569085817 0.00020718043718105392 0 0.034642423869431692 0.00029990101083524176 0 0.034677885021302375 0.00012096654128871018 0 0.034874541251008973 0.00024671895588724343 0 0.034770394038480604 0.00035751652212807748 0 0.034793160569085817 0.00020718043718105392 0 0.034414746960432438 0.00019507130109713155 0 0.034642423869431692 0.00029990101083524176 0 0.034677885021302375 0.00012096654128871018 0 0.035000024707113254 -6.3994477512726914e-09 0 0.035011336200528945 -1.3484805795749521e-05 0 0.035000220366885715 -1.6918474555449092e-07 0 0.034414746960432438 0.00019507130109713155 0 0.034677885021302375 0.00012096654128871018 0 0.034621296252460375 -8.7239641115737833e-05 0 0.034677885021302375 0.00012096654128871018 0 0.034761531363969519 -2.2609769005518186e-05 0 0.034621296252460375 -8.7239641115737833e-05 0 0.034793160569085817 0.00020718043718105392 0 0.034677885021302375 0.00012096654128871018 0 0.034806163067781323 8.7206770313583298e-05 0 0.034677885021302375 0.00012096654128871018 0 0.034761531363969519 -2.2609769005518186e-05 0 0.034806163067781323 8.7206770313583298e-05 0 0.034761531363969519 -2.2609769005518186e-05 0 0.034621296252460375 -8.7239641115737833e-05 0 0.034704708909263006 -0.00015911565691319323 0 0.034761531363969519 -2.2609769005518186e-05 0 0.034820701605189151 -0.00010186800512984733 0 0.034704708909263006 -0.00015911565691319323 0 0.029456788864302377 -0.00038957971884660841 0 0.032101097866628119 -0.00056335980394064326 0 0.035010837400651203 0.00032225524957367414 0 0.034912585297648915 0.00011197122590155581 0 0.034986312447918326 -5.5497498703958779e-05 0 0.035292077039099999 -0.00075435828851918641 0 0.035243226183529715 -0.00062208371797081903 0 0.035258029250861765 -0.00048566847707291869 0 0.034858138300794962 1.0001851454027071e-05 0 0.034912585297648915 0.00011197122590155581 0 0.034955076035937574 -3.838084228942827e-05 0 0.034793160569085817 0.00020718043718105392 0 0.034912585297648915 0.00011197122590155581 0 0.034806163067781323 8.7206770313583298e-05 0 0.034858138300794962 1.0001851454027071e-05 0 0.034912585297648915 0.00011197122590155581 0 0.034806163067781323 8.7206770313583298e-05 0 0.034761531363969519 -2.2609769005518186e-05 0 0.034858138300794962 1.0001851454027071e-05 0 0.034806163067781323 8.7206770313583298e-05 0 0.034761531363969519 -2.2609769005518186e-05 0 0.034858138300794962 1.0001851454027071e-05 0 0.034820701605189151 -0.00010186800512984733 0 0.034858138300794962 1.0001851454027071e-05 0 0.034820701605189151 -0.00010186800512984733 0 0.034955076035937574 -3.838084228942827e-05 0 0.034912585297648915 0.00011197122590155581 0 0.034955076035937574 -3.838084228942827e-05 0 0.034986312447918326 -5.5497498703958779e-05 0 0.034955076035937574 -3.838084228942827e-05 0 0.034986312447918326 -5.5497498703958779e-05 0 0.035002567027021245 -3.0225646006712546e-05 0 0.034820701605189151 -0.00010186800512984733 0 0.034955076035937574 -3.838084228942827e-05 0 0.034701906952539441 -0.00030949124740972374 0 0.034931594445098336 -7.0884298416373149e-05 0 0.034915271476526025 -0.00011303818515232241 0 0.034986312447918326 -5.5497498703958779e-05 0 0.035002567027021245 -3.0225646006712546e-05 0 0.034989057082650932 -2.7683479887172906e-05 0 0.034603532895916021 -0.00022787548545431132 0 0.034704708909263006 -0.00015911565691319323 0 0.034701906952539441 -0.00030949124740972374 0 0.034820701605189151 -0.00010186800512984733 0 0.034704708909263006 -0.00015911565691319323 0 0.034701906952539441 -0.00030949124740972374 0 0.034477963681251292 -0.00023601668389165674 0 0.034621296252460375 -8.7239641115737833e-05 0 0.034603532895916021 -0.00022787548545431132 0 0.034621296252460375 -8.7239641115737833e-05 0 0.034603532895916021 -0.00022787548545431132 0 0.034704708909263006 -0.00015911565691319323 0 0.034529366030585158 -0.0002529015783503247 0 0.034701906952539441 -0.00030949124740972374 0 0.034627670904109509 -0.00043986084104230869 0 0.03500173743464393 -1.3442209328453356e-05 0 0.035000024707113254 -6.3994477512726914e-09 0 0.035011336200528945 -1.3484805795749521e-05 0 0.034529366030585158 -0.0002529015783503247 0 0.034603532895916021 -0.00022787548545431132 0 0.034701906952539441 -0.00030949124740972374 0 0.035002567027021245 -3.0225646006712546e-05 0 0.03500173743464393 -1.3442209328453356e-05 0 0.034989057082650932 -2.7683479887172906e-05 0 0.034915271476526025 -0.00011303818515232241 0 0.034980013430057945 -1.7959719870168502e-05 0 0.035002567027021245 -3.0225646006712546e-05 0 0.03500173743464393 -1.3442209328453356e-05 0 0.035002826804206646 -2.4489258353337049e-06 0 0.03500173743464393 -1.3442209328453356e-05 0 0.035000024707113254 -6.3994477512726914e-09 0 0.035002826804206646 -2.4489258353337049e-06 0 0.034980013430057945 -1.7959719870168502e-05 0 0.034999733308436962 -1.2037261535131644e-07 0 0.035000000045902056 -3.026973351598856e-12 0 0.034999979189144229 1.4155118077819036e-08 0 0.034999999912414717 2.0053791898584428e-11 0 0.034999652963571624 -2.5999095076629768e-07 0 0.034980013430057945 -1.7959719870168502e-05 0 0.035011336200528945 -1.3484805795749521e-05 0 0.034992684137764261 -0.00012168847016350704 0 0.035000220366885715 -1.6918474555449092e-07 0 0.03500173743464393 -1.3442209328453356e-05 0 0.035011336200528945 -1.3484805795749521e-05 0 0.034989057082650932 -2.7683479887172906e-05 0 0.035011336200528945 -1.3484805795749521e-05 0 0.035168347161086924 -0.00020557846658667136 0 0.034992684137764261 -0.00012168847016350704 0 0.033603365964524533 -0.00037073520304732377 0 0.0332751580793193 -0.00044532381092468804 0 0.035168347161086924 -0.00020557846658667136 0 0.034992684137764261 -0.00012168847016350704 0 0.034980323216494788 -0.00030121433952658594 0 0.034980323216494788 -0.00030121433952658594 0 0.035079452222121749 -0.00041859298250697917 0 0.034973212518052618 -0.00052582425489587658 0 0.035168347161086924 -0.00020557846658667136 0 0.035079452222121749 -0.00041859298250697917 0 0.035158496470088466 -0.00049953967811458208 0 0.035258029250861765 -0.00048566847707291869 0 0.035168347161086924 -0.00020557846658667136 0 0.035158496470088466 -0.00049953967811458208 0 0.032101097866628119 -0.00056335980394064326 0 0.0332751580793193 -0.00044532381092468804 0 0.035168347161086924 -0.00020557846658667136 0 0.034980323216494788 -0.00030121433952658594 0 0.035079452222121749 -0.00041859298250697917 0 0.035258029250861765 -0.00048566847707291869 0 0.035203433292749955 -0.00052855917025375419 0 0.035158496470088466 -0.00049953967811458208 0 0.035258029250861765 -0.00048566847707291869 0 0.035203433292749955 -0.00052855917025375419 0 0.035221999071498609 -0.00056122624856556956 0 0.035203433292749955 -0.00052855917025375419 0 0.035158496470088466 -0.00049953967811458208 0 0.035172917988077992 -0.00056860759573897557 0 0.035079452222121749 -0.00041859298250697917 0 0.035158496470088466 -0.00049953967811458208 0 0.035091287696237927 -0.00057343871370342417 0 0.035091287696237927 -0.00057343871370342417 0 0.035148713736800327 -0.00062759689708095142 0 0.035172917988077992 -0.00056860759573897557 0 0.035158496470088466 -0.00049953967811458208 0 0.035091287696237927 -0.00057343871370342417 0 0.035172917988077992 -0.00056860759573897557 0 0.035243226183529715 -0.00062208371797081903 0 0.035258029250861765 -0.00048566847707291869 0 0.035221999071498609 -0.00056122624856556956 0 0.035203433292749955 -0.00052855917025375419 0 0.035172917988077992 -0.00056860759573897557 0 0.035221999071498609 -0.00056122624856556956 0 0.035148713736800327 -0.00062759689708095142 0 0.035172917988077992 -0.00056860759573897557 0 0.035204937507342382 -0.00062194191597688667 0 0.035172917988077992 -0.00056860759573897557 0 0.035204937507342382 -0.00062194191597688667 0 0.035221999071498609 -0.00056122624856556956 0 0.035243226183529715 -0.00062208371797081903 0 0.035204937507342382 -0.00062194191597688667 0 0.035221999071498609 -0.00056122624856556956 0 0.035079452222121749 -0.00041859298250697917 0 0.035091287696237927 -0.00057343871370342417 0 0.034973212518052618 -0.00052582425489587658 0 0.034997929092045035 -0.00065944346496248562 0 0.035091287696237927 -0.00057343871370342417 0 0.034973212518052618 -0.00052582425489587658 0 0.034997929092045035 -0.00065944346496248562 0 0.034973212518052618 -0.00052582425489587658 0 0.034869560130362784 -0.00068264107948880746 0 0.034973212518052618 -0.00052582425489587658 0 0.034819874671898024 -0.00050819503648613 0 0.034869560130362784 -0.00068264107948880746 0 0.034819874671898024 -0.00050819503648613 0 0.034603665115088965 -0.00074426442022464611 0 0.034869560130362784 -0.00068264107948880746 0 0.034819874671898024 -0.00050819503648613 0 0.034608626039819894 -0.00049440156312703046 0 0.034603665115088965 -0.00074426442022464611 0 0.034819874671898024 -0.00050819503648613 0 0.034608626039819894 -0.00049440156312703046 0 0.034835193109777576 -0.00022418436611520303 0 0.034608626039819894 -0.00049440156312703046 0 0.034835193109777576 -0.00022418436611520303 0 0.034524911051674365 4.877183880578873e-06 0 0.034980323216494788 -0.00030121433952658594 0 0.034819874671898024 -0.00050819503648613 0 0.034835193109777576 -0.00022418436611520303 0 0.034980323216494788 -0.00030121433952658594 0 0.034973212518052618 -0.00052582425489587658 0 0.034819874671898024 -0.00050819503648613 0 0.034835193109777576 -0.00022418436611520303 0 0.035000220366885715 -1.6918474555449092e-07 0 0.034524911051674365 4.877183880578873e-06 0 0.034992684137764261 -0.00012168847016350704 0 0.034835193109777576 -0.00022418436611520303 0 0.035000220366885715 -1.6918474555449092e-07 0 0.034992684137764261 -0.00012168847016350704 0 0.034980323216494788 -0.00030121433952658594 0 0.034835193109777576 -0.00022418436611520303 0 0.035000220366885715 -1.6918474555449092e-07 0 0.034996924029924444 8.3232848317190962e-07 0 0.034524911051674365 4.877183880578873e-06 0 0.034996924029924444 8.3232848317190962e-07 0 0.034524911051674365 4.877183880578873e-06 0 0.033007082411137971 -1.3269675362853977e-06 0 0.032999088882819397 -1.2818994919455227e-06 0 0.030570744123508443 -0.00017379385509299112 0 0.030914044864002361 4.155539440016523e-07 0 0.034524911051674365 4.877183880578873e-06 0 0.033007082411137971 -1.3269675362853977e-06 0 0.034148966268731554 -0.00066323418312026186 0 0.033000132335338661 -1.2104736419422885e-07 0 0.032335160117888798 -5.4155110130941759e-05 0 0.034608626039819894 -0.00049440156312703046 0 0.034524911051674365 4.877183880578873e-06 0 0.034148966268731554 -0.00066323418312026186 0 0.030570744123508443 -0.00017379385509299112 0 0.029933713930900607 0.00018591626911351736 0 0.029572631468134814 0.00016101739139898108 0 0.034608626039819894 -0.00049440156312703046 0 0.034148966268731554 -0.00066323418312026186 0 0.034603665115088965 -0.00074426442022464611 0 0.032335160117888798 -5.4155110130941759e-05 0 0.031952883431903452 -0.00028930156043778391 0 0.030570744123508443 -0.00017379385509299112 0 0.030914044864002361 4.155539440016523e-07 0 0.029933713930900607 0.00018591626911351736 0 0.030914044864002361 4.155539440016523e-07 0 0.028826476307995553 1.149293166708964e-06 0 0.029933713930900607 0.00018591626911351736 0 0.028826476307995553 1.149293166708964e-06 0 0.029310271057601776 0.00020984991481743127 0 0.028787363583571059 0.00010484125625421676 0 0.028826476307995553 1.149293166708964e-06 0 0.029310271057601776 0.00020984991481743127 0 0.029933713930900607 0.00018591626911351736 0 0.029310271057601776 0.00020984991481743127 0 0.029933713930900607 0.00018591626911351736 0 0.029572631468134814 0.00016101739139898108 0 0.031952883431903452 -0.00028930156043778391 0 0.031410943676219286 -0.0004519263458478186 0 0.029310271057601776 0.00020984991481743127 0 0.029572631468134814 0.00016101739139898108 0 0.029480081146738626 0.00017897100919286738 0 0.029572631468134814 0.00016101739139898108 0 0.029512752604375424 0.00017339270321946483 0 0.029480081146738626 0.00017897100919286738 0 0.034603665115088965 -0.00074426442022464611 0 0.034869560130362784 -0.00068264107948880746 0 0.034805651354270328 -0.00085961507049295087 0 0.034979497508542054 -0.00077198821354482119 0 0.034869560130362784 -0.00068264107948880746 0 0.034805651354270328 -0.00085961507049295087 0 0.029674949605752027 0.00011514524860059159 0 0.031410943676219286 -0.0004519263458478186 0 0.029594160097882953 9.8848178181751823e-05 0 0.029512752604375424 0.00017339270321946483 0 0.029526877478818124 0.00011221738276699669 0 0.029512752604375424 0.00017339270321946483 0 0.029480686893418252 0.0001051649844883655 0 0.029526877478818124 0.00011221738276699669 0 0.029310271057601776 0.00020984991481743127 0 0.029480081146738626 0.00017897100919286738 0 0.029480686893418252 0.0001051649844883655 0 0.029217297105295026 -2.7056355865472208e-05 0 0.029217999833084707 -7.312357106108851e-05 0 0.029512752604375424 0.00017339270321946483 0 0.029480081146738626 0.00017897100919286738 0 0.029480686893418252 0.0001051649844883655 0 0.02929438909369798 0.00013953578249041858 0 0.029212352176916794 -0.00012257836225272744 0 0.029780138188030308 -0.0001123494968437515 0 0.02929438909369798 0.00013953578249041858 0 0.029212352176916794 -0.00012257836225272744 0 0.029002067876180898 6.8712431835844077e-05 0 0.029480686893418252 0.0001051649844883655 0 0.029526877478818124 0.00011221738276699669 0 0.029532346334046021 7.3610994406635169e-05 0 0.029217999833084707 -7.312357106108851e-05 0 0.029085610411203892 -0.00013657694583884322 0 0.029594160097882953 9.8848178181751823e-05 0 0.029526877478818124 0.00011221738276699669 0 0.029532346334046021 7.3610994406635169e-05 0 0.029532317626142512 -0.00049092443642187271 0 0.029734305836875502 -0.0005387549409405939 0 0.029398513681409708 -0.00053327126309727648 0 0.026362334887203829 0.0002263385183001628 0 0.026568185878059824 3.0964795954828419e-07 0 0.023722696984334848 -0.00023534977298370511 0 0.023584571314987975 -0.00035858444742705115 0 0.023853634534248918 -0.00040267520958134714 0 0.029820585222198218 -0.00046035354851484887 0 0.029659594617385591 -0.00020637768118771986 0 0.029532317626142512 -0.00049092443642187271 0 0.029659594617385591 -0.00020637768118771986 0 0.029532317626142512 -0.00049092443642187271 0 0.029393925969513037 -0.00054266865611482507 0 0.026768455730395747 2.9366912091326782e-05 0 0.026568185878059824 3.0964795954828419e-07 0 0.029820585222198218 -0.00046035354851484887 0 0.029532317626142512 -0.00049092443642187271 0 0.029734305836875502 -0.0005387549409405939 0 0.029659594617385591 -0.00020637768118771986 0 0.029393925969513037 -0.00054266865611482507 0 0.029107577586109618 -0.00049463781806379783 0 0.029212352176916794 -0.00012257836225272744 0 0.029780138188030308 -0.0001123494968437515 0 0.029107577586109618 -0.00049463781806379783 0 0.029393925969513037 -0.00054266865611482507 0 0.029107577586109618 -0.00049463781806379783 0 0.028790484787305653 -0.00063407055059622912 0 0.025657139316044526 -0.00010877397896075595 0 0.026568185878059824 3.0964795954828419e-07 0 0.026568185878059824 3.0964795954828419e-07 0 0.027039881972780528 -6.9568231713033142e-05 0 0.029085610411203892 -0.00013657694583884322 0 0.02916935975908665 -0.00018049654129926226 0 0.029212352176916794 -0.00012257836225272744 0 0.029107577586109618 -0.00049463781806379783 0 0.028935697594136622 -0.00022459056584490873 0 0.026162673478393808 6.4967120852725346e-05 0 0.025730426966637462 -5.2533127331766977e-05 0 0.026167720528838249 -9.0291275882841684e-05 0 0.029107577586109618 -0.00049463781806379783 0 0.028935697594136622 -0.00022459056584490873 0 0.028790484787305653 -0.00063407055059622912 0 0.028935697594136622 -0.00022459056584490873 0 0.028790484787305653 -0.00063407055059622912 0 0.0281552540949284 5.2251434176870988e-05 0 0.026162673478393808 6.4967120852725346e-05 0 0.026167720528838249 -9.0291275882841684e-05 0 0.026734810706603555 2.5419520523188165e-08 0 0.027039881972780528 -6.9568231713033142e-05 0 0.026739958916259132 -1.8654663148511564e-07 0 0.028790484787305653 -0.00063407055059622912 0 0.026742576704918426 -1.8405600428308333e-06 0 0.0281552540949284 5.2251434176870988e-05 0 0.028826476307995553 1.149293166708964e-06 0 0.0281552540949284 5.2251434176870988e-05 0 0.028787363583571059 0.00010484125625421676 0 0.028826476307995553 1.149293166708964e-06 0 0.026742576704918426 -1.8405600428308333e-06 0 0.0281552540949284 5.2251434176870988e-05 0 0.029310271057601776 0.00020984991481743127 0 0.028787363583571059 0.00010484125625421676 0 0.029002067876180898 6.8712431835844077e-05 0 0.029310271057601776 0.00020984991481743127 0 0.02929438909369798 0.00013953578249041858 0 0.029002067876180898 6.8712431835844077e-05 0 0.029212352176916794 -0.00012257836225272744 0 0.028935697594136622 -0.00022459056584490873 0 0.029002067876180898 6.8712431835844077e-05 0 0.028935697594136622 -0.00022459056584490873 0 0.0281552540949284 5.2251434176870988e-05 0 0.029002067876180898 6.8712431835844077e-05 0 0.0281552540949284 5.2251434176870988e-05 0 0.028787363583571059 0.00010484125625421676 0 0.029002067876180898 6.8712431835844077e-05 0 0.033019787095138788 0.00026831191965988668 0 0.032956128159945822 0.00029659769134367291 0 0.032413754454344017 0.00028114858853712615 0 0.032291756547216131 0.00045705449609391804 0 0.032312609999017632 0.00061867600059089232 0 0.032413754454344017 0.00028114858853712615 0 0.033064993069046957 0.00029071639042759455 0 0.032312609999017632 0.00061867600059089232 0 0.033064993069046957 0.00029071639042759455 0 0.032617771639922466 4.3576146073964025e-05 0 0.033015889159685258 -0.00017835852427128954 0 0.032413754454344017 0.00028114858853712615 0 0.032130698297760496 4.5204676761233685e-05 0 0.032199752084636747 0.0001638900940718882 0 0.032413754454344017 0.00028114858853712615 0 0.032617771639922466 4.3576146073964025e-05 0 0.032130698297760496 4.5204676761233685e-05 0 0.032413754454344017 0.00028114858853712615 0 0.033064993069046957 0.00029071639042759455 0 0.032617771639922466 4.3576146073964025e-05 0 0.032617771639922466 4.3576146073964025e-05 0 0.032130698297760496 4.5204676761233685e-05 0 0.032450353448527099 -0.00033689884082103451 0 0.031405336700927121 3.9715250816917335e-06 0 0.031163871612886009 2.3117970579166935e-05 0 0.032130698297760496 4.5204676761233685e-05 0 0.032130537367425757 0.00011781893673883014 0 0.032199752084636747 0.0001638900940718882 0 0.032130537367425757 0.00011781893673883014 0 0.032199752084636747 0.0001638900940718882 0 0.032186275901659303 0.00029976421959570799 0 0.032130537367425757 0.00011781893673883014 0 0.032022494445998299 0.00019568767455465313 0 0.032186275901659303 0.00029976421959570799 0 0.032413754454344017 0.00028114858853712615 0 0.032199752084636747 0.0001638900940718882 0 0.032186275901659303 0.00029976421959570799 0 0.032130537367425757 0.00011781893673883014 0 0.03191663198342725 0.00014804499707723789 0 0.032022494445998299 0.00019568767455465313 0 0.030834421679027627 0.00044008728681535915 0 0.029733039990098211 0.00060247105708460726 0 0.030121283958026122 -0.00023174706152502301 0 0.031163871612886009 2.3117970579166935e-05 0 0.030635488730485876 2.6001999802865881e-05 0 0.031858522841315316 0.000105241315105831 0 0.032022494445998299 0.00019568767455465313 0 0.03192125987116088 0.00029786055608222101 0 0.031858522841315316 0.000105241315105831 0 0.03192125987116088 0.00029786055608222101 0 0.031784244059623004 0.00027703561890261657 0 0.030635488730485876 2.6001999802865881e-05 0 0.030779536673803839 7.5563436848140203e-05 0 0.032105603698031976 0.00055672362978280085 0 0.031947386517938978 0.00051552470332320974 0 0.032056636882031635 0.00037494195508052584 0 0.032276204872436487 0.00056938580494032918 0 0.031787183883985673 0.00046858240642082879 0 0.03192125987116088 0.00029786055608222101 0 0.032056636882031635 0.00037494195508052584 0 0.031787183883985673 0.00046858240642082879 0 0.032022494445998299 0.00019568767455465313 0 0.032056636882031635 0.00037494195508052584 0 0.032186275901659303 0.00029976421959570799 0 0.032022494445998299 0.00019568767455465313 0 0.03192125987116088 0.00029786055608222101 0 0.032056636882031635 0.00037494195508052584 0 0.032413754454344017 0.00028114858853712615 0 0.032186275901659303 0.00029976421959570799 0 0.032291756547216131 0.00045705449609391804 0 0.032056636882031635 0.00037494195508052584 0 0.032186275901659303 0.00029976421959570799 0 0.032276204872436487 0.00056938580494032918 0 0.032186275901659303 0.00029976421959570799 0 0.032291756547216131 0.00045705449609391804 0 0.032276204872436487 0.00056938580494032918 0 0.032291756547216131 0.00045705449609391804 0 0.032276204872436487 0.00056938580494032918 0 0.032312609999017632 0.00061867600059089232 0 0.032276204872436487 0.00056938580494032918 0 0.032411017008194237 0.00036802894334391731 0 0.032312609999017632 0.00061867600059089232 0 0.032911297474130796 0.00028558951208456745 0 0.032956128159945822 0.00029659769134367291 0 0.033419774117878116 4.3458481949377721e-05 0 0.033525739131273942 0.00013897013168597704 0 0.033506496484430055 0.00020352792487265611 0 0.032276204872436487 0.00056938580494032918 0 0.032588855130805124 0.00051254702682752655 0 0.032411017008194237 0.00036802894334391731 0 0.032276204872436487 0.00056938580494032918 0 0.032588855130805124 0.00051254702682752655 0 0.032692776296291089 0.00073175916640873565 0 0.032588855130805124 0.00051254702682752655 0 0.032411017008194237 0.00036802894334391731 0 0.032756114156821094 0.00039059491876189861 0 0.033419774117878116 4.3458481949377721e-05 0 0.032939497594203129 0.00018440362243685911 0 0.033253960174307456 0.00021542746491699623 0 0.032411017008194237 0.00036802894334391731 0 0.032756114156821094 0.00039059491876189861 0 0.032939497594203129 0.00018440362243685911 0 0.032911297474130796 0.00028558951208456745 0 0.032899749909478124 0.0002761250371049406 0 0.033419774117878116 4.3458481949377721e-05 0 0.033535401278410377 0.00017336541525634264 0 0.033253960174307456 0.00021542746491699623 0 0.033419774117878116 4.3458481949377721e-05 0 0.033525739131273942 0.00013897013168597704 0 0.033535401278410377 0.00017336541525634264 0 0.033525739131273942 0.00013897013168597704 0 0.033586956597295659 0.00017277123008286336 0 0.033409184466996658 0.00018743721721972589 0 0.033525739131273942 0.00013897013168597704 0 0.033586956597295659 0.00017277123008286336 0 0.033535401278410377 0.00017336541525634264 0 0.033525739131273942 0.00013897013168597704 0 0.033506496484430055 0.00020352792487265611 0 0.033409184466996658 0.00018743721721972589 0 0.033064993069046957 0.00029071639042759455 0 0.033506496484430055 0.00020352792487265611 0 0.033409184466996658 0.00018743721721972589 0 0.033064993069046957 0.00029071639042759455 0 0.033409184466996658 0.00018743721721972589 0 0.033322957033661178 0.00024420500487738864 0 0.033409184466996658 0.00018743721721972589 0 0.033483995537235266 0.00020410146636304098 0 0.033322957033661178 0.00024420500487738864 0 0.033586956597295659 0.00017277123008286336 0 0.033409184466996658 0.00018743721721972589 0 0.033483995537235266 0.00020410146636304098 0 0.033483995537235266 0.00020410146636304098 0 0.033425493187371487 0.0002079534440843197 0 0.033322957033661178 0.00024420500487738864 0 0.033483995537235266 0.00020410146636304098 0 0.033425493187371487 0.0002079534440843197 0 0.033498715525580355 0.0001834337187280765 0 0.033425493187371487 0.0002079534440843197 0 0.033420255895558047 0.00017687939220664649 0 0.033418322164405739 0.00017118031606809474 0 0.033425493187371487 0.0002079534440843197 0 0.033420255895558047 0.00017687939220664649 0 0.033412402747186154 0.00018088158126415731 0 0.033425493187371487 0.0002079534440843197 0 0.033412402747186154 0.00018088158126415731 0 0.033322957033661178 0.00024420500487738864 0 0.033420838337666348 0.00013737128072616623 0 0.033410390975334943 0.00012666687579624355 0 0.03341115232763011 0.00012449794409622128 0 0.033416152032825164 0.00013883569101007405 0 0.033420838337666348 0.00013737128072616623 0 0.033410390975334943 0.00012666687579624355 0 0.033416152032825164 0.00013883569101007405 0 0.033412127846307996 0.00012888432484307958 0 0.033410390975334943 0.00012666687579624355 0 0.033416152032825164 0.00013883569101007405 0 0.033418853953775307 0.00014878198153084817 0 0.033420838337666348 0.00013737128072616623 0 0.033416152032825164 0.00013883569101007405 0 0.033418853953775307 0.00014878198153084817 0 0.033418656077854922 0.00015223579127236829 0 0.033418853953775307 0.00014878198153084817 0 0.033420838337666348 0.00013737128072616623 0 0.033421119946823195 0.00016239814543208577 0 0.033420838337666348 0.00013737128072616623 0 0.033421119946823195 0.00016239814543208577 0 0.033433880636165723 0.00014212879969024053 0 0.033418853953775307 0.00014878198153084817 0 0.033421119946823195 0.00016239814543208577 0 0.033418656077854922 0.00015223579127236829 0 0.033420255895558047 0.00017687939220664649 0 0.033421119946823195 0.00016239814543208577 0 0.033418322164405739 0.00017118031606809474 0 0.033421119946823195 0.00016239814543208577 0 0.033418656077854922 0.00015223579127236829 0 0.033418322164405739 0.00017118031606809474 0 0.033420255895558047 0.00017687939220664649 0 0.033421119946823195 0.00016239814543208577 0 0.033433880636165723 0.00014212879969024053 0 0.033412402747186154 0.00018088158126415731 0 0.033433880636165723 0.00014212879969024053 0 0.033462244391136847 0.00010694536809514467 0 0.033420255895558047 0.00017687939220664649 0 0.033412402747186154 0.00018088158126415731 0 0.033433880636165723 0.00014212879969024053 0 0.033420838337666348 0.00013737128072616623 0 0.033433880636165723 0.00014212879969024053 0 0.033414206213137752 0.00012565285808888889 0 0.033420838337666348 0.00013737128072616623 0 0.03341115232763011 0.00012449794409622128 0 0.033414206213137752 0.00012565285808888889 0 0.033433880636165723 0.00014212879969024053 0 0.033411146267958852 0.00011825443010612797 0 0.033414206213137752 0.00012565285808888889 0 0.033433880636165723 0.00014212879969024053 0 0.033462244391136847 0.00010694536809514467 0 0.033411146267958852 0.00011825443010612797 0 0.033462244391136847 0.00010694536809514467 0 0.033411146267958852 0.00011825443010612797 0 0.03355545865727956 -8.5404952926373495e-05 0 0.033299283770118378 -2.6426753488061909e-05 0 0.033191018729927128 -0.00012106000984919132 0 0.033411146267958852 0.00011825443010612797 0 0.033326373008664797 5.3434645597273588e-05 0 0.033164346487621191 0.00012653748780257942 0 0.033412402747186154 0.00018088158126415731 0 0.033322957033661178 0.00024420500487738864 0 0.033347210499848193 9.0875321123820189e-05 0 0.033064993069046957 0.00029071639042759455 0 0.033322957033661178 0.00024420500487738864 0 0.033347210499848193 9.0875321123820189e-05 0 0.033412402747186154 0.00018088158126415731 0 0.033462244391136847 0.00010694536809514467 0 0.033347210499848193 9.0875321123820189e-05 0 0.033347210499848193 9.0875321123820189e-05 0 0.033355921348324713 -0.00020560387497254443 0 0.03355545865727956 -8.5404952926373495e-05 0 0.033462244391136847 0.00010694536809514467 0 0.033347210499848193 9.0875321123820189e-05 0 0.03355545865727956 -8.5404952926373495e-05 0 0.033064993069046957 0.00029071639042759455 0 0.033347210499848193 9.0875321123820189e-05 0 0.033015889159685258 -0.00017835852427128954 0 0.033347210499848193 9.0875321123820189e-05 0 0.033355921348324713 -0.00020560387497254443 0 0.033015889159685258 -0.00017835852427128954 0 0.033355921348324713 -0.00020560387497254443 0 0.0333895854879852 -0.00071410827746105324 0 0.033015889159685258 -0.00017835852427128954 0 0.033355921348324713 -0.00020560387497254443 0 0.0333895854879852 -0.00071410827746105324 0 0.03355545865727956 -8.5404952926373495e-05 0 0.032805252729997673 -0.00041363729524443487 0 0.033191018729927128 -0.00012106000984919132 0 0.033027184171223981 -5.1892748662497939e-05 0 0.032824515303748955 1.0265826507779488e-05 0 0.033164346487621191 0.00012653748780257942 0 0.033027184171223981 -5.1892748662497939e-05 0 0.033198946780487577 -4.835576342264462e-05 0 0.033039210205130197 -0.00022305062054985356 0 0.033027184171223981 -5.1892748662497939e-05 0 0.03289060301466025 -0.00012087336724348915 0 0.032824515303748955 1.0265826507779488e-05 0 0.03289060301466025 -0.00012087336724348915 0 0.032824515303748955 1.0265826507779488e-05 0 0.032653567854560514 -0.0002246483296521646 0 0.033326373008664797 5.3434645597273588e-05 0 0.033164346487621191 0.00012653748780257942 0 0.033198946780487577 -4.835576342264462e-05 0 0.033027184171223981 -5.1892748662497939e-05 0 0.033164346487621191 0.00012653748780257942 0 0.033198946780487577 -4.835576342264462e-05 0 0.033326373008664797 5.3434645597273588e-05 0 0.033198946780487577 -4.835576342264462e-05 0 0.033313894211468964 -4.4676362306079673e-05 0 0.033326373008664797 5.3434645597273588e-05 0 0.033313894211468964 -4.4676362306079673e-05 0 0.033369684974997399 1.4180262705888828e-05 0 0.033198946780487577 -4.835576342264462e-05 0 0.033313894211468964 -4.4676362306079673e-05 0 0.033271712396476395 -0.00018083092809784528 0 0.029559493199281393 -6.4377998500248193e-05 0 0.026782190730890724 0.00028717172191288485 0 0.029559493199281393 -6.4377998500248193e-05 0 0.029553088796042435 -7.8099659111822293e-06 0 0.033313894211468964 -4.4676362306079673e-05 0 0.033271712396476395 -0.00018083092809784528 0 0.033387682298062334 -4.1329888219738852e-05 0 0.029559493199281393 -6.4377998500248193e-05 0 0.032142259200507867 -0.00030308111340783544 0 0.032908859936392913 -0.00031633967588422441 0 0.032811258667486007 -0.00029990579533262002 0 0.032817509645682127 -0.00037291223983704235 0 0.033198946780487577 -4.835576342264462e-05 0 0.033271712396476395 -0.00018083092809784528 0 0.033039210205130197 -0.00022305062054985356 0 0.026089379720310276 0.00028222186933760096 0 0.026298801824845446 0.0005238208923689921 0 0.026525281550584211 0.00039043359179409163 0 0.026089379720310276 0.00028222186933760096 0 0.026298801824845446 0.0005238208923689921 0 0.026084080130029826 0.00053233413149045283 0 0.029559493199281393 -6.4377998500248193e-05 0 0.029387220378950304 -0.00041815448405433335 0 0.026298801824845446 0.0005238208923689921 0 0.026422937012300179 0.00059941030082629593 0 0.026525281550584211 0.00039043359179409163 0 0.025963538388260113 0.00070999120301417338 0 0.026298801824845446 0.0005238208923689921 0 0.026084080130029826 0.00053233413149045283 0 0.026089379720310276 0.00028222186933760096 0 0.025921903671159131 0.00048082335671959062 0 0.025748187718904858 0.00035566503170130431 0 0.026084080130029826 0.00053233413149045283 0 0.025955267803341699 0.00058177750174705895 0 0.025921903671159131 0.00048082335671959062 0 0.026089379720310276 0.00028222186933760096 0 0.026084080130029826 0.00053233413149045283 0 0.025921903671159131 0.00048082335671959062 0 0.03289060301466025 -0.00012087336724348915 0 0.032653567854560514 -0.0002246483296521646 0 0.033039210205130197 -0.00022305062054985356 0 0.03248373423477139 -0.00031783771484124426 0 0.032142259200507867 -0.00030308111340783544 0 0.032653567854560514 -0.0002246483296521646 0 0.032718295573166044 -0.00035753525747064547 0 0.03264176248566994 -0.00039188943100927561 0 0.032653567854560514 -0.0002246483296521646 0 0.032811258667486007 -0.00029990579533262002 0 0.032718295573166044 -0.00035753525747064547 0 0.033027184171223981 -5.1892748662497939e-05 0 0.03289060301466025 -0.00012087336724348915 0 0.033039210205130197 -0.00022305062054985356 0 0.032811258667486007 -0.00029990579533262002 0 0.032817509645682127 -0.00037291223983704235 0 0.032718295573166044 -0.00035753525747064547 0 0.027139566336854923 0.0006076129793159417 0 0.026637036999559091 0.00072065998048514437 0 0.026525281550584211 0.00039043359179409163 0 0.026637036999559091 0.00072065998048514437 0 0.026422937012300179 0.00059941030082629593 0 0.026525281550584211 0.00039043359179409163 0 0.032639535948746808 -0.00049829676252120206 0 0.032817509645682127 -0.00037291223983704235 0 0.032718295573166044 -0.00035753525747064547 0 0.027932035619024416 -0.0014760600096887988 0 0.029387220378950304 -0.00041815448405433335 0 0.032639535948746808 -0.00049829676252120206 0 0.032718295573166044 -0.00035753525747064547 0 0.03264176248566994 -0.00039188943100927561 0 0.032639535948746808 -0.00049829676252120206 0 0.03264176248566994 -0.00039188943100927561 0 0.032549124904623541 -0.00036431950601251243 0 0.032639535948746808 -0.00049829676252120206 0 0.032506531567680769 -0.00043473003772232259 0 0.032400238476765209 -0.00048754715505080234 0 0.032639535948746808 -0.00049829676252120206 0 0.032506531567680769 -0.00043473003772232259 0 0.032549124904623541 -0.00036431950601251243 0 0.027932035619024416 -0.0014760600096887988 0 0.029039888215885677 -0.0020302180084656252 0 0.02593082237048025 -0.0047172078708211263 0 0.025707859647739972 -0.0047993883182839685 0 0.02626796288168827 -0.0049429491076142763 0 0.032506531567680769 -0.00043473003772232259 0 0.032430812079473105 -0.00038272084919683359 0 0.032400238476765209 -0.00048754715505080234 0 0.032506531567680769 -0.00043473003772232259 0 0.032430812079473105 -0.00038272084919683359 0 0.032549124904623541 -0.00036431950601251243 0 0.029039888215885677 -0.0020302180084656252 0 0.029468834668589811 -0.0022232531399818179 0 0.032400238476765209 -0.00048754715505080234 0 0.032355389437404396 -0.00038514158242493356 0 0.03214632593840739 -0.00044104325641075592 0 0.032355389437404396 -0.00038514158242493356 0 0.032444486142678503 -0.00023054124292097445 0 0.03214632593840739 -0.00044104325641075592 0 0.026582170302442285 -0.0047948469801925679 0 0.02626796288168827 -0.0049429491076142763 0 0.026864051934640861 -0.0050958957864369612 0 0.026582170302442285 -0.0047948469801925679 0 0.026150527798059479 -0.0047830434616909397 0 0.02626796288168827 -0.0049429491076142763 0 0.032430812079473105 -0.00038272084919683359 0 0.032400238476765209 -0.00048754715505080234 0 0.032355389437404396 -0.00038514158242493356 0 0.032594617253541597 -0.0017823517611996404 0 0.031409494068602391 -0.0024795657570226073 0 0.031127448860027378 -0.0029863162997326017 0 0.031921724652495508 -0.00093799425315217234 0 0.029468834668589811 -0.0022232531399818179 0 0.031707947756201844 -0.0020857162987732891 0 0.032594617253541597 -0.0017823517611996404 0 0.031409494068602391 -0.0024795657570226073 0 0.032430812079473105 -0.00038272084919683359 0 0.032355389437404396 -0.00038514158242493356 0 0.032444486142678503 -0.00023054124292097445 0 0.031831793156379316 -0.0018258214801834176 0 0.032594617253541597 -0.0017823517611996404 0 0.032088188128674956 -0.0013795707017347462 0 0.031707947756201844 -0.0020857162987732891 0 0.031831793156379316 -0.0018258214801834176 0 0.032594617253541597 -0.0017823517611996404 0 0.031831793156379316 -0.0018258214801834176 0 0.032088188128674956 -0.0013795707017347462 0 0.031478167949655932 -0.0016801497902618483 0 0.031707947756201844 -0.0020857162987732891 0 0.031831793156379316 -0.0018258214801834176 0 0.03144103000318433 -0.0020178329449615827 0 0.031831793156379316 -0.0018258214801834176 0 0.031478167949655932 -0.0016801497902618483 0 0.03144103000318433 -0.0020178329449615827 0 0.032653567854560514 -0.0002246483296521646 0 0.03264176248566994 -0.00039188943100927561 0 0.032549124904623541 -0.00036431950601251243 0 0.032653567854560514 -0.0002246483296521646 0 0.032549124904623541 -0.00036431950601251243 0 0.032444486142678503 -0.00023054124292097445 0 0.032430812079473105 -0.00038272084919683359 0 0.032549124904623541 -0.00036431950601251243 0 0.032444486142678503 -0.00023054124292097445 0 0.0333895854879852 -0.00071410827746105324 0 0.032594617253541597 -0.0017823517611996404 0 0.03266369016740113 -0.00083696732522787066 0 0.032805252729997673 -0.00041363729524443487 0 0.031921724652495508 -0.00093799425315217234 0 0.032824515303748955 1.0265826507779488e-05 0 0.032653567854560514 -0.0002246483296521646 0 0.032444486142678503 -0.00023054124292097445 0 0.032594617253541597 -0.0017823517611996404 0 0.03266369016740113 -0.00083696732522787066 0 0.032088188128674956 -0.0013795707017347462 0 0.032088188128674956 -0.0013795707017347462 0 0.031617050055272572 -0.0011690015010838127 0 0.032204627971513883 -0.00087047470850994178 0 0.032088188128674956 -0.0013795707017347462 0 0.031617050055272572 -0.0011690015010838127 0 0.031478167949655932 -0.0016801497902618483 0 0.031617050055272572 -0.0011690015010838127 0 0.032204627971513883 -0.00087047470850994178 0 0.031808408284622482 -0.0005715219261097352 0 0.03266369016740113 -0.00083696732522787066 0 0.032088188128674956 -0.0013795707017347462 0 0.032204627971513883 -0.00087047470850994178 0 0.03266369016740113 -0.00083696732522787066 0 0.032204627971513883 -0.00087047470850994178 0 0.032450353448527099 -0.00033689884082103451 0 0.032204627971513883 -0.00087047470850994178 0 0.031808408284622482 -0.0005715219261097352 0 0.032450353448527099 -0.00033689884082103451 0 0.032130698297760496 4.5204676761233685e-05 0 0.031808408284622482 -0.0005715219261097352 0 0.032450353448527099 -0.00033689884082103451 0 0.0333895854879852 -0.00071410827746105324 0 0.03266369016740113 -0.00083696732522787066 0 0.033015889159685258 -0.00017835852427128954 0 0.03266369016740113 -0.00083696732522787066 0 0.032450353448527099 -0.00033689884082103451 0 0.033015889159685258 -0.00017835852427128954 0 0.032617771639922466 4.3576146073964025e-05 0 0.032450353448527099 -0.00033689884082103451 0 0.033015889159685258 -0.00017835852427128954 0 0.030474103909000159 -0.00076882839117110987 0 0.030121283958026122 -0.00023174706152502301 0 0.031078476081342128 -0.00031226621411773565 0 0.030474103909000159 -0.00076882839117110987 0 0.030121283958026122 -0.00023174706152502301 0 0.029880368967570077 -0.0010447525231375057 0 0.030121283958026122 -0.00023174706152502301 0 0.029880368967570077 -0.0010447525231375057 0 0.029259063921003543 -0.00057278880636795111 0 0.029733039990098211 0.00060247105708460726 0 0.030121283958026122 -0.00023174706152502301 0 0.029458105593875124 -2.985160976083434e-05 0 0.030834421679027627 0.00044008728681535915 0 0.030121283958026122 -0.00023174706152502301 0 0.031078476081342128 -0.00031226621411773565 0 0.032130698297760496 4.5204676761233685e-05 0 0.030834421679027627 0.00044008728681535915 0 0.031078476081342128 -0.00031226621411773565 0 0.032130698297760496 4.5204676761233685e-05 0 0.031808408284622482 -0.0005715219261097352 0 0.031078476081342128 -0.00031226621411773565 0 0.031808408284622482 -0.0005715219261097352 0 0.031078476081342128 -0.00031226621411773565 0 0.031133445498198853 -0.00081818139092101785 0 0.030474103909000159 -0.00076882839117110987 0 0.031078476081342128 -0.00031226621411773565 0 0.031133445498198853 -0.00081818139092101785 0 0.030474103909000159 -0.00076882839117110987 0 0.031133445498198853 -0.00081818139092101785 0 0.030945359604735444 -0.0014190015794600624 0 0.031617050055272572 -0.0011690015010838127 0 0.031808408284622482 -0.0005715219261097352 0 0.031133445498198853 -0.00081818139092101785 0 0.031617050055272572 -0.0011690015010838127 0 0.031133445498198853 -0.00081818139092101785 0 0.030945359604735444 -0.0014190015794600624 0 0.031617050055272572 -0.0011690015010838127 0 0.030945359604735444 -0.0014190015794600624 0 0.031478167949655932 -0.0016801497902618483 0 0.030247215829185017 -0.0015089932492052304 0 0.029880368967570077 -0.0010447525231375057 0 0.029219880895168075 -0.0017057715561301276 0 0.030474103909000159 -0.00076882839117110987 0 0.030945359604735444 -0.0014190015794600624 0 0.030247215829185017 -0.0015089932492052304 0 0.030474103909000159 -0.00076882839117110987 0 0.030247215829185017 -0.0015089932492052304 0 0.029880368967570077 -0.0010447525231375057 0 0.030247215829185017 -0.0015089932492052304 0 0.029847639226601483 -0.0022550080275104203 0 0.029219880895168075 -0.0017057715561301276 0 0.030247215829185017 -0.0015089932492052304 0 0.029847639226601483 -0.0022550080275104203 0 0.030564238637041104 -0.00203302324674415 0 0.029847639226601483 -0.0022550080275104203 0 0.030564238637041104 -0.00203302324674415 0 0.030292392815055524 -0.002654654108637852 0 0.030945359604735444 -0.0014190015794600624 0 0.031478167949655932 -0.0016801497902618483 0 0.03107932327587232 -0.0019738052216896839 0 0.031478167949655932 -0.0016801497902618483 0 0.03107932327587232 -0.0019738052216896839 0 0.03144103000318433 -0.0020178329449615827 0 0.030945359604735444 -0.0014190015794600624 0 0.030247215829185017 -0.0015089932492052304 0 0.030564238637041104 -0.00203302324674415 0 0.030945359604735444 -0.0014190015794600624 0 0.03107932327587232 -0.0019738052216896839 0 0.030564238637041104 -0.00203302324674415 0 0.030564238637041104 -0.00203302324674415 0 0.030868290763120518 -0.0023963210902653484 0 0.030292392815055524 -0.002654654108637852 0 0.03107932327587232 -0.0019738052216896839 0 0.030564238637041104 -0.00203302324674415 0 0.030868290763120518 -0.0023963210902653484 0 0.03107932327587232 -0.0019738052216896839 0 0.031239470342992157 -0.0023055909168448771 0 0.03144103000318433 -0.0020178329449615827 0 0.03107932327587232 -0.0019738052216896839 0 0.030868290763120518 -0.0023963210902653484 0 0.031239470342992157 -0.0023055909168448771 0 0.030868290763120518 -0.0023963210902653484 0 0.031239470342992157 -0.0023055909168448771 0 0.031126055194748949 -0.0024922585602009119 0 0.030868290763120518 -0.0023963210902653484 0 0.031126055194748949 -0.0024922585602009119 0 0.031011152883470627 -0.0026216123823126574 0 0.031707947756201844 -0.0020857162987732891 0 0.031239470342992157 -0.0023055909168448771 0 0.031409494068602391 -0.0024795657570226073 0 0.031239470342992157 -0.0023055909168448771 0 0.031126055194748949 -0.0024922585602009119 0 0.031409494068602391 -0.0024795657570226073 0 0.031707947756201844 -0.0020857162987732891 0 0.031239470342992157 -0.0023055909168448771 0 0.03144103000318433 -0.0020178329449615827 0 0.029878784924166069 -0.0036239278532582899 0 0.031127448860027378 -0.0029863162997326017 0 0.030779061133770321 -0.0027160139886162338 0 0.028745404856072656 -0.0031674169208588277 0 0.029468834668589811 -0.0022232531399818179 0 0.027402555263862791 -0.0047699460220467574 0 0.026983122984654821 -0.0047101429907897563 0 0.026864051934640861 -0.0050958957864369612 0 0.031409494068602391 -0.0024795657570226073 0 0.031171507591828192 -0.0027445620894315692 0 0.031157584620154163 -0.0026189527017007668 0 0.031409494068602391 -0.0024795657570226073 0 0.031171507591828192 -0.0027445620894315692 0 0.031127448860027378 -0.0029863162997326017 0 0.031126055194748949 -0.0024922585602009119 0 0.031409494068602391 -0.0024795657570226073 0 0.031157584620154163 -0.0026189527017007668 0 0.031126055194748949 -0.0024922585602009119 0 0.031157584620154163 -0.0026189527017007668 0 0.031011152883470627 -0.0026216123823126574 0 0.031157584620154163 -0.0026189527017007668 0 0.031011152883470627 -0.0026216123823126574 0 0.031033454126583964 -0.0027961729888431289 0 0.031171507591828192 -0.0027445620894315692 0 0.031157584620154163 -0.0026189527017007668 0 0.031033454126583964 -0.0027961729888431289 0 0.031171507591828192 -0.0027445620894315692 0 0.031033454126583964 -0.0027961729888431289 0 0.031127448860027378 -0.0029863162997326017 0 0.030868290763120518 -0.0023963210902653484 0 0.030779061133770321 -0.0027160139886162338 0 0.030292392815055524 -0.002654654108637852 0 0.031033454126583964 -0.0027961729888431289 0 0.031127448860027378 -0.0029863162997326017 0 0.030779061133770321 -0.0027160139886162338 0 0.030868290763120518 -0.0023963210902653484 0 0.031011152883470627 -0.0026216123823126574 0 0.030779061133770321 -0.0027160139886162338 0 0.031011152883470627 -0.0026216123823126574 0 0.031033454126583964 -0.0027961729888431289 0 0.030779061133770321 -0.0027160139886162338 0 0.026983122984654821 -0.0047101429907897563 0 0.026582170302442285 -0.0047948469801925679 0 0.026864051934640861 -0.0050958957864369612 0 0.029878784924166069 -0.0036239278532582899 0 0.030779061133770321 -0.0027160139886162338 0 0.030292392815055524 -0.002654654108637852 0 0.029878784924166069 -0.0036239278532582899 0 0.029665975895001379 -0.0029376815861340611 0 0.028854016909386288 -0.003015045591033696 0 0.029878784924166069 -0.0036239278532582899 0 0.029665975895001379 -0.0029376815861340611 0 0.030292392815055524 -0.002654654108637852 0 0.029847639226601483 -0.0022550080275104203 0 0.029665975895001379 -0.0029376815861340611 0 0.030292392815055524 -0.002654654108637852 0 0.029847639226601483 -0.0022550080275104203 0 0.029665975895001379 -0.0029376815861340611 0 0.028854016909386288 -0.003015045591033696 0 0.029847639226601483 -0.0022550080275104203 0 0.028854016909386288 -0.003015045591033696 0 0.029219880895168075 -0.0017057715561301276 0 0.028854016909386288 -0.003015045591033696 0 0.029219880895168075 -0.0017057715561301276 0 0.028335301805260674 -0.0021477968545276422 0 0.029219880895168075 -0.0017057715561301276 0 0.028335301805260674 -0.0021477968545276422 0 0.028646780991869378 -0.0011972062102092041 0 0.028149935168592179 -0.0035301634062495368 0 0.028335301805260674 -0.0021477968545276422 0 0.027577814402489631 -0.0030168136760723415 0 0.028149935168592179 -0.0035301634062495368 0 0.028854016909386288 -0.003015045591033696 0 0.028335301805260674 -0.0021477968545276422 0 0.027663097139893199 -0.0021424273142461757 0 0.027173530345362847 -0.0023389718383847566 0 0.026555957372014695 -0.0031586783229304535 0 0.027413846501311779 -0.0026027483359403634 0 0.026701277003154618 -0.0025643967697478397 0 0.027413846501311779 -0.0026027483359403634 0 0.026701277003154618 -0.0025643967697478397 0 0.02693025609561446 -0.0022355650662269108 0 0.026701277003154618 -0.0025643967697478397 0 0.02693025609561446 -0.0022355650662269108 0 0.026469376707919511 -0.0020705868766918525 0 0.02693025609561446 -0.0022355650662269108 0 0.027150910681522412 -0.0017377684284273359 0 0.026469376707919511 -0.0020705868766918525 0 0.027413846501311779 -0.0026027483359403634 0 0.02693025609561446 -0.0022355650662269108 0 0.027150910681522412 -0.0017377684284273359 0 0.027150910681522412 -0.0017377684284273359 0 0.026469376707919511 -0.0020705868766918525 0 0.026528545217088518 -0.0011840197692212656 0 0.028335301805260674 -0.0021477968545276422 0 0.027413846501311779 -0.0026027483359403634 0 0.027150910681522412 -0.0017377684284273359 0 0.028335301805260674 -0.0021477968545276422 0 0.027150910681522412 -0.0017377684284273359 0 0.027846725621928956 -0.0013696078976945744 0 0.027846725621928956 -0.0013696078976945744 0 0.027160937533649624 -0.00086612406732899992 0 0.028111072123252503 -0.00091961943515593255 0 0.027150910681522412 -0.0017377684284273359 0 0.027846725621928956 -0.0013696078976945744 0 0.027160937533649624 -0.00086612406732899992 0 0.027911379561740165 -0.00091277223925734707 0 0.027488464862756197 -0.0010572568898920907 0 0.027150910681522412 -0.0017377684284273359 0 0.027160937533649624 -0.00086612406732899992 0 0.026528545217088518 -0.0011840197692212656 0 0.027151700180715027 -0.0009041960211685307 0 0.026684387483217421 -0.00053741833328535245 0 0.027292086641406844 -0.00026895816359968721 0 0.027151700180715027 -0.0009041960211685307 0 0.026684387483217421 -0.00053741833328535245 0 0.026528545217088518 -0.0011840197692212656 0 0.027151700180715027 -0.0009041960211685307 0 0.027785109738815379 -0.00062529994288683518 0 0.027292086641406844 -0.00026895816359968721 0 0.027160937533649624 -0.00086612406732899992 0 0.027901126064364398 -0.00043003306237166444 0 0.028111072123252503 -0.00091961943515593255 0 0.027911379561740165 -0.00091277223925734707 0 0.029135587405951593 -0.00051633447743772913 0 0.027901126064364398 -0.00043003306237166444 0 0.028472976925107245 -0.00051621179236598037 0 0.028748393688429137 8.2144227794841453e-05 0 0.029135587405951593 -0.00051633447743772913 0 0.029748093179666615 -0.00024924391100722486 0 0.029808163393630356 -0.00013781879366224058 0 0.029967327856057588 -6.7647408823203736e-05 0 0.029864853105123247 -3.1416414979414423e-05 0 0.027901126064364398 -0.00043003306237166444 0 0.028098688852765303 -0.00058421700277662457 0 0.028111072123252503 -0.00091961943515593255 0 0.027901126064364398 -0.00043003306237166444 0 0.028098688852765303 -0.00058421700277662457 0 0.028472976925107245 -0.00051621179236598037 0 0.028098688852765303 -0.00058421700277662457 0 0.028472976925107245 -0.00051621179236598037 0 0.028111072123252503 -0.00091961943515593255 0 0.028748393688429137 8.2144227794841453e-05 0 0.029458105593875124 -2.985160976083434e-05 0 0.029259063921003543 -0.00057278880636795111 0 0.028472976925107245 -0.00051621179236598037 0 0.028748393688429137 8.2144227794841453e-05 0 0.029259063921003543 -0.00057278880636795111 0 0.030121283958026122 -0.00023174706152502301 0 0.029458105593875124 -2.985160976083434e-05 0 0.029259063921003543 -0.00057278880636795111 0 0.028472976925107245 -0.00051621179236598037 0 0.029259063921003543 -0.00057278880636795111 0 0.028646780991869378 -0.0011972062102092041 0 0.029259063921003543 -0.00057278880636795111 0 0.029244434814810136 -0.0011320027163686742 0 0.028646780991869378 -0.0011972062102092041 0 0.029880368967570077 -0.0010447525231375057 0 0.029259063921003543 -0.00057278880636795111 0 0.029244434814810136 -0.0011320027163686742 0 0.029880368967570077 -0.0010447525231375057 0 0.029219880895168075 -0.0017057715561301276 0 0.029244434814810136 -0.0011320027163686742 0 0.029219880895168075 -0.0017057715561301276 0 0.029244434814810136 -0.0011320027163686742 0 0.028646780991869378 -0.0011972062102092041 0 0.027846725621928956 -0.0013696078976945744 0 0.028111072123252503 -0.00091961943515593255 0 0.028646780991869378 -0.0011972062102092041 0 0.028335301805260674 -0.0021477968545276422 0 0.027846725621928956 -0.0013696078976945744 0 0.028646780991869378 -0.0011972062102092041 0 0.028472976925107245 -0.00051621179236598037 0 0.028111072123252503 -0.00091961943515593255 0 0.028646780991869378 -0.0011972062102092041 0 0.025057099953296573 -0.00090158613549979109 0 0.025329391007501059 -0.00075919795472764663 0 0.025110234327059746 -0.00057226090503966788 0 0.024594510231491905 -0.0011850270702379738 0 0.024904583888355612 -0.0011279676869049356 0 0.024972058173783684 -0.0013353563880825151 0 0.024526535363261388 -0.0011047278886683783 0 0.025338901087678903 -0.0010339906877333666 0 0.024825897217246241 -0.0012220799969634736 0 0.025057099953296573 -0.00090158613549979109 0 0.025338901087678903 -0.0010339906877333666 0 0.025338901087678903 -0.0010339906877333666 0 0.025329391007501059 -0.00075919795472764663 0 0.025592479746850146 -0.0011184318479448749 0 0.025364297496869536 -0.0012518192367615684 0 0.024972058173783684 -0.0013353563880825151 0 0.025338901087678903 -0.0010339906877333666 0 0.025364297496869536 -0.0012518192367615684 0 0.025338901087678903 -0.0010339906877333666 0 0.025592479746850146 -0.0011184318479448749 0 0.025057099953296573 -0.00090158613549979109 0 0.025338901087678903 -0.0010339906877333666 0 0.025329391007501059 -0.00075919795472764663 0 0.025329391007501059 -0.00075919795472764663 0 0.025592479746850146 -0.0011184318479448749 0 0.025515663364153434 -0.00060542188042615004 0 0.025207856146663345 -0.0018037702062764418 0 0.025333582176672899 -0.0011538164578336165 0 0.025517229830910704 -0.0026468892672254578 0 0.025906620634210405 -0.0022393050354923257 0 0.025448381299928102 -0.0014810871989670792 0 0.025906620634210405 -0.0022393050354923257 0 0.026080461055423266 -0.0015718355342594465 0 0.025448381299928102 -0.0014810871989670792 0 0.02583062866972051 -0.0028392527847980959 0 0.025517229830910704 -0.0026468892672254578 0 0.025906620634210405 -0.0022393050354923257 0 0.02583062866972051 -0.0028392527847980959 0 0.025906620634210405 -0.0022393050354923257 0 0.026145871025917453 -0.0027487213661506532 0 0.025906620634210405 -0.0022393050354923257 0 0.026145871025917453 -0.0027487213661506532 0 0.026469376707919511 -0.0020705868766918525 0 0.026701277003154618 -0.0025643967697478397 0 0.026145871025917453 -0.0027487213661506532 0 0.026469376707919511 -0.0020705868766918525 0 0.026555957372014695 -0.0031586783229304535 0 0.026701277003154618 -0.0025643967697478397 0 0.026145871025917453 -0.0027487213661506532 0 0.026080461055423266 -0.0015718355342594465 0 0.026469376707919511 -0.0020705868766918525 0 0.026528545217088518 -0.0011840197692212656 0 0.025906620634210405 -0.0022393050354923257 0 0.026080461055423266 -0.0015718355342594465 0 0.026469376707919511 -0.0020705868766918525 0 0.026080461055423266 -0.0015718355342594465 0 0.026528545217088518 -0.0011840197692212656 0 0.026071775742347123 -0.00081213593934395349 0 0.026684387483217421 -0.00053741833328535245 0 0.026528545217088518 -0.0011840197692212656 0 0.026071775742347123 -0.00081213593934395349 0 0.026684387483217421 -0.00053741833328535245 0 0.026071775742347123 -0.00081213593934395349 0 0.026285154156548689 -0.00016006715697675553 0 0.026071775742347123 -0.00081213593934395349 0 0.02550842605340049 -0.0003043372247488806 0 0.026285154156548689 -0.00016006715697675553 0 0.026071775742347123 -0.00081213593934395349 0 0.025448381299928102 -0.0014810871989670792 0 0.02550842605340049 -0.0003043372247488806 0 0.026080461055423266 -0.0015718355342594465 0 0.026071775742347123 -0.00081213593934395349 0 0.025448381299928102 -0.0014810871989670792 0 0.025333582176672899 -0.0011538164578336165 0 0.025358177569706753 -0.00076727760923799048 0 0.025329391007501059 -0.00075919795472764663 0 0.025515663364153434 -0.00060542188042615004 0 0.025251287371166099 -0.00041212580431045277 0 0.025515663364153434 -0.00060542188042615004 0 0.02550842605340049 -0.0003043372247488806 0 0.025251287371166099 -0.00041212580431045277 0 0.02550842605340049 -0.0003043372247488806 0 0.025251287371166099 -0.00041212580431045277 0 0.025272612447182815 -9.6448213469933755e-05 0 0.025075064884805754 -0.00017785654890261913 0 0.025251287371166099 -0.00041212580431045277 0 0.025272612447182815 -9.6448213469933755e-05 0 0.02501808212020375 -0.0004020285686820115 0 0.025075064884805754 -0.00017785654890261913 0 0.025251287371166099 -0.00041212580431045277 0 0.025329391007501059 -0.00075919795472764663 0 0.025251287371166099 -0.00041212580431045277 0 0.025110234327059746 -0.00057226090503966788 0 0.02501808212020375 -0.0004020285686820115 0 0.025251287371166099 -0.00041212580431045277 0 0.025110234327059746 -0.00057226090503966788 0 0.025254865253557253 0.00028958163011380328 0 0.025336088675525337 0.00024300267033117311 0 0.025199950547207622 0.00018493949132166162 0 0.025254865253557253 0.00028958163011380328 0 0.025199950547207622 0.00018493949132166162 0 0.025174759419012656 0.00034942524526540168 0 0.025336088675525337 0.00024300267033117311 0 0.02531193535222135 0.00013416379352445214 0 0.025199950547207622 0.00018493949132166162 0 0.025199950547207622 0.00018493949132166162 0 0.025224784632891083 6.6482123495216987e-05 0 0.025147709455340336 -1.0213493506556125e-05 0 0.02531193535222135 0.00013416379352445214 0 0.025199950547207622 0.00018493949132166162 0 0.025224784632891083 6.6482123495216987e-05 0 0.025224784632891083 6.6482123495216987e-05 0 0.025147709455340336 -1.0213493506556125e-05 0 0.025272612447182815 -9.6448213469933755e-05 0 0.025075064884805754 -0.00017785654890261913 0 0.025147709455340336 -1.0213493506556125e-05 0 0.025272612447182815 -9.6448213469933755e-05 0 0.02531193535222135 0.00013416379352445214 0 0.025224784632891083 6.6482123495216987e-05 0 0.025272612447182815 -9.6448213469933755e-05 0 0.02550842605340049 -0.0003043372247488806 0 0.025272612447182815 -9.6448213469933755e-05 0 0.025453222880426819 3.584123010309772e-05 0 0.02531193535222135 0.00013416379352445214 0 0.025272612447182815 -9.6448213469933755e-05 0 0.025453222880426819 3.584123010309772e-05 0 0.026846866347208512 -0.00022495290387825246 0 0.02831774030526284 -7.9732084293754975e-05 0 0.025453222880426819 3.584123010309772e-05 0 0.025457899306618924 0.00030005268513069326 0 0.025962502631088576 0.00029311925285641999 0 0.026638688177617217 -0.00027876813813047281 0 0.026846866347208512 -0.00022495290387825246 0 0.02531193535222135 0.00013416379352445214 0 0.025453222880426819 3.584123010309772e-05 0 0.025457899306618924 0.00030005268513069326 0 0.025336088675525337 0.00024300267033117311 0 0.02531193535222135 0.00013416379352445214 0 0.025471874314484218 0.00021703986402882302 0 0.026603868172122219 -0.00017187135929515269 0 0.026846866347208512 -0.00022495290387825246 0 0.025336088675525337 0.00024300267033117311 0 0.02553922424890942 0.00019616803704425789 0 0.025509786252023239 0.00033894596879185148 0 0.028176154995428523 -9.1497346246925684e-05 0 0.028738806911532598 -0.00019112935552574088 0 0.02861088579224479 0.00017309645725949912 0 0.026846866347208512 -0.00022495290387825246 0 0.027434732037062877 -7.0739518387301849e-05 0 0.028738806911532598 -0.00019112935552574088 0 0.029069150645095059 3.7412234169492127e-05 0 0.02861088579224479 0.00017309645725949912 0 0.02550842605340049 -0.0003043372247488806 0 0.025962502631088576 0.00029311925285641999 0 0.026285154156548689 -0.00016006715697675553 0 0.02550842605340049 -0.0003043372247488806 0 0.025453222880426819 3.584123010309772e-05 0 0.025962502631088576 0.00029311925285641999 0 0.027427312720528535 -0.00025377112628276243 0 0.027867217935105812 -0.00017390127727820871 0 0.025962502631088576 0.00029311925285641999 0 0.026285154156548689 -0.00016006715697675553 0 0.026596792351794685 0.00021188546350599632 0 0.027434732037062877 -7.0739518387301849e-05 0 0.028161033038707598 1.8658844892965415e-05 0 0.028738806911532598 -0.00019112935552574088 0 0.029069150645095059 3.7412234169492127e-05 0 0.029294259609391651 -0.00028748447979898512 0 0.030832158038431649 0.00039900844039658027 0 0.02831774030526284 -7.9732084293754975e-05 0 0.029069150645095059 3.7412234169492127e-05 0 0.029041667217170841 0.00043376824394808532 0 0.02861088579224479 0.00017309645725949912 0 0.029069150645095059 3.7412234169492127e-05 0 0.029041667217170841 0.00043376824394808532 0 0.029436236149053458 0.00020906904062216176 0 0.034894469334992989 0.00021777490527032008 0 0.034916268944201002 0.00017414997867985416 0 0.034895013373983069 0.00017840175897339589 0 0.030832158038431649 0.00039900844039658027 0 0.030515631126308704 0.00058170757026849019 0 0.034894469334992989 0.00021777490527032008 0 0.034925573619428135 0.00019169270719617394 0 0.034916268944201002 0.00017414997867985416 0 0.025773271554823948 0.00071036734388218764 0 0.025824536866988473 0.0003623283512704076 0 0.025516403250134104 0.00050245267960834694 0 0.026113422953081999 0.00053072736322577134 0 0.025773271554823948 0.00071036734388218764 0 0.025824536866988473 0.0003623283512704076 0 0.02553922424890942 0.00019616803704425789 0 0.025824536866988473 0.0003623283512704076 0 0.025509786252023239 0.00033894596879185148 0 0.025824536866988473 0.0003623283512704076 0 0.025509786252023239 0.00033894596879185148 0 0.025516403250134104 0.00050245267960834694 0 0.025509786252023239 0.00033894596879185148 0 0.025516403250134104 0.00050245267960834694 0 0.025329355602637587 0.00038422217236901103 0 0.025773271554823948 0.00071036734388218764 0 0.025448394243170407 0.00066985796202566816 0 0.025455471007533287 0.00086333666231934903 0 0.030515631126308704 0.00058170757026849019 0 0.030373722955845159 0.00075770119455121731 0 0.025773271554823948 0.00071036734388218764 0 0.025516403250134104 0.00050245267960834694 0 0.025448394243170407 0.00066985796202566816 0 0.025516403250134104 0.00050245267960834694 0 0.025448394243170407 0.00066985796202566816 0 0.025269205760657727 0.000532675475087208 0 0.025448394243170407 0.00066985796202566816 0 0.025248763073484642 0.00073959515047405044 0 0.025269205760657727 0.000532675475087208 0 0.025448394243170407 0.00066985796202566816 0 0.025248763073484642 0.00073959515047405044 0 0.025455471007533287 0.00086333666231934903 0 0.025108551993170129 0.00058637013782074246 0 0.025248763073484642 0.00073959515047405044 0 0.025269205760657727 0.000532675475087208 0 0.025088391171695805 0.00044882788889495358 0 0.025269205760657727 0.000532675475087208 0 0.025174759419012656 0.00034942524526540168 0 0.025516403250134104 0.00050245267960834694 0 0.025269205760657727 0.000532675475087208 0 0.025329355602637587 0.00038422217236901103 0 0.025254865253557253 0.00028958163011380328 0 0.025336088675525337 0.00024300267033117311 0 0.025329355602637587 0.00038422217236901103 0 0.025336088675525337 0.00024300267033117311 0 0.025509786252023239 0.00033894596879185148 0 0.025329355602637587 0.00038422217236901103 0 0.025254865253557253 0.00028958163011380328 0 0.025329355602637587 0.00038422217236901103 0 0.025174759419012656 0.00034942524526540168 0 0.025269205760657727 0.000532675475087208 0 0.025329355602637587 0.00038422217236901103 0 0.025174759419012656 0.00034942524526540168 0 0.032995648713442141 0.00078436920429332394 0 0.033198460109864103 0.00064617461718072808 0 0.033025995047640269 0.00059327049093463584 0 0.031209606337294735 0.00031022024607969221 0 0.031254332287441872 0.00029095131255745861 0 0.031209606337294735 0.00031022024607969221 0 0.02981095999127488 6.6709502652440397e-05 0 0.032995648713442141 0.00078436920429332394 0 0.032895007195636393 0.0006283045294070605 0 0.033025995047640269 0.00059327049093463584 0 0.032995648713442141 0.00078436920429332394 0 0.032895007195636393 0.0006283045294070605 0 0.032692776296291089 0.00073175916640873565 0 0.032895007195636393 0.0006283045294070605 0 0.032692776296291089 0.00073175916640873565 0 0.032784349285354911 0.00054045660168209014 0 0.031359680606122237 0.00034487760701015747 0 0.031787183883985673 0.00046858240642082879 0 0.031561897634960971 0.00023058056077124715 0 0.031209606337294735 0.00031022024607969221 0 0.031947386517938978 0.00051552470332320974 0 0.031787183883985673 0.00046858240642082879 0 0.031784244059623004 0.00027703561890261657 0 0.031561897634960971 0.00023058056077124715 0 0.03192125987116088 0.00029786055608222101 0 0.031787183883985673 0.00046858240642082879 0 0.031784244059623004 0.00027703561890261657 0 0.029733039990098211 0.00060247105708460726 0 0.028748393688429137 8.2144227794841453e-05 0 0.029458105593875124 -2.985160976083434e-05 0 0.030635488730485876 2.6001999802865881e-05 0 0.029748093179666615 -0.00024924391100722486 0 0.030128375853703888 3.7786539942052129e-06 0 0.029967327856057588 -6.7647408823203736e-05 0 0.029943931941599122 3.601163206121579e-05 0 0.030635488730485876 2.6001999802865881e-05 0 0.030415045421602099 3.0101398811229146e-05 0 0.031858522841315316 0.000105241315105831 0 0.031561897634960971 0.00023058056077124715 0 0.031461686032267261 0.00016440208789946482 0 0.031858522841315316 0.000105241315105831 0 0.031784244059623004 0.00027703561890261657 0 0.031561897634960971 0.00023058056077124715 0 0.031339156256052901 0.00035938727901987217 0 0.031461686032267261 0.00016440208789946482 0 0.031028984987909541 0.00023817940214898874 0 0.029967327856057588 -6.7647408823203736e-05 0 0.029943931941599122 3.601163206121579e-05 0 0.029864853105123247 -3.1416414979414423e-05 0 0.030415045421602099 3.0101398811229146e-05 0 0.02981095999127488 6.6709502652440397e-05 0 0.029943931941599122 3.601163206121579e-05 0 0.029864853105123247 -3.1416414979414423e-05 0 0.029761957755265911 6.8639575495217498e-05 0 0.031339156256052901 0.00035938727901987217 0 0.031561897634960971 0.00023058056077124715 0 0.031461686032267261 0.00016440208789946482 0 0.027292086641406844 -0.00026895816359968721 0 0.027497110816411249 0.0002003653151541443 0 0.026894396939832685 2.6136976039560713e-05 0 0.029808163393630356 -0.00013781879366224058 0 0.029864853105123247 -3.1416414979414423e-05 0 0.029761957755265911 6.8639575495217498e-05 0 0.027785109738815379 -0.00062529994288683518 0 0.027292086641406844 -0.00026895816359968721 0 0.02760193537701346 0.00018118151989561079 0 0.029135587405951593 -0.00051633447743772913 0 0.02981095999127488 6.6709502652440397e-05 0 0.027292086641406844 -0.00026895816359968721 0 0.027497110816411249 0.0002003653151541443 0 0.02760193537701346 0.00018118151989561079 0 0.029262553227597701 7.7082227510666236e-05 0 0.02981095999127488 6.6709502652440397e-05 0 0.029262553227597701 7.7082227510666236e-05 0 0.027867217935105812 -0.00017390127727820871 0 0.026684387483217421 -0.00053741833328535245 0 0.026285154156548689 -0.00016006715697675553 0 0.026894396939832685 2.6136976039560713e-05 0 0.027237397443274677 0.00010400459308027959 0 0.026751846459512136 -3.7271168053146671e-05 0 0.026596792351794685 0.00021188546350599632 0 0.026285154156548689 -0.00016006715697675553 0 0.026751846459512136 -3.7271168053146671e-05 0 0.026596792351794685 0.00021188546350599632 0 0.026684387483217421 -0.00053741833328535245 0 0.027292086641406844 -0.00026895816359968721 0 0.026894396939832685 2.6136976039560713e-05 0 0.029294259609391651 -0.00028748447979898512 0 0.029829047380846269 -1.3341016089187221e-05 0 0.029436236149053458 0.00020906904062216176 0 0.029069150645095059 3.7412234169492127e-05 0 0.029294259609391651 -0.00028748447979898512 0 0.029436236149053458 0.00020906904062216176 0 0.029262553227597701 7.7082227510666236e-05 0 0.028161033038707598 1.8658844892965415e-05 0 0.029843351518942199 -0.00038472779936817188 0 0.029294259609391651 -0.00028748447979898512 0 0.029829047380846269 -1.3341016089187221e-05 0 0.03021159583774928 0.00062063320835622159 0 0.030659583432315514 0.00079441419827369186 0 0.030772238976582236 0.00030112850709719101 0 0.031209606337294735 0.00031022024607969221 0 0.0309485937931827 0.00024773212004510913 0 0.02981095999127488 6.6709502652440397e-05 0 0.0309485937931827 0.00024773212004510913 0 0.029843351518942199 -0.00038472779936817188 0 0.029915641731935016 -0.00039778331418401466 0 0.029829047380846269 -1.3341016089187221e-05 0 0.033198460109864103 0.00064617461718072808 0 0.033226779741782689 0.00045157009195734353 0 0.033081211622113173 0.00045184640295898806 0 0.033198460109864103 0.00064617461718072808 0 0.033081211622113173 0.00045184640295898806 0 0.033025995047640269 0.00059327049093463584 0 0.0309485937931827 0.00024773212004510913 0 0.031901072252487429 0.00035835401835697134 0 0.031524109640326106 0.00032557087887359745 0 0.031544919112124689 0.0002388023129686522 0 0.031607917282896192 0.00027768041877063865 0 0.033226779741782689 0.00045157009195734353 0 0.033116280783169423 0.00035825501940944246 0 0.033081211622113173 0.00045184640295898806 0 0.0309485937931827 0.00024773212004510913 0 0.030788382282151399 0.00034943629518132286 0 0.030832158038431649 0.00039900844039658027 0 0.030788382282151399 0.00034943629518132286 0 0.031544919112124689 0.0002388023129686522 0 0.031607917282896192 0.00027768041877063865 0 0.031566087958223188 0.0001524331769800079 0 0.030832158038431649 0.00039900844039658027 0 0.032734095834825339 0.00054914958423673763 0 0.031690606196205388 0.0002300122100776874 0 0.031607917282896192 0.00027768041877063865 0 0.031566087958223188 0.0001524331769800079 0 0.034894469334992989 0.00021777490527032008 0 0.034838242296667682 0.00019144810631145187 0 0.034895013373983069 0.00017840175897339589 0 0.033116280783169423 0.00035825501940944246 0 0.033247570912310925 0.00027739481796824596 0 0.033035052027433544 0.0002723285161218459 0 0.033226779741782689 0.00045157009195734353 0 0.033116280783169423 0.00035825501940944246 0 0.033247570912310925 0.00027739481796824596 0 0.031901072252487429 0.00035835401835697134 0 0.032734095834825339 0.00054914958423673763 0 0.033035052027433544 0.0002723285161218459 0 0.032958903715228201 0.0002952329217596039 0 0.033024471374823686 0.00036533335358901085 0 0.033035052027433544 0.0002723285161218459 0 0.032958903715228201 0.0002952329217596039 0 0.032966839046267266 0.00021958548720755927 0 0.032958903715228201 0.0002952329217596039 0 0.033024471374823686 0.00036533335358901085 0 0.032953975706811946 0.00046215758496346242 0 0.033116280783169423 0.00035825501940944246 0 0.033035052027433544 0.0002723285161218459 0 0.033024471374823686 0.00036533335358901085 0 0.033116280783169423 0.00035825501940944246 0 0.033024471374823686 0.00036533335358901085 0 0.033081211622113173 0.00045184640295898806 0 0.033024471374823686 0.00036533335358901085 0 0.033081211622113173 0.00045184640295898806 0 0.032953975706811946 0.00046215758496346242 0 0.033081211622113173 0.00045184640295898806 0 0.032953975706811946 0.00046215758496346242 0 0.033025995047640269 0.00059327049093463584 0 0.032895007195636393 0.0006283045294070605 0 0.032953975706811946 0.00046215758496346242 0 0.033025995047640269 0.00059327049093463584 0 0.032953975706811946 0.00046215758496346242 0 0.032784349285354911 0.00054045660168209014 0 0.032756114156821094 0.00039059491876189861 0 0.032588855130805124 0.00051254702682752655 0 0.032692776296291089 0.00073175916640873565 0 0.032784349285354911 0.00054045660168209014 0 0.032895007195636393 0.0006283045294070605 0 0.032953975706811946 0.00046215758496346242 0 0.032784349285354911 0.00054045660168209014 0 0.032588855130805124 0.00051254702682752655 0 0.032784349285354911 0.00054045660168209014 0 0.032756114156821094 0.00039059491876189861 0 0.032958903715228201 0.0002952329217596039 0 0.032756114156821094 0.00039059491876189861 0 0.032939497594203129 0.00018440362243685911 0 0.032958903715228201 0.0002952329217596039 0 0.032953975706811946 0.00046215758496346242 0 0.032756114156821094 0.00039059491876189861 0 0.032958903715228201 0.0002952329217596039 0 0.032939497594203129 0.00018440362243685911 0 0.032966839046267266 0.00021958548720755927 0 0.032939497594203129 0.00018440362243685911 0 0.03298109069348179 0.00030918289760369143 0 0.033253960174307456 0.00021542746491699623 0 0.032939497594203129 0.00018440362243685911 0 0.03298109069348179 0.00030918289760369143 0 0.032966839046267266 0.00021958548720755927 0 0.034571362596199154 0.00040910224042686537 0 0.034600395206535767 0.00031693777532933881 0 0.034521636707261424 0.00026914617047909173 0 0.034571362596199154 0.00040910224042686537 0 0.034600395206535767 0.00031693777532933881 0 0.034665291627018917 0.00033123962215383137 0 0.034600395206535767 0.00031693777532933881 0 0.034666654135225246 0.00025875169255784792 0 0.034665291627018917 0.00033123962215383137 0 0.034600395206535767 0.00031693777532933881 0 0.034521636707261424 0.00026914617047909173 0 0.034666654135225246 0.00025875169255784792 0 0.034749783996011245 0.00029455740622303224 0 0.034822323414247881 0.0002218920138209303 0 0.034755126649687926 0.00018784160596990423 0 0.034666654135225246 0.00025875169255784792 0 0.034749783996011245 0.00029455740622303224 0 0.034755126649687926 0.00018784160596990423 0 0.034666654135225246 0.00025875169255784792 0 0.034665291627018917 0.00033123962215383137 0 0.034749783996011245 0.00029455740622303224 0 0.034665291627018917 0.00033123962215383137 0 0.034749783996011245 0.00029455740622303224 0 0.034744020056261878 0.00037176652942812882 0 0.03298109069348179 0.00030918289760369143 0 0.033011160694445603 0.00018367861684155076 0 0.032966839046267266 0.00021958548720755927 0 0.034571362596199154 0.00040910224042686537 0 0.034665291627018917 0.00033123962215383137 0 0.034744020056261878 0.00037176652942812882 0 0.033684427716408311 0.00043007349123203286 0 0.03341680563877291 0.00045334113660951765 0 0.034749783996011245 0.00029455740622303224 0 0.034744020056261878 0.00037176652942812882 0 0.034823052990472649 0.00030274291727342567 0 0.033035052027433544 0.0002723285161218459 0 0.033011160694445603 0.00018367861684155076 0 0.032966839046267266 0.00021958548720755927 0 0.032734095834825339 0.00054914958423673763 0 0.03341680563877291 0.00045334113660951765 0 0.032813697580052009 0.00038545158080129755 0 0.033327305901096428 0.00070000233679609928 0 0.03276617261074944 0.00059520856540240617 0 0.03341680563877291 0.00045334113660951765 0 0.033426203239557598 0.00025767719273246155 0 0.034744020056261878 0.00037176652942812882 0 0.0348904971841658 0.00037958673844458934 0 0.034823052990472649 0.00030274291727342567 0 0.033247570912310925 0.00027739481796824596 0 0.033035052027433544 0.0002723285161218459 0 0.033011160694445603 0.00018367861684155076 0 0.033426203239557598 0.00025767719273246155 0 0.033981566186440444 0.00031814232876079495 0 0.034905189037258248 0.00017314464854605063 0 0.034895013373983069 0.00017840175897339589 0 0.034901365932866475 0.00017583356833686793 0 0.034905189037258248 0.00017314464854605063 0 0.034904941028788758 0.00019383139050295199 0 0.034901365932866475 0.00017583356833686793 0 0.034838242296667682 0.00019144810631145187 0 0.034842839072018253 0.00016871891411061556 0 0.034895013373983069 0.00017840175897339589 0 0.032734095834825339 0.00054914958423673763 0 0.033426203239557598 0.00025767719273246155 0 0.0348904971841658 0.00037958673844458934 0 0.034904941028788758 0.00019383139050295199 0 0.034823052990472649 0.00030274291727342567 0 0.033426203239557598 0.00025767719273246155 0 0.033701690341781138 0.00013697894124836086 0 0.034904941028788758 0.00019383139050295199 0 0.034901365932866475 0.00017583356833686793 0 0.034919226979073716 0.00015684915104062944 0 0.034749783996011245 0.00029455740622303224 0 0.034823052990472649 0.00030274291727342567 0 0.034822323414247881 0.0002218920138209303 0 0.034904941028788758 0.00019383139050295199 0 0.034823052990472649 0.00030274291727342567 0 0.034822323414247881 0.0002218920138209303 0 0.034822323414247881 0.0002218920138209303 0 0.034860350345353938 0.00013151204611350919 0 0.034755126649687926 0.00018784160596990423 0 0.034904941028788758 0.00019383139050295199 0 0.034822323414247881 0.0002218920138209303 0 0.034860350345353938 0.00013151204611350919 0 0.034860350345353938 0.00013151204611350919 0 0.034907782716042494 7.7731073793819002e-05 0 0.03492157147572747 0.00012756958145808503 0 0.034904941028788758 0.00019383139050295199 0 0.034860350345353938 0.00013151204611350919 0 0.03492157147572747 0.00012756958145808503 0 0.034904941028788758 0.00019383139050295199 0 0.034919226979073716 0.00015684915104062944 0 0.03492157147572747 0.00012756958145808503 0 0.034860350345353938 0.00013151204611350919 0 0.034907782716042494 7.7731073793819002e-05 0 0.034869183703287621 3.7766882919384472e-05 0 0.034860350345353938 0.00013151204611350919 0 0.034750922594904837 7.8185546360024752e-05 0 0.034869183703287621 3.7766882919384472e-05 0 0.034750922594904837 7.8185546360024752e-05 0 0.034813346112992041 -5.7143752464603693e-06 0 0.034869183703287621 3.7766882919384472e-05 0 0.034750922594904837 7.8185546360024752e-05 0 0.034590149981462023 7.7204066824261526e-05 0 0.034641054635308727 0.00016147067636774158 0 0.034750922594904837 7.8185546360024752e-05 0 0.034590149981462023 7.7204066824261526e-05 0 0.034653666522271913 -1.9603513765312122e-05 0 0.034590149981462023 7.7204066824261526e-05 0 0.034641054635308727 0.00016147067636774158 0 0.034461161469142298 0.00013372109178644441 0 0.034521636707261424 0.00026914617047909173 0 0.034641054635308727 0.00016147067636774158 0 0.034461161469142298 0.00013372109178644441 0 0.034521636707261424 0.00026914617047909173 0 0.034666654135225246 0.00025875169255784792 0 0.034641054635308727 0.00016147067636774158 0 0.034860350345353938 0.00013151204611350919 0 0.034750922594904837 7.8185546360024752e-05 0 0.034755126649687926 0.00018784160596990423 0 0.034666654135225246 0.00025875169255784792 0 0.034641054635308727 0.00016147067636774158 0 0.034755126649687926 0.00018784160596990423 0 0.034750922594904837 7.8185546360024752e-05 0 0.034641054635308727 0.00016147067636774158 0 0.034755126649687926 0.00018784160596990423 0 0.034964357555915669 0.00012298399024349344 0 0.034952059423952839 0.00013782861735525277 0 0.034968055749335161 0.00011480943488272763 0 0.030338578350631071 0.0010118795824432369 0 0.032467948300567637 0.0013446854671147186 0 0.025172503621306377 0.0010074354855227011 0 0.025248763073484642 0.00073959515047405044 0 0.025455471007533287 0.00086333666231934903 0 0.030338578350631071 0.0010118795824432369 0 0.030373722955845159 0.00075770119455121731 0 0.034949598287228448 0.00015132315939059385 0 0.034947186224011037 0.00016445322484305466 0 0.034952059423952839 0.00013782861735525277 0 0.034925573619428135 0.00019169270719617394 0 0.034947186224011037 0.00016445322484305466 0 0.03493420849158204 0.00016386531252152376 0 0.034947186224011037 0.00016445322484305466 0 0.034952059423952839 0.00013782861735525277 0 0.03493420849158204 0.00016386531252152376 0 0.034952059423952839 0.00013782861735525277 0 0.034953888721668651 0.00011688969009005866 0 0.034968055749335161 0.00011480943488272763 0 0.034952059423952839 0.00013782861735525277 0 0.034929244136058857 0.00015513666471131103 0 0.034953888721668651 0.00011688969009005866 0 0.034952059423952839 0.00013782861735525277 0 0.034929244136058857 0.00015513666471131103 0 0.03493420849158204 0.00016386531252152376 0 0.034925573619428135 0.00019169270719617394 0 0.03493420849158204 0.00016386531252152376 0 0.034916268944201002 0.00017414997867985416 0 0.034929244136058857 0.00015513666471131103 0 0.03493420849158204 0.00016386531252152376 0 0.034916268944201002 0.00017414997867985416 0 0.034929244136058857 0.00015513666471131103 0 0.034916268944201002 0.00017414997867985416 0 0.034901365932866475 0.00017583356833686793 0 0.034916268944201002 0.00017414997867985416 0 0.034895013373983069 0.00017840175897339589 0 0.034901365932866475 0.00017583356833686793 0 0.034929244136058857 0.00015513666471131103 0 0.034919226979073716 0.00015684915104062944 0 0.034941434131017107 0.00011846051359114773 0 0.034929244136058857 0.00015513666471131103 0 0.034901365932866475 0.00017583356833686793 0 0.034919226979073716 0.00015684915104062944 0 0.034919226979073716 0.00015684915104062944 0 0.03492157147572747 0.00012756958145808503 0 0.034941434131017107 0.00011846051359114773 0 0.03492157147572747 0.00012756958145808503 0 0.034941997738238688 7.7900098235872666e-05 0 0.034941434131017107 0.00011846051359114773 0 0.034907782716042494 7.7731073793819002e-05 0 0.03492157147572747 0.00012756958145808503 0 0.034941997738238688 7.7900098235872666e-05 0 0.034907782716042494 7.7731073793819002e-05 0 0.034941997738238688 7.7900098235872666e-05 0 0.034932694882616105 2.6771106466565563e-05 0 0.034941997738238688 7.7900098235872666e-05 0 0.034941434131017107 0.00011846051359114773 0 0.034965618087975006 7.3917846167651576e-05 0 0.034941434131017107 0.00011846051359114773 0 0.034953888721668651 0.00011688969009005866 0 0.034965618087975006 7.3917846167651576e-05 0 0.034929244136058857 0.00015513666471131103 0 0.034941434131017107 0.00011846051359114773 0 0.034953888721668651 0.00011688969009005866 0 0.034953888721668651 0.00011688969009005866 0 0.034965618087975006 7.3917846167651576e-05 0 0.034970175706243702 9.6602893184975859e-05 0 0.034965618087975006 7.3917846167651576e-05 0 0.034970175706243702 9.6602893184975859e-05 0 0.034974337123854303 7.5671987613012829e-05 0 0.034970175706243702 9.6602893184975859e-05 0 0.034974337123854303 7.5671987613012829e-05 0 0.034980994327688267 8.3411189430030328e-05 0 0.034974337123854303 7.5671987613012829e-05 0 0.034980994327688267 8.3411189430030328e-05 0 0.034985382528241467 6.4977810625348379e-05 0 0.034977328124321416 9.7453486104847432e-05 0 0.034970175706243702 9.6602893184975859e-05 0 0.034980994327688267 8.3411189430030328e-05 0 0.034953888721668651 0.00011688969009005866 0 0.034970175706243702 9.6602893184975859e-05 0 0.034968055749335161 0.00011480943488272763 0 0.034977328124321416 9.7453486104847432e-05 0 0.034970175706243702 9.6602893184975859e-05 0 0.034968055749335161 0.00011480943488272763 0 0.03499076893126337 2.9364992686747906e-05 0 0.034977476355688764 3.1282606543242528e-05 0 0.034989940300612331 1.2969370460677084e-05 0 0.03499076893126337 2.9364992686747906e-05 0 0.034980690302614255 5.3865122560936057e-05 0 0.034977476355688764 3.1282606543242528e-05 0 0.034993809436230351 4.9191278050641888e-05 0 0.03499076893126337 2.9364992686747906e-05 0 0.034980690302614255 5.3865122560936057e-05 0 0.034993809436230351 4.9191278050641888e-05 0 0.034985382528241467 6.4977810625348379e-05 0 0.034980690302614255 5.3865122560936057e-05 0 0.034974337123854303 7.5671987613012829e-05 0 0.034985382528241467 6.4977810625348379e-05 0 0.034980690302614255 5.3865122560936057e-05 0 0.034965618087975006 7.3917846167651576e-05 0 0.034980690302614255 5.3865122560936057e-05 0 0.034977476355688764 3.1282606543242528e-05 0 0.034965618087975006 7.3917846167651576e-05 0 0.034974337123854303 7.5671987613012829e-05 0 0.034980690302614255 5.3865122560936057e-05 0 0.034977476355688764 3.1282606543242528e-05 0 0.03496726567374335 1.3236465381418562e-05 0 0.034958773897490816 4.5547992714908374e-05 0 0.034977476355688764 3.1282606543242528e-05 0 0.03496726567374335 1.3236465381418562e-05 0 0.034985199676251459 5.9888949115217505e-06 0 0.034941997738238688 7.7900098235872666e-05 0 0.034965618087975006 7.3917846167651576e-05 0 0.034958773897490816 4.5547992714908374e-05 0 0.034965618087975006 7.3917846167651576e-05 0 0.034977476355688764 3.1282606543242528e-05 0 0.034958773897490816 4.5547992714908374e-05 0 0.034941997738238688 7.7900098235872666e-05 0 0.034958773897490816 4.5547992714908374e-05 0 0.034932694882616105 2.6771106466565563e-05 0 0.03496726567374335 1.3236465381418562e-05 0 0.034958773897490816 4.5547992714908374e-05 0 0.034932694882616105 2.6771106466565563e-05 0 0.03496726567374335 1.3236465381418562e-05 0 0.034932694882616105 2.6771106466565563e-05 0 0.034955514859708076 -1.2755442004351149e-05 0 0.03496726567374335 1.3236465381418562e-05 0 0.03497929780034538 -2.6292787359275295e-06 0 0.034955514859708076 -1.2755442004351149e-05 0 0.03497929780034538 -2.6292787359275295e-06 0 0.034999974661735239 1.7096034961008979e-09 0 0.034999932348911897 -2.4197168765507987e-08 0 0.03497929780034538 -2.6292787359275295e-06 0 0.034955514859708076 -1.2755442004351149e-05 0 0.034999932348911897 -2.4197168765507987e-08 0 0.03497929780034538 -2.6292787359275295e-06 0 0.034999974661735239 1.7096034961008979e-09 0 0.034985199676251459 5.9888949115217505e-06 0 0.03496726567374335 1.3236465381418562e-05 0 0.03497929780034538 -2.6292787359275295e-06 0 0.034985199676251459 5.9888949115217505e-06 0 0.034977476355688764 3.1282606543242528e-05 0 0.034985199676251459 5.9888949115217505e-06 0 0.034989940300612331 1.2969370460677084e-05 0 0.034985199676251459 5.9888949115217505e-06 0 0.034999987856862078 3.2255283502849513e-09 0 0.034989940300612331 1.2969370460677084e-05 0 0.034999974661735239 1.7096034961008979e-09 0 0.034985199676251459 5.9888949115217505e-06 0 0.034999987856862078 3.2255283502849513e-09 0 0.034999987856862078 3.2255283502849513e-09 0 0.034989940300612331 1.2969370460677084e-05 0 0.034995798615477081 1.1350711323108366e-05 0 0.035000080344214854 6.1153838422553681e-06 0 0.034999987856862078 3.2255283502849513e-09 0 0.034995798615477081 1.1350711323108366e-05 0 0.03499076893126337 2.9364992686747906e-05 0 0.034989940300612331 1.2969370460677084e-05 0 0.034995798615477081 1.1350711323108366e-05 0 0.034804700172580638 -7.3989582327060283e-05 0 0.034813346112992041 -5.7143752464603693e-06 0 0.034892438701162674 -2.6675533851582028e-05 0 0.034804700172580638 -7.3989582327060283e-05 0 0.034892438701162674 -2.6675533851582028e-05 0 0.034884846604385233 -7.2384673154483303e-05 0 0.034804700172580638 -7.3989582327060283e-05 0 0.034653666522271913 -1.9603513765312122e-05 0 0.034766174955784421 -0.00016431169726409438 0 0.034804700172580638 -7.3989582327060283e-05 0 0.034884846604385233 -7.2384673154483303e-05 0 0.034766174955784421 -0.00016431169726409438 0 0.034804700172580638 -7.3989582327060283e-05 0 0.034653666522271913 -1.9603513765312122e-05 0 0.034813346112992041 -5.7143752464603693e-06 0 0.034750922594904837 7.8185546360024752e-05 0 0.034653666522271913 -1.9603513765312122e-05 0 0.034813346112992041 -5.7143752464603693e-06 0 0.034813346112992041 -5.7143752464603693e-06 0 0.034869183703287621 3.7766882919384472e-05 0 0.034892438701162674 -2.6675533851582028e-05 0 0.034907782716042494 7.7731073793819002e-05 0 0.034869183703287621 3.7766882919384472e-05 0 0.034932694882616105 2.6771106466565563e-05 0 0.034869183703287621 3.7766882919384472e-05 0 0.034932694882616105 2.6771106466565563e-05 0 0.034892438701162674 -2.6675533851582028e-05 0 0.034932694882616105 2.6771106466565563e-05 0 0.034892438701162674 -2.6675533851582028e-05 0 0.034955514859708076 -1.2755442004351149e-05 0 0.034892438701162674 -2.6675533851582028e-05 0 0.03494905698296228 -3.0264839607349449e-05 0 0.034884846604385233 -7.2384673154483303e-05 0 0.034892438701162674 -2.6675533851582028e-05 0 0.03494905698296228 -3.0264839607349449e-05 0 0.034955514859708076 -1.2755442004351149e-05 0 0.03494905698296228 -3.0264839607349449e-05 0 0.034955514859708076 -1.2755442004351149e-05 0 0.034999932348911897 -2.4197168765507987e-08 0 0.03494905698296228 -3.0264839607349449e-05 0 0.034999932348911897 -2.4197168765507987e-08 0 0.034999918253665316 -3.8584607985315809e-08 0 0.03494905698296228 -3.0264839607349449e-05 0 0.034999918253665316 -3.8584607985315809e-08 0 0.034884846604385233 -7.2384673154483303e-05 0 0.034884846604385233 -7.2384673154483303e-05 0 0.034885210023640423 -7.3680438662654756e-05 0 0.034766174955784421 -0.00016431169726409438 0 0.034884846604385233 -7.2384673154483303e-05 0 0.034999656033924138 -9.5369935820392082e-08 0 0.034885210023640423 -7.3680438662654756e-05 0 0.034999918253665316 -3.8584607985315809e-08 0 0.034884846604385233 -7.2384673154483303e-05 0 0.034999656033924138 -9.5369935820392082e-08 0 0.034999656033924138 -9.5369935820392082e-08 0 0.034937410980052298 -7.1396880450134924e-05 0 0.034885210023640423 -7.3680438662654756e-05 0 0.034999832916351857 -1.129798809393091e-07 0 0.034879516232549888 -5.0755846330070476e-05 0 0.03500000822245234 1.0307363201209155e-08 0 0.035004355980634803 8.0057223771832433e-06 0 0.035004343755646837 1.279431997134021e-05 0 0.03500000400020549 -3.1418375020246954e-09 0 0.03500000822245234 1.0307363201209155e-08 0 0.035004355980634803 8.0057223771832433e-06 0 0.034937410980052298 -7.1396880450134924e-05 0 0.034885210023640423 -7.3680438662654756e-05 0 0.034944671926804796 -0.00015086015067057246 0 0.034937410980052298 -7.1396880450134924e-05 0 0.035042262691985793 -0.00015325742426410945 0 0.034944671926804796 -0.00015086015067057246 0 0.034885210023640423 -7.3680438662654756e-05 0 0.034766174955784421 -0.00016431169726409438 0 0.034944671926804796 -0.00015086015067057246 0 0.035000017288369649 1.6098596613881852e-08 0 0.035004343755646837 1.279431997134021e-05 0 0.035004825027940306 2.4979955155882287e-05 0 0.035000017288369649 1.6098596613881852e-08 0 0.035004825027940306 2.4979955155882287e-05 0 0.034998003191813488 3.2514770153931054e-05 0 0.03500000822245234 1.0307363201209155e-08 0 0.035000017288369649 1.6098596613881852e-08 0 0.035004343755646837 1.279431997134021e-05 0 0.035004355980634803 8.0057223771832433e-06 0 0.035004343755646837 1.279431997134021e-05 0 0.035007530006156626 2.7416852781401491e-05 0 0.034879516232549888 -5.0755846330070476e-05 0 0.034536558855413083 5.1615272828419348e-06 0 0.035004343755646837 1.279431997134021e-05 0 0.035004825027940306 2.4979955155882287e-05 0 0.035007530006156626 2.7416852781401491e-05 0 0.035004825027940306 2.4979955155882287e-05 0 0.035007530006156626 2.7416852781401491e-05 0 0.035006516966401433 4.7829497017300497e-05 0 0.033685649673452611 0.00025951089496782409 0 0.033860480577035057 0.00011827491816720935 0 0.033909911500179253 0.00025589371056347409 0 0.034536558855413083 5.1615272828419348e-06 0 0.034217336156321214 9.9746969041617501e-05 0 0.034071412529967551 -0.00024598246768802205 0 0.034036052697548891 -6.0261863123539795e-05 0 0.033957657101542547 -8.5102337105639938e-05 0 0.034536558855413083 5.1615272828419348e-06 0 0.034502472065531739 7.3439005681090011e-05 0 0.034536558855413083 5.1615272828419348e-06 0 0.034612360335054208 -6.5924166364036534e-05 0 0.034071412529967551 -0.00024598246768802205 0 0.034036052697548891 -6.0261863123539795e-05 0 0.034196485773091485 -0.00012021272301948362 0 0.034071412529967551 -0.00024598246768802205 0 0.034340750485488021 -0.00027359961368864154 0 0.034196485773091485 -0.00012021272301948362 0 0.034036052697548891 -6.0261863123539795e-05 0 0.034196485773091485 -0.00012021272301948362 0 0.034133552769971216 6.4975805346501124e-06 0 0.034036052697548891 -6.0261863123539795e-05 0 0.033957657101542547 -8.5102337105639938e-05 0 0.033966708120538702 -1.9029338681503676e-05 0 0.034647596587833777 -8.4655397349950423e-05 0 0.034612360335054208 -6.5924166364036534e-05 0 0.034766174955784421 -0.00016431169726409438 0 0.034340750485488021 -0.00027359961368864154 0 0.034404522712733698 -6.2035819725464277e-05 0 0.034340750485488021 -0.00027359961368864154 0 0.034404522712733698 -6.2035819725464277e-05 0 0.034196485773091485 -0.00012021272301948362 0 0.034404522712733698 -6.2035819725464277e-05 0 0.034196485773091485 -0.00012021272301948362 0 0.034133552769971216 6.4975805346501124e-06 0 0.034653666522271913 -1.9603513765312122e-05 0 0.034766174955784421 -0.00016431169726409438 0 0.034404522712733698 -6.2035819725464277e-05 0 0.034653666522271913 -1.9603513765312122e-05 0 0.034404522712733698 -6.2035819725464277e-05 0 0.034383694442080268 3.7634897273679082e-05 0 0.034590149981462023 7.7204066824261526e-05 0 0.034383694442080268 3.7634897273679082e-05 0 0.034461161469142298 0.00013372109178644441 0 0.034590149981462023 7.7204066824261526e-05 0 0.034653666522271913 -1.9603513765312122e-05 0 0.034383694442080268 3.7634897273679082e-05 0 0.034461161469142298 0.00013372109178644441 0 0.034155944508955337 0.00012884877889982884 0 0.034364492510089523 0.00023397946123409369 0 0.034383694442080268 3.7634897273679082e-05 0 0.034461161469142298 0.00013372109178644441 0 0.034155944508955337 0.00012884877889982884 0 0.034521636707261424 0.00026914617047909173 0 0.034461161469142298 0.00013372109178644441 0 0.034364492510089523 0.00023397946123409369 0 0.034383694442080268 3.7634897273679082e-05 0 0.034155944508955337 0.00012884877889982884 0 0.034133552769971216 6.4975805346501124e-06 0 0.034404522712733698 -6.2035819725464277e-05 0 0.034383694442080268 3.7634897273679082e-05 0 0.034133552769971216 6.4975805346501124e-06 0 0.034036052697548891 -6.0261863123539795e-05 0 0.034133552769971216 6.4975805346501124e-06 0 0.033938583444636745 1.4808304859521624e-05 0 0.034133552769971216 6.4975805346501124e-06 0 0.033938583444636745 1.4808304859521624e-05 0 0.033942541496922392 8.3177710051199132e-05 0 0.034036052697548891 -6.0261863123539795e-05 0 0.033966708120538702 -1.9029338681503676e-05 0 0.033938583444636745 1.4808304859521624e-05 0 0.033966708120538702 -1.9029338681503676e-05 0 0.033938583444636745 1.4808304859521624e-05 0 0.033969192185658206 7.8130109312568178e-07 0 0.033938583444636745 1.4808304859521624e-05 0 0.033791880172678659 3.5804989178297478e-05 0 0.033942541496922392 8.3177710051199132e-05 0 0.033938583444636745 1.4808304859521624e-05 0 0.033791880172678659 3.5804989178297478e-05 0 0.033969192185658206 7.8130109312568178e-07 0 0.034155944508955337 0.00012884877889982884 0 0.033942541496922392 8.3177710051199132e-05 0 0.033814130246549307 0.0002781478477147039 0 0.034155944508955337 0.00012884877889982884 0 0.034133552769971216 6.4975805346501124e-06 0 0.033942541496922392 8.3177710051199132e-05 0 0.033791880172678659 3.5804989178297478e-05 0 0.033942541496922392 8.3177710051199132e-05 0 0.033814130246549307 0.0002781478477147039 0 0.033791880172678659 3.5804989178297478e-05 0 0.033662422953522161 0.00020239965644981535 0 0.033630918800703992 0.00014133366515792838 0 0.033791880172678659 3.5804989178297478e-05 0 0.033814130246549307 0.0002781478477147039 0 0.033662422953522161 0.00020239965644981535 0 0.033586956597295659 0.00017277123008286336 0 0.033483995537235266 0.00020410146636304098 0 0.033662422953522161 0.00020239965644981535 0 0.033483995537235266 0.00020410146636304098 0 0.033662422953522161 0.00020239965644981535 0 0.033498715525580355 0.0001834337187280765 0 0.033662422953522161 0.00020239965644981535 0 0.033498715525580355 0.0001834337187280765 0 0.033630918800703992 0.00014133366515792838 0 0.033586956597295659 0.00017277123008286336 0 0.033814130246549307 0.0002781478477147039 0 0.033535401278410377 0.00017336541525634264 0 0.033586956597295659 0.00017277123008286336 0 0.033814130246549307 0.0002781478477147039 0 0.033662422953522161 0.00020239965644981535 0 0.033814130246549307 0.0002781478477147039 0 0.033535401278410377 0.00017336541525634264 0 0.033395736871345449 0.00038028905052796708 0 0.033535401278410377 0.00017336541525634264 0 0.033253960174307456 0.00021542746491699623 0 0.033395736871345449 0.00038028905052796708 0 0.03298109069348179 0.00030918289760369143 0 0.033253960174307456 0.00021542746491699623 0 0.033395736871345449 0.00038028905052796708 0 0.033684427716408311 0.00043007349123203286 0 0.033756831314676973 0.00040830283869538493 0 0.034521636707261424 0.00026914617047909173 0 0.034289830452013205 0.00041444344935175997 0 0.034364492510089523 0.00023397946123409369 0 0.034571362596199154 0.00040910224042686537 0 0.034521636707261424 0.00026914617047909173 0 0.034289830452013205 0.00041444344935175997 0 0.033764742305383365 0.00039345725900134576 0 0.033756831314676973 0.00040830283869538493 0 0.034155944508955337 0.00012884877889982884 0 0.033814130246549307 0.0002781478477147039 0 0.034289830452013205 0.00041444344935175997 0 0.034155944508955337 0.00012884877889982884 0 0.034289830452013205 0.00041444344935175997 0 0.034364492510089523 0.00023397946123409369 0 0.033425300333730347 -0.00015980023537106474 0 0.033462965880238039 -0.00015285835017998084 0 0.033425154970474602 -0.0002087061251184855 0 0.033713220948041335 2.2002141010319483e-05 0 0.033855513300125782 -0.00010209510088019812 0 0.034165292485407867 -0.00019963030958610503 0 0.034117332884952452 -8.3202179813390435e-05 0 0.034209901869957829 -7.2067749077547955e-05 0 0.033425300333730347 -0.00015980023537106474 0 0.033425154970474602 -0.0002087061251184855 0 0.033402432077117301 -0.00018199695822909644 0 0.033425300333730347 -0.00015980023537106474 0 0.033402432077117301 -0.00018199695822909644 0 0.03340806010753096 -0.00014353892724432241 0 0.033425300333730347 -0.00015980023537106474 0 0.033462965880238039 -0.00015285835017998084 0 0.033413536518404709 -0.00011175563846109056 0 0.033418656077854922 0.00015223579127236829 0 0.033420760816808073 0.00015442202491665845 0 0.033412127846307996 0.00012888432484307958 0 0.033416152032825164 0.00013883569101007405 0 0.033418656077854922 0.00015223579127236829 0 0.033412127846307996 0.00012888432484307958 0 0.033713220948041335 2.2002141010319483e-05 0 0.033445190456560338 5.4942529836167673e-05 0 0.033425300333730347 -0.00015980023537106474 0 0.03340806010753096 -0.00014353892724432241 0 0.033413536518404709 -0.00011175563846109056 0 0.033713220948041335 2.2002141010319483e-05 0 0.033687395429055703 3.8662985816115409e-05 0 0.033418656077854922 0.00015223579127236829 0 0.033420760816808073 0.00015442202491665845 0 0.033418322164405739 0.00017118031606809474 0 0.033438481652220312 0.00016102875793942134 0 0.033498715525580355 0.0001834337187280765 0 0.03347206931909974 8.6407008361129851e-05 0 0.033425493187371487 0.0002079534440843197 0 0.033418322164405739 0.00017118031606809474 0 0.033438481652220312 0.00016102875793942134 0 0.033425493187371487 0.0002079534440843197 0 0.033438481652220312 0.00016102875793942134 0 0.033498715525580355 0.0001834337187280765 0 0.033389238350873755 0.00013567248794553837 0 0.033418322164405739 0.00017118031606809474 0 0.033438481652220312 0.00016102875793942134 0 0.033765593566987717 1.2908672579592736e-06 0 0.033754409739921616 1.9094543870773501e-06 0 0.033791880172678659 3.5804989178297478e-05 0 0.033630918800703992 0.00014133366515792838 0 0.03347206931909974 8.6407008361129851e-05 0 0.033498715525580355 0.0001834337187280765 0 0.033630918800703992 0.00014133366515792838 0 0.03347206931909974 8.6407008361129851e-05 0 0.033713220948041335 2.2002141010319483e-05 0 0.033754409739921616 1.9094543870773501e-06 0 0.034165292485407867 -0.00019963030958610503 0 0.034020953595538285 -0.00014303686240291737 0 0.034117332884952452 -8.3202179813390435e-05 0 0.033389238350873755 0.00013567248794553837 0 0.033438481652220312 0.00016102875793942134 0 0.03347206931909974 8.6407008361129851e-05 0 0.034117332884952452 -8.3202179813390435e-05 0 0.033969192185658206 7.8130109312568178e-07 0 0.034178015607438432 -2.2145717333786645e-05 0 0.034020953595538285 -0.00014303686240291737 0 0.034117332884952452 -8.3202179813390435e-05 0 0.033969192185658206 7.8130109312568178e-07 0 0.033791880172678659 3.5804989178297478e-05 0 0.034020953595538285 -0.00014303686240291737 0 0.033969192185658206 7.8130109312568178e-07 0 0.033966708120538702 -1.9029338681503676e-05 0 0.033969192185658206 7.8130109312568178e-07 0 0.034029309607246642 -6.2334689301555469e-06 0 0.033969192185658206 7.8130109312568178e-07 0 0.034178015607438432 -2.2145717333786645e-05 0 0.034029309607246642 -6.2334689301555469e-06 0 0.034178015607438432 -2.2145717333786645e-05 0 0.034240558500672529 -1.1233210625894546e-05 0 0.034235227144156229 -8.5118839877201553e-06 0 0.034178015607438432 -2.2145717333786645e-05 0 0.034209901869957829 -7.2067749077547955e-05 0 0.034240558500672529 -1.1233210625894546e-05 0 0.034117332884952452 -8.3202179813390435e-05 0 0.034178015607438432 -2.2145717333786645e-05 0 0.034209901869957829 -7.2067749077547955e-05 0 0.033425154970474602 -0.0002087061251184855 0 0.033393016136426298 -0.00022742927641813081 0 0.033402432077117301 -0.00018199695822909644 0 0.033855513300125782 -0.00010209510088019812 0 0.034046502364186874 -0.00012786777998958311 0 0.033425154970474602 -0.0002087061251184855 0 0.033363612371586387 -0.00020833632594621207 0 0.033393016136426298 -0.00022742927641813081 0 0.034240558500672529 -1.1233210625894546e-05 0 0.034233789344166272 -2.3466810565241739e-05 0 0.034226951654110112 -2.6001175465022077e-05 0 0.033363612371586387 -0.00020833632594621207 0 0.033338154800575517 -8.8261439939191035e-05 0 0.033378637433932407 -0.00016324757217828947 0 0.034046502364186874 -0.00012786777998958311 0 0.034393200021851048 -7.7143730373915756e-05 0 0.034240558500672529 -1.1233210625894546e-05 0 0.034235227144156229 -8.5118839877201553e-06 0 0.034233789344166272 -2.3466810565241739e-05 0 0.034178015607438432 -2.2145717333786645e-05 0 0.034235227144156229 -8.5118839877201553e-06 0 0.034290157818805102 -1.6164284061144262e-05 0 0.034445459463954754 -3.8427478489576421e-05 0 0.034451366089293833 -4.2396086917787616e-05 0 0.034290157818805102 -1.6164284061144262e-05 0 0.034796773513420864 3.1700182490793532e-05 0 0.034527256036514464 9.7921827774744596e-05 0 0.034235227144156229 -8.5118839877201553e-06 0 0.034290157818805102 -1.6164284061144262e-05 0 0.034233789344166272 -2.3466810565241739e-05 0 0.034615503732514777 0.00011669324802519901 0 0.034562892654924494 0.00010794280368540534 0 0.034796773513420864 3.1700182490793532e-05 0 0.034527256036514464 9.7921827774744596e-05 0 0.034785703916854538 0.00015995154040505488 0 0.034527256036514464 9.7921827774744596e-05 0 0.034785703916854538 0.00015995154040505488 0 0.034176684761446009 0.0002728646766846431 0 0.034785703916854538 0.00015995154040505488 0 0.034984714143378795 9.7949961598365205e-05 0 0.034928979324908481 7.2849381452174433e-05 0 0.034785703916854538 0.00015995154040505488 0 0.034873523475226653 0.00011487287511996626 0 0.034880974683194434 8.5587485959102026e-05 0 0.034796773513420864 3.1700182490793532e-05 0 0.034785703916854538 0.00015995154040505488 0 0.034873523475226653 0.00011487287511996626 0 0.034873523475226653 0.00011487287511996626 0 0.034900168301967328 7.5746493989309977e-05 0 0.034929494369966195 6.8841518511278144e-05 0 0.034796773513420864 3.1700182490793532e-05 0 0.034873523475226653 0.00011487287511996626 0 0.034900168301967328 7.5746493989309977e-05 0 0.034451366089293833 -4.2396086917787616e-05 0 0.034393200021851048 -7.7143730373915756e-05 0 0.034217336156321214 9.9746969041617501e-05 0 0.034164277346467355 9.899475387330377e-05 0 0.033860480577035057 0.00011827491816720935 0 0.034029309607246642 -6.2334689301555469e-06 0 0.034039846416043955 0.00012617791188560372 0 0.033957657101542547 -8.5102337105639938e-05 0 0.033966708120538702 -1.9029338681503676e-05 0 0.034029309607246642 -6.2334689301555469e-06 0 0.034290157818805102 -1.6164284061144262e-05 0 0.034029309607246642 -6.2334689301555469e-06 0 0.034039846416043955 0.00012617791188560372 0 0.034178015607438432 -2.2145717333786645e-05 0 0.034290157818805102 -1.6164284061144262e-05 0 0.034029309607246642 -6.2334689301555469e-06 0 0.034290157818805102 -1.6164284061144262e-05 0 0.034176684761446009 0.0002728646766846431 0 0.034039846416043955 0.00012617791188560372 0 0.034290157818805102 -1.6164284061144262e-05 0 0.034527256036514464 9.7921827774744596e-05 0 0.034176684761446009 0.0002728646766846431 0 0.034562892654924494 0.00010794280368540534 0 0.034502472065531739 7.3439005681090011e-05 0 0.034176684761446009 0.0002728646766846431 0 0.033909911500179253 0.00025589371056347409 0 0.034039846416043955 0.00012617791188560372 0 0.033860480577035057 0.00011827491816720935 0 0.033909911500179253 0.00025589371056347409 0 0.034039846416043955 0.00012617791188560372 0 0.034984714143378795 9.7949961598365205e-05 0 0.035006516966401433 4.7829497017300497e-05 0 0.034998003191813488 3.2514770153931054e-05 0 0.035004825027940306 2.4979955155882287e-05 0 0.035006516966401433 4.7829497017300497e-05 0 0.034998003191813488 3.2514770153931054e-05 0 0.034998003191813488 3.2514770153931054e-05 0 0.034928979324908481 7.2849381452174433e-05 0 0.034954290034070939 3.3520756647686744e-05 0 0.034984714143378795 9.7949961598365205e-05 0 0.034998003191813488 3.2514770153931054e-05 0 0.034928979324908481 7.2849381452174433e-05 0 0.034998003191813488 3.2514770153931054e-05 0 0.034999979728901516 6.1443256091344784e-09 0 0.034954290034070939 3.3520756647686744e-05 0 0.035000017288369649 1.6098596613881852e-08 0 0.034998003191813488 3.2514770153931054e-05 0 0.034999979728901516 6.1443256091344784e-09 0 0.034873523475226653 0.00011487287511996626 0 0.034925647403750294 5.8928421625738136e-05 0 0.034929494369966195 6.8841518511278144e-05 0 0.034925647403750294 5.8928421625738136e-05 0 0.034964243524587824 3.3217781924642531e-05 0 0.034929494369966195 6.8841518511278144e-05 0 0.034873523475226653 0.00011487287511996626 0 0.034925647403750294 5.8928421625738136e-05 0 0.034880974683194434 8.5587485959102026e-05 0 0.034925647403750294 5.8928421625738136e-05 0 0.034880974683194434 8.5587485959102026e-05 0 0.034954290034070939 3.3520756647686744e-05 0 0.034785703916854538 0.00015995154040505488 0 0.034880974683194434 8.5587485959102026e-05 0 0.034928979324908481 7.2849381452174433e-05 0 0.034880974683194434 8.5587485959102026e-05 0 0.034928979324908481 7.2849381452174433e-05 0 0.034954290034070939 3.3520756647686744e-05 0 0.034925647403750294 5.8928421625738136e-05 0 0.034954290034070939 3.3520756647686744e-05 0 0.034999892606548691 4.4138512929436553e-08 0 0.034999979728901516 6.1443256091344784e-09 0 0.034954290034070939 3.3520756647686744e-05 0 0.034999892606548691 4.4138512929436553e-08 0 0.034925647403750294 5.8928421625738136e-05 0 0.034999892606548691 4.4138512929436553e-08 0 0.034964243524587824 3.3217781924642531e-05 0 0.034999892606548691 4.4138512929436553e-08 0 0.034964243524587824 3.3217781924642531e-05 0 0.03499989134331985 3.1797519367844254e-08 0 0.034964243524587824 3.3217781924642531e-05 0 0.03499989134331985 3.1797519367844254e-08 0 0.034929494369966195 6.8841518511278144e-05 0 0.035000036351342648 2.3282247620098122e-08 0 0.035000415362954805 5.5588268220072618e-06 0 0.035005891920826634 1.4369999682987184e-05 0 0.034999522406388102 1.6050319735777789e-07 0 0.034764482238456643 3.452034876471441e-05 0 0.03501332685038528 3.8689679022046945e-05 0 0.035005891920826634 1.4369999682987184e-05 0 0.034993155552689247 1.7751955808065765e-05 0 0.034393200021851048 -7.7143730373915756e-05 0 0.034764482238456643 3.452034876471441e-05 0 0.035000415362954805 5.5588268220072618e-06 0 0.035005891920826634 1.4369999682987184e-05 0 0.034993155552689247 1.7751955808065765e-05 0 0.035000415362954805 5.5588268220072618e-06 0 0.034993155552689247 1.7751955808065765e-05 0 0.034970604656927175 8.4274415219863514e-06 0 0.034993155552689247 1.7751955808065765e-05 0 0.034970604656927175 8.4274415219863514e-06 0 0.034981969196773328 2.9759228446056604e-05 0 0.035000036351342648 2.3282247620098122e-08 0 0.034999955691151809 -2.8272928214481942e-08 0 0.035009070979479161 1.4907926545539509e-05 0 0.034877955493239229 -3.3435725137490291e-05 0 0.034799389727830289 -2.3366438747523829e-05 0 0.035000036351342648 2.3282247620098122e-08 0 0.035000415362954805 5.5588268220072618e-06 0 0.035009070979479161 1.4907926545539509e-05 0 0.034999955691151809 -2.8272928214481942e-08 0 0.034973498751745082 2.6588194482439915e-05 0 0.035009070979479161 1.4907926545539509e-05 0 0.034999955691151809 -2.8272928214481942e-08 0 0.034968046450693818 -1.5075132097617418e-05 0 0.03499997288680675 -2.5336648576550599e-09 0 0.034999955691151809 -2.8272928214481942e-08 0 0.034973498751745082 2.6588194482439915e-05 0 0.034968046450693818 -1.5075132097617418e-05 0 0.034973498751745082 2.6588194482439915e-05 0 0.034968046450693818 -1.5075132097617418e-05 0 0.034926223433244287 3.1391135066232394e-05 0 0.034968046450693818 -1.5075132097617418e-05 0 0.034926223433244287 3.1391135066232394e-05 0 0.034788874502289756 3.6118475324414176e-05 0 0.034965376035377312 8.7576586459580486e-05 0 0.034788874502289756 3.6118475324414176e-05 0 0.034653993575940047 0.00018821381909659674 0 0.034472411202688832 2.6764548785778292e-05 0 0.034433758395619983 6.3589850920244047e-05 0 0.033732889902125356 0.00020892069646012869 0 0.033793233249695423 0.00014538476835882668 0 0.034059788153346357 0.0001661938491846992 0 0.034926223433244287 3.1391135066232394e-05 0 0.034965376035377312 8.7576586459580486e-05 0 0.034788874502289756 3.6118475324414176e-05 0 0.034973498751745082 2.6588194482439915e-05 0 0.034926223433244287 3.1391135066232394e-05 0 0.034965376035377312 8.7576586459580486e-05 0 0.033732889902125356 0.00020892069646012869 0 0.033728336930884832 0.00012822036507002902 0 0.033651518830158315 7.0544920354332778e-05 0 0.033728336930884832 0.00012822036507002902 0 0.033651518830158315 7.0544920354332778e-05 0 0.033745052122888718 7.4430506507554747e-05 0 0.033728336930884832 0.00012822036507002902 0 0.033793233249695423 0.00014538476835882668 0 0.033745052122888718 7.4430506507554747e-05 0 0.033732889902125356 0.00020892069646012869 0 0.033728336930884832 0.00012822036507002902 0 0.033793233249695423 0.00014538476835882668 0 0.033881034301516157 0.00011426436339047705 0 0.033793233249695423 0.00014538476835882668 0 0.034059788153346357 0.0001661938491846992 0 0.033881034301516157 0.00011426436339047705 0 0.033793233249695423 0.00014538476835882668 0 0.033745052122888718 7.4430506507554747e-05 0 0.034939938804901295 1.7459254674833471e-05 0 0.034970604656927175 8.4274415219863514e-06 0 0.034981969196773328 2.9759228446056604e-05 0 0.033732889902125356 0.00020892069646012869 0 0.033651518830158315 7.0544920354332778e-05 0 0.033479494617230772 3.1599044062750532e-05 0 0.034973498751745082 2.6588194482439915e-05 0 0.034965376035377312 8.7576586459580486e-05 0 0.035009070979479161 1.4907926545539509e-05 0 0.034472411202688832 2.6764548785778292e-05 0 0.034326417619888271 -2.9385986631672521e-05 0 0.034472411202688832 2.6764548785778292e-05 0 0.034799389727830289 -2.3366438747523829e-05 0 0.033651518830158315 7.0544920354332778e-05 0 0.033564355132315239 -2.7230592966313375e-05 0 0.033479494617230772 3.1599044062750532e-05 0 0.033651518830158315 7.0544920354332778e-05 0 0.033679105398242502 -1.82922787392386e-05 0 0.033564355132315239 -2.7230592966313375e-05 0 0.033679105398242502 -1.82922787392386e-05 0 0.033748288311648063 -0.00010212983758807337 0 0.033595292969484894 -0.00012847359695143079 0 0.033679105398242502 -1.82922787392386e-05 0 0.033564355132315239 -2.7230592966313375e-05 0 0.033595292969484894 -0.00012847359695143079 0 0.033881034301516157 0.00011426436339047705 0 0.033777574416022055 -1.4336754413776823e-05 0 0.033888715599552151 -1.8274008709723337e-05 0 0.033881034301516157 0.00011426436339047705 0 0.033745052122888718 7.4430506507554747e-05 0 0.033777574416022055 -1.4336754413776823e-05 0 0.033651518830158315 7.0544920354332778e-05 0 0.033679105398242502 -1.82922787392386e-05 0 0.033745052122888718 7.4430506507554747e-05 0 0.033679105398242502 -1.82922787392386e-05 0 0.033745052122888718 7.4430506507554747e-05 0 0.033777574416022055 -1.4336754413776823e-05 0 0.033679105398242502 -1.82922787392386e-05 0 0.033777574416022055 -1.4336754413776823e-05 0 0.033748288311648063 -0.00010212983758807337 0 0.033777574416022055 -1.4336754413776823e-05 0 0.033748288311648063 -0.00010212983758807337 0 0.033888715599552151 -1.8274008709723337e-05 0 0.032116106344088242 -0.0010606040961923322 0 0.032474071769159882 -0.00049910378304915577 0 0.033687478505907975 -0.00018102826838066572 0 0.033805434100779699 -0.00022058814930425144 0 0.033603700649246247 -0.00026827807342909792 0 0.033748288311648063 -0.00010212983758807337 0 0.033805434100779699 -0.00022058814930425144 0 0.033888715599552151 -1.8274008709723337e-05 0 0.033748288311648063 -0.00010212983758807337 0 0.033687478505907975 -0.00018102826838066572 0 0.033805434100779699 -0.00022058814930425144 0 0.033595292969484894 -0.00012847359695143079 0 0.033480294683752555 -0.00020153267544075734 0 0.033603700649246247 -0.00026827807342909792 0 0.033687478505907975 -0.00018102826838066572 0 0.033595292969484894 -0.00012847359695143079 0 0.033603700649246247 -0.00026827807342909792 0 0.033564355132315239 -2.7230592966313375e-05 0 0.033595292969484894 -0.00012847359695143079 0 0.033447388855633385 -0.00011723996626683082 0 0.033748288311648063 -0.00010212983758807337 0 0.033687478505907975 -0.00018102826838066572 0 0.033595292969484894 -0.00012847359695143079 0 0.033595292969484894 -0.00012847359695143079 0 0.033480294683752555 -0.00020153267544075734 0 0.033447388855633385 -0.00011723996626683082 0 0.033480294683752555 -0.00020153267544075734 0 0.033447388855633385 -0.00011723996626683082 0 0.033392419124913496 -0.0002211607770000961 0 0.033363612371586387 -0.00020833632594621207 0 0.033378637433932407 -0.00016324757217828947 0 0.033392419124913496 -0.0002211607770000961 0 0.033338154800575517 -8.8261439939191035e-05 0 0.033447388855633385 -0.00011723996626683082 0 0.033378637433932407 -0.00016324757217828947 0 0.033447388855633385 -0.00011723996626683082 0 0.033378637433932407 -0.00016324757217828947 0 0.033392419124913496 -0.0002211607770000961 0 0.03501332685038528 3.8689679022046945e-05 0 0.034993155552689247 1.7751955808065765e-05 0 0.034981969196773328 2.9759228446056604e-05 0 0.034393200021851048 -7.7143730373915756e-05 0 0.034326417619888271 -2.9385986631672521e-05 0 0.033338154800575517 -8.8261439939191035e-05 0 0.033447388855633385 -0.00011723996626683082 0 0.033479494617230772 3.1599044062750532e-05 0 0.033564355132315239 -2.7230592966313375e-05 0 0.033447388855633385 -0.00011723996626683082 0 0.033479494617230772 3.1599044062750532e-05 0 0.030953413048501369 -0.0013237916461674331 0 0.031168725392040578 -0.0013420272388555718 0 0.031037613446725183 -0.0011680121267147652 0 0.030953413048501369 -0.0013237916461674331 0 0.031009264025828129 -0.0015029148561540818 0 0.031168725392040578 -0.0013420272388555718 0 0.030953413048501369 -0.0013237916461674331 0 0.030876742319294603 -0.0014506858881140827 0 0.03079072369856482 -0.0013666820958339457 0 0.030953413048501369 -0.0013237916461674331 0 0.030876742319294603 -0.0014506858881140827 0 0.031009264025828129 -0.0015029148561540818 0 0.030876742319294603 -0.0014506858881140827 0 0.031009264025828129 -0.0015029148561540818 0 0.03085899194573612 -0.0015421452484237338 0 0.030903152965143989 -0.0016963935039775223 0 0.031009264025828129 -0.0015029148561540818 0 0.03085899194573612 -0.0015421452484237338 0 0.030903152965143989 -0.0016963935039775223 0 0.031009264025828129 -0.0015029148561540818 0 0.031253407929752036 -0.0016573681677701031 0 0.032476378142234537 -0.00058893657869909979 0 0.033038151240386053 -0.00083310979663668019 0 0.031009264025828129 -0.0015029148561540818 0 0.031253407929752036 -0.0016573681677701031 0 0.031168725392040578 -0.0013420272388555718 0 0.034962591205236336 -2.5179806984732064e-09 0 0.035000000759143279 -1.9491913865678595e-09 0 0.03499610588357252 2.9012861519397834e-06 0 0.031253407929752036 -0.0016573681677701031 0 0.031168725392040578 -0.0013420272388555718 0 0.031432284863210286 -0.0013440526481096023 0 0.032231522032887108 -0.0010877366621543782 0 0.033364891593509499 -0.0011038880815098186 0 0.034433758395619983 6.3589850920244047e-05 0 0.034452041960786037 6.2573161525701531e-05 0 0.034537118949584965 0.00013189668670957858 0 0.034653993575940047 0.00018821381909659674 0 0.034458868807282987 5.9618173592047045e-05 0 0.034456280202829814 0.00014107746189149275 0 0.0346161956607818 -0.00011302622914875121 0 0.034610361796644652 5.1574708774868974e-05 0 0.034456280202829814 0.00014107746189149275 0 0.034537118949584965 0.00013189668670957858 0 0.034458868807282987 5.9618173592047045e-05 0 0.034456280202829814 0.00014107746189149275 0 0.034537118949584965 0.00013189668670957858 0 0.034610361796644652 5.1574708774868974e-05 0 0.035000000759143279 -1.9491913865678595e-09 0 0.035001377529781386 -1.7970607023810328e-06 0 0.035001598293079368 -1.7768827137028177e-06 0 0.033038151240386053 -0.00083310979663668019 0 0.033364891593509499 -0.0011038880815098186 0 0.031253407929752036 -0.0016573681677701031 0 0.031432284863210286 -0.0013440526481096023 0 0.031609642455935075 -0.0016145595269524207 0 0.035000000759143279 -1.9491913865678595e-09 0 0.03499610588357252 2.9012861519397834e-06 0 0.035001377529781386 -1.7970607023810328e-06 0 0.034968046450693818 -1.5075132097617418e-05 0 0.03499997288680675 -2.5336648576550599e-09 0 0.035001598293079368 -1.7768827137028177e-06 0 0.0346161956607818 -0.00011302622914875121 0 0.034788874502289756 3.6118475324414176e-05 0 0.034610361796644652 5.1574708774868974e-05 0 0.034134459220286864 -0.00086965356740053093 0 0.033364891593509499 -0.0011038880815098186 0 0.034968046450693818 -1.5075132097617418e-05 0 0.035005387438406269 -9.0959570271769688e-06 0 0.035001598293079368 -1.7768827137028177e-06 0 0.034968046450693818 -1.5075132097617418e-05 0 0.0346161956607818 -0.00011302622914875121 0 0.034788874502289756 3.6118475324414176e-05 0 0.035000000759143279 -1.9491913865678595e-09 0 0.03499997288680675 -2.5336648576550599e-09 0 0.035001598293079368 -1.7768827137028177e-06 0 0.033364891593509499 -0.0011038880815098186 0 0.033376557572922953 -0.001094681036339066 0 0.034788874502289756 3.6118475324414176e-05 0 0.034610361796644652 5.1574708774868974e-05 0 0.034653993575940047 0.00018821381909659674 0 0.034537118949584965 0.00013189668670957858 0 0.034610361796644652 5.1574708774868974e-05 0 0.034653993575940047 0.00018821381909659674 0 0.031919871655158964 -0.00084317032250234077 0 0.031287724954600409 -0.0013595906426291621 0 0.033881034301516157 0.00011426436339047705 0 0.033888715599552151 -1.8274008709723337e-05 0 0.033938270823657746 -0.00021581673513242311 0 0.033881034301516157 0.00011426436339047705 0 0.034202860817368959 -9.3219617426075398e-05 0 0.034091920704768221 -0.00038335888382862648 0 0.033881034301516157 0.00011426436339047705 0 0.034059788153346357 0.0001661938491846992 0 0.034202860817368959 -9.3219617426075398e-05 0 0.033807213630534842 -0.00027291729994691048 0 0.033888715599552151 -1.8274008709723337e-05 0 0.033938270823657746 -0.00021581673513242311 0 0.032116106344088242 -0.0010606040961923322 0 0.031287724954600409 -0.0013595906426291621 0 0.030049530170860244 -0.0027305793954438143 0 0.029810491963118961 -0.0026709307714694462 0 0.029736534730392533 -0.0028575956619544731 0 0.030049530170860244 -0.0027305793954438143 0 0.030012446867584877 -0.0026860520880109952 0 0.029810491963118961 -0.0026709307714694462 0 0.031287724954600409 -0.0013595906426291621 0 0.030057086770918603 -0.0023615516860886537 0 0.029810491963118961 -0.0026709307714694462 0 0.029736534730392533 -0.0028575956619544731 0 0.029619090722857389 -0.0025266854942722966 0 0.031287724954600409 -0.0013595906426291621 0 0.030775825262890948 -0.0012341002043350783 0 0.030574997022821994 -0.0018524199349885025 0 0.030281318545619877 -0.0017621517912144551 0 0.030166137221166234 -0.0020251173429919832 0 0.030574997022821994 -0.0018524199349885025 0 0.030281318545619877 -0.0017621517912144551 0 0.030513703446198859 -0.0016812392340233384 0 0.034059788153346357 0.0001661938491846992 0 0.034202860817368959 -9.3219617426075398e-05 0 0.034458868807282987 5.9618173592047045e-05 0 0.034202860817368959 -9.3219617426075398e-05 0 0.034458868807282987 5.9618173592047045e-05 0 0.034576593966455411 -0.00011721239087421616 0 0.032231522032887108 -0.0010877366621543782 0 0.030775825262890948 -0.0012341002043350783 0 0.034202860817368959 -9.3219617426075398e-05 0 0.034091920704768221 -0.00038335888382862648 0 0.034576593966455411 -0.00011721239087421616 0 0.034456280202829814 0.00014107746189149275 0 0.034458868807282987 5.9618173592047045e-05 0 0.034576593966455411 -0.00011721239087421616 0 0.031168725392040578 -0.0013420272388555718 0 0.031256072912564929 -0.0010739265058012702 0 0.031037613446725183 -0.0011680121267147652 0 0.031168725392040578 -0.0013420272388555718 0 0.031432284863210286 -0.0013440526481096023 0 0.031256072912564929 -0.0010739265058012702 0 0.031232554723379029 -0.001083411103905333 0 0.031127232785174066 -0.00091803868906423182 0 0.031037613446725183 -0.0011680121267147652 0 0.030775825262890948 -0.0012341002043350783 0 0.030879356622096753 -0.0011944455547973718 0 0.030281318545619877 -0.0017621517912144551 0 0.030166137221166234 -0.0020251173429919832 0 0.030048928127842732 -0.0018431335522267962 0 0.029288456375313788 -0.0024668263097732974 0 0.029285614736376815 -0.0021939505757824565 0 0.030775825262890948 -0.0012341002043350783 0 0.029285614736376815 -0.0021939505757824565 0 0.029285614736376815 -0.0021939505757824565 0 0.028721064903114792 -0.0020529969833963063 0 0.031127232785174066 -0.00091803868906423182 0 0.030868487148933279 -0.0010043065994005821 0 0.031037613446725183 -0.0011680121267147652 0 0.025495493358403419 -0.0036314819956537367 0 0.025746940508275744 -0.0036507835987910123 0 0.025879946682951484 -0.0034307801273670809 0 0.025495493358403419 -0.0036314819956537367 0 0.025746940508275744 -0.0036507835987910123 0 0.025703372800490249 -0.0038369462492195807 0 0.030868487148933279 -0.0010043065994005821 0 0.031037613446725183 -0.0011680121267147652 0 0.030847186672106622 -0.001186383748966263 0 0.030953413048501369 -0.0013237916461674331 0 0.031037613446725183 -0.0011680121267147652 0 0.030847186672106622 -0.001186383748966263 0 0.025788635263268484 -0.0035923545933343524 0 0.025876318741144509 -0.0040467316873599056 0 0.025397754313908782 -0.0033441360110555919 0 0.027933440219945593 -0.0025914439986287072 0 0.027467461681705687 -0.0026061634253922348 0 0.025710958071704672 -0.003871755694337935 0 0.025467106238193808 -0.0039141104703709299 0 0.025397754313908782 -0.0033441360110555919 0 0.026198435244588019 -0.0037226161779081966 0 0.025788635263268484 -0.0035923545933343524 0 0.02600614396625835 -0.0031344231504614696 0 0.026198435244588019 -0.0037226161779081966 0 0.025788635263268484 -0.0035923545933343524 0 0.025876318741144509 -0.0040467316873599056 0 0.025495493358403419 -0.0036314819956537367 0 0.025703372800490249 -0.0038369462492195807 0 0.025710958071704672 -0.003871755694337935 0 0.026092214353243909 -0.0028008967475130829 0 0.026121121866248046 -0.0027673411881469876 0 0.025703372800490249 -0.0038369462492195807 0 0.025710958071704672 -0.003871755694337935 0 0.025467106238193808 -0.0039141104703709299 0 0.029285614736376815 -0.0021939505757824565 0 0.027933440219945593 -0.0025914439986287072 0 0.025703372800490249 -0.0038369462492195807 0 0.025906822243319257 -0.0037670159948991516 0 0.025886979024357076 -0.003901097283233455 0 0.025746940508275744 -0.0036507835987910123 0 0.025703372800490249 -0.0038369462492195807 0 0.025906822243319257 -0.0037670159948991516 0 0.026198435244588019 -0.0037226161779081966 0 0.025876318741144509 -0.0040467316873599056 0 0.026500745246784786 -0.0041879497036158408 0 0.026366617725251614 -0.0048068163502662294 0 0.025876318741144509 -0.0040467316873599056 0 0.026500745246784786 -0.0041879497036158408 0 0.027037504977431539 -0.0045721117157591969 0 0.026500745246784786 -0.0041879497036158408 0 0.02682580489189974 -0.0036424678501487183 0 0.027037504977431539 -0.0045721117157591969 0 0.026366617725251614 -0.0048068163502662294 0 0.026500745246784786 -0.0041879497036158408 0 0.028738007768082122 -0.002334598393321907 0 0.028596793007271918 -0.0016996715735645756 0 0.027847328887687938 -0.0017769886869919056 0 0.026198435244588019 -0.0037226161779081966 0 0.02682580489189974 -0.0036424678501487183 0 0.02600614396625835 -0.0031344231504614696 0 0.02825711117395965 -0.0024229856497026974 0 0.027036713058050953 -0.0023317563217687969 0 0.026198435244588019 -0.0037226161779081966 0 0.026500745246784786 -0.0041879497036158408 0 0.02682580489189974 -0.0036424678501487183 0 0.029517412595921479 -0.0018655596001602112 0 0.029827463534617165 -0.0023599394822647062 0 0.028738007768082122 -0.002334598393321907 0 0.029290042474191032 -0.0019598236243346893 0 0.029619242170981649 -0.0028924724111816995 0 0.028738007768082122 -0.002334598393321907 0 0.029290042474191032 -0.0019598236243346893 0 0.028596793007271918 -0.0016996715735645756 0 0.02825711117395965 -0.0024229856497026974 0 0.029827463534617165 -0.0023599394822647062 0 0.027037504977431539 -0.0045721117157591969 0 0.02682580489189974 -0.0036424678501487183 0 0.027648161822960891 -0.0041554056949311023 0 0.029288456375313788 -0.0024668263097732974 0 0.030057086770918603 -0.0023615516860886537 0 0.027037504977431539 -0.0045721117157591969 0 0.027648161822960891 -0.0041554056949311023 0 0.027712489818116803 -0.0043349353028248674 0 0.02950060446778589 -0.0023968750316143931 0 0.029756356811634813 -0.0022642355019403342 0 0.029696621735077634 -0.0019568137698092289 0 0.02950060446778589 -0.0023968750316143931 0 0.029660415629845165 -0.0024970569514217939 0 0.029756356811634813 -0.0022642355019403342 0 0.029827463534617165 -0.0023599394822647062 0 0.030057086770918603 -0.0023615516860886537 0 0.029827463534617165 -0.0023599394822647062 0 0.029938884183356478 -0.0023921629141448165 0 0.029908684335329713 -0.0025320364553623326 0 0.029949709963271072 -0.0026483189893597128 0 0.030040785352517727 -0.0026163759417678449 0 0.030057086770918603 -0.0023615516860886537 0 0.029938884183356478 -0.0023921629141448165 0 0.029810491963118961 -0.0026709307714694462 0 0.029619090722857389 -0.0025266854942722966 0 0.029712878024068873 -0.0024934966645541075 0 0.030012446867584877 -0.0026860520880109952 0 0.029688448251974545 -0.0024798938731467892 0 0.029980637284607203 -0.0023771411196246185 0 0.030012446867584877 -0.0026860520880109952 0 0.029810491963118961 -0.0026709307714694462 0 0.029712878024068873 -0.0024934966645541075 0 0.029949374326336087 -0.0024134717023499073 0 0.029938884183356478 -0.0023921629141448165 0 0.029938884183356478 -0.0023921629141448165 0 0.029929457531267998 -0.0023955105788394508 0 0.029756356811634813 -0.0022642355019403342 0 0.029919768619120626 -0.0021186810897758945 0 0.029980637284607203 -0.0023771411196246185 0 0.029660415629845165 -0.0024970569514217939 0 0.029756356811634813 -0.0022642355019403342 0 0.029980637284607203 -0.0023771411196246185 0 0.029756356811634813 -0.0022642355019403342 0 0.029919768619120626 -0.0021186810897758945 0 0.029696621735077634 -0.0019568137698092289 0 0.029919768619120626 -0.0021186810897758945 0 0.029696621735077634 -0.0019568137698092289 0 0.02998846308309976 -0.0018312336725027913 0 0.029245782076693063 -0.0017294601970250143 0 0.02950060446778589 -0.0023968750316143931 0 0.029696621735077634 -0.0019568137698092289 0 0.029245782076693063 -0.0017294601970250143 0 0.029696621735077634 -0.0019568137698092289 0 0.029685312275873281 -0.0014602274950392101 0 0.029696621735077634 -0.0019568137698092289 0 0.029685312275873281 -0.0014602274950392101 0 0.02998846308309976 -0.0018312336725027913 0 0.030495188811015806 -0.0011931449219980284 0 0.030789278947865123 -0.0012020961755548395 0 0.030945449641101887 -0.0014019697219433266 0 0.029245782076693063 -0.0017294601970250143 0 0.029685312275873281 -0.0014602274950392101 0 0.029473063475246232 -0.0011277661948740686 0 0.029685312275873281 -0.0014602274950392101 0 0.029480350935943027 -0.001144200786199343 0 0.030306028087523269 -0.0015334732606259497 0 0.029457912104688264 -0.0014068973473342001 0 0.031537610029271308 -0.0011326654018922594 0 0.029468166771874343 -0.0014082853904405343 0 0.029457912104688264 -0.0014068973473342001 0 0.030495188811015806 -0.0011931449219980284 0 0.030712526915514411 -0.0010975364015101236 0 0.030789278947865123 -0.0012020961755548395 0 0.030943331377168638 -0.0010653332560330122 0 0.029412857073993003 -0.0014471407897497712 0 0.030495188811015806 -0.0011931449219980284 0 0.030712526915514411 -0.0010975364015101236 0 0.030420390330201122 -0.0010795222551990315 0 0.03268866973978711 -0.00029552578356511518 0 0.032424679415493825 -6.3655818798558496e-05 0 0.032307914310309806 -0.00028773715213756528 0 0.03268866973978711 -0.00029552578356511518 0 0.032424679415493825 -6.3655818798558496e-05 0 0.032669558611690436 1.9987415271116753e-05 0 0.029457912104688264 -0.0014068973473342001 0 0.028229548292825944 -0.0014008122346911601 0 0.02916136322620522 -0.0015447415359907189 0 0.029115715913201907 -0.0014762147684752973 0 0.028995144866608986 -0.0014690870785525017 0 0.029457912104688264 -0.0014068973473342001 0 0.029412857073993003 -0.0014471407897497712 0 0.029412857073993003 -0.0014471407897497712 0 0.028229548292825944 -0.0014008122346911601 0 0.029473063475246232 -0.0011277661948740686 0 0.02891775793411849 -0.00084901357989407072 0 0.028958897419586078 -0.0010149536011603644 0 0.026232896948662439 -0.0028554935558778223 0 0.025863963410002883 -0.0028580846292134005 0 0.025964450762507377 -0.0024922752948490562 0 0.02891775793411849 -0.00084901357989407072 0 0.028958897419586078 -0.0010149536011603644 0 0.028718121416058107 -0.0012867333158797108 0 0.029517412595921479 -0.0018655596001602112 0 0.029365955633702624 -0.0015527864531867709 0 0.029290042474191032 -0.0019598236243346893 0 0.028958897419586078 -0.0010149536011603644 0 0.028718121416058107 -0.0012867333158797108 0 0.029245782076693063 -0.0017294601970250143 0 0.029473063475246232 -0.0011277661948740686 0 0.028958897419586078 -0.0010149536011603644 0 0.029290042474191032 -0.0019598236243346893 0 0.028596793007271918 -0.0016996715735645756 0 0.028718121416058107 -0.0012867333158797108 0 0.028596793007271918 -0.0016996715735645756 0 0.02836192661099083 -0.0011755523182350792 0 0.027847328887687938 -0.0017769886869919056 0 0.028596793007271918 -0.0016996715735645756 0 0.02836192661099083 -0.0011755523182350792 0 0.028718121416058107 -0.0012867333158797108 0 0.028229548292825944 -0.0014008122346911601 0 0.026285827639218412 -0.0013187478137364772 0 0.027464355914548946 -0.001754214301160266 0 0.026599144074830276 -0.0016970831336140535 0 0.026558845045402579 -0.0013304787387072024 0 0.025863963410002883 -0.0028580846292134005 0 0.025964450762507377 -0.0024922752948490562 0 0.024957052287421497 -0.0024680347570730935 0 0.028229548292825944 -0.0014008122346911601 0 0.027208037946832339 -0.0013557318118963442 0 0.02891775793411849 -0.00084901357989407072 0 0.02836192661099083 -0.0011755523182350792 0 0.027928972806702104 -0.00077022649748365176 0 0.02891775793411849 -0.00084901357989407072 0 0.02836192661099083 -0.0011755523182350792 0 0.028718121416058107 -0.0012867333158797108 0 0.027928972806702104 -0.00077022649748365176 0 0.027260814774251005 -0.00094049422272151706 0 0.026934148570516878 -0.00070607008034801334 0 0.027208037946832339 -0.0013557318118963442 0 0.026098431505876561 -0.0013514473757524909 0 0.02836192661099083 -0.0011755523182350792 0 0.027928972806702104 -0.00077022649748365176 0 0.027678198783022134 -0.0011994057354095939 0 0.026599144074830276 -0.0016970831336140535 0 0.026558845045402579 -0.0013304787387072024 0 0.025739678112836575 -0.00163917428480579 0 0.027928972806702104 -0.00077022649748365176 0 0.027678198783022134 -0.0011994057354095939 0 0.027260814774251005 -0.00094049422272151706 0 0.027036713058050953 -0.0023317563217687969 0 0.025909228778229727 -0.0022161057821666885 0 0.025788635263268484 -0.0035923545933343524 0 0.02600614396625835 -0.0031344231504614696 0 0.025182328458236002 -0.0026066008988356805 0 0.027678198783022134 -0.0011994057354095939 0 0.027847328887687938 -0.0017769886869919056 0 0.026945966645322172 -0.0012132570679781239 0 0.02836192661099083 -0.0011755523182350792 0 0.027678198783022134 -0.0011994057354095939 0 0.027847328887687938 -0.0017769886869919056 0 0.033328281607432397 -0.00021007933592851716 0 0.033377985242992965 -0.00020690660483645157 0 0.0334002931238453 -0.00027101627192144088 0 0.033328281607432397 -0.00021007933592851716 0 0.0334002931238453 -0.00027101627192144088 0 0.033282996290326092 -0.00024403363129947011 0 0.033377985242992965 -0.00020690660483645157 0 0.033393016136426298 -0.00022742927641813081 0 0.033402432077117301 -0.00018199695822909644 0 0.033377985242992965 -0.00020690660483645157 0 0.033393016136426298 -0.00022742927641813081 0 0.0334002931238453 -0.00027101627192144088 0 0.033393016136426298 -0.00022742927641813081 0 0.033392419124913496 -0.0002211607770000961 0 0.0334002931238453 -0.00027101627192144088 0 0.033363612371586387 -0.00020833632594621207 0 0.033393016136426298 -0.00022742927641813081 0 0.033392419124913496 -0.0002211607770000961 0 0.033242920697078938 -0.00048889828879817958 0 0.033051131237742733 -0.00059416511595213864 0 0.033480294683752555 -0.00020153267544075734 0 0.033392419124913496 -0.0002211607770000961 0 0.0334002931238453 -0.00027101627192144088 0 0.033480294683752555 -0.00020153267544075734 0 0.0334002931238453 -0.00027101627192144088 0 0.033603700649246247 -0.00026827807342909792 0 0.0334002931238453 -0.00027101627192144088 0 0.033252289871530352 -0.00035588149670893652 0 0.033282996290326092 -0.00024403363129947011 0 0.032116106344088242 -0.0010606040961923322 0 0.033051131237742733 -0.00059416511595213864 0 0.032116106344088242 -0.0010606040961923322 0 0.031797224887835832 -0.0011543938568815914 0 0.033124449473806425 -0.00041151515106232193 0 0.033252289871530352 -0.00035588149670893652 0 0.033152792157524938 -0.00028830164204832193 0 0.030049530170860244 -0.0027305793954438143 0 0.029980637284607203 -0.0023771411196246185 0 0.030174200419694038 -0.0021551076963196017 0 0.030049530170860244 -0.0027305793954438143 0 0.030012446867584877 -0.0026860520880109952 0 0.029980637284607203 -0.0023771411196246185 0 0.033252289871530352 -0.00035588149670893652 0 0.033152792157524938 -0.00028830164204832193 0 0.033214577038610117 -0.00025644899119513877 0 0.029919768619120626 -0.0021186810897758945 0 0.029980637284607203 -0.0023771411196246185 0 0.030174200419694038 -0.0021551076963196017 0 0.033152792157524938 -0.00028830164204832193 0 0.033214577038610117 -0.00025644899119513877 0 0.033179529314763687 -0.00018129945453445819 0 0.030174200419694038 -0.0021551076963196017 0 0.02998846308309976 -0.0018312336725027913 0 0.030306028087523269 -0.0015334732606259497 0 0.031797224887835832 -0.0011543938568815914 0 0.031537610029271308 -0.0011326654018922594 0 0.029919768619120626 -0.0021186810897758945 0 0.030174200419694038 -0.0021551076963196017 0 0.02998846308309976 -0.0018312336725027913 0 0.033214577038610117 -0.00025644899119513877 0 0.033230650604479162 -0.00020681890052663964 0 0.033179529314763687 -0.00018129945453445819 0 0.033252289871530352 -0.00035588149670893652 0 0.033282996290326092 -0.00024403363129947011 0 0.033214577038610117 -0.00025644899119513877 0 0.033282996290326092 -0.00024403363129947011 0 0.033214577038610117 -0.00025644899119513877 0 0.033230650604479162 -0.00020681890052663964 0 0.033282996290326092 -0.00024403363129947011 0 0.033230650604479162 -0.00020681890052663964 0 0.03326923389941136 -0.00019684276687745723 0 0.033328281607432397 -0.00021007933592851716 0 0.033282996290326092 -0.00024403363129947011 0 0.03326923389941136 -0.00019684276687745723 0 0.033328281607432397 -0.00021007933592851716 0 0.033294080739939107 -0.00017699771723879413 0 0.03326923389941136 -0.00019684276687745723 0 0.033294080739939107 -0.00017699771723879413 0 0.03326923389941136 -0.00019684276687745723 0 0.033245418695642535 -0.00016669201115367783 0 0.033230650604479162 -0.00020681890052663964 0 0.03326923389941136 -0.00019684276687745723 0 0.033227233044159976 -0.00018465067463360743 0 0.033230650604479162 -0.00020681890052663964 0 0.033227233044159976 -0.00018465067463360743 0 0.033185247360063765 -0.00019375199377975552 0 0.03326923389941136 -0.00019684276687745723 0 0.033227233044159976 -0.00018465067463360743 0 0.033245418695642535 -0.00016669201115367783 0 0.033204277628324591 -0.00016549933925165302 0 0.033208893123241053 -0.00014897389695159194 0 0.033179089327850263 -0.00013227532223271602 0 0.033227233044159976 -0.00018465067463360743 0 0.033204277628324591 -0.00016549933925165302 0 0.033245418695642535 -0.00016669201115367783 0 0.033204277628324591 -0.00016549933925165302 0 0.033208893123241053 -0.00014897389695159194 0 0.033245418695642535 -0.00016669201115367783 0 0.033208893123241053 -0.00014897389695159194 0 0.033245418695642535 -0.00016669201115367783 0 0.033241030175207582 -0.00014006092944449713 0 0.033282450020631696 -0.00014755192287868344 0 0.033245418695642535 -0.00016669201115367783 0 0.033241030175207582 -0.00014006092944449713 0 0.033294080739939107 -0.00017699771723879413 0 0.033282450020631696 -0.00014755192287868344 0 0.033245418695642535 -0.00016669201115367783 0 0.030789278947865123 -0.0012020961755548395 0 0.030945449641101887 -0.0014019697219433266 0 0.031003612977010479 -0.0011158911615531889 0 0.033204277628324591 -0.00016549933925165302 0 0.033185247360063765 -0.00019375199377975552 0 0.033179089327850263 -0.00013227532223271602 0 0.029685312275873281 -0.0014602274950392101 0 0.02998846308309976 -0.0018312336725027913 0 0.030306028087523269 -0.0015334732606259497 0 0.031537610029271308 -0.0011326654018922594 0 0.031793790068054106 -0.00072586379912463028 0 0.033227233044159976 -0.00018465067463360743 0 0.033204277628324591 -0.00016549933925165302 0 0.033185247360063765 -0.00019375199377975552 0 0.031697392944091088 -0.0011457266099724518 0 0.031537610029271308 -0.0011326654018922594 0 0.03268866973978711 -0.00029552578356511518 0 0.033055863057095486 -0.00030801440950856628 0 0.032905909421549917 -0.0001426141823536996 0 0.030943331377168638 -0.0010653332560330122 0 0.031793790068054106 -0.00072586379912463028 0 0.030712526915514411 -0.0010975364015101236 0 0.030789278947865123 -0.0012020961755548395 0 0.031003612977010479 -0.0011158911615531889 0 0.033150084581563627 -0.00013486002732416883 0 0.033183524609401445 -0.00013644924815128608 0 0.033102712493858044 -3.1154718440003419e-05 0 0.031793790068054106 -0.00072586379912463028 0 0.031814591330333757 -0.00072457515328241625 0 0.033055863057095486 -0.00030801440950856628 0 0.032905909421549917 -0.0001426141823536996 0 0.033102712493858044 -3.1154718440003419e-05 0 0.032905909421549917 -0.0001426141823536996 0 0.033102712493858044 -3.1154718440003419e-05 0 0.032928925253271582 3.2532371263573229e-05 0 0.031793790068054106 -0.00072586379912463028 0 0.03188479878453862 -0.00057305740192457422 0 0.03268866973978711 -0.00029552578356511518 0 0.032905909421549917 -0.0001426141823536996 0 0.032669558611690436 1.9987415271116753e-05 0 0.032905909421549917 -0.0001426141823536996 0 0.032928925253271582 3.2532371263573229e-05 0 0.032669558611690436 1.9987415271116753e-05 0 0.033269714622858507 -0.00010939651350152832 0 0.033217916914140042 -0.00012487669687088457 0 0.033208651146691727 -8.7641017925681498e-05 0 0.033282450020631696 -0.00014755192287868344 0 0.033269714622858507 -0.00010939651350152832 0 0.033320100411125056 -0.00011785951848428907 0 0.033282450020631696 -0.00014755192287868344 0 0.033269714622858507 -0.00010939651350152832 0 0.033241030175207582 -0.00014006092944449713 0 0.033269714622858507 -0.00010939651350152832 0 0.033241030175207582 -0.00014006092944449713 0 0.033217916914140042 -0.00012487669687088457 0 0.033208893123241053 -0.00014897389695159194 0 0.033241030175207582 -0.00014006092944449713 0 0.033217916914140042 -0.00012487669687088457 0 0.033208893123241053 -0.00014897389695159194 0 0.033179089327850263 -0.00013227532223271602 0 0.033183524609401445 -0.00013644924815128608 0 0.033208893123241053 -0.00014897389695159194 0 0.033183524609401445 -0.00013644924815128608 0 0.033217916914140042 -0.00012487669687088457 0 0.033183524609401445 -0.00013644924815128608 0 0.033217916914140042 -0.00012487669687088457 0 0.033208651146691727 -8.7641017925681498e-05 0 0.033208651146691727 -8.7641017925681498e-05 0 0.033102712493858044 -3.1154718440003419e-05 0 0.033089021743911234 3.0469935315737725e-05 0 0.033208651146691727 -8.7641017925681498e-05 0 0.03326716397996389 -6.2165400901658684e-05 0 0.033089021743911234 3.0469935315737725e-05 0 0.033183524609401445 -0.00013644924815128608 0 0.033208651146691727 -8.7641017925681498e-05 0 0.033102712493858044 -3.1154718440003419e-05 0 0.033269714622858507 -0.00010939651350152832 0 0.033208651146691727 -8.7641017925681498e-05 0 0.03326716397996389 -6.2165400901658684e-05 0 0.033269714622858507 -0.00010939651350152832 0 0.03326716397996389 -6.2165400901658684e-05 0 0.033316538632402345 -7.1928155815621751e-05 0 0.03326716397996389 -6.2165400901658684e-05 0 0.033316538632402345 -7.1928155815621751e-05 0 0.033327298278536428 -1.3558185428488004e-05 0 0.033339406071976101 -5.5244097761994838e-05 0 0.033316538632402345 -7.1928155815621751e-05 0 0.033327298278536428 -1.3558185428488004e-05 0 0.033339406071976101 -5.5244097761994838e-05 0 0.033316538632402345 -7.1928155815621751e-05 0 0.033344543151477182 -8.6843124630126432e-05 0 0.033316538632402345 -7.1928155815621751e-05 0 0.033344543151477182 -8.6843124630126432e-05 0 0.033320100411125056 -0.00011785951848428907 0 0.033339406071976101 -5.5244097761994838e-05 0 0.033371254223027794 -9.2703982764742439e-05 0 0.033333613333078133 -1.3716028698371659e-05 0 0.033339406071976101 -5.5244097761994838e-05 0 0.033344543151477182 -8.6843124630126432e-05 0 0.033371254223027794 -9.2703982764742439e-05 0 0.033344543151477182 -8.6843124630126432e-05 0 0.03335853067942695 -0.00012759333138666676 0 0.033320100411125056 -0.00011785951848428907 0 0.033344543151477182 -8.6843124630126432e-05 0 0.03335853067942695 -0.00012759333138666676 0 0.033371254223027794 -9.2703982764742439e-05 0 0.033269714622858507 -0.00010939651350152832 0 0.033316538632402345 -7.1928155815621751e-05 0 0.033320100411125056 -0.00011785951848428907 0 0.033282450020631696 -0.00014755192287868344 0 0.033320100411125056 -0.00011785951848428907 0 0.03333424693418819 -0.00016362220594832975 0 0.033294080739939107 -0.00017699771723879413 0 0.033282450020631696 -0.00014755192287868344 0 0.03333424693418819 -0.00016362220594832975 0 0.03335853067942695 -0.00012759333138666676 0 0.03333424693418819 -0.00016362220594832975 0 0.03337288668796317 -0.00016618528845093058 0 0.03335853067942695 -0.00012759333138666676 0 0.033320100411125056 -0.00011785951848428907 0 0.03333424693418819 -0.00016362220594832975 0 0.033377985242992965 -0.00020690660483645157 0 0.03333424693418819 -0.00016362220594832975 0 0.03337288668796317 -0.00016618528845093058 0 0.033328281607432397 -0.00021007933592851716 0 0.033377985242992965 -0.00020690660483645157 0 0.03333424693418819 -0.00016362220594832975 0 0.033328281607432397 -0.00021007933592851716 0 0.033294080739939107 -0.00017699771723879413 0 0.03333424693418819 -0.00016362220594832975 0 0.033377985242992965 -0.00020690660483645157 0 0.033402432077117301 -0.00018199695822909644 0 0.03337288668796317 -0.00016618528845093058 0 0.03335853067942695 -0.00012759333138666676 0 0.03337288668796317 -0.00016618528845093058 0 0.033388470117229077 -0.00013924703250153906 0 0.033402432077117301 -0.00018199695822909644 0 0.03337288668796317 -0.00016618528845093058 0 0.033388470117229077 -0.00013924703250153906 0 0.033402432077117301 -0.00018199695822909644 0 0.03340806010753096 -0.00014353892724432241 0 0.033388470117229077 -0.00013924703250153906 0 0.03339665797891591 -0.00012268449248002287 0 0.03340806010753096 -0.00014353892724432241 0 0.033413536518404709 -0.00011175563846109056 0 0.033371254223027794 -9.2703982764742439e-05 0 0.033413536518404709 -0.00011175563846109056 0 0.033333613333078133 -1.3716028698371659e-05 0 0.03339665797891591 -0.00012268449248002287 0 0.03340806010753096 -0.00014353892724432241 0 0.033388470117229077 -0.00013924703250153906 0 0.03335853067942695 -0.00012759333138666676 0 0.033388470117229077 -0.00013924703250153906 0 0.033371254223027794 -9.2703982764742439e-05 0 0.03339665797891591 -0.00012268449248002287 0 0.033388470117229077 -0.00013924703250153906 0 0.033371254223027794 -9.2703982764742439e-05 0 0.03339665797891591 -0.00012268449248002287 0 0.033371254223027794 -9.2703982764742439e-05 0 0.033413536518404709 -0.00011175563846109056 0 0.033445190456560338 5.4942529836167673e-05 0 0.033354183795111861 6.1605614315648132e-05 0 0.033412127846307996 0.00012888432484307958 0 0.033410390975334943 0.00012666687579624355 0 0.033389694110020886 0.00010422378564435672 0 0.033412127846307996 0.00012888432484307958 0 0.033389694110020886 0.00010422378564435672 0 0.033371554174985697 8.1038673787262318e-05 0 0.033410390975334943 0.00012666687579624355 0 0.033389694110020886 0.00010422378564435672 0 0.033375503988281693 9.2443044514017319e-05 0 0.033394110934534003 9.5927503779687337e-05 0 0.033384831823608276 9.4887279568871594e-05 0 0.033410390975334943 0.00012666687579624355 0 0.033408692496655575 0.00011618950855804266 0 0.03341115232763011 0.00012449794409622128 0 0.033339406071976101 -5.5244097761994838e-05 0 0.033333613333078133 -1.3716028698371659e-05 0 0.033327298278536428 -1.3558185428488004e-05 0 0.033389694110020886 0.00010422378564435672 0 0.03337652584253905 9.0957109637758064e-05 0 0.033375503988281693 9.2443044514017319e-05 0 0.033389694110020886 0.00010422378564435672 0 0.033371554174985697 8.1038673787262318e-05 0 0.03337652584253905 9.0957109637758064e-05 0 0.033371554174985697 8.1038673787262318e-05 0 0.03337652584253905 9.0957109637758064e-05 0 0.033363620622331273 8.31908194185894e-05 0 0.03337652584253905 9.0957109637758064e-05 0 0.033363620622331273 8.31908194185894e-05 0 0.033375503988281693 9.2443044514017319e-05 0 0.033363620622331273 8.31908194185894e-05 0 0.033375503988281693 9.2443044514017319e-05 0 0.033338423154513762 8.5360371390651708e-05 0 0.033408692496655575 0.00011618950855804266 0 0.033404912259290535 0.0001043635992577937 0 0.033400131534785493 9.154059097397697e-05 0 0.033408692496655575 0.00011618950855804266 0 0.033408443552496857 0.00011576741786463534 0 0.033404912259290535 0.0001043635992577937 0 0.033408692496655575 0.00011618950855804266 0 0.03341115232763011 0.00012449794409622128 0 0.033408443552496857 0.00011576741786463534 0 0.03341115232763011 0.00012449794409622128 0 0.033408443552496857 0.00011576741786463534 0 0.033414206213137752 0.00012565285808888889 0 0.033411146267958852 0.00011825443010612797 0 0.033414206213137752 0.00012565285808888889 0 0.033405408939977607 0.00010782808615018876 0 0.033408443552496857 0.00011576741786463534 0 0.033414206213137752 0.00012565285808888889 0 0.033405408939977607 0.00010782808615018876 0 0.033404912259290535 0.0001043635992577937 0 0.033405408939977607 0.00010782808615018876 0 0.033398375526654291 9.1812101105192599e-05 0 0.033408443552496857 0.00011576741786463534 0 0.033404912259290535 0.0001043635992577937 0 0.033405408939977607 0.00010782808615018876 0 0.033403446667262117 9.3052128341245241e-05 0 0.033392571856609134 8.3895725789414296e-05 0 0.033398257281334727 7.484493845452327e-05 0 0.033405408939977607 0.00010782808615018876 0 0.033403446667262117 9.3052128341245241e-05 0 0.033398375526654291 9.1812101105192599e-05 0 0.033405408939977607 0.00010782808615018876 0 0.033403446667262117 9.3052128341245241e-05 0 0.033392571856609134 8.3895725789414296e-05 0 0.033411146267958852 0.00011825443010612797 0 0.033326373008664797 5.3434645597273588e-05 0 0.033392571856609134 8.3895725789414296e-05 0 0.033411146267958852 0.00011825443010612797 0 0.033405408939977607 0.00010782808615018876 0 0.033392571856609134 8.3895725789414296e-05 0 0.033386832081445786 9.786176902016835e-05 0 0.033362164868058736 7.2885732093688817e-05 0 0.033336830637634436 0.00011082386295046463 0 0.033386832081445786 9.786176902016835e-05 0 0.033336830637634436 0.00011082386295046463 0 0.033363321176655004 0.0001150738094127439 0 0.033386832081445786 9.786176902016835e-05 0 0.033398375526654291 9.1812101105192599e-05 0 0.033362164868058736 7.2885732093688817e-05 0 0.033403446667262117 9.3052128341245241e-05 0 0.033386832081445786 9.786176902016835e-05 0 0.033398375526654291 9.1812101105192599e-05 0 0.033403446667262117 9.3052128341245241e-05 0 0.033386832081445786 9.786176902016835e-05 0 0.033400856108363526 9.5581374978902711e-05 0 0.033404912259290535 0.0001043635992577937 0 0.033398375526654291 9.1812101105192599e-05 0 0.033400131534785493 9.154059097397697e-05 0 0.033338423154513762 8.5360371390651708e-05 0 0.033298814502856135 9.5335851363420485e-05 0 0.033308418386497833 7.6266457511115477e-05 0 0.033362141215617133 9.566088688701446e-05 0 0.033331948800015263 0.00010255987974969096 0 0.033398375526654291 9.1812101105192599e-05 0 0.033400131534785493 9.154059097397697e-05 0 0.033362164868058736 7.2885732093688817e-05 0 0.033298814502856135 9.5335851363420485e-05 0 0.033308418386497833 7.6266457511115477e-05 0 0.033284207174380298 6.8979707413728376e-05 0 0.033308418386497833 7.6266457511115477e-05 0 0.033304425266747477 6.3048735350682781e-05 0 0.033284207174380298 6.8979707413728376e-05 0 0.033304425266747477 6.3048735350682781e-05 0 0.033304771973971713 5.011985081516743e-05 0 0.033284207174380298 6.8979707413728376e-05 0 0.033308418386497833 7.6266457511115477e-05 0 0.033324952613006352 7.1978984822699486e-05 0 0.033304425266747477 6.3048735350682781e-05 0 0.033338423154513762 8.5360371390651708e-05 0 0.033308418386497833 7.6266457511115477e-05 0 0.033324952613006352 7.1978984822699486e-05 0 0.033324952613006352 7.1978984822699486e-05 0 0.033311404754226219 4.9884027652905497e-05 0 0.033338256156040344 6.8682812941929218e-05 0 0.033324952613006352 7.1978984822699486e-05 0 0.033311404754226219 4.9884027652905497e-05 0 0.033304425266747477 6.3048735350682781e-05 0 0.033311404754226219 4.9884027652905497e-05 0 0.033304425266747477 6.3048735350682781e-05 0 0.033304771973971713 5.011985081516743e-05 0 0.033384831823608276 9.4887279568871594e-05 0 0.033362141215617133 9.566088688701446e-05 0 0.033363620622331273 8.31908194185894e-05 0 0.033338423154513762 8.5360371390651708e-05 0 0.033345405903644258 7.6049704052170625e-05 0 0.033338423154513762 8.5360371390651708e-05 0 0.033324952613006352 7.1978984822699486e-05 0 0.033345405903644258 7.6049704052170625e-05 0 0.033324952613006352 7.1978984822699486e-05 0 0.033338256156040344 6.8682812941929218e-05 0 0.033345405903644258 7.6049704052170625e-05 0 0.033089021743911234 3.0469935315737725e-05 0 0.033327298278536428 -1.3558185428488004e-05 0 0.032845691046304942 0.00029409053764719071 0 0.033333613333078133 -1.3716028698371659e-05 0 0.033311404754226219 4.9884027652905497e-05 0 0.033327298278536428 -1.3558185428488004e-05 0 0.03301674641167715 -0.00022029233856323932 0 0.032749811318184205 -0.00024593979875413388 0 0.033354183795111861 6.1605614315648132e-05 0 0.033323503274886972 6.5915510451828126e-05 0 0.033371554174985697 8.1038673787262318e-05 0 0.033311404754226219 4.9884027652905497e-05 0 0.033338256156040344 6.8682812941929218e-05 0 0.033371554174985697 8.1038673787262318e-05 0 0.033363620622331273 8.31908194185894e-05 0 0.033345405903644258 7.6049704052170625e-05 0 0.033371554174985697 8.1038673787262318e-05 0 0.033338256156040344 6.8682812941929218e-05 0 0.033345405903644258 7.6049704052170625e-05 0 0.03326716397996389 -6.2165400901658684e-05 0 0.033089021743911234 3.0469935315737725e-05 0 0.033327298278536428 -1.3558185428488004e-05 0 0.033311404754226219 4.9884027652905497e-05 0 0.033327298278536428 -1.3558185428488004e-05 0 0.033304771973971713 5.011985081516743e-05 0 0.032751867082770225 0.00016034426110359608 0 0.032845691046304942 0.00029409053764719071 0 0.032906957995664586 0.00012977672321400798 0 0.033089021743911234 3.0469935315737725e-05 0 0.032845691046304942 0.00029409053764719071 0 0.032906957995664586 0.00012977672321400798 0 0.033102712493858044 -3.1154718440003419e-05 0 0.033089021743911234 3.0469935315737725e-05 0 0.032928925253271582 3.2532371263573229e-05 0 0.033089021743911234 3.0469935315737725e-05 0 0.032928925253271582 3.2532371263573229e-05 0 0.032906957995664586 0.00012977672321400798 0 0.032751867082770225 0.00016034426110359608 0 0.032928925253271582 3.2532371263573229e-05 0 0.032906957995664586 0.00012977672321400798 0 0.032751867082770225 0.00016034426110359608 0 0.032928925253271582 3.2532371263573229e-05 0 0.032669558611690436 1.9987415271116753e-05 0 0.032751867082770225 0.00016034426110359608 0 0.032845691046304942 0.00029409053764719071 0 0.032495288858305722 0.00026993271379238096 0 0.032751867082770225 0.00016034426110359608 0 0.032669558611690436 1.9987415271116753e-05 0 0.032495288858305722 0.00026993271379238096 0 0.032669558611690436 1.9987415271116753e-05 0 0.032495288858305722 0.00026993271379238096 0 0.032368032777760763 0.00018026432356881627 0 0.032424679415493825 -6.3655818798558496e-05 0 0.032669558611690436 1.9987415271116753e-05 0 0.032368032777760763 0.00018026432356881627 0 0.032424679415493825 -6.3655818798558496e-05 0 0.032368032777760763 0.00018026432356881627 0 0.031889656086116776 0.00031507765341326537 0 0.032424679415493825 -6.3655818798558496e-05 0 0.032307914310309806 -0.00028773715213756528 0 0.031889656086116776 0.00031507765341326537 0 0.029412857073993003 -0.0014471407897497712 0 0.028869045676212911 -0.00082776481024525472 0 0.032368032777760763 0.00018026432356881627 0 0.03216248580712578 0.00035690803387537708 0 0.031889656086116776 0.00031507765341326537 0 0.026232896948662439 -0.0028554935558778223 0 0.025964450762507377 -0.0024922752948490562 0 0.02571353600080659 -0.0019810382613446253 0 0.032495288858305722 0.00026993271379238096 0 0.032368032777760763 0.00018026432356881627 0 0.03216248580712578 0.00035690803387537708 0 0.032495288858305722 0.00026993271379238096 0 0.03216248580712578 0.00035690803387537708 0 0.03216237539395389 0.00063128948943802488 0 0.03216248580712578 0.00035690803387537708 0 0.03216237539395389 0.00063128948943802488 0 0.031889656086116776 0.00031507765341326537 0 0.032845691046304942 0.00029409053764719071 0 0.032495288858305722 0.00026993271379238096 0 0.03216237539395389 0.00063128948943802488 0 0.033304771973971713 5.011985081516743e-05 0 0.033244824426233742 5.0968984774384269e-05 0 0.033284207174380298 6.8979707413728376e-05 0 0.032749811318184205 -0.00024593979875413388 0 0.031856099577353032 -0.00042784408060611876 0 0.024957052287421497 -0.0024680347570730935 0 0.024726248973020126 -0.0018989237785708908 0 0.02525325040349452 -0.0015927268240791314 0 0.024957052287421497 -0.0024680347570730935 0 0.024726248973020126 -0.0018989237785708908 0 0.024054757837596804 -0.0020368596173550744 0 0.026285827639218412 -0.0013187478137364772 0 0.025080164970048714 -0.0011646850018257264 0 0.025964450762507377 -0.0024922752948490562 0 0.024957052287421497 -0.0024680347570730935 0 0.02525325040349452 -0.0015927268240791314 0 0.026196188158882541 -0.0016348390727004922 0 0.026120820942678424 -0.0011341294803038238 0 0.025964450762507377 -0.0024922752948490562 0 0.02571353600080659 -0.0019810382613446253 0 0.025429682792373221 -0.0017262606770405255 0 0.03216237539395389 0.00063128948943802488 0 0.031889656086116776 0.00031507765341326537 0 0.031454509199570088 0.00095392678342374798 0 0.028869045676212911 -0.00082776481024525472 0 0.028499607744568126 -0.00038842021463057535 0 0.02571353600080659 -0.0019810382613446253 0 0.025429682792373221 -0.0017262606770405255 0 0.025200188725623129 -0.0011344426575639274 0 0.024726248973020126 -0.0018989237785708908 0 0.02525325040349452 -0.0015927268240791314 0 0.024711357268465208 -0.0013051991754406364 0 0.024726248973020126 -0.0018989237785708908 0 0.024711357268465208 -0.0013051991754406364 0 0.0244033028729107 -0.0016395896528698438 0 0.026120820942678424 -0.0011341294803038238 0 0.026655436970680124 -0.0003594988472774158 0 0.02525325040349452 -0.0015927268240791314 0 0.024711357268465208 -0.0013051991754406364 0 0.024559481152991607 -0.00072701229791028777 0 0.025429682792373221 -0.0017262606770405255 0 0.024895396063787704 -0.00098374800064166641 0 0.025200188725623129 -0.0011344426575639274 0 0.028175282506328718 -4.0476984417992276e-05 0 0.027087372163393367 0.00047652595726830753 0 0.027963152229150856 -0.0008842328947251955 0 0.026655436970680124 -0.0003594988472774158 0 0.028499607744568126 -0.00038842021463057535 0 0.024711357268465208 -0.0013051991754406364 0 0.024559481152991607 -0.00072701229791028777 0 0.024459662786163787 -0.0010608224540549068 0 0.028499607744568126 -0.00038842021463057535 0 0.027738968640485709 0.00011454314649918253 0 0.031856099577353032 -0.00042784408060611876 0 0.028499607744568126 -0.00038842021463057535 0 0.033244824426233742 5.0968984774384269e-05 0 0.033147511478353868 7.2163704247297123e-05 0 0.033227477426747226 9.080808492256326e-05 0 0.033147511478353868 7.2163704247297123e-05 0 0.03320462592898988 0.0001371666668023211 0 0.033227477426747226 9.080808492256326e-05 0 0.029854753921299656 0.00039739290338323171 0 0.027738968640485709 0.00011454314649918253 0 0.033147511478353868 7.2163704247297123e-05 0 0.03320462592898988 0.0001371666668023211 0 0.033115487626329418 0.00011063161220400265 0 0.027089304001931012 -0.00032511275485365675 0 0.027387022239609534 0.00024313793986942202 0 0.026438220073444998 8.6012470242321308e-05 0 0.028192893748320704 0.00011164000233358525 0 0.027089304001931012 -0.00032511275485365675 0 0.027387022239609534 0.00024313793986942202 0 0.027738968640485709 0.00011454314649918253 0 0.026565959481695916 -0.00021920851530500031 0 0.028175282506328718 -4.0476984417992276e-05 0 0.027963152229150856 -0.0008842328947251955 0 0.028614279787915361 -0.00062025184774714998 0 0.026655436970680124 -0.0003594988472774158 0 0.026565959481695916 -0.00021920851530500031 0 0.033298814502856135 9.5335851363420485e-05 0 0.033284207174380298 6.8979707413728376e-05 0 0.033263495685994571 8.5097417363201876e-05 0 0.033244824426233742 5.0968984774384269e-05 0 0.033284207174380298 6.8979707413728376e-05 0 0.033263495685994571 8.5097417363201876e-05 0 0.033244824426233742 5.0968984774384269e-05 0 0.033263495685994571 8.5097417363201876e-05 0 0.033227477426747226 9.080808492256326e-05 0 0.03320462592898988 0.0001371666668023211 0 0.033227477426747226 9.080808492256326e-05 0 0.033268490622830771 0.0001131479278813161 0 0.033263495685994571 8.5097417363201876e-05 0 0.033227477426747226 9.080808492256326e-05 0 0.033268490622830771 0.0001131479278813161 0 0.033298814502856135 9.5335851363420485e-05 0 0.033263495685994571 8.5097417363201876e-05 0 0.033268490622830771 0.0001131479278813161 0 0.033331948800015263 0.00010255987974969096 0 0.03331065753030174 0.00011142630638046924 0 0.033362164868058736 7.2885732093688817e-05 0 0.033268490622830771 0.0001131479278813161 0 0.033336830637634436 0.00011082386295046463 0 0.033336830637634436 0.00011082386295046463 0 0.033304430121960667 0.00015257202287587235 0 0.033363321176655004 0.0001150738094127439 0 0.033268490622830771 0.0001131479278813161 0 0.033336830637634436 0.00011082386295046463 0 0.033304430121960667 0.00015257202287587235 0 0.029854753921299656 0.00039739290338323171 0 0.029764782249675305 0.00014610960083679693 0 0.028192893748320704 0.00011164000233358525 0 0.029305109589721583 0.00054347990756614911 0 0.028343052108216797 0.00039604523684030299 0 0.024744167303322517 -0.00024709461727639439 0 0.024406006859320383 -0.00031201528807071714 0 0.024597094915700238 -4.0985124188772548e-05 0 0.03320462592898988 0.0001371666668023211 0 0.033268490622830771 0.0001131479278813161 0 0.033304430121960667 0.00015257202287587235 0 0.029764782249675305 0.00014610960083679693 0 0.027204503640651693 -1.2522435450002302e-05 0 0.024406006859320383 -0.00031201528807071714 0 0.024597094915700238 -4.0985124188772548e-05 0 0.024361154750150462 4.4278082411416503e-05 0 0.024597094915700238 -4.0985124188772548e-05 0 0.024361154750150462 4.4278082411416503e-05 0 0.024567604637753166 0.00021388905372104409 0 0.024744167303322517 -0.00024709461727639439 0 0.024841740256535148 8.548583277710262e-05 0 0.025083310467213227 -0.00011663967262519288 0 0.024744167303322517 -0.00024709461727639439 0 0.024597094915700238 -4.0985124188772548e-05 0 0.024841740256535148 8.548583277710262e-05 0 0.024597094915700238 -4.0985124188772548e-05 0 0.024841740256535148 8.548583277710262e-05 0 0.024567604637753166 0.00021388905372104409 0 0.023904465065580718 -0.00018102946166037757 0 0.024053684989603863 -0.00038902948285986021 0 0.023771742066839678 -0.0002999040644094722 0 0.026135883339467588 7.7472829401852621e-06 0 0.025847703250144481 0.00016377413423848729 0 0.023904465065580718 -0.00018102946166037757 0 0.024053684989603863 -0.00038902948285986021 0 0.024129480614560706 -0.00011185007975357991 0 0.028192893748320704 0.00011164000233358525 0 0.028343052108216797 0.00039604523684030299 0 0.027387022239609534 0.00024313793986942202 0 0.027204503640651693 -1.2522435450002302e-05 0 0.026135883339467588 7.7472829401852621e-06 0 0.024406006859320383 -0.00031201528807071714 0 0.024053684989603863 -0.00038902948285986021 0 0.024129480614560706 -0.00011185007975357991 0 0.024406006859320383 -0.00031201528807071714 0 0.024361154750150462 4.4278082411416503e-05 0 0.024129480614560706 -0.00011185007975357991 0 0.024361154750150462 4.4278082411416503e-05 0 0.024129480614560706 -0.00011185007975357991 0 0.024128679206849121 0.00016187066229971805 0 0.024129480614560706 -0.00011185007975357991 0 0.023898244017079982 3.7246050104139678e-05 0 0.024128679206849121 0.00016187066229971805 0 0.023904465065580718 -0.00018102946166037757 0 0.024129480614560706 -0.00011185007975357991 0 0.023898244017079982 3.7246050104139678e-05 0 0.023956971703331394 0.00025342598129942826 0 0.023836023817391069 0.00050820722765244637 0 0.023775831387135137 0.00019844474962844039 0 0.023956971703331394 0.00025342598129942826 0 0.024094157695874807 0.00038359251394690509 0 0.023836023817391069 0.00050820722765244637 0 0.023898244017079982 3.7246050104139678e-05 0 0.023956971703331394 0.00025342598129942826 0 0.023775831387135137 0.00019844474962844039 0 0.023898244017079982 3.7246050104139678e-05 0 0.023956971703331394 0.00025342598129942826 0 0.024128679206849121 0.00016187066229971805 0 0.023956971703331394 0.00025342598129942826 0 0.024128679206849121 0.00016187066229971805 0 0.024094157695874807 0.00038359251394690509 0 0.024128679206849121 0.00016187066229971805 0 0.024094157695874807 0.00038359251394690509 0 0.024322646040325448 0.00030635227721496417 0 0.024361154750150462 4.4278082411416503e-05 0 0.024128679206849121 0.00016187066229971805 0 0.024322646040325448 0.00030635227721496417 0 0.024094157695874807 0.00038359251394690509 0 0.024322646040325448 0.00030635227721496417 0 0.024264656579959003 0.00057661728301844383 0 0.024322646040325448 0.00030635227721496417 0 0.024264656579959003 0.00057661728301844383 0 0.024508177436831736 0.00044920236384114742 0 0.024094157695874807 0.00038359251394690509 0 0.024264656579959003 0.00057661728301844383 0 0.023836023817391069 0.00050820722765244637 0 0.024085741383133418 0.00061071457235465059 0 0.023738755022505328 0.00053990288831546804 0 0.023813897955273392 0.00074503903459253236 0 0.024176453950417964 0.0005934477253299892 0 0.02382003396290094 0.00051691973550454812 0 0.024841740256535148 8.548583277710262e-05 0 0.024567604637753166 0.00021388905372104409 0 0.024736583007785484 0.00039344251112741782 0 0.024841740256535148 8.548583277710262e-05 0 0.024736583007785484 0.00039344251112741782 0 0.024952687243227922 0.00035814144833487847 0 0.024361154750150462 4.4278082411416503e-05 0 0.024322646040325448 0.00030635227721496417 0 0.024567604637753166 0.00021388905372104409 0 0.024322646040325448 0.00030635227721496417 0 0.024567604637753166 0.00021388905372104409 0 0.024508177436831736 0.00044920236384114742 0 0.024567604637753166 0.00021388905372104409 0 0.024508177436831736 0.00044920236384114742 0 0.024736583007785484 0.00039344251112741782 0 0.024508177436831736 0.00044920236384114742 0 0.024736583007785484 0.00039344251112741782 0 0.024660366064620316 0.00065651873549219929 0 0.024264656579959003 0.00057661728301844383 0 0.024508177436831736 0.00044920236384114742 0 0.024660366064620316 0.00065651873549219929 0 0.024176453950417964 0.0005934477253299892 0 0.024534149027159346 0.00067034384859610951 0 0.024736583007785484 0.00039344251112741782 0 0.024896758828726655 0.00054143268753239517 0 0.024660366064620316 0.00065651873549219929 0 0.024736583007785484 0.00039344251112741782 0 0.024896758828726655 0.00054143268753239517 0 0.024952687243227922 0.00035814144833487847 0 0.024896758828726655 0.00054143268753239517 0 0.024952687243227922 0.00035814144833487847 0 0.025160045787835868 0.00052325311583538599 0 0.024896758828726655 0.00054143268753239517 0 0.025160045787835868 0.00052325311583538599 0 0.025013512917576742 0.00076111071017698239 0 0.024841740256535148 8.548583277710262e-05 0 0.024952687243227922 0.00035814144833487847 0 0.025195407198948677 0.00021359809705192762 0 0.024952687243227922 0.00035814144833487847 0 0.025195407198948677 0.00021359809705192762 0 0.025160045787835868 0.00052325311583538599 0 0.025195407198948677 0.00021359809705192762 0 0.025392661932989471 0.00041919126163939734 0 0.025573704324543547 0.00022904336146400476 0 0.025195407198948677 0.00021359809705192762 0 0.025573704324543547 0.00022904336146400476 0 0.025448548390476302 1.3250321406043283e-06 0 0.025195407198948677 0.00021359809705192762 0 0.025392661932989471 0.00041919126163939734 0 0.025160045787835868 0.00052325311583538599 0 0.025392661932989471 0.00041919126163939734 0 0.025160045787835868 0.00052325311583538599 0 0.025399278921185812 0.00059317500525482244 0 0.025160045787835868 0.00052325311583538599 0 0.025399278921185812 0.00059317500525482244 0 0.025301705389820253 0.00077631991493054531 0 0.025399278921185812 0.00059317500525482244 0 0.025590051221738547 0.00053572135260016723 0 0.025538705138434148 0.00071718048383612111 0 0.026133181560224247 0.00036698828101752685 0 0.026782190730890724 0.00028717172191288485 0 0.025392661932989471 0.00041919126163939734 0 0.025399278921185812 0.00059317500525482244 0 0.025590051221738547 0.00053572135260016723 0 0.025392661932989471 0.00041919126163939734 0 0.025590051221738547 0.00053572135260016723 0 0.025748187718904858 0.00035566503170130431 0 0.025921903671159131 0.00048082335671959062 0 0.025851499783992243 0.00060437681000112986 0 0.025763179342948986 0.00052233523060784496 0 0.025955267803341699 0.00058177750174705895 0 0.025921903671159131 0.00048082335671959062 0 0.025851499783992243 0.00060437681000112986 0 0.025851499783992243 0.00060437681000112986 0 0.025763179342948986 0.00052233523060784496 0 0.025700090204767705 0.00063705777574504005 0 0.025590051221738547 0.00053572135260016723 0 0.025763179342948986 0.00052233523060784496 0 0.025700090204767705 0.00063705777574504005 0 0.025590051221738547 0.00053572135260016723 0 0.025763179342948986 0.00052233523060784496 0 0.025748187718904858 0.00035566503170130431 0 0.025921903671159131 0.00048082335671959062 0 0.025763179342948986 0.00052233523060784496 0 0.025748187718904858 0.00035566503170130431 0 0.026378321803570789 0.00031904785470005664 0 0.025854648692515126 0.00038993457020348142 0 0.025880694770911161 0.00013445170772151025 0 0.025854648692515126 0.00038993457020348142 0 0.025880694770911161 0.00013445170772151025 0 0.025573704324543547 0.00022904336146400476 0 0.025392661932989471 0.00041919126163939734 0 0.025854648692515126 0.00038993457020348142 0 0.025573704324543547 0.00022904336146400476 0 0.025880694770911161 0.00013445170772151025 0 0.025573704324543547 0.00022904336146400476 0 0.025448548390476302 1.3250321406043283e-06 0 0.029553088796042435 -7.8099659111822293e-06 0 0.029407172605272165 -1.957130078413947e-05 0 0.033387682298062334 -4.1329888219738852e-05 0 0.033330913972121221 6.1504518963841491e-05 0 0.033392214283528565 2.7628487044635098e-05 0 0.033387682298062334 -4.1329888219738852e-05 0 0.033392214283528565 2.7628487044635098e-05 0 0.033369684974997399 1.4180262705888828e-05 0 0.033313894211468964 -4.4676362306079673e-05 0 0.033387682298062334 -4.1329888219738852e-05 0 0.033369684974997399 1.4180262705888828e-05 0 0.033392214283528565 2.7628487044635098e-05 0 0.033369684974997399 1.4180262705888828e-05 0 0.033392571856609134 8.3895725789414296e-05 0 0.033326373008664797 5.3434645597273588e-05 0 0.033369684974997399 1.4180262705888828e-05 0 0.033392571856609134 8.3895725789414296e-05 0 0.033392214283528565 2.7628487044635098e-05 0 0.033398257281334727 7.484493845452327e-05 0 0.033400856108363526 9.5581374978902711e-05 0 0.033392214283528565 2.7628487044635098e-05 0 0.033392571856609134 8.3895725789414296e-05 0 0.033398257281334727 7.484493845452327e-05 0 0.033403446667262117 9.3052128341245241e-05 0 0.033398257281334727 7.484493845452327e-05 0 0.033400856108363526 9.5581374978902711e-05 0 0.033009598633108664 0.0002726832883869239 0 0.032528896842613182 0.00028458851496091718 0 0.033392214283528565 2.7628487044635098e-05 0 0.033400856108363526 9.5581374978902711e-05 0 0.033396311227826554 0.00011145786865915948 0 0.033386832081445786 9.786176902016835e-05 0 0.033400856108363526 9.5581374978902711e-05 0 0.033390118536784884 0.00010439047604762028 0 0.033400856108363526 9.5581374978902711e-05 0 0.033396311227826554 0.00011145786865915948 0 0.033390118536784884 0.00010439047604762028 0 0.029764782249675305 0.00014610960083679693 0 0.032528896842613182 0.00028458851496091718 0 0.032713096825754233 -0.00013310209176411455 0 0.033150848994138372 -5.80972954079749e-05 0 0.033076046338017792 3.2866325355286421e-06 0 0.033396311227826554 0.00011145786865915948 0 0.033390118536784884 0.00010439047604762028 0 0.033363321176655004 0.0001150738094127439 0 0.033304430121960667 0.00015257202287587235 0 0.033396311227826554 0.00011145786865915948 0 0.033363321176655004 0.0001150738094127439 0 0.029764782249675305 0.00014610960083679693 0 0.029320590214762771 -2.9694057510137363e-05 0 0.033386832081445786 9.786176902016835e-05 0 0.033390118536784884 0.00010439047604762028 0 0.033363321176655004 0.0001150738094127439 0 0.024841740256535148 8.548583277710262e-05 0 0.025195407198948677 0.00021359809705192762 0 0.025083310467213227 -0.00011663967262519288 0 0.033330913972121221 6.1504518963841491e-05 0 0.033392214283528565 2.7628487044635098e-05 0 0.033150848994138372 -5.80972954079749e-05 0 0.033330913972121221 6.1504518963841491e-05 0 0.033150848994138372 -5.80972954079749e-05 0 0.033076046338017792 3.2866325355286421e-06 0 0.025195407198948677 0.00021359809705192762 0 0.025448548390476302 1.3250321406043283e-06 0 0.025083310467213227 -0.00011663967262519288 0 0.029407172605272165 -1.957130078413947e-05 0 0.029320590214762771 -2.9694057510137363e-05 0 0.022317901444005382 0.00012420863211784795 0 0.022008963381029086 -9.9125868822822209e-05 0 0.021917697592116377 0.00021325408783448704 0 0.022317901444005382 0.00012420863211784795 0 0.022008963381029086 -9.9125868822822209e-05 0 0.022296872409883595 -0.00031136458978421491 0 0.022658757437096552 -6.4311079147910653e-05 0 0.022857291324223657 -0.00027139752538955396 0 0.022317901444005382 0.00012420863211784795 0 0.022746753603256356 -1.7526572131433102e-05 0 0.022612979590797437 -0.00036509230355164727 0 0.022317901444005382 0.00012420863211784795 0 0.022296872409883595 -0.00031136458978421491 0 0.022638282035057418 -0.00028888511765754572 0 0.022008963381029086 -9.9125868822822209e-05 0 0.022296872409883595 -0.00031136458978421491 0 0.021965166573780295 -0.00041445252729268 0 0.022008963381029086 -9.9125868822822209e-05 0 0.021691478756471431 -8.782599455405083e-05 0 0.021965166573780295 -0.00041445252729268 0 0.021691478756471431 -8.782599455405083e-05 0 0.021621438787326131 -0.00040353897226525816 0 0.021965166573780295 -0.00041445252729268 0 0.021621438787326131 -0.00040353897226525816 0 0.021298652342455364 -0.00013677748830505764 0 0.021318447645246652 -0.00038740946277107273 0 0.021691478756471431 -8.782599455405083e-05 0 0.021621438787326131 -0.00040353897226525816 0 0.021298652342455364 -0.00013677748830505764 0 0.021691478756471431 -8.782599455405083e-05 0 0.021495856597326418 0.00020002719463805917 0 0.021298652342455364 -0.00013677748830505764 0 0.022008963381029086 -9.9125868822822209e-05 0 0.021691478756471431 -8.782599455405083e-05 0 0.021917697592116377 0.00021325408783448704 0 0.021691478756471431 -8.782599455405083e-05 0 0.021917697592116377 0.00021325408783448704 0 0.021495856597326418 0.00020002719463805917 0 0.021917697592116377 0.00021325408783448704 0 0.021495856597326418 0.00020002719463805917 0 0.02166318577951621 0.00052527792137873881 0 0.021917697592116377 0.00021325408783448704 0 0.02166318577951621 0.00052527792137873881 0 0.021998216976411803 0.0005838112706047664 0 0.021495856597326418 0.00020002719463805917 0 0.02166318577951621 0.00052527792137873881 0 0.021297744686409829 0.00046455548663055092 0 0.019392529133164343 0.0015223273838645495 0 0.015280116164904217 0.0013941737737122857 0 0.015280116164904217 0.0013941737737122857 0 0.014891617570380945 0.0012095444129345632 0 0.021605308891293282 0.00049064348853598253 0 0.021196742093135934 0.00041700762554185101 0 0.021526973303111759 0.00083805300218813006 0 0.019392529133164343 0.0015223273838645495 0 0.020390862034625271 0.0015147031209264263 0 0.021605308891293282 0.00049064348853598253 0 0.021998216976411803 0.0005838112706047664 0 0.02180359674995953 0.00081149170172722896 0 0.021605308891293282 0.00049064348853598253 0 0.021526973303111759 0.00083805300218813006 0 0.02180359674995953 0.00081149170172722896 0 0.021998216976411803 0.0005838112706047664 0 0.022353060528387671 0.0005965876118106979 0 0.022049855594708498 0.00090106470237824652 0 0.022317901444005382 0.00012420863211784795 0 0.021917697592116377 0.00021325408783448704 0 0.021998216976411803 0.0005838112706047664 0 0.022317901444005382 0.00012420863211784795 0 0.021998216976411803 0.0005838112706047664 0 0.022353060528387671 0.0005965876118106979 0 0.022317901444005382 0.00012420863211784795 0 0.022353060528387671 0.0005965876118106979 0 0.022720840017187601 0.00031733676048903068 0 0.022353060528387671 0.0005965876118106979 0 0.02270271340517346 0.00066052379419755157 0 0.022447100717367292 0.00084007736883413711 0 0.022353060528387671 0.0005965876118106979 0 0.0229267336625304 0.00068825061824825582 0 0.022720840017187601 0.00031733676048903068 0 0.022648140569899798 0.00062484876202712684 0 0.022868143091559174 0.00065623916036903498 0 0.0229267336625304 0.00068825061824825582 0 0.023068894650018986 0.00033346023969243587 0 0.023342522621216364 0.00043136943131711817 0 0.022868143091559174 0.00065623916036903498 0 0.02326434432897306 0.00070586524612079114 0 0.023068894650018986 0.00033346023969243587 0 0.022720840017187601 0.00031733676048903068 0 0.023024081462846267 8.5848435573486766e-05 0 0.0229267336625304 0.00068825061824825582 0 0.023068894650018986 0.00033346023969243587 0 0.022720840017187601 0.00031733676048903068 0 0.023068894650018986 0.00033346023969243587 0 0.023321014891170715 0.00014525344414590159 0 0.023024081462846267 8.5848435573486766e-05 0 0.023738755022505328 0.00053990288831546804 0 0.023424929525407222 0.00071993186526213488 0 0.023813897955273392 0.00074503903459253236 0 0.02382003396290094 0.00051691973550454812 0 0.023614584791078499 0.00047098715911710141 0 0.023738755022505328 0.00053990288831546804 0 0.023424929525407222 0.00071993186526213488 0 0.023342522621216364 0.00043136943131711817 0 0.0229267336625304 0.00068825061824825582 0 0.023424929525407222 0.00071993186526213488 0 0.023342522621216364 0.00043136943131711817 0 0.023068894650018986 0.00033346023969243587 0 0.023342522621216364 0.00043136943131711817 0 0.023321014891170715 0.00014525344414590159 0 0.023342522621216364 0.00043136943131711817 0 0.023539998561358477 0.00022542319496188435 0 0.023321014891170715 0.00014525344414590159 0 0.023836023817391069 0.00050820722765244637 0 0.023539998561358477 0.00022542319496188435 0 0.023775831387135137 0.00019844474962844039 0 0.023836023817391069 0.00050820722765244637 0 0.023342522621216364 0.00043136943131711817 0 0.023539998561358477 0.00022542319496188435 0 0.023539998561358477 0.00022542319496188435 0 0.023775831387135137 0.00019844474962844039 0 0.023686755948476919 5.9212756300633382e-05 0 0.023904465065580718 -0.00018102946166037757 0 0.023898244017079982 3.7246050104139678e-05 0 0.023681839800367675 -0.00012052277610583452 0 0.023898244017079982 3.7246050104139678e-05 0 0.023686755948476919 5.9212756300633382e-05 0 0.023681839800367675 -0.00012052277610583452 0 0.023898244017079982 3.7246050104139678e-05 0 0.023775831387135137 0.00019844474962844039 0 0.023686755948476919 5.9212756300633382e-05 0 0.023539998561358477 0.00022542319496188435 0 0.023686755948476919 5.9212756300633382e-05 0 0.023475839588343914 -2.0171763022577641e-05 0 0.023681839800367675 -0.00012052277610583452 0 0.023475839588343914 -2.0171763022577641e-05 0 0.023531872395162502 -0.00020931907953412591 0 0.023686755948476919 5.9212756300633382e-05 0 0.023681839800367675 -0.00012052277610583452 0 0.023475839588343914 -2.0171763022577641e-05 0 0.023475839588343914 -2.0171763022577641e-05 0 0.02339428874376832 -0.0001592431967845951 0 0.023531872395162502 -0.00020931907953412591 0 0.023539998561358477 0.00022542319496188435 0 0.023475839588343914 -2.0171763022577641e-05 0 0.023321014891170715 0.00014525344414590159 0 0.023475839588343914 -2.0171763022577641e-05 0 0.023321014891170715 0.00014525344414590159 0 0.023262025251380287 -7.6655068575726346e-05 0 0.023475839588343914 -2.0171763022577641e-05 0 0.023262025251380287 -7.6655068575726346e-05 0 0.02339428874376832 -0.0001592431967845951 0 0.023262025251380287 -7.6655068575726346e-05 0 0.023287379285753158 -0.00026633237093475495 0 0.02339428874376832 -0.0001592431967845951 0 0.023287379285753158 -0.00026633237093475495 0 0.02339428874376832 -0.0001592431967845951 0 0.023450755875182382 -0.00035394040282773619 0 0.023287379285753158 -0.00026633237093475495 0 0.023292099661276908 -0.00044436682349813071 0 0.023450755875182382 -0.00035394040282773619 0 0.023292099661276908 -0.00044436682349813071 0 0.023450755875182382 -0.00035394040282773619 0 0.023485624160674502 -0.00054136040088057608 0 0.023450755875182382 -0.00035394040282773619 0 0.023554069868116482 -0.00045840771660154213 0 0.023485624160674502 -0.00054136040088057608 0 0.023450755875182382 -0.00035394040282773619 0 0.023531872395162502 -0.00020931907953412591 0 0.023592033805745434 -0.00036590932958181831 0 0.023450755875182382 -0.00035394040282773619 0 0.023554069868116482 -0.00045840771660154213 0 0.023592033805745434 -0.00036590932958181831 0 0.02339428874376832 -0.0001592431967845951 0 0.023450755875182382 -0.00035394040282773619 0 0.023531872395162502 -0.00020931907953412591 0 0.024053684989603863 -0.00038902948285986021 0 0.023771742066839678 -0.0002999040644094722 0 0.023694656339520639 -0.00047681402648619647 0 0.023681839800367675 -0.00012052277610583452 0 0.023644016992787009 -0.00027208220776150027 0 0.023771742066839678 -0.0002999040644094722 0 0.023531872395162502 -0.00020931907953412591 0 0.023644016992787009 -0.00027208220776150027 0 0.023592033805745434 -0.00036590932958181831 0 0.023681839800367675 -0.00012052277610583452 0 0.023531872395162502 -0.00020931907953412591 0 0.023644016992787009 -0.00027208220776150027 0 0.023644016992787009 -0.00027208220776150027 0 0.023592033805745434 -0.00036590932958181831 0 0.023673112603670974 -0.00037279154479969958 0 0.023673112603670974 -0.00037279154479969958 0 0.023771742066839678 -0.0002999040644094722 0 0.023694656339520639 -0.00047681402648619647 0 0.023592033805745434 -0.00036590932958181831 0 0.023671266919383212 -0.00044302947306479144 0 0.023622419253187983 -0.00046222350332884176 0 0.023554069868116482 -0.00045840771660154213 0 0.023592033805745434 -0.00036590932958181831 0 0.023622419253187983 -0.00046222350332884176 0 0.023592033805745434 -0.00036590932958181831 0 0.023671266919383212 -0.00044302947306479144 0 0.023673112603670974 -0.00037279154479969958 0 0.023671266919383212 -0.00044302947306479144 0 0.023673112603670974 -0.00037279154479969958 0 0.023694656339520639 -0.00047681402648619647 0 0.023644016992787009 -0.00027208220776150027 0 0.023673112603670974 -0.00037279154479969958 0 0.023771742066839678 -0.0002999040644094722 0 0.023904465065580718 -0.00018102946166037757 0 0.023681839800367675 -0.00012052277610583452 0 0.023771742066839678 -0.0002999040644094722 0 0.022720840017187601 0.00031733676048903068 0 0.022746753603256356 -1.7526572131433102e-05 0 0.023024081462846267 8.5848435573486766e-05 0 0.022317901444005382 0.00012420863211784795 0 0.022720840017187601 0.00031733676048903068 0 0.022746753603256356 -1.7526572131433102e-05 0 0.023262025251380287 -7.6655068575726346e-05 0 0.023024081462846267 8.5848435573486766e-05 0 0.023063637960224558 -0.00025998636709756315 0 0.022746753603256356 -1.7526572131433102e-05 0 0.023024081462846267 8.5848435573486766e-05 0 0.023063637960224558 -0.00025998636709756315 0 0.023321014891170715 0.00014525344414590159 0 0.023262025251380287 -7.6655068575726346e-05 0 0.023024081462846267 8.5848435573486766e-05 0 0.023063637960224558 -0.00025998636709756315 0 0.022612979590797437 -0.00036509230355164727 0 0.023106473880561796 -0.0005799693947106672 0 0.023262025251380287 -7.6655068575726346e-05 0 0.023287379285753158 -0.00026633237093475495 0 0.023063637960224558 -0.00025998636709756315 0 0.023292099661276908 -0.00044436682349813071 0 0.023063637960224558 -0.00025998636709756315 0 0.023106473880561796 -0.0005799693947106672 0 0.023287379285753158 -0.00026633237093475495 0 0.023292099661276908 -0.00044436682349813071 0 0.023063637960224558 -0.00025998636709756315 0 0.022746753603256356 -1.7526572131433102e-05 0 0.023063637960224558 -0.00025998636709756315 0 0.022612979590797437 -0.00036509230355164727 0 0.022612979590797437 -0.00036509230355164727 0 0.023106473880561796 -0.0005799693947106672 0 0.022891405898697877 -0.00086033988028158884 0 0.022638282035057418 -0.00028888511765754572 0 0.022922771119273985 -0.00071089562192143082 0 0.022599565261949842 -0.00065038340480840829 0 0.022857291324223657 -0.00027139752538955396 0 0.023315542130678112 -0.00061063926402055992 0 0.023106473880561796 -0.0005799693947106672 0 0.023199225857111105 -0.00087570422665913747 0 0.023362907010283908 -0.0006843083273010154 0 0.023106473880561796 -0.0005799693947106672 0 0.022891405898697877 -0.00086033988028158884 0 0.023199225857111105 -0.00087570422665913747 0 0.023315542130678112 -0.00061063926402055992 0 0.024089751480826725 -0.00090438729490815582 0 0.022891405898697877 -0.00086033988028158884 0 0.023199225857111105 -0.00087570422665913747 0 0.023238831780376293 -0.0015847646739536743 0 0.022922771119273985 -0.00071089562192143082 0 0.022728432993263936 -0.00091481272214514282 0 0.023186251184687152 -0.0011291170151761592 0 0.022728432993263936 -0.00091481272214514282 0 0.022670364163084964 -0.00097355967293870436 0 0.022599565261949842 -0.00065038340480840829 0 0.022922771119273985 -0.00071089562192143082 0 0.022728432993263936 -0.00091481272214514282 0 0.022599565261949842 -0.00065038340480840829 0 0.02382897894200274 -0.00077305193685032656 0 0.023602633461389598 -0.00066915401955424596 0 0.02344305035840772 -0.00097393066853789856 0 0.027089304001931012 -0.00032511275485365675 0 0.026830411350699523 -0.00042928215678288731 0 0.026438220073444998 8.6012470242321308e-05 0 0.023920451011772644 -0.00074865504868327235 0 0.023837807019099797 -0.00078073281562028043 0 0.023732134490781476 -0.00063036376226549779 0 0.026036408343166187 3.5865623500403898e-05 0 0.026706562422902064 -0.00084794095004549479 0 0.0273491835410021 -0.00058715276015593014 0 0.026565959481695916 -0.00021920851530500031 0 0.026012120797991499 -0.00032938981957136301 0 0.026565959481695916 -0.00021920851530500031 0 0.025847703250144481 0.00016377413423848729 0 0.023920451011772644 -0.00074865504868327235 0 0.023732134490781476 -0.00063036376226549779 0 0.023724345667787382 -0.00049843200395925018 0 0.023732134490781476 -0.00063036376226549779 0 0.02368493565054957 -0.00050379300823797063 0 0.023724345667787382 -0.00049843200395925018 0 0.023671266919383212 -0.00044302947306479144 0 0.02368493565054957 -0.00050379300823797063 0 0.023724177744215199 -0.00049710342156863291 0 0.025839112418539714 0.00016203089843424648 0 0.025847703250144481 0.00016377413423848729 0 0.025837593780884627 0.00016724519105293809 0 0.025847703250144481 0.00016377413423848729 0 0.023554069868116482 -0.00045840771660154213 0 0.023622419253187983 -0.00046222350332884176 0 0.023616531555564022 -0.00055453001952865096 0 0.02368493565054957 -0.00050379300823797063 0 0.023622419253187983 -0.00046222350332884176 0 0.023616531555564022 -0.00055453001952865096 0 0.023671266919383212 -0.00044302947306479144 0 0.02368493565054957 -0.00050379300823797063 0 0.023622419253187983 -0.00046222350332884176 0 0.023732134490781476 -0.00063036376226549779 0 0.02368493565054957 -0.00050379300823797063 0 0.023616531555564022 -0.00055453001952865096 0 0.023732134490781476 -0.00063036376226549779 0 0.023616531555564022 -0.00055453001952865096 0 0.023602633461389598 -0.00066915401955424596 0 0.026012120797991499 -0.00032938981957136301 0 0.025622871186068548 -0.00022856683241379529 0 0.023837807019099797 -0.00078073281562028043 0 0.023732134490781476 -0.00063036376226549779 0 0.023602633461389598 -0.00066915401955424596 0 0.023602633461389598 -0.00066915401955424596 0 0.023362907010283908 -0.0006843083273010154 0 0.02344305035840772 -0.00097393066853789856 0 0.023602633461389598 -0.00066915401955424596 0 0.023485624160674502 -0.00054136040088057608 0 0.023362907010283908 -0.0006843083273010154 0 0.023616531555564022 -0.00055453001952865096 0 0.023602633461389598 -0.00066915401955424596 0 0.023485624160674502 -0.00054136040088057608 0 0.023554069868116482 -0.00045840771660154213 0 0.023616531555564022 -0.00055453001952865096 0 0.023485624160674502 -0.00054136040088057608 0 0.023292099661276908 -0.00044436682349813071 0 0.023485624160674502 -0.00054136040088057608 0 0.023362907010283908 -0.0006843083273010154 0 0.023292099661276908 -0.00044436682349813071 0 0.023106473880561796 -0.0005799693947106672 0 0.023362907010283908 -0.0006843083273010154 0 0.023199225857111105 -0.00087570422665913747 0 0.02344305035840772 -0.00097393066853789856 0 0.023238831780376293 -0.0015847646739536743 0 0.023199225857111105 -0.00087570422665913747 0 0.023362907010283908 -0.0006843083273010154 0 0.02344305035840772 -0.00097393066853789856 0 0.02344305035840772 -0.00097393066853789856 0 0.02395128258776931 -0.001044347850701556 0 0.023675437841767809 -0.0013768043498841543 0 0.024260024682390618 -0.00058751069378925409 0 0.02344305035840772 -0.00097393066853789856 0 0.02395128258776931 -0.001044347850701556 0 0.026012120797991499 -0.00032938981957136301 0 0.024847180355226987 -0.00073049957029949926 0 0.02395128258776931 -0.001044347850701556 0 0.024272056207721205 -0.00093619830452700079 0 0.024124224656272644 -0.0013167631960805761 0 0.02395128258776931 -0.001044347850701556 0 0.024124224656272644 -0.0013167631960805761 0 0.023675437841767809 -0.0013768043498841543 0 0.024711357268465208 -0.0013051991754406364 0 0.024459662786163787 -0.0010608224540549068 0 0.024124224656272644 -0.0013167631960805761 0 0.024459662786163787 -0.0010608224540549068 0 0.024272056207721205 -0.00093619830452700079 0 0.024124224656272644 -0.0013167631960805761 0 0.024559481152991607 -0.00072701229791028777 0 0.024459662786163787 -0.0010608224540549068 0 0.024272056207721205 -0.00093619830452700079 0 0.024260024682390618 -0.00058751069378925409 0 0.02395128258776931 -0.001044347850701556 0 0.024272056207721205 -0.00093619830452700079 0 0.024559481152991607 -0.00072701229791028777 0 0.024260024682390618 -0.00058751069378925409 0 0.024272056207721205 -0.00093619830452700079 0 0.026655436970680124 -0.0003594988472774158 0 0.026012120797991499 -0.00032938981957136301 0 0.024726248973020126 -0.0018989237785708908 0 0.0244033028729107 -0.0016395896528698438 0 0.024054757837596804 -0.0020368596173550744 0 0.0244033028729107 -0.0016395896528698438 0 0.024124224656272644 -0.0013167631960805761 0 0.024054757837596804 -0.0020368596173550744 0 0.024124224656272644 -0.0013167631960805761 0 0.023675437841767809 -0.0013768043498841543 0 0.024054757837596804 -0.0020368596173550744 0 0.024711357268465208 -0.0013051991754406364 0 0.0244033028729107 -0.0016395896528698438 0 0.024124224656272644 -0.0013167631960805761 0 0.023675437841767809 -0.0013768043498841543 0 0.024054757837596804 -0.0020368596173550744 0 0.023238831780376293 -0.0015847646739536743 0 0.02344305035840772 -0.00097393066853789856 0 0.023675437841767809 -0.0013768043498841543 0 0.023238831780376293 -0.0015847646739536743 0 0.025080164970048714 -0.0011646850018257264 0 0.024089751480826725 -0.00090438729490815582 0 0.023718863092161636 -0.0017302999066333852 0 0.023387817487550581 -0.0012078858785351582 0 0.023184375972269331 -0.0013484027850246166 0 0.02526639981960874 -0.0012973205002337256 0 0.025659783536480234 -0.00090975217134575161 0 0.024764376847840816 -0.00049018628130570669 0 0.025131569722447577 -0.0013533521758108253 0 0.023945899332569409 -0.0011064755527584894 0 0.025131569722447577 -0.0013533521758108253 0 0.024089751480826725 -0.00090438729490815582 0 0.02526639981960874 -0.0012973205002337256 0 0.025659783536480234 -0.00090975217134575161 0 0.025739678112836575 -0.00163917428480579 0 0.026558845045402579 -0.0013304787387072024 0 0.025659783536480234 -0.00090975217134575161 0 0.025739678112836575 -0.00163917428480579 0 0.022728432993263936 -0.00091481272214514282 0 0.022670364163084964 -0.00097355967293870436 0 0.023184375972269331 -0.0013484027850246166 0 0.023353059772543594 -0.0013573255322632985 0 0.023061460876947437 -0.0010030579384881155 0 0.023890244448013773 -0.0014663315929363226 0 0.023212827931754221 -0.00086785863577591466 0 0.023945899332569409 -0.0011064755527584894 0 0.023353059772543594 -0.0013573255322632985 0 0.023890244448013773 -0.0014663315929363226 0 0.023526479337370912 -0.0016718489418794842 0 0.023094835100071778 -0.0013286837194198245 0 0.022961494907468016 -0.0014448884556139863 0 0.022894691454722196 -0.0011736048151046424 0 0.023353059772543594 -0.0013573255322632985 0 0.023094835100071778 -0.0013286837194198245 0 0.023159611417450383 -0.0015355534668161439 0 0.023094835100071778 -0.0013286837194198245 0 0.023159611417450383 -0.0015355534668161439 0 0.022961494907468016 -0.0014448884556139863 0 0.023353059772543594 -0.0013573255322632985 0 0.023094835100071778 -0.0013286837194198245 0 0.023098878982892493 -0.0012153325804552136 0 0.023353059772543594 -0.0013573255322632985 0 0.023098878982892493 -0.0012153325804552136 0 0.023061460876947437 -0.0010030579384881155 0 0.023098878982892493 -0.0012153325804552136 0 0.023061460876947437 -0.0010030579384881155 0 0.022894691454722196 -0.0011736048151046424 0 0.023094835100071778 -0.0013286837194198245 0 0.023098878982892493 -0.0012153325804552136 0 0.022894691454722196 -0.0011736048151046424 0 0.023401319589355995 -0.00074608566727094809 0 0.024089751480826725 -0.00090438729490815582 0 0.022728432993263936 -0.00091481272214514282 0 0.023387817487550581 -0.0012078858785351582 0 0.023184375972269331 -0.0013484027850246166 0 0.023890244448013773 -0.0014663315929363226 0 0.023979728618385193 -0.0019114088196850001 0 0.023526479337370912 -0.0016718489418794842 0 0.024724235276039366 -0.0020109242630729387 0 0.023890244448013773 -0.0014663315929363226 0 0.023979728618385193 -0.0019114088196850001 0 0.023979728618385193 -0.0019114088196850001 0 0.023591209941669272 -0.0020707818604040252 0 0.023526479337370912 -0.0016718489418794842 0 0.023591209941669272 -0.0020707818604040252 0 0.023526479337370912 -0.0016718489418794842 0 0.023115155315893726 -0.0018196492052399121 0 0.023353059772543594 -0.0013573255322632985 0 0.023526479337370912 -0.0016718489418794842 0 0.023159611417450383 -0.0015355534668161439 0 0.023526479337370912 -0.0016718489418794842 0 0.023159611417450383 -0.0015355534668161439 0 0.023115155315893726 -0.0018196492052399121 0 0.023159611417450383 -0.0015355534668161439 0 0.023115155315893726 -0.0018196492052399121 0 0.022874387237729589 -0.0015987677967799539 0 0.023159611417450383 -0.0015355534668161439 0 0.022874387237729589 -0.0015987677967799539 0 0.022961494907468016 -0.0014448884556139863 0 0.023591209941669272 -0.0020707818604040252 0 0.023115155315893726 -0.0018196492052399121 0 0.023066424099811817 -0.0021927499054163026 0 0.023115155315893726 -0.0018196492052399121 0 0.0225955329555718 -0.0017343859918125073 0 0.023066424099811817 -0.0021927499054163026 0 0.0225955329555718 -0.0017343859918125073 0 0.022468083276843579 -0.0016692233815538123 0 0.023066424099811817 -0.0021927499054163026 0 0.02386653643885675 -0.0014424792649211594 0 0.024687335945596911 -0.0017779302867740497 0 0.026851972815136613 -0.0010484113793920425 0 0.026817504514711901 -0.0011214650849395299 0 0.026864224164576015 -0.0011209262472177148 0 0.022480352936361758 -0.0016609141312526744 0 0.022648569035234271 -0.001534064060744257 0 0.022590233169569388 -0.0013879044208148551 0 0.023843384671320567 -0.0014363232278551124 0 0.02386653643885675 -0.0014424792649211594 0 0.0225955329555718 -0.0017343859918125073 0 0.022480352936361758 -0.0016609141312526744 0 0.022648569035234271 -0.001534064060744257 0 0.0225955329555718 -0.0017343859918125073 0 0.022648569035234271 -0.001534064060744257 0 0.022874387237729589 -0.0015987677967799539 0 0.023115155315893726 -0.0018196492052399121 0 0.0225955329555718 -0.0017343859918125073 0 0.022874387237729589 -0.0015987677967799539 0 0.026851972815136613 -0.0010484113793920425 0 0.026741087120246254 -0.0010965178238715669 0 0.026518176434006249 -0.00081025794250656877 0 0.026851972815136613 -0.0010484113793920425 0 0.026741087120246254 -0.0010965178238715669 0 0.026817504514711901 -0.0011214650849395299 0 0.02386653643885675 -0.0014424792649211594 0 0.023046564785371714 -0.0010438899125199904 0 0.02386653643885675 -0.0014424792649211594 0 0.023785027797553253 -0.0012629341186760211 0 0.022480352936361758 -0.0016609141312526744 0 0.022248462072972559 -0.0012286030028305119 0 0.021950069016023751 -0.0011271365700166749 0 0.022403821223059495 -0.0015081299103564809 0 0.021950069016023751 -0.0011271365700166749 0 0.021829177145457113 -0.0012191087475684275 0 0.022480352936361758 -0.0016609141312526744 0 0.022248462072972559 -0.0012286030028305119 0 0.022387363479385025 -0.0012138577660882348 0 0.022248462072972559 -0.0012286030028305119 0 0.022387363479385025 -0.0012138577660882348 0 0.022168702888352824 -0.00094429663042258801 0 0.022387363479385025 -0.0012138577660882348 0 0.022583014936468283 -0.0010199481226339257 0 0.022168702888352824 -0.00094429663042258801 0 0.022248462072972559 -0.0012286030028305119 0 0.022168702888352824 -0.00094429663042258801 0 0.021950069016023751 -0.0011271365700166749 0 0.02276661132259631 -0.0013698140691228227 0 0.022961494907468016 -0.0014448884556139863 0 0.022894691454722196 -0.0011736048151046424 0 0.022874387237729589 -0.0015987677967799539 0 0.02276661132259631 -0.0013698140691228227 0 0.022961494907468016 -0.0014448884556139863 0 0.022648569035234271 -0.001534064060744257 0 0.022874387237729589 -0.0015987677967799539 0 0.02276661132259631 -0.0013698140691228227 0 0.022480352936361758 -0.0016609141312526744 0 0.022387363479385025 -0.0012138577660882348 0 0.022590233169569388 -0.0013879044208148551 0 0.022648569035234271 -0.001534064060744257 0 0.02276661132259631 -0.0013698140691228227 0 0.022590233169569388 -0.0013879044208148551 0 0.022387363479385025 -0.0012138577660882348 0 0.022590233169569388 -0.0013879044208148551 0 0.022648738973227247 -0.0012135070243197831 0 0.02276661132259631 -0.0013698140691228227 0 0.022590233169569388 -0.0013879044208148551 0 0.022648738973227247 -0.0012135070243197831 0 0.022387363479385025 -0.0012138577660882348 0 0.022648738973227247 -0.0012135070243197831 0 0.022583014936468283 -0.0010199481226339257 0 0.023061460876947437 -0.0010030579384881155 0 0.022894691454722196 -0.0011736048151046424 0 0.022583014936468283 -0.0010199481226339257 0 0.022648738973227247 -0.0012135070243197831 0 0.022894691454722196 -0.0011736048151046424 0 0.022583014936468283 -0.0010199481226339257 0 0.02276661132259631 -0.0013698140691228227 0 0.022648738973227247 -0.0012135070243197831 0 0.022894691454722196 -0.0011736048151046424 0 0.023061460876947437 -0.0010030579384881155 0 0.022583014936468283 -0.0010199481226339257 0 0.022327936609024379 -0.000699689785750514 0 0.023212827931754221 -0.00086785863577591466 0 0.022900423832782412 -0.00073372423334778288 0 0.022670364163084964 -0.00097355967293870436 0 0.022327936609024379 -0.000699689785750514 0 0.022599565261949842 -0.00065038340480840829 0 0.022168702888352824 -0.00094429663042258801 0 0.0219734450407808 -0.00075880459554148296 0 0.021950069016023751 -0.0011271365700166749 0 0.022168702888352824 -0.00094429663042258801 0 0.022327936609024379 -0.000699689785750514 0 0.0219734450407808 -0.00075880459554148296 0 0.022583014936468283 -0.0010199481226339257 0 0.022168702888352824 -0.00094429663042258801 0 0.022327936609024379 -0.000699689785750514 0 0.022327936609024379 -0.000699689785750514 0 0.021965166573780295 -0.00041445252729268 0 0.0219734450407808 -0.00075880459554148296 0 0.022296872409883595 -0.00031136458978421491 0 0.022327936609024379 -0.000699689785750514 0 0.021965166573780295 -0.00041445252729268 0 0.022296872409883595 -0.00031136458978421491 0 0.022638282035057418 -0.00028888511765754572 0 0.022599565261949842 -0.00065038340480840829 0 0.022296872409883595 -0.00031136458978421491 0 0.022327936609024379 -0.000699689785750514 0 0.022599565261949842 -0.00065038340480840829 0 0.021621438787326131 -0.00040353897226525816 0 0.021633348869295511 -0.00073483099106172228 0 0.021354847999904839 -0.00063773341280831501 0 0.021621438787326131 -0.00040353897226525816 0 0.021354847999904839 -0.00063773341280831501 0 0.021318447645246652 -0.00038740946277107273 0 0.021621438787326131 -0.00040353897226525816 0 0.021965166573780295 -0.00041445252729268 0 0.021633348869295511 -0.00073483099106172228 0 0.021965166573780295 -0.00041445252729268 0 0.0219734450407808 -0.00075880459554148296 0 0.021633348869295511 -0.00073483099106172228 0 0.0219734450407808 -0.00075880459554148296 0 0.021735603876916743 -0.00095584657424078881 0 0.021633348869295511 -0.00073483099106172228 0 0.0219734450407808 -0.00075880459554148296 0 0.021735603876916743 -0.00095584657424078881 0 0.021950069016023751 -0.0011271365700166749 0 0.021735603876916743 -0.00095584657424078881 0 0.021633348869295511 -0.00073483099106172228 0 0.021298396953456821 -0.00093796336595597266 0 0.021735603876916743 -0.00095584657424078881 0 0.021829177145457113 -0.0012191087475684275 0 0.021298396953456821 -0.00093796336595597266 0 0.022363553623492138 -0.0010356978467252176 0 0.022734850361124891 -0.00091255484660693288 0 0.021633348869295511 -0.00073483099106172228 0 0.021354847999904839 -0.00063773341280831501 0 0.021329214799445672 -0.00092050928578164197 0 0.026056164805923213 -0.0007066550863637749 0 0.026518176434006249 -0.00081025794250656877 0 0.025991496224554198 -0.00052461403136488342 0 0.026056164805923213 -0.0007066550863637749 0 0.026125980384432392 -0.00087313398019212972 0 0.026518176434006249 -0.00081025794250656877 0 0.026125980384432392 -0.00087313398019212972 0 0.026518176434006249 -0.00081025794250656877 0 0.02631852052336018 -0.0010739139067411944 0 0.023785027797553253 -0.0012629341186760211 0 0.022734850361124891 -0.00091255484660693288 0 0.021735603876916743 -0.00095584657424078881 0 0.021950069016023751 -0.0011271365700166749 0 0.021829177145457113 -0.0012191087475684275 0 0.026741087120246254 -0.0010965178238715669 0 0.026518176434006249 -0.00081025794250656877 0 0.02631852052336018 -0.0010739139067411944 0 0.026568886971298635 -0.0010097959224334421 0 0.026432493226447095 -0.00097258621098974109 0 0.026741087120246254 -0.0010965178238715669 0 0.02674426111579721 -0.0011130043445287735 0 0.026749005695733793 -0.0011161150111515235 0 0.026741087120246254 -0.0010965178238715669 0 0.026749005695733793 -0.0011161150111515235 0 0.026763927920931789 -0.0011241736230320938 0 0.026125980384432392 -0.00087313398019212972 0 0.02631852052336018 -0.0010739139067411944 0 0.025810092702223966 -0.0010185035179631678 0 0.026432493226447095 -0.00097258621098974109 0 0.026047636585897857 -0.00084854973009147554 0 0.02674426111579721 -0.0011130043445287735 0 0.026740948644376549 -0.0011266850913033289 0 0.026749005695733793 -0.0011161150111515235 0 0.02674426111579721 -0.0011130043445287735 0 0.026740948644376549 -0.0011266850913033289 0 0.026725258898152436 -0.0011209284867526174 0 0.026740948644376549 -0.0011266850913033289 0 0.026741288125142586 -0.0011545125600780661 0 0.026721415829412672 -0.0011379969190523961 0 0.026740948644376549 -0.0011266850913033289 0 0.026721415829412672 -0.0011379969190523961 0 0.026725258898152436 -0.0011209284867526174 0 0.026740948644376549 -0.0011266850913033289 0 0.026741288125142586 -0.0011545125600780661 0 0.02675578632227818 -0.0011338085809579157 0 0.026741288125142586 -0.0011545125600780661 0 0.026781721425924391 -0.0011584034621097232 0 0.02675578632227818 -0.0011338085809579157 0 0.026781721425924391 -0.0011584034621097232 0 0.026803298662754264 -0.001188916628534312 0 0.026753975212502449 -0.001182660033146405 0 0.026741288125142586 -0.0011545125600780661 0 0.026781721425924391 -0.0011584034621097232 0 0.026753975212502449 -0.001182660033146405 0 0.026781721425924391 -0.0011584034621097232 0 0.02675578632227818 -0.0011338085809579157 0 0.026763927920931789 -0.0011241736230320938 0 0.026740948644376549 -0.0011266850913033289 0 0.02675578632227818 -0.0011338085809579157 0 0.026749005695733793 -0.0011161150111515235 0 0.02675578632227818 -0.0011338085809579157 0 0.026749005695733793 -0.0011161150111515235 0 0.026763927920931789 -0.0011241736230320938 0 0.026741087120246254 -0.0010965178238715669 0 0.026763927920931789 -0.0011241736230320938 0 0.026817504514711901 -0.0011214650849395299 0 0.026781721425924391 -0.0011584034621097232 0 0.026763927920931789 -0.0011241736230320938 0 0.02680847927800678 -0.0011482076389173848 0 0.026763927920931789 -0.0011241736230320938 0 0.02680847927800678 -0.0011482076389173848 0 0.026817504514711901 -0.0011214650849395299 0 0.026817504514711901 -0.0011214650849395299 0 0.026841378660664276 -0.0011459155718551949 0 0.026864224164576015 -0.0011209262472177148 0 0.02680847927800678 -0.0011482076389173848 0 0.026817504514711901 -0.0011214650849395299 0 0.026841378660664276 -0.0011459155718551949 0 0.02680847927800678 -0.0011482076389173848 0 0.026841378660664276 -0.0011459155718551949 0 0.026834981726146217 -0.0011774884504292306 0 0.026781721425924391 -0.0011584034621097232 0 0.026834981726146217 -0.0011774884504292306 0 0.026803298662754264 -0.001188916628534312 0 0.026781721425924391 -0.0011584034621097232 0 0.02680847927800678 -0.0011482076389173848 0 0.026834981726146217 -0.0011774884504292306 0 0.026834981726146217 -0.0011774884504292306 0 0.026803298662754264 -0.001188916628534312 0 0.02682319652471566 -0.0011913827225534966 0 0.026803298662754264 -0.001188916628534312 0 0.026814917494405961 -0.0011865726737616091 0 0.02682319652471566 -0.0011913827225534966 0 0.026834981726146217 -0.0011774884504292306 0 0.02682319652471566 -0.0011913827225534966 0 0.026840999176086476 -0.0011888233465489647 0 0.02682319652471566 -0.0011913827225534966 0 0.026837477601875992 -0.0011985820974159339 0 0.026840999176086476 -0.0011888233465489647 0 0.029709489568530839 -0.0017919942531614138 0 0.030233568539368608 -0.0013279393249095576 0 0.030459847139387323 -0.0013800089417538627 0 0.028350862091117691 -0.0015255152372668575 0 0.029407845533345706 -0.00085983195393193879 0 0.02682319652471566 -0.0011913827225534966 0 0.026837477601875992 -0.0011985820974159339 0 0.026820353652627048 -0.0011944912664225847 0 0.030233568539368608 -0.0013279393249095576 0 0.029840471863631871 -0.0012985141009296079 0 0.030040954486425686 -0.001145303479328758 0 0.029709489568530839 -0.0017919942531614138 0 0.030233568539368608 -0.0013279393249095576 0 0.029840471863631871 -0.0012985141009296079 0 0.029709489568530839 -0.0017919942531614138 0 0.029840471863631871 -0.0012985141009296079 0 0.029506122257641852 -0.001248208121640639 0 0.026814917494405961 -0.0011865726737616091 0 0.02682319652471566 -0.0011913827225534966 0 0.026820353652627048 -0.0011944912664225847 0 0.026814917494405961 -0.0011865726737616091 0 0.026820353652627048 -0.0011944912664225847 0 0.026828501913268001 -0.0011766330209248583 0 0.029407845533345706 -0.00085983195393193879 0 0.030023099894073754 -0.00043109125600191301 0 0.030235035405620433 -0.00065551980342445904 0 0.029883204453707922 -0.0005712017548641893 0 0.030107070090912839 -0.00072579394162548491 0 0.029407845533345706 -0.00085983195393193879 0 0.0302786882486351 -0.00056693747005690323 0 0.029449099683183742 -0.00087246139556227038 0 0.029407845533345706 -0.00085983195393193879 0 0.030233568539368608 -0.0013279393249095576 0 0.030463271570136098 -0.0013795333705671816 0 0.03025807134107153 -0.0011137022032584936 0 0.030023099894073754 -0.00043109125600191301 0 0.0302786882486351 -0.00056693747005690323 0 0.031919834341034341 0.00019709031229434221 0 0.031905072252592252 0.00016903540654823035 0 0.031961705296817675 0.00016829240196630294 0 0.031919834341034341 0.00019709031229434221 0 0.031881983017818673 0.00018972157213600855 0 0.031860106677231888 0.00023594977333694063 0 0.031919834341034341 0.00019709031229434221 0 0.031881983017818673 0.00018972157213600855 0 0.031905072252592252 0.00016903540654823035 0 0.030023099894073754 -0.00043109125600191301 0 0.031405753075678972 -0.00019569834713582406 0 0.031881983017818673 0.00018972157213600855 0 0.03186488032307655 0.00016208015827240703 0 0.03185366878052396 0.00018786289575266506 0 0.026741288125142586 -0.0011545125600780661 0 0.026753975212502449 -0.001182660033146405 0 0.026726296608162697 -0.0011772612915697603 0 0.031823137501419595 0.00029942928183754845 0 0.031797376255627736 0.00034077469596299672 0 0.031792707040712118 0.00031574334094438341 0 0.030023099894073754 -0.00043109125600191301 0 0.029212805781241996 -0.00036886455209356737 0 0.026828501913268001 -0.0011766330209248583 0 0.026838656555649862 -0.0011965247341318101 0 0.026877141430456202 -0.001189799839766759 0 0.027647483426296787 -0.00067134986419852157 0 0.029212805781241996 -0.00036886455209356737 0 0.026803298662754264 -0.001188916628534312 0 0.026814917494405961 -0.0011865726737616091 0 0.026838656555649862 -0.0011965247341318101 0 0.026814917494405961 -0.0011865726737616091 0 0.026828501913268001 -0.0011766330209248583 0 0.026838656555649862 -0.0011965247341318101 0 0.027293831862349724 -0.00075490670641018118 0 0.027647483426296787 -0.00067134986419852157 0 0.025996489897879945 -0.0027333180402170157 0 0.025909228778229727 -0.0022161057821666885 0 0.025010445171953933 -0.0032486018198706287 0 0.025203971024349327 -0.0027416820478678322 0 0.025397754313908782 -0.0033441360110555919 0 0.025788635263268484 -0.0035923545933343524 0 0.025203971024349327 -0.0027416820478678322 0 0.025397754313908782 -0.0033441360110555919 0 0.025010445171953933 -0.0032486018198706287 0 0.025203971024349327 -0.0027416820478678322 0 0.024888646541100342 -0.0029294776301875851 0 0.025203971024349327 -0.0027416820478678322 0 0.024698968998207581 -0.0026276158861242025 0 0.024888646541100342 -0.0029294776301875851 0 0.026945966645322172 -0.0012132570679781239 0 0.027260814774251005 -0.00094049422272151706 0 0.026934413263405833 -0.00070863288013416385 0 0.027678198783022134 -0.0011994057354095939 0 0.026945966645322172 -0.0012132570679781239 0 0.027260814774251005 -0.00094049422272151706 0 0.026385302678333375 -0.00031843184590792909 0 0.026945966645322172 -0.0012132570679781239 0 0.026680884558097931 -0.00069370752384426257 0 0.025131569722447577 -0.0013533521758108253 0 0.025909228778229727 -0.0022161057821666885 0 0.026164322267002368 -0.0013638686262311085 0 0.026098431505876561 -0.0013514473757524909 0 0.025131569722447577 -0.0013533521758108253 0 0.026098431505876561 -0.0013514473757524909 0 0.026385302678333375 -0.00031843184590792909 0 0.026932311175070531 -0.00071055993277523025 0 0.026680884558097931 -0.00069370752384426257 0 0.026098431505876561 -0.0013514473757524909 0 0.026126694498787156 -0.0013453889401523517 0 0.026945966645322172 -0.0012132570679781239 0 0.026934413263405833 -0.00070863288013416385 0 0.026680884558097931 -0.00069370752384426257 0 0.024724235276039366 -0.0020109242630729387 0 0.023979728618385193 -0.0019114088196850001 0 0.024173443794450016 -0.0023392074570268576 0 0.024724235276039366 -0.0020109242630729387 0 0.025203971024349327 -0.0027416820478678322 0 0.024698968998207581 -0.0026276158861242025 0 0.024724235276039366 -0.0020109242630729387 0 0.024698968998207581 -0.0026276158861242025 0 0.024173443794450016 -0.0023392074570268576 0 0.024698968998207581 -0.0026276158861242025 0 0.024325846579654135 -0.0027719493372434455 0 0.024173443794450016 -0.0023392074570268576 0 0.024698968998207581 -0.0026276158861242025 0 0.024325846579654135 -0.0027719493372434455 0 0.024636516423116872 -0.0030961169773885007 0 0.024698968998207581 -0.0026276158861242025 0 0.024888646541100342 -0.0029294776301875851 0 0.024636516423116872 -0.0030961169773885007 0 0.025010445171953933 -0.0032486018198706287 0 0.024888646541100342 -0.0029294776301875851 0 0.024636516423116872 -0.0030961169773885007 0 0.024325846579654135 -0.0027719493372434455 0 0.024636516423116872 -0.0030961169773885007 0 0.024382699543095063 -0.0032403238689873277 0 0.025783105979326922 -0.0024429134137972149 0 0.025876805143734249 -0.0023907600002452093 0 0.024325846579654135 -0.0027719493372434455 0 0.024382699543095063 -0.0032403238689873277 0 0.023714634567558294 -0.0027161215388860219 0 0.025876805143734249 -0.0023907600002452093 0 0.02526365714364974 -0.0020422018961201876 0 0.026930488996427509 -0.0011934623915963618 0 0.026894920727717483 -0.0011575153083105867 0 0.026900267185161895 -0.0012094873127756511 0 0.026894920727717483 -0.0011575153083105867 0 0.026878813560780274 -0.001199475530275022 0 0.026900267185161895 -0.0012094873127756511 0 0.023591209941669272 -0.0020707818604040252 0 0.023714634567558294 -0.0027161215388860219 0 0.024173443794450016 -0.0023392074570268576 0 0.024325846579654135 -0.0027719493372434455 0 0.023714634567558294 -0.0027161215388860219 0 0.024173443794450016 -0.0023392074570268576 0 0.023979728618385193 -0.0019114088196850001 0 0.023591209941669272 -0.0020707818604040252 0 0.024173443794450016 -0.0023392074570268576 0 0.023591209941669272 -0.0020707818604040252 0 0.023714634567558294 -0.0027161215388860219 0 0.023066424099811817 -0.0021927499054163026 0 0.026841378660664276 -0.0011459155718551949 0 0.026894920727717483 -0.0011575153083105867 0 0.026864224164576015 -0.0011209262472177148 0 0.02526365714364974 -0.0020422018961201876 0 0.024687335945596911 -0.0017779302867740497 0 0.026841378660664276 -0.0011459155718551949 0 0.026834981726146217 -0.0011774884504292306 0 0.026894920727717483 -0.0011575153083105867 0 0.026834981726146217 -0.0011774884504292306 0 0.026894920727717483 -0.0011575153083105867 0 0.026878813560780274 -0.001199475530275022 0 0.026901802180089276 -0.0018942867594443228 0 0.02708659088283933 -0.0020773842837975951 0 0.026834981726146217 -0.0011774884504292306 0 0.026840999176086476 -0.0011888233465489647 0 0.026852098223563388 -0.0011852086750144721 0 0.026837477601875992 -0.0011985820974159339 0 0.026840999176086476 -0.0011888233465489647 0 0.026856878936200524 -0.0011926062266928419 0 0.028350862091117691 -0.0015255152372668575 0 0.027368267357173192 -0.0021736176667909906 0 0.027138937217231079 -0.0021169621280411276 0 0.027347140803063184 -0.0024547256575282359 0 0.027621497628541831 -0.0023031781658264289 0 0.026840999176086476 -0.0011888233465489647 0 0.026852098223563388 -0.0011852086750144721 0 0.026856878936200524 -0.0011926062266928419 0 0.02708659088283933 -0.0020773842837975951 0 0.026899639456143848 -0.0022558781602503258 0 0.02708659088283933 -0.0020773842837975951 0 0.027368267357173192 -0.0021736176667909906 0 0.029709489568530839 -0.0017919942531614138 0 0.028967406509456249 -0.0021995460190478966 0 0.029153556500327971 -0.0014119418941487673 0 0.029709489568530839 -0.0017919942531614138 0 0.029506122257641852 -0.001248208121640639 0 0.029153556500327971 -0.0014119418941487673 0 0.028967406509456249 -0.0021995460190478966 0 0.029153556500327971 -0.0014119418941487673 0 0.028531403742625076 -0.0015633615836362217 0 0.027368267357173192 -0.0021736176667909906 0 0.027839890108401998 -0.002270454782744789 0 0.029153556500327971 -0.0014119418941487673 0 0.028531403742625076 -0.0015633615836362217 0 0.028767904025834557 -0.00086846464850024547 0 0.027839890108401998 -0.002270454782744789 0 0.02828393403101951 -0.0020977481920433734 0 0.026899639456143848 -0.0022558781602503258 0 0.026463554789121671 -0.002643805465619751 0 0.026560562732792732 -0.0038526077048156122 0 0.026649580773007824 -0.004170868462845906 0 0.026274973006689926 -0.0040353206270626546 0 0.026745442218845377 -0.0041171253212816073 0 0.026560562732792732 -0.0038526077048156122 0 0.026649580773007824 -0.004170868462845906 0 0.027368267357173192 -0.0021736176667909906 0 0.026899639456143848 -0.0022558781602503258 0 0.025876805143734249 -0.0023907600002452093 0 0.026899639456143848 -0.0022558781602503258 0 0.026144701848370474 -0.002496381629472872 0 0.026099075093486756 -0.0025214251101343937 0 0.026168372698029772 -0.0025504124356648989 0 0.025876805143734249 -0.0023907600002452093 0 0.025940381029246864 -0.0026282013917993939 0 0.024636516423116872 -0.0030961169773885007 0 0.024423029257907514 -0.0032141369464687105 0 0.024968085576390547 -0.0036046007660994399 0 0.025010445171953933 -0.0032486018198706287 0 0.024636516423116872 -0.0030961169773885007 0 0.024968085576390547 -0.0036046007660994399 0 0.026144701848370474 -0.002496381629472872 0 0.026168372698029772 -0.0025504124356648989 0 0.026191518719292123 -0.0025378040701503103 0 0.026560562732792732 -0.0038526077048156122 0 0.026274973006689926 -0.0040353206270626546 0 0.026330480581893162 -0.0037960856718072728 0 0.026560562732792732 -0.0038526077048156122 0 0.026330480581893162 -0.0037960856718072728 0 0.026374364196515607 -0.0035806383676785071 0 0.026330480581893162 -0.0037960856718072728 0 0.02612093403396766 -0.0038384414541818858 0 0.026058544723703121 -0.0036112903788267864 0 0.026274973006689926 -0.0040353206270626546 0 0.026330480581893162 -0.0037960856718072728 0 0.02612093403396766 -0.0038384414541818858 0 0.026463554789121671 -0.002643805465619751 0 0.026121121866248046 -0.0027673411881469876 0 0.026121121866248046 -0.0027673411881469876 0 0.025940381029246864 -0.0026282013917993939 0 0.026274973006689926 -0.0040353206270626546 0 0.02612093403396766 -0.0038384414541818858 0 0.025886979024357076 -0.003901097283233455 0 0.02612093403396766 -0.0038384414541818858 0 0.025906822243319257 -0.0037670159948991516 0 0.026058544723703121 -0.0036112903788267864 0 0.02612093403396766 -0.0038384414541818858 0 0.025906822243319257 -0.0037670159948991516 0 0.025886979024357076 -0.003901097283233455 0 0.026168372698029772 -0.0025504124356648989 0 0.026238001758082947 -0.0025798066744285911 0 0.026191518719292123 -0.0025378040701503103 0 0.025467106238193808 -0.0039141104703709299 0 0.024968085576390547 -0.0036046007660994399 0 0.025397754313908782 -0.0033441360110555919 0 0.025010445171953933 -0.0032486018198706287 0 0.024968085576390547 -0.0036046007660994399 0 0.025397754313908782 -0.0033441360110555919 0 0.028721064903114792 -0.0020529969833963063 0 0.028709317920965718 -0.0017018606163690356 0 0.030847186672106622 -0.001186383748966263 0 0.030598024881759871 -0.0010962243408432152 0 0.03079072369856482 -0.0013666820958339457 0 0.028709317920965718 -0.0017018606163690356 0 0.029254726787867742 -0.0018559256174186898 0 0.030591495274430683 -0.0010834777540733398 0 0.030616875698599021 -0.0012513294384037948 0 0.03079072369856482 -0.0013666820958339457 0 0.030868487148933279 -0.0010043065994005821 0 0.030847186672106622 -0.001186383748966263 0 0.030598024881759871 -0.0010962243408432152 0 0.026560395142493181 -0.0026904536437017514 0 0.02695115844992298 -0.0025519388459071296 0 0.025879946682951484 -0.0034307801273670809 0 0.026176171541847079 -0.0036269255796338609 0 0.026396285964979112 -0.003233879382989652 0 0.025746940508275744 -0.0036507835987910123 0 0.025879946682951484 -0.0034307801273670809 0 0.026176171541847079 -0.0036269255796338609 0 0.025746940508275744 -0.0036507835987910123 0 0.025906822243319257 -0.0037670159948991516 0 0.026058544723703121 -0.0036112903788267864 0 0.02695115844992298 -0.0025519388459071296 0 0.02828393403101951 -0.0020977481920433734 0 0.026330480581893162 -0.0037960856718072728 0 0.026058544723703121 -0.0036112903788267864 0 0.026374364196515607 -0.0035806383676785071 0 0.02828393403101951 -0.0020977481920433734 0 0.028709317920965718 -0.0017018606163690356 0 0.026176171541847079 -0.0036269255796338609 0 0.026641664359154878 -0.0035835569020228417 0 0.026396285964979112 -0.003233879382989652 0 0.030461390885717483 -0.00090068922484235511 0 0.030527587443506223 -0.0011061263364963913 0 0.030378322820951598 -0.001039335751864618 0 0.030527587443506223 -0.0011061263364963913 0 0.030413032038138332 -0.0011646969634127814 0 0.030378322820951598 -0.001039335751864618 0 0.030413032038138332 -0.0011646969634127814 0 0.030283383942839581 -0.001171453466895807 0 0.030556778976673506 -0.0014086598944715184 0 0.030461390885717483 -0.00090068922484235511 0 0.030589061907335232 -0.0010844448375208835 0 0.030527587443506223 -0.0011061263364963913 0 0.028709317920965718 -0.0017018606163690356 0 0.028769978214310207 -0.0016809090400110203 0 0.030527587443506223 -0.0011061263364963913 0 0.030528591874908688 -0.0012326198842612208 0 0.030616875698599021 -0.0012513294384037948 0 0.030591495274430683 -0.0010834777540733398 0 0.030527587443506223 -0.0011061263364963913 0 0.030616875698599021 -0.0012513294384037948 0 0.030527587443506223 -0.0011061263364963913 0 0.030528591874908688 -0.0012326198842612208 0 0.030413032038138332 -0.0011646969634127814 0 0.030283383942839581 -0.001171453466895807 0 0.030378322820951598 -0.001039335751864618 0 0.030238895206514672 -0.00092013094714345266 0 0.030413032038138332 -0.0011646969634127814 0 0.030283383942839581 -0.001171453466895807 0 0.030378322820951598 -0.001039335751864618 0 0.028531403742625076 -0.0015633615836362217 0 0.028096181175339713 -0.00093218202419353307 0 0.028767904025834557 -0.00086846464850024547 0 0.030461390885717483 -0.00090068922484235511 0 0.030378322820951598 -0.001039335751864618 0 0.030238895206514672 -0.00092013094714345266 0 0.02828393403101951 -0.0020977481920433734 0 0.029521153358524389 -0.0015214496451849691 0 0.029521153358524389 -0.0015214496451849691 0 0.030733426420094422 -0.0010746669192345647 0 0.030283383942839581 -0.001171453466895807 0 0.030238895206514672 -0.00092013094714345266 0 0.030017416697635305 -0.00093931326833016841 0 0.029153556500327971 -0.0014119418941487673 0 0.028767904025834557 -0.00086846464850024547 0 0.029443740084842848 -0.00080220421644876987 0 0.029506122257641852 -0.001248208121640639 0 0.029611066294497706 -0.00094372986343664123 0 0.029443740084842848 -0.00080220421644876987 0 0.029506122257641852 -0.001248208121640639 0 0.029153556500327971 -0.0014119418941487673 0 0.029443740084842848 -0.00080220421644876987 0 0.030698298535333395 -0.0010530688653832224 0 0.030733426420094422 -0.0010746669192345647 0 0.032076200569820565 -0.00075598584427659843 0 0.032065592447368195 -0.00078747181047508514 0 0.0319619516372735 -0.0007331632423001359 0 0.03295428783954403 -0.00082700774179607676 0 0.032950527306872888 -0.00071360339793563295 0 0.031326528671173963 -0.00092779716394306795 0 0.030733426420094422 -0.0010746669192345647 0 0.034968699710605629 0.00011068026223393634 0 0.035034035388338568 4.5007597128523627e-05 0 0.034930462824711565 0.00016557154505027988 0 0.032076200569820565 -0.00075598584427659843 0 0.031982300425091162 -0.0006720604689979925 0 0.0319619516372735 -0.0007331632423001359 0 0.034968699710605629 0.00011068026223393634 0 0.035001320572027983 3.9080092084862439e-05 0 0.03498639347741446 3.8868940454875394e-05 0 0.034968699710605629 0.00011068026223393634 0 0.035001320572027983 3.9080092084862439e-05 0 0.035034035388338568 4.5007597128523627e-05 0 0.035001320572027983 3.9080092084862439e-05 0 0.035000046714659915 8.5750739459152385e-08 0 0.03498639347741446 3.8868940454875394e-05 0 0.035001320572027983 3.9080092084862439e-05 0 0.035000046714659915 8.5750739459152385e-08 0 0.035013854129500761 1.8005967764949352e-05 0 0.035000046714659915 8.5750739459152385e-08 0 0.035013854129500761 1.8005967764949352e-05 0 0.035000055435048867 -1.8182463183327413e-08 0 0.03295428783954403 -0.00082700774179607676 0 0.032151343276202074 -0.00089453299169687205 0 0.035013854129500761 1.8005967764949352e-05 0 0.035034035388338568 4.5007597128523627e-05 0 0.035009507041982045 1.2113853131533225e-05 0 0.032076200569820565 -0.00075598584427659843 0 0.032065592447368195 -0.00078747181047508514 0 0.032170282426167852 -0.00084286930740290489 0 0.035001320572027983 3.9080092084862439e-05 0 0.035013854129500761 1.8005967764949352e-05 0 0.035034035388338568 4.5007597128523627e-05 0 0.030528591874908688 -0.0012326198842612208 0 0.030413032038138332 -0.0011646969634127814 0 0.030556778976673506 -0.0014086598944715184 0 0.031326528671173963 -0.00092779716394306795 0 0.032151343276202074 -0.00089453299169687205 0 0.030528591874908688 -0.0012326198842612208 0 0.030616875698599021 -0.0012513294384037948 0 0.030556778976673506 -0.0014086598944715184 0 0.035000055435048867 -1.8182463183327413e-08 0 0.035006365968840693 3.596695456333802e-06 0 0.034999883391983087 5.6523756438599171e-08 0 0.035013854129500761 1.8005967764949352e-05 0 0.035009507041982045 1.2113853131533225e-05 0 0.035006365968840693 3.596695456333802e-06 0 0.035013854129500761 1.8005967764949352e-05 0 0.035000055435048867 -1.8182463183327413e-08 0 0.035006365968840693 3.596695456333802e-06 0 0.035009507041982045 1.2113853131533225e-05 0 0.035006365968840693 3.596695456333802e-06 0 0.035007960266810079 -2.1393470263688813e-06 0 0.030613007745225386 -0.0014276339016369754 0 0.030740645695283196 -0.0015496030659373082 0 0.030771871630598167 -0.0015091480393135998 0 0.035006365968840693 3.596695456333802e-06 0 0.035007960266810079 -2.1393470263688813e-06 0 0.034999883391983087 5.6523756438599171e-08 0 0.030903152965143989 -0.0016963935039775223 0 0.030740645695283196 -0.0015496030659373082 0 0.03085899194573612 -0.0015421452484237338 0 0.032476378142234537 -0.00058893657869909979 0 0.032436621451595538 -0.000806825661609719 0 0.034962767350823792 -7.1509403213827579e-08 0 0.035007960266810079 -2.1393470263688813e-06 0 0.034999883391983087 5.6523756438599171e-08 0 0.030740645695283196 -0.0015496030659373082 0 0.03085899194573612 -0.0015421452484237338 0 0.030771871630598167 -0.0015091480393135998 0 0.030876742319294603 -0.0014506858881140827 0 0.03085899194573612 -0.0015421452484237338 0 0.030771871630598167 -0.0015091480393135998 0 0.030616875698599021 -0.0012513294384037948 0 0.030556778976673506 -0.0014086598944715184 0 0.03079072369856482 -0.0013666820958339457 0 0.030556778976673506 -0.0014086598944715184 0 0.030771871630598167 -0.0015091480393135998 0 0.03079072369856482 -0.0013666820958339457 0 0.030876742319294603 -0.0014506858881140827 0 0.030771871630598167 -0.0015091480393135998 0 0.03079072369856482 -0.0013666820958339457 0 0.032151343276202074 -0.00089453299169687205 0 0.031802834291520699 -0.00084833962979783762 0 0.032151343276202074 -0.00089453299169687205 0 0.032436621451595538 -0.000806825661609719 0 0.030953413048501369 -0.0013237916461674331 0 0.030847186672106622 -0.001186383748966263 0 0.03079072369856482 -0.0013666820958339457 0 0.034328942186965736 0.00020443367026220399 0 0.034114488901622338 0.00040148675070042614 0 0.034378701878048361 0.00038983165208142444 0 0.034328942186965736 0.00020443367026220399 0 0.034378701878048361 0.00038983165208142444 0 0.03453393780916373 0.0002444586555593803 0 0.034328942186965736 0.00020443367026220399 0 0.034118248019580577 0.00015894768558511686 0 0.034191465715825146 -2.5083214341180882e-05 0 0.034118248019580577 0.00015894768558511686 0 0.034114488901622338 0.00040148675070042614 0 0.03388967434918156 0.00011569167565315726 0 0.034328942186965736 0.00020443367026220399 0 0.034118248019580577 0.00015894768558511686 0 0.034114488901622338 0.00040148675070042614 0 0.031892149347113902 0.00012469379044603159 0 0.03186488032307655 0.00016208015827240703 0 0.031830486656962462 0.00014664086642075973 0 0.031881983017818673 0.00018972157213600855 0 0.03186488032307655 0.00016208015827240703 0 0.031905072252592252 0.00016903540654823035 0 0.031892149347113902 0.00012469379044603159 0 0.03186488032307655 0.00016208015827240703 0 0.031905072252592252 0.00016903540654823035 0 0.032023354652750718 -0.00053830181013322541 0 0.031286074618576798 -0.00060758027490224412 0 0.030850575085235941 -0.0011882131568064977 0 0.032526263129528436 -4.4695829215669394e-05 0 0.0302786882486351 -0.00056693747005690323 0 0.032526263129528436 -4.4695829215669394e-05 0 0.032559814820225727 -0.000301370856850201 0 0.031892149347113902 0.00012469379044603159 0 0.031905072252592252 0.00016903540654823035 0 0.031961705296817675 0.00016829240196630294 0 0.0302786882486351 -0.00056693747005690323 0 0.030333178132514734 -0.00061243252324311582 0 0.031286074618576798 -0.00060758027490224412 0 0.030850575085235941 -0.0011882131568064977 0 0.030550347975809862 -0.00068220946195151711 0 0.032559814820225727 -0.000301370856850201 0 0.032341036834243275 -0.00061565726965679042 0 0.034378701878048361 0.00038983165208142444 0 0.034630917991651147 0.00038052209526691859 0 0.03453393780916373 0.0002444586555593803 0 0.030463271570136098 -0.0013795333705671816 0 0.030481721988908986 -0.00093658399563512258 0 0.03025807134107153 -0.0011137022032584936 0 0.030850575085235941 -0.0011882131568064977 0 0.030481721988908986 -0.00093658399563512258 0 0.030550347975809862 -0.00068220946195151711 0 0.030463271570136098 -0.0013795333705671816 0 0.030830811084482431 -0.0011750112755027639 0 0.030481721988908986 -0.00093658399563512258 0 0.030481721988908986 -0.00093658399563512258 0 0.030550347975809862 -0.00068220946195151711 0 0.030045710237716142 -0.00093855023360890578 0 0.029440195684517372 -0.00079946081590951876 0 0.030550347975809862 -0.00068220946195151711 0 0.030045710237716142 -0.00093855023360890578 0 0.030733426420094422 -0.0010746669192345647 0 0.032341036834243275 -0.00061565726965679042 0 0.031982300425091162 -0.0006720604689979925 0 0.031860340443452734 -0.00068040628346118339 0 0.0319619516372735 -0.0007331632423001359 0 0.029611066294497706 -0.00094372986343664123 0 0.029813806954670393 -0.0010957992989922237 0 0.030045710237716142 -0.00093855023360890578 0 0.029611066294497706 -0.00094372986343664123 0 0.029440195684517372 -0.00079946081590951876 0 0.030045710237716142 -0.00093855023360890578 0 0.029840471863631871 -0.0012985141009296079 0 0.029506122257641852 -0.001248208121640639 0 0.029813806954670393 -0.0010957992989922237 0 0.029506122257641852 -0.001248208121640639 0 0.029611066294497706 -0.00094372986343664123 0 0.029813806954670393 -0.0010957992989922237 0 0.029840471863631871 -0.0012985141009296079 0 0.029813806954670393 -0.0010957992989922237 0 0.030040954486425686 -0.001145303479328758 0 0.030481721988908986 -0.00093658399563512258 0 0.030045710237716142 -0.00093855023360890578 0 0.03025807134107153 -0.0011137022032584936 0 0.029813806954670393 -0.0010957992989922237 0 0.030045710237716142 -0.00093855023360890578 0 0.030040954486425686 -0.001145303479328758 0 0.030045710237716142 -0.00093855023360890578 0 0.030040954486425686 -0.001145303479328758 0 0.03025807134107153 -0.0011137022032584936 0 0.030233568539368608 -0.0013279393249095576 0 0.030040954486425686 -0.001145303479328758 0 0.03025807134107153 -0.0011137022032584936 0 0.034853989291837896 0.00010234130399141495 0 0.034719764339400896 7.5643260094679078e-05 0 0.034968699710605629 0.00011068026223393634 0 0.034746145388286236 0.0001859343954155544 0 0.034629217700995592 6.356545933182692e-05 0 0.034968699710605629 0.00011068026223393634 0 0.034930462824711565 0.00016557154505027988 0 0.034746145388286236 0.0001859343954155544 0 0.032341036834243275 -0.00061565726965679042 0 0.032950527306872888 -0.00071360339793563295 0 0.034630917991651147 0.00038052209526691859 0 0.034930462824711565 0.00016557154505027988 0 0.034746145388286236 0.0001859343954155544 0 0.034328942186965736 0.00020443367026220399 0 0.03453393780916373 0.0002444586555593803 0 0.034629217700995592 6.356545933182692e-05 0 0.034630917991651147 0.00038052209526691859 0 0.034746145388286236 0.0001859343954155544 0 0.03453393780916373 0.0002444586555593803 0 0.034746145388286236 0.0001859343954155544 0 0.03453393780916373 0.0002444586555593803 0 0.034629217700995592 6.356545933182692e-05 0 0.034939144005207416 3.0486669863070509e-05 0 0.034973356588138334 8.7075393207341594e-05 0 0.03498639347741446 3.8868940454875394e-05 0 0.034968699710605629 0.00011068026223393634 0 0.034973356588138334 8.7075393207341594e-05 0 0.03498639347741446 3.8868940454875394e-05 0 0.035000046714659915 8.5750739459152385e-08 0 0.03498639347741446 3.8868940454875394e-05 0 0.034999746745563894 -2.0595609784130603e-07 0 0.034939144005207416 3.0486669863070509e-05 0 0.03498639347741446 3.8868940454875394e-05 0 0.034999746745563894 -2.0595609784130603e-07 0 0.034999999935007513 -7.900739106311306e-11 0 0.034999856294887707 -1.6181345886327011e-07 0 0.034999999321689512 -5.2530018875043042e-10 0 0.034999761621008901 -1.7085890921504467e-07 0 0.03474859516972309 -7.688092116879937e-05 0 0.034999746745563894 -2.0595609784130603e-07 0 0.034799300419849501 -4.2504424753804874e-05 0 0.034755958508244506 -9.9739142757624449e-05 0 0.034939144005207416 3.0486669863070509e-05 0 0.034999746745563894 -2.0595609784130603e-07 0 0.034799300419849501 -4.2504424753804874e-05 0 0.034939144005207416 3.0486669863070509e-05 0 0.034973356588138334 8.7075393207341594e-05 0 0.03474229188766069 0.00014760141237826909 0 0.034719764339400896 7.5643260094679078e-05 0 0.034399151092927245 1.0213865717513769e-05 0 0.034328942186965736 0.00020443367026220399 0 0.034629217700995592 6.356545933182692e-05 0 0.034191465715825146 -2.5083214341180882e-05 0 0.034939144005207416 3.0486669863070509e-05 0 0.034799300419849501 -4.2504424753804874e-05 0 0.03474229188766069 0.00014760141237826909 0 0.033975588478967811 2.5135342966387934e-05 0 0.034191465715825146 -2.5083214341180882e-05 0 0.033697350185116721 -0.00016798468537688931 0 0.034799300419849501 -4.2504424753804874e-05 0 0.03474229188766069 0.00014760141237826909 0 0.034205230385813898 -0.00030719590856321518 0 0.034399151092927245 1.0213865717513769e-05 0 0.034110561631847919 -5.8200928182495644e-05 0 0.03474229188766069 0.00014760141237826909 0 0.034205230385813898 -0.00030719590856321518 0 0.033697350185116721 -0.00016798468537688931 0 0.034118248019580577 0.00015894768558511686 0 0.033975588478967811 2.5135342966387934e-05 0 0.03388967434918156 0.00011569167565315726 0 0.034118248019580577 0.00015894768558511686 0 0.033975588478967811 2.5135342966387934e-05 0 0.034191465715825146 -2.5083214341180882e-05 0 0.034400651061133027 -9.9662234465918586e-05 0 0.034288758876122656 -0.00011090110085242545 0 0.034999856294887707 -1.6181345886327011e-07 0 0.034999999321689512 -5.2530018875043042e-10 0 0.034999998119538842 -4.4931742893781844e-10 0 0.034799300419849501 -4.2504424753804874e-05 0 0.034755958508244506 -9.9739142757624449e-05 0 0.034684674533150842 -5.214779806187923e-05 0 0.034999856294887707 -1.6181345886327011e-07 0 0.034999998119538842 -4.4931742893781844e-10 0 0.034999370491898843 -2.4071369261581015e-07 0 0.03474859516972309 -7.688092116879937e-05 0 0.034067064209060187 -0.00011787498684450401 0 0.034205230385813898 -0.00030719590856321518 0 0.033553993877691569 -0.00042530617254265217 0 0.033697350185116721 -0.00016798468537688931 0 0.034288758876122656 -0.00011090110085242545 0 0.034067064209060187 -0.00011787498684450401 0 0.034755958508244506 -9.9739142757624449e-05 0 0.034684674533150842 -5.214779806187923e-05 0 0.034565252773178935 -6.7588028545239039e-05 0 0.034067064209060187 -0.00011787498684450401 0 0.034143770166708061 -8.5505985515437665e-05 0 0.034999998119538842 -4.4931742893781844e-10 0 0.034999370491898843 -2.4071369261581015e-07 0 0.034999998291706233 5.1860603043124869e-11 0 0.033553993877691569 -0.00042530617254265217 0 0.033302581045209702 -0.00014261971499361965 0 0.033054945420408717 -0.00035947400725923448 0 0.032597932975968753 -0.00031166830475988435 0 0.032740506575055034 -0.00028436551665842299 0 0.032816446523852308 -0.00016007525304356532 0 0.034067064209060187 -0.00011787498684450401 0 0.033394478265276945 -9.3812691876527589e-05 0 0.033176166861016251 9.5836478648745404e-05 0 0.032904743673138392 9.2613939121857349e-05 0 0.032759141239494569 -0.00015690273191264694 0 0.033142040959254764 0.00015842190460600955 0 0.032983768361361118 3.9340847660180647e-05 0 0.033302581045209702 -0.00014261971499361965 0 0.033588924629298758 0.00022876354770279457 0 0.032759141239494569 -0.00015690273191264694 0 0.033553993877691569 -0.00042530617254265217 0 0.033302581045209702 -0.00014261971499361965 0 0.03356384697670154 -6.7579956779215952e-05 0 0.033302581045209702 -0.00014261971499361965 0 0.03356384697670154 -6.7579956779215952e-05 0 0.033588924629298758 0.00022876354770279457 0 0.033553993877691569 -0.00042530617254265217 0 0.03356384697670154 -6.7579956779215952e-05 0 0.033697350185116721 -0.00016798468537688931 0 0.03356384697670154 -6.7579956779215952e-05 0 0.033697350185116721 -0.00016798468537688931 0 0.033686085431725875 3.4466685014918688e-05 0 0.03356384697670154 -6.7579956779215952e-05 0 0.033686085431725875 3.4466685014918688e-05 0 0.033588924629298758 0.00022876354770279457 0 0.033686085431725875 3.4466685014918688e-05 0 0.03388967434918156 0.00011569167565315726 0 0.033588924629298758 0.00022876354770279457 0 0.033697350185116721 -0.00016798468537688931 0 0.033686085431725875 3.4466685014918688e-05 0 0.03388967434918156 0.00011569167565315726 0 0.033975588478967811 2.5135342966387934e-05 0 0.033697350185116721 -0.00016798468537688931 0 0.03388967434918156 0.00011569167565315726 0 0.032526263129528436 -4.4695829215669394e-05 0 0.033142040959254764 0.00015842190460600955 0 0.034114488901622338 0.00040148675070042614 0 0.03388967434918156 0.00011569167565315726 0 0.033588924629298758 0.00022876354770279457 0 0.032526263129528436 -4.4695829215669394e-05 0 0.032504111946691061 8.4484190826280775e-05 0 0.033596733684637059 0.00033114299356234864 0 0.033218647789624196 0.00029815751487848545 0 0.033176166861016251 9.5836478648745404e-05 0 0.032504111946691061 8.4484190826280775e-05 0 0.0323928673002419 0.00014011806771522088 0 0.033218647789624196 0.00029815751487848545 0 0.033176166861016251 9.5836478648745404e-05 0 0.032904743673138392 9.2613939121857349e-05 0 0.033218647789624196 0.00029815751487848545 0 0.032825358069708002 0.00028530917795916772 0 0.032904743673138392 9.2613939121857349e-05 0 0.031789345390300462 0.00012333925583580825 0 0.031795078140704106 9.3624226367891659e-05 0 0.031872149652513865 0.0002202685879225307 0 0.031795927723308109 0.000136061187490098 0 0.031789345390300462 0.00012333925583580825 0 0.031872149652513865 0.0002202685879225307 0 0.031789345390300462 0.00012333925583580825 0 0.031795078140704106 9.3624226367891659e-05 0 0.031762380310234893 0.00016503274866072769 0 0.031892149347113902 0.00012469379044603159 0 0.031795927723308109 0.000136061187490098 0 0.031830486656962462 0.00014664086642075973 0 0.031789345390300462 0.00012333925583580825 0 0.03183145362178811 0.00016323884778992307 0 0.031823447590960431 0.00019256733081703502 0 0.031789345390300462 0.00012333925583580825 0 0.03183145362178811 0.00016323884778992307 0 0.031830486656962462 0.00014664086642075973 0 0.03186488032307655 0.00016208015827240703 0 0.03183145362178811 0.00016323884778992307 0 0.03185366878052396 0.00018786289575266506 0 0.03186488032307655 0.00016208015827240703 0 0.03183145362178811 0.00016323884778992307 0 0.031830486656962462 0.00014664086642075973 0 0.031795927723308109 0.000136061187490098 0 0.031789345390300462 0.00012333925583580825 0 0.031830486656962462 0.00014664086642075973 0 0.031319466921800182 -8.0708088374912274e-05 0 0.031190002515410944 0.00011018581436923961 0 0.031366736029659462 0.00015939784435352268 0 0.032227389175748175 0.00015971927071060208 0 0.031795078140704106 9.3624226367891659e-05 0 0.031872149652513865 0.0002202685879225307 0 0.031319466921800182 -8.0708088374912274e-05 0 0.031795078140704106 9.3624226367891659e-05 0 0.031592859224988355 0.00017833683111833314 0 0.03160672071751864 0.0001074713248640008 0 0.031700142039791018 0.00010435891705815717 0 0.032825358069708002 0.00028530917795916772 0 0.032693809546874932 8.6565326723507822e-05 0 0.032255926074897315 0.00020720199708174701 0 0.032825358069708002 0.00028530917795916772 0 0.032904743673138392 9.2613939121857349e-05 0 0.032693809546874932 8.6565326723507822e-05 0 0.032904743673138392 9.2613939121857349e-05 0 0.032693809546874932 8.6565326723507822e-05 0 0.032697563975627612 -2.2233822274167469e-05 0 0.032227389175748175 0.00015971927071060208 0 0.031872149652513865 0.0002202685879225307 0 0.032255926074897315 0.00020720199708174701 0 0.032693809546874932 8.6565326723507822e-05 0 0.032255926074897315 0.00020720199708174701 0 0.032499564422396106 -1.8511026073433613e-05 0 0.0323928673002419 0.00014011806771522088 0 0.032334207720669667 0.00015234525434638832 0 0.032255926074897315 0.00020720199708174701 0 0.032499564422396106 -1.8511026073433613e-05 0 0.03225974659515575 -8.4945832210897482e-06 0 0.032449494896452429 -0.00013859294690560711 0 0.032616452369377942 -0.0002361142220253944 0 0.032267134205315698 -0.00031547596943393326 0 0.032499564422396106 -1.8511026073433613e-05 0 0.032449494896452429 -0.00013859294690560711 0 0.03225974659515575 -8.4945832210897482e-06 0 0.032499564422396106 -1.8511026073433613e-05 0 0.032605882410451717 -0.00012117714397008697 0 0.032697563975627612 -2.2233822274167469e-05 0 0.032499564422396106 -1.8511026073433613e-05 0 0.032605882410451717 -0.00012117714397008697 0 0.032449494896452429 -0.00013859294690560711 0 0.032605882410451717 -0.00012117714397008697 0 0.032449494896452429 -0.00013859294690560711 0 0.032616452369377942 -0.0002361142220253944 0 0.032449494896452429 -0.00013859294690560711 0 0.032267134205315698 -0.00031547596943393326 0 0.03225974659515575 -8.4945832210897482e-06 0 0.033302581045209702 -0.00014261971499361965 0 0.032759141239494569 -0.00015690273191264694 0 0.033054945420408717 -0.00035947400725923448 0 0.032904743673138392 9.2613939121857349e-05 0 0.032697563975627612 -2.2233822274167469e-05 0 0.032759141239494569 -0.00015690273191264694 0 0.032693809546874932 8.6565326723507822e-05 0 0.032499564422396106 -1.8511026073433613e-05 0 0.032697563975627612 -2.2233822274167469e-05 0 0.032605882410451717 -0.00012117714397008697 0 0.032697563975627612 -2.2233822274167469e-05 0 0.032759141239494569 -0.00015690273191264694 0 0.032605882410451717 -0.00012117714397008697 0 0.032759141239494569 -0.00015690273191264694 0 0.032616452369377942 -0.0002361142220253944 0 0.034999370491898843 -2.4071369261581015e-07 0 0.034999998291706233 5.1860603043124869e-11 0 0.034999584041257914 1.4450897955008052e-08 0 0.032759141239494569 -0.00015690273191264694 0 0.033054945420408717 -0.00035947400725923448 0 0.032616452369377942 -0.0002361142220253944 0 0.033394478265276945 -9.3812691876527589e-05 0 0.033186102492080143 -8.5118050686279928e-05 0 0.032740506575055034 -0.00028436551665842299 0 0.032757667281849805 -0.00026646854090527723 0 0.032616452369377942 -0.0002361142220253944 0 0.032740506575055034 -0.00028436551665842299 0 0.032757667281849805 -0.00026646854090527723 0 0.032816446523852308 -0.00016007525304356532 0 0.032921082608717574 -0.00024790348388361867 0 0.033042532251752056 -0.00025695025663022866 0 0.034999584041257914 1.4450897955008052e-08 0 0.034999998969099951 3.7353531801797203e-10 0 0.034999877005959516 7.2238062693327187e-08 0 0.032757667281849805 -0.00026646854090527723 0 0.032616452369377942 -0.0002361142220253944 0 0.032267134205315698 -0.00031547596943393326 0 0.032757667281849805 -0.00026646854090527723 0 0.032816446523852308 -0.00016007525304356532 0 0.034206921626883498 -0.00040402166029970669 0 0.032816446523852308 -0.00016007525304356532 0 0.034231222024011923 0.00011256209325256523 0 0.034206921626883498 -0.00040402166029970669 0 0.034143770166708061 -8.5505985515437665e-05 0 0.034560354212260301 -2.9026549171225005e-05 0 0.034999998291706233 5.1860603043124869e-11 0 0.034999584041257914 1.4450897955008052e-08 0 0.034999998969099951 3.7353531801797203e-10 0 0.034999998969099951 3.7353531801797203e-10 0 0.034999877005959516 7.2238062693327187e-08 0 0.034999999895683337 4.3468945736626737e-10 0 0.034231222024011923 0.00011256209325256523 0 0.034206921626883498 -0.00040402166029970669 0 0.034667927616121405 -0.00014106532831606152 0 0.034231222024011923 0.00011256209325256523 0 0.034999645075650031 5.303391961306153e-08 0 0.034667927616121405 -0.00014106532831606152 0 0.034999645075650031 5.303391961306153e-08 0 0.034667927616121405 -0.00014106532831606152 0 0.03494744290420311 -0.00019554529682961759 0 0.034206921626883498 -0.00040402166029970669 0 0.034667927616121405 -0.00014106532831606152 0 0.03494744290420311 -0.00019554529682961759 0 0.034560354212260301 -2.9026549171225005e-05 0 0.034999535770196766 6.2847367543834486e-09 0 0.033042532251752056 -0.00025695025663022866 0 0.033033104643316769 -0.00021123435391247444 0 0.031552804116369945 -0.00028958342605370322 0 0.032030463377903377 -5.4631641719154831e-05 0 0.031470579340855009 0.0002506385451946136 0 0.032267134205315698 -0.00031547596943393326 0 0.031552804116369945 -0.00028958342605370322 0 0.032030463377903377 -5.4631641719154831e-05 0 0.032267134205315698 -0.00031547596943393326 0 0.032030463377903377 -5.4631641719154831e-05 0 0.03225974659515575 -8.4945832210897482e-06 0 0.034999645075650031 5.303391961306153e-08 0 0.035020276266245653 -7.2094624540300828e-05 0 0.035016899410372247 -2.0668831540034972e-05 0 0.034999645075650031 5.303391961306153e-08 0 0.03494744290420311 -0.00019554529682961759 0 0.035020276266245653 -7.2094624540300828e-05 0 0.033033104643316769 -0.00021123435391247444 0 0.032774996353897565 -0.00011291730569046078 0 0.031552804116369945 -0.00028958342605370322 0 0.031470579340855009 0.0002506385451946136 0 0.030994969196487636 0.00015610981946224866 0 0.031552804116369945 -0.00028958342605370322 0 0.030644374385261648 -0.00018608822203346553 0 0.030994969196487636 0.00015610981946224866 0 0.030540059629428025 0.00024779191681189189 0 0.030847058710438253 0.00060010180588940265 0 0.030176097444489146 0.00048360042936551682 0 0.030644374385261648 -0.00018608822203346553 0 0.030540059629428025 0.00024779191681189189 0 0.030994969196487636 0.00015610981946224866 0 0.030540059629428025 0.00024779191681189189 0 0.030994969196487636 0.00015610981946224866 0 0.030847058710438253 0.00060010180588940265 0 0.031310177748526104 -3.0700029884725039e-06 0 0.030644355042947543 0.00019084794736145907 0 0.03186067122804534 0.00010058287062201184 0 0.031634953512210531 0.00023795063075261698 0 0.031979207018200645 0.00025790349066676874 0 0.031470579340855009 0.0002506385451946136 0 0.030994969196487636 0.00015610981946224866 0 0.030847058710438253 0.00060010180588940265 0 0.030263626278560864 -0.0002022930653931297 0 0.030776618708518836 -0.00016130739520412999 0 0.030482132008503745 7.8825375393031322e-05 0 0.030644355042947543 0.00019084794736145907 0 0.031270411248127773 0.0001310076011296696 0 0.030644355042947543 0.00019084794736145907 0 0.030169786290319044 0.00022594015031115691 0 0.030263626278560864 -0.0002022930653931297 0 0.029869725733846431 4.4508317617136505e-05 0 0.029977255806510925 0.00018307618807997223 0 0.030644355042947543 0.00019084794736145907 0 0.029972513898469142 0.00032357797021747924 0 0.030263626278560864 -0.0002022930653931297 0 0.030482132008503745 7.8825375393031322e-05 0 0.029977255806510925 0.00018307618807997223 0 0.032227389175748175 0.00015971927071060208 0 0.032255926074897315 0.00020720199708174701 0 0.032108266179071955 0.00015105148589864462 0 0.032255926074897315 0.00020720199708174701 0 0.03225974659515575 -8.4945832210897482e-06 0 0.032108266179071955 0.00015105148589864462 0 0.032030463377903377 -5.4631641719154831e-05 0 0.03225974659515575 -8.4945832210897482e-06 0 0.032108266179071955 0.00015105148589864462 0 0.032030463377903377 -5.4631641719154831e-05 0 0.03186067122804534 0.00010058287062201184 0 0.032108266179071955 0.00015105148589864462 0 0.03186067122804534 0.00010058287062201184 0 0.032108266179071955 0.00015105148589864462 0 0.031979207018200645 0.00025790349066676874 0 0.031555604235858507 -9.0454687426826967e-05 0 0.031310177748526104 -3.0700029884725039e-06 0 0.030663095122044529 5.7876567313129667e-05 0 0.03037756743571849 0.00012321268501344959 0 0.030776618708518836 -0.00016130739520412999 0 0.031008195588230206 -2.2311730690613596e-05 0 0.030482132008503745 7.8825375393031322e-05 0 0.032227389175748175 0.00015971927071060208 0 0.032108266179071955 0.00015105148589864462 0 0.031979207018200645 0.00025790349066676874 0 0.031319466921800182 -8.0708088374912274e-05 0 0.030776618708518836 -0.00016130739520412999 0 0.031008195588230206 -2.2311730690613596e-05 0 0.03160672071751864 0.0001074713248640008 0 0.031270411248127773 0.0001310076011296696 0 0.031319466921800182 -8.0708088374912274e-05 0 0.031008195588230206 -2.2311730690613596e-05 0 0.031190002515410944 0.00011018581436923961 0 0.030983497227523873 0.00021959131008442788 0 0.030683762302273883 0.00053968882466318949 0 0.031273137645310013 0.00028919372221417186 0 0.031190002515410944 0.00011018581436923961 0 0.030983497227523873 0.00021959131008442788 0 0.031273137645310013 0.00028919372221417186 0 0.031008195588230206 -2.2311730690613596e-05 0 0.031190002515410944 0.00011018581436923961 0 0.030983497227523873 0.00021959131008442788 0 0.031008195588230206 -2.2311730690613596e-05 0 0.030983497227523873 0.00021959131008442788 0 0.030760914556653921 0.00020568517458526754 0 0.031008195588230206 -2.2311730690613596e-05 0 0.030760914556653921 0.00020568517458526754 0 0.030343801647250018 6.7910704387942131e-05 0 0.030760914556653921 0.00020568517458526754 0 0.030683762302273883 0.00053968882466318949 0 0.030343801647250018 6.7910704387942131e-05 0 0.030983497227523873 0.00021959131008442788 0 0.030760914556653921 0.00020568517458526754 0 0.030683762302273883 0.00053968882466318949 0 0.031127480000433208 0.00036277124729282528 0 0.031184644944949338 0.00038724612663956244 0 0.031159970805737638 0.00040261964724014294 0 0.031127480000433208 0.00036277124729282528 0 0.031184644944949338 0.00038724612663956244 0 0.031273137645310013 0.00028919372221417186 0 0.030629839525394768 0.00030424973039635921 0 0.030942697422314386 0.00024483535914511626 0 0.031184644944949338 0.00038724612663956244 0 0.031234583420819365 0.00037792051765626265 0 0.031192891174956425 0.00039978271970320361 0 0.031184644944949338 0.00038724612663956244 0 0.031234583420819365 0.00037792051765626265 0 0.031273137645310013 0.00028919372221417186 0 0.03005649962096775 0.00036055650995347869 0 0.030343801647250018 6.7910704387942131e-05 0 0.029683405346941655 0.0002288467706794549 0 0.03037756743571849 0.00012321268501344959 0 0.029922771503449363 0.00024786481785862553 0 0.03005649962096775 0.00036055650995347869 0 0.029842879518789275 0.00043571686408057538 0 0.029683405346941655 0.0002288467706794549 0 0.030683762302273883 0.00053968882466318949 0 0.03005649962096775 0.00036055650995347869 0 0.030343801647250018 6.7910704387942131e-05 0 0.030629839525394768 0.00030424973039635921 0 0.029473670564655819 0.00051908113293697156 0 0.030683762302273883 0.00053968882466318949 0 0.03005649962096775 0.00036055650995347869 0 0.030043416326453874 0.0007596475191457416 0 0.031127480000433208 0.00036277124729282528 0 0.031063021023135139 0.00038844992275586604 0 0.031115595694912835 0.00041556128895691715 0 0.030043416326453874 0.0007596475191457416 0 0.029842879518789275 0.00043571686408057538 0 0.029600656756374154 0.00041952925730675915 0 0.03005649962096775 0.00036055650995347869 0 0.030043416326453874 0.0007596475191457416 0 0.029842879518789275 0.00043571686408057538 0 0.029473670564655819 0.00051908113293697156 0 0.02957612515901208 0.00055036044177030053 0 0.027844757299243076 0.0011286981498464682 0 0.027795481126609262 0.00078044898056474289 0 0.028343640378978147 0.00094587203991443607 0 0.029473670564655819 0.00051908113293697156 0 0.029117349778719076 0.00065631960742074255 0 0.027795481126609262 0.00078044898056474289 0 0.028031932698064633 0.00053630394496928155 0 0.028343640378978147 0.00094587203991443607 0 0.029473670564655819 0.00051908113293697156 0 0.029175026181625794 0.00052020166260568937 0 0.027844757299243076 0.0011286981498464682 0 0.027795481126609262 0.00078044898056474289 0 0.027426988398447524 0.00086742677137414785 0 0.027795481126609262 0.00078044898056474289 0 0.027426988398447524 0.00086742677137414785 0 0.027525390313708188 0.00036580573577489839 0 0.027795481126609262 0.00078044898056474289 0 0.028031932698064633 0.00053630394496928155 0 0.027525390313708188 0.00036580573577489839 0 0.031192891174956425 0.00039978271970320361 0 0.031169432371400036 0.00041851936223419485 0 0.031184910581286647 0.00040208919532194054 0 0.031192891174956425 0.00039978271970320361 0 0.031159970805737638 0.00040261964724014294 0 0.031169432371400036 0.00041851936223419485 0 0.031184644944949338 0.00038724612663956244 0 0.031192891174956425 0.00039978271970320361 0 0.031159970805737638 0.00040261964724014294 0 0.031127480000433208 0.00036277124729282528 0 0.031115595694912835 0.00041556128895691715 0 0.031159970805737638 0.00040261964724014294 0 0.031115595694912835 0.00041556128895691715 0 0.031159970805737638 0.00040261964724014294 0 0.031169432371400036 0.00041851936223419485 0 0.029175026181625794 0.00052020166260568937 0 0.028665258772380155 0.00036993068951173772 0 0.027426988398447524 0.00086742677137414785 0 0.027016189499273667 0.00061081598287290797 0 0.027525390313708188 0.00036580573577489839 0 0.031169432371400036 0.00041851936223419485 0 0.031184910581286647 0.00040208919532194054 0 0.031181763135758822 0.00040248275499332482 0 0.028665258772380155 0.00036993068951173772 0 0.027465552642339519 -0.00015883177501971901 0 0.031183833545820581 0.00039531055008255682 0 0.031184910581286647 0.00040208919532194054 0 0.031188618378118059 0.00039433236199458188 0 0.031183833545820581 0.00039531055008255682 0 0.031184910581286647 0.00040208919532194054 0 0.031181763135758822 0.00040248275499332482 0 0.026665622226628563 -0.0011237969885544512 0 0.026680065503703054 -0.0011169724491805913 0 0.026658791872259602 -0.0011152505728593116 0 0.02780699604499217 -0.00043878160531958191 0 0.027155373096649591 0.00029694356085786149 0 0.02692918381691093 0.00015889161443493219 0 0.027982515257801262 -0.00039201901105559927 0 0.027465552642339519 -0.00015883177501971901 0 0.027982515257801262 -0.00039201901105559927 0 0.027140928130543866 -0.00026859485725776243 0 0.031192891174956425 0.00039978271970320361 0 0.031184910581286647 0.00040208919532194054 0 0.031188618378118059 0.00039433236199458188 0 0.031188618378118059 0.00039433236199458188 0 0.031177070103383445 0.00039615817899442971 0 0.031200671384737366 0.00039179549672798824 0 0.031192891174956425 0.00039978271970320361 0 0.031188618378118059 0.00039433236199458188 0 0.031200671384737366 0.00039179549672798824 0 0.031188618378118059 0.00039433236199458188 0 0.031177070103383445 0.00039615817899442971 0 0.031154435695969897 0.00038444064459014314 0 0.031183833545820581 0.00039531055008255682 0 0.031188618378118059 0.00039433236199458188 0 0.031154435695969897 0.00038444064459014314 0 0.03114700507780252 0.00037126312364746958 0 0.031154435695969897 0.00038444064459014314 0 0.031145018602831989 0.00037922172394006567 0 0.031154435695969897 0.00038444064459014314 0 0.031139703307461568 0.00039638167937094422 0 0.031156077565627962 0.00040034189323629897 0 0.031177070103383445 0.00039615817899442971 0 0.031154435695969897 0.00038444064459014314 0 0.031156077565627962 0.00040034189323629897 0 0.027982515257801262 -0.00039201901105559927 0 0.028779663462995379 -0.00044563311025587823 0 0.026665622226628563 -0.0011237969885544512 0 0.026695171065146989 -0.0011485127901276577 0 0.026680065503703054 -0.0011169724491805913 0 0.027982515257801262 -0.00039201901105559927 0 0.029070438025318137 -0.0006627094654953849 0 0.026702068878497895 -0.0011218919686548732 0 0.026695171065146989 -0.0011485127901276577 0 0.026680065503703054 -0.0011169724491805913 0 0.026702068878497895 -0.0011218919686548732 0 0.026721415829412672 -0.0011379969190523961 0 0.026695171065146989 -0.0011485127901276577 0 0.026702068878497895 -0.0011218919686548732 0 0.026721415829412672 -0.0011379969190523961 0 0.026725258898152436 -0.0011209284867526174 0 0.026741288125142586 -0.0011545125600780661 0 0.026720990362247218 -0.0011545844519775558 0 0.026726296608162697 -0.0011772612915697603 0 0.026721415829412672 -0.0011379969190523961 0 0.026720990362247218 -0.0011545844519775558 0 0.026695171065146989 -0.0011485127901276577 0 0.026720990362247218 -0.0011545844519775558 0 0.026695171065146989 -0.0011485127901276577 0 0.026726296608162697 -0.0011772612915697603 0 0.026741288125142586 -0.0011545125600780661 0 0.026721415829412672 -0.0011379969190523961 0 0.026720990362247218 -0.0011545844519775558 0 0.031145018602831989 0.00037922172394006567 0 0.031139703307461568 0.00039638167937094422 0 0.031073012117251355 0.00040701021371831862 0 0.028779663462995379 -0.00044563311025587823 0 0.029212805781241996 -0.00036886455209356737 0 0.031154435695969897 0.00038444064459014314 0 0.031145018602831989 0.00037922172394006567 0 0.031139703307461568 0.00039638167937094422 0 0.031139703307461568 0.00039638167937094422 0 0.031131492129807113 0.00041590525636520223 0 0.031073012117251355 0.00040701021371831862 0 0.031139703307461568 0.00039638167937094422 0 0.031131492129807113 0.00041590525636520223 0 0.031156077565627962 0.00040034189323629897 0 0.031723662103956884 0.00035978856670833542 0 0.031792707040712118 0.00031574334094438341 0 0.031664846832381077 0.00035675628697942006 0 0.031860106677231888 0.00023594977333694063 0 0.031748514225830041 0.0002635063157592698 0 0.031664846832381077 0.00035675628697942006 0 0.031405753075678972 -0.00019569834713582406 0 0.031554389490333908 -7.5309623995645038e-05 0 0.030761426537418934 -1.3345582103456918e-05 0 0.029212805781241996 -0.00036886455209356737 0 0.031723662103956884 0.00035978856670833542 0 0.031797376255627736 0.00034077469596299672 0 0.031792707040712118 0.00031574334094438341 0 0.031881983017818673 0.00018972157213600855 0 0.031860106677231888 0.00023594977333694063 0 0.03185366878052396 0.00018786289575266506 0 0.031860106677231888 0.00023594977333694063 0 0.031823447590960431 0.00019256733081703502 0 0.03185366878052396 0.00018786289575266506 0 0.031860106677231888 0.00023594977333694063 0 0.031823447590960431 0.00019256733081703502 0 0.031773801946967356 0.0002098121758638453 0 0.03183145362178811 0.00016323884778992307 0 0.031823447590960431 0.00019256733081703502 0 0.03185366878052396 0.00018786289575266506 0 0.031860106677231888 0.00023594977333694063 0 0.031748514225830041 0.0002635063157592698 0 0.031773801946967356 0.0002098121758638453 0 0.031748514225830041 0.0002635063157592698 0 0.031773801946967356 0.0002098121758638453 0 0.031692344632628357 0.0002481908269556368 0 0.031748514225830041 0.0002635063157592698 0 0.031692344632628357 0.0002481908269556368 0 0.031664846832381077 0.00035675628697942006 0 0.031789345390300462 0.00012333925583580825 0 0.031823447590960431 0.00019256733081703502 0 0.031773801946967356 0.0002098121758638453 0 0.031789345390300462 0.00012333925583580825 0 0.031773801946967356 0.0002098121758638453 0 0.031762380310234893 0.00016503274866072769 0 0.031773801946967356 0.0002098121758638453 0 0.031762380310234893 0.00016503274866072769 0 0.031692344632628357 0.0002481908269556368 0 0.031762380310234893 0.00016503274866072769 0 0.031692344632628357 0.0002481908269556368 0 0.031592859224988355 0.00017833683111833314 0 0.031795078140704106 9.3624226367891659e-05 0 0.031762380310234893 0.00016503274866072769 0 0.031592859224988355 0.00017833683111833314 0 0.031692344632628357 0.0002481908269556368 0 0.031593826258583223 0.00029369425512350381 0 0.031664846832381077 0.00035675628697942006 0 0.031593826258583223 0.00029369425512350381 0 0.031592859224988355 0.00017833683111833314 0 0.031441658187584348 0.00028413517938941221 0 0.031692344632628357 0.0002481908269556368 0 0.031593826258583223 0.00029369425512350381 0 0.031592859224988355 0.00017833683111833314 0 0.031592859224988355 0.00017833683111833314 0 0.031366736029659462 0.00015939784435352268 0 0.031441658187584348 0.00028413517938941221 0 0.031319466921800182 -8.0708088374912274e-05 0 0.031592859224988355 0.00017833683111833314 0 0.031366736029659462 0.00015939784435352268 0 0.031190002515410944 0.00011018581436923961 0 0.031366736029659462 0.00015939784435352268 0 0.031273137645310013 0.00028919372221417186 0 0.031234583420819365 0.00037792051765626265 0 0.031273137645310013 0.00028919372221417186 0 0.031441658187584348 0.00028413517938941221 0 0.031366736029659462 0.00015939784435352268 0 0.031273137645310013 0.00028919372221417186 0 0.031441658187584348 0.00028413517938941221 0 0.031234583420819365 0.00037792051765626265 0 0.031441658187584348 0.00028413517938941221 0 0.031576672957619623 0.00039529618698778344 0 0.031215606706348719 0.00017738858183786996 0 0.031160652757718392 0.00013736459182825305 0 0.031234583420819365 0.00037792051765626265 0 0.031200671384737366 0.00039179549672798824 0 0.03117833349145448 0.00041355808415928941 0 0.031234583420819365 0.00037792051765626265 0 0.031192891174956425 0.00039978271970320361 0 0.031200671384737366 0.00039179549672798824 0 0.031177070103383445 0.00039615817899442971 0 0.031200671384737366 0.00039179549672798824 0 0.03117833349145448 0.00041355808415928941 0 0.031723662103956884 0.00035978856670833542 0 0.031664846832381077 0.00035675628697942006 0 0.031576672957619623 0.00039529618698778344 0 0.031177070103383445 0.00039615817899442971 0 0.031156077565627962 0.00040034189323629897 0 0.03117833349145448 0.00041355808415928941 0 0.031131492129807113 0.00041590525636520223 0 0.031156077565627962 0.00040034189323629897 0 0.03117833349145448 0.00041355808415928941 0 0.030761426537418934 -1.3345582103456918e-05 0 0.031160652757718392 0.00013736459182825305 0 0.031593826258583223 0.00029369425512350381 0 0.031441658187584348 0.00028413517938941221 0 0.031576672957619623 0.00039529618698778344 0 0.031593826258583223 0.00029369425512350381 0 0.031664846832381077 0.00035675628697942006 0 0.031576672957619623 0.00039529618698778344 0 0.031317043033168811 1.9879322137601806e-06 0 0.033660743074528619 0.00056970278730035908 0 0.034528188890183498 -0.00014241160971712599 0 0.0313062514106019 1.7913470653440081e-06 0 0.029228431828143431 0.00053789252209192654 0 0.029536457459150525 7.8267711467376849e-05 0 0.031310896025346265 3.8876627353419884e-07 0 0.031609792794906985 0.00016572951875688913 0 0.029228431828143431 0.00053789252209192654 0 0.029536457459150525 7.8267711467376849e-05 0 0.029181975201125428 0.00023985471978114157 0 0.031317043033168811 1.9879322137601806e-06 0 0.034996624366883958 -1.0390711397194132e-06 0 0.034528188890183498 -0.00014241160971712599 0 0.034996624366883958 -1.0390711397194132e-06 0 0.034528188890183498 -0.00014241160971712599 0 0.03499999342690191 1.4488241646877432e-08 0 0.034528188890183498 -0.00014241160971712599 0 0.03499999342690191 1.4488241646877432e-08 0 0.034938457609764592 3.4947185909401198e-05 0 0.034528188890183498 -0.00014241160971712599 0 0.034938457609764592 3.4947185909401198e-05 0 0.034812856423859576 0.00031902300030957272 0 0.031609792794906985 0.00016572951875688913 0 0.031918930782834157 0.00017827486293422339 0 0.033660743074528619 0.00056970278730035908 0 0.034528188890183498 -0.00014241160971712599 0 0.034812856423859576 0.00031902300030957272 0 0.029228431828143431 0.00053789252209192654 0 0.029195714971680883 0.00031131383222571577 0 0.029181975201125428 0.00023985471978114157 0 0.029195714971680883 0.00031131383222571577 0 0.029251487239632393 0.0003180005430558597 0 0.029181975201125428 0.00023985471978114157 0 0.029251487239632393 0.0003180005430558597 0 0.029358586560923619 0.00030841320733981194 0 0.029340084571474408 0.00037317695802758079 0 0.029195714971680883 0.00031131383222571577 0 0.029251487239632393 0.0003180005430558597 0 0.029358586560923619 0.00030841320733981194 0 0.029358586560923619 0.00030841320733981194 0 0.029423835138945479 0.00038268008062257452 0 0.029340084571474408 0.00037317695802758079 0 0.029358586560923619 0.00030841320733981194 0 0.029489435460206954 0.0003543004902750901 0 0.029423835138945479 0.00038268008062257452 0 0.029489435460206954 0.0003543004902750901 0 0.029484683164797739 0.00030714699092212067 0 0.029575173827745257 0.00034494714551236937 0 0.029358586560923619 0.00030841320733981194 0 0.029489435460206954 0.0003543004902750901 0 0.029484683164797739 0.00030714699092212067 0 0.029358586560923619 0.00030841320733981194 0 0.029484683164797739 0.00030714699092212067 0 0.029359958916065108 0.00017892535000642084 0 0.032178354427263987 0.00010447436959567244 0 0.032442869941443971 2.1264496376444079e-06 0 0.029484683164797739 0.00030714699092212067 0 0.029359958916065108 0.00017892535000642084 0 0.029604290610769836 0.00029598054919959752 0 0.031918930782834157 0.00017827486293422339 0 0.032178354427263987 0.00010447436959567244 0 0.029195714971680883 0.00031131383222571577 0 0.029358586560923619 0.00030841320733981194 0 0.029359958916065108 0.00017892535000642084 0 0.034938457609764592 3.4947185909401198e-05 0 0.034812856423859576 0.00031902300030957272 0 0.035015584751149791 9.7895296759679869e-05 0 0.03499999342690191 1.4488241646877432e-08 0 0.035005856741274273 1.3532986666372372e-05 0 0.035000162083711539 -3.7369642663952481e-08 0 0.034938457609764592 3.4947185909401198e-05 0 0.035015584751149791 9.7895296759679869e-05 0 0.035005856741274273 1.3532986666372372e-05 0 0.03499999342690191 1.4488241646877432e-08 0 0.034938457609764592 3.4947185909401198e-05 0 0.035005856741274273 1.3532986666372372e-05 0 0.035015584751149791 9.7895296759679869e-05 0 0.035005856741274273 1.3532986666372372e-05 0 0.035019944295527183 9.7636804227177348e-06 0 0.034999645075650031 5.303391961306153e-08 0 0.035000162083711539 -3.7369642663952481e-08 0 0.035016899410372247 -2.0668831540034972e-05 0 0.035005856741274273 1.3532986666372372e-05 0 0.035019944295527183 9.7636804227177348e-06 0 0.035016899410372247 -2.0668831540034972e-05 0 0.035005856741274273 1.3532986666372372e-05 0 0.035000162083711539 -3.7369642663952481e-08 0 0.035016899410372247 -2.0668831540034972e-05 0 0.035020276266245653 -7.2094624540300828e-05 0 0.035019944295527183 9.7636804227177348e-06 0 0.035016899410372247 -2.0668831540034972e-05 0 0.032774996353897565 -0.00011291730569046078 0 0.032442869941443971 2.1264496376444079e-06 0 0.030644374385261648 -0.00018608822203346553 0 0.030540059629428025 0.00024779191681189189 0 0.029766489690622865 -7.3780387983648584e-06 0 0.030540059629428025 0.00024779191681189189 0 0.029766489690622865 -7.3780387983648584e-06 0 0.030176097444489146 0.00048360042936551682 0 0.02999178239514802 0.00022951991535510348 0 0.030169786290319044 0.00022594015031115691 0 0.029359958916065108 0.00017892535000642084 0 0.029766489690622865 -7.3780387983648584e-06 0 0.029604290610769836 0.00029598054919959752 0 0.029766489690622865 -7.3780387983648584e-06 0 0.029604290610769836 0.00029598054919959752 0 0.030176097444489146 0.00048360042936551682 0 0.029604290610769836 0.00029598054919959752 0 0.029627424501742744 0.00032932409980483918 0 0.029575173827745257 0.00034494714551236937 0 0.029604290610769836 0.00029598054919959752 0 0.029627424501742744 0.00032932409980483918 0 0.029673750558803218 0.00029994597825120609 0 0.029484683164797739 0.00030714699092212067 0 0.029604290610769836 0.00029598054919959752 0 0.029575173827745257 0.00034494714551236937 0 0.029489435460206954 0.0003543004902750901 0 0.029575173827745257 0.00034494714551236937 0 0.029542068155932719 0.00037873373634202356 0 0.029575173827745257 0.00034494714551236937 0 0.029588831611535828 0.00038203286893542636 0 0.029542068155932719 0.00037873373634202356 0 0.029614497302354083 0.00035754120055944249 0 0.029670309764115145 0.00037515283995994732 0 0.029588831611535828 0.00038203286893542636 0 0.029627424501742744 0.00032932409980483918 0 0.029575173827745257 0.00034494714551236937 0 0.029614497302354083 0.00035754120055944249 0 0.029575173827745257 0.00034494714551236937 0 0.029614497302354083 0.00035754120055944249 0 0.029588831611535828 0.00038203286893542636 0 0.029777043551721196 0.00030876279123119078 0 0.029670309764115145 0.00037515283995994732 0 0.029673750558803218 0.00029994597825120609 0 0.029627424501742744 0.00032932409980483918 0 0.029614497302354083 0.00035754120055944249 0 0.029670309764115145 0.00037515283995994732 0 0.029627424501742744 0.00032932409980483918 0 0.029670309764115145 0.00037515283995994732 0 0.029673750558803218 0.00029994597825120609 0 0.029869725733846431 4.4508317617136505e-05 0 0.029977255806510925 0.00018307618807997223 0 0.029479356044664558 0.00028688280576562715 0 0.029683405346941655 0.0002288467706794549 0 0.029501920529159956 0.00040850951958269814 0 0.029600656756374154 0.00041952925730675915 0 0.029842879518789275 0.00043571686408057538 0 0.029683405346941655 0.0002288467706794549 0 0.029600656756374154 0.00041952925730675915 0 0.029670309764115145 0.00037515283995994732 0 0.029588831611535828 0.00038203286893542636 0 0.029550781976265462 0.00041790054155684285 0 0.029670309764115145 0.00037515283995994732 0 0.029550781976265462 0.00041790054155684285 0 0.029523140558602255 0.00045185849017157317 0 0.029683405346941655 0.0002288467706794549 0 0.029369307581555055 0.00036799330383149501 0 0.029501920529159956 0.00040850951958269814 0 0.029972513898469142 0.00032357797021747924 0 0.029641652838066031 0.0003746302483539105 0 0.029922771503449363 0.00024786481785862553 0 0.029641652838066031 0.0003746302483539105 0 0.029588831611535828 0.00038203286893542636 0 0.029542068155932719 0.00037873373634202356 0 0.029550781976265462 0.00041790054155684285 0 0.029542068155932719 0.00037873373634202356 0 0.029550781976265462 0.00041790054155684285 0 0.029504688768884312 0.00040370737681076011 0 0.029550781976265462 0.00041790054155684285 0 0.029524088649423921 0.00042739630067196381 0 0.029504688768884312 0.00040370737681076011 0 0.029550781976265462 0.00041790054155684285 0 0.029524088649423921 0.00042739630067196381 0 0.029523140558602255 0.00045185849017157317 0 0.029524088649423921 0.00042739630067196381 0 0.029504262335388241 0.00043127490797341969 0 0.029504688768884312 0.00040370737681076011 0 0.029524088649423921 0.00042739630067196381 0 0.029523140558602255 0.00045185849017157317 0 0.029504262335388241 0.00043127490797341969 0 0.029523140558602255 0.00045185849017157317 0 0.029498635047110065 0.00045203235583708224 0 0.029504262335388241 0.00043127490797341969 0 0.029641652838066031 0.0003746302483539105 0 0.029640455542068407 0.00037498257130129099 0 0.029501920529159956 0.00040850951958269814 0 0.029411068475204936 0.00042934839141445355 0 0.02945408978415966 0.00047760107552356643 0 0.029369307581555055 0.00036799330383149501 0 0.029501920529159956 0.00040850951958269814 0 0.029411068475204936 0.00042934839141445355 0 0.029369307581555055 0.00036799330383149501 0 0.029411068475204936 0.00042934839141445355 0 0.029363440523479448 0.00042968058570366015 0 0.029411068475204936 0.00042934839141445355 0 0.029369136696984252 0.00046592202067143599 0 0.029363440523479448 0.00042968058570366015 0 0.029411068475204936 0.00042934839141445355 0 0.02945408978415966 0.00047760107552356643 0 0.029369136696984252 0.00046592202067143599 0 0.02945408978415966 0.00047760107552356643 0 0.029381101131205324 0.0005137320852012519 0 0.029369136696984252 0.00046592202067143599 0 0.029501920529159956 0.00040850951958269814 0 0.02945408978415966 0.00047760107552356643 0 0.02954673972977806 0.00047398430706915471 0 0.02954673972977806 0.00047398430706915471 0 0.029605917368874222 0.00049283912203871248 0 0.029567335516586142 0.00056476117699201609 0 0.02954673972977806 0.00047398430706915471 0 0.029600656756374154 0.00041952925730675915 0 0.029605917368874222 0.00049283912203871248 0 0.029724358357476013 0.00050664336095796402 0 0.029600656756374154 0.00041952925730675915 0 0.029605917368874222 0.00049283912203871248 0 0.02945408978415966 0.00047760107552356643 0 0.02954673972977806 0.00047398430706915471 0 0.029567335516586142 0.00056476117699201609 0 0.029501920529159956 0.00040850951958269814 0 0.02954673972977806 0.00047398430706915471 0 0.029600656756374154 0.00041952925730675915 0 0.029724358357476013 0.00050664336095796402 0 0.029605917368874222 0.00049283912203871248 0 0.029567335516586142 0.00056476117699201609 0 0.028031932698064633 0.00053630394496928155 0 0.028461158151949509 0.00061465242136081748 0 0.028287507182500209 0.00031110803596011199 0 0.028031932698064633 0.00053630394496928155 0 0.028343640378978147 0.00094587203991443607 0 0.028461158151949509 0.00061465242136081748 0 0.028461158151949509 0.00061465242136081748 0 0.028610878055351622 0.00042857982349919809 0 0.028287507182500209 0.00031110803596011199 0 0.028610878055351622 0.00042857982349919809 0 0.028851962428086953 0.00073322263146803407 0 0.029023406762101019 0.00032538206538426385 0 0.028461158151949509 0.00061465242136081748 0 0.028610878055351622 0.00042857982349919809 0 0.028851962428086953 0.00073322263146803407 0 0.028343640378978147 0.00094587203991443607 0 0.028461158151949509 0.00061465242136081748 0 0.028851962428086953 0.00073322263146803407 0 0.029117349778719076 0.00065631960742074255 0 0.029127887012483072 0.00064165518765721841 0 0.02945408978415966 0.00047760107552356643 0 0.029567335516586142 0.00056476117699201609 0 0.029381101131205324 0.0005137320852012519 0 0.029567335516586142 0.00056476117699201609 0 0.029370563702073624 0.00058273228499021174 0 0.029381101131205324 0.0005137320852012519 0 0.029370563702073624 0.00058273228499021174 0 0.029328741581462568 0.00050912750388658768 0 0.029286645494442536 0.00054044257875969113 0 0.029370563702073624 0.00058273228499021174 0 0.029381101131205324 0.0005137320852012519 0 0.029328741581462568 0.00050912750388658768 0 0.029127887012483072 0.00064165518765721841 0 0.029169754141047739 0.00061546604330621935 0 0.029370563702073624 0.00058273228499021174 0 0.029220481859000062 0.00051367559645793058 0 0.029286645494442536 0.00054044257875969113 0 0.028851962428086953 0.00073322263146803407 0 0.029220481859000062 0.00051367559645793058 0 0.029023406762101019 0.00032538206538426385 0 0.024077950443677106 0.00025797612607688747 0 0.023824612404077461 -0.00038117109927811619 0 0.023316110095868932 -0.00035406793264668201 0 0.029220481859000062 0.00051367559645793058 0 0.029336504282841333 0.00057824764572844787 0 0.029023406762101019 0.00032538206538426385 0 0.024077950443677106 0.00025797612607688747 0 0.024303405392663267 -0.0002825031002628452 0 0.023824612404077461 -0.00038117109927811619 0 0.026658886521337188 0.00035600385469490022 0 0.025973211746030022 0.00029435113844273085 0 0.029220481859000062 0.00051367559645793058 0 0.029336504282841333 0.00057824764572844787 0 0.029286645494442536 0.00054044257875969113 0 0.029328741581462568 0.00050912750388658768 0 0.029286645494442536 0.00054044257875969113 0 0.029304555134411908 0.00049875224723299892 0 0.029336504282841333 0.00057824764572844787 0 0.029286645494442536 0.00054044257875969113 0 0.029290423485543001 0.00052309328744041693 0 0.029286645494442536 0.00054044257875969113 0 0.029304555134411908 0.00049875224723299892 0 0.029290423485543001 0.00052309328744041693 0 0.029304555134411908 0.00049875224723299892 0 0.029319845543192988 0.00043343113699942273 0 0.029273727270428908 0.00046714632479824536 0 0.029319845543192988 0.00043343113699942273 0 0.029408520579352792 0.00047491687538698971 0 0.02939535934979157 0.00042005170783660173 0 0.029304555134411908 0.00049875224723299892 0 0.029319845543192988 0.00043343113699942273 0 0.029408520579352792 0.00047491687538698971 0 0.029468438792601703 0.00045750172191759777 0 0.029512640939813903 0.00043597004980565232 0 0.029328741581462568 0.00050912750388658768 0 0.029304555134411908 0.00049875224723299892 0 0.02931851410891248 0.00045546578774310491 0 0.029328741581462568 0.00050912750388658768 0 0.029369136696984252 0.00046592202067143599 0 0.02931851410891248 0.00045546578774310491 0 0.029381101131205324 0.0005137320852012519 0 0.029328741581462568 0.00050912750388658768 0 0.029369136696984252 0.00046592202067143599 0 0.029641652838066031 0.0003746302483539105 0 0.029512640939813903 0.00043597004980565232 0 0.029516342409019701 0.0004532500191756064 0 0.029408520579352792 0.00047491687538698971 0 0.029498635047110065 0.00045203235583708224 0 0.029369307581555055 0.00036799330383149501 0 0.029363440523479448 0.00042968058570366015 0 0.02931851410891248 0.00045546578774310491 0 0.029369136696984252 0.00046592202067143599 0 0.029363440523479448 0.00042968058570366015 0 0.02931851410891248 0.00045546578774310491 0 0.029408520579352792 0.00047491687538698971 0 0.02939535934979157 0.00042005170783660173 0 0.029457652141215949 0.0004284269241140034 0 0.02939535934979157 0.00042005170783660173 0 0.029457652141215949 0.0004284269241140034 0 0.029423835138945479 0.00038268008062257452 0 0.029408520579352792 0.00047491687538698971 0 0.029498635047110065 0.00045203235583708224 0 0.029457652141215949 0.0004284269241140034 0 0.029457652141215949 0.0004284269241140034 0 0.029504262335388241 0.00043127490797341969 0 0.029504688768884312 0.00040370737681076011 0 0.029498635047110065 0.00045203235583708224 0 0.029457652141215949 0.0004284269241140034 0 0.029504262335388241 0.00043127490797341969 0 0.029457652141215949 0.0004284269241140034 0 0.029504688768884312 0.00040370737681076011 0 0.029423835138945479 0.00038268008062257452 0 0.029489435460206954 0.0003543004902750901 0 0.029542068155932719 0.00037873373634202356 0 0.029504688768884312 0.00040370737681076011 0 0.029489435460206954 0.0003543004902750901 0 0.029504688768884312 0.00040370737681076011 0 0.029423835138945479 0.00038268008062257452 0 0.02939535934979157 0.00042005170783660173 0 0.029423835138945479 0.00038268008062257452 0 0.029340084571474408 0.00037317695802758079 0 0.029319845543192988 0.00043343113699942273 0 0.029340084571474408 0.00037317695802758079 0 0.029245844915324629 0.00036486683931089659 0 0.029319845543192988 0.00043343113699942273 0 0.02939535934979157 0.00042005170783660173 0 0.029340084571474408 0.00037317695802758079 0 0.029251487239632393 0.0003180005430558597 0 0.029245844915324629 0.00036486683931089659 0 0.029181975201125428 0.00023985471978114157 0 0.029251487239632393 0.0003180005430558597 0 0.029340084571474408 0.00037317695802758079 0 0.029245844915324629 0.00036486683931089659 0 0.029245844915324629 0.00036486683931089659 0 0.029181975201125428 0.00023985471978114157 0 0.029156883028675366 0.00051561010139934921 0 0.029181975201125428 0.00023985471978114157 0 0.029156883028675366 0.00051561010139934921 0 0.028834183589129782 0.0002667636027123575 0 0.029245844915324629 0.00036486683931089659 0 0.029273727270428908 0.00046714632479824536 0 0.029156883028675366 0.00051561010139934921 0 0.029319845543192988 0.00043343113699942273 0 0.029245844915324629 0.00036486683931089659 0 0.029273727270428908 0.00046714632479824536 0 0.029304555134411908 0.00049875224723299892 0 0.029273727270428908 0.00046714632479824536 0 0.029290423485543001 0.00052309328744041693 0 0.029336504282841333 0.00057824764572844787 0 0.029290423485543001 0.00052309328744041693 0 0.029156883028675366 0.00051561010139934921 0 0.026658886521337188 0.00035600385469490022 0 0.027290183477654835 0.00042432841513723971 0 0.029273727270428908 0.00046714632479824536 0 0.029290423485543001 0.00052309328744041693 0 0.029156883028675366 0.00051561010139934921 0 0.024077950443677106 0.00025797612607688747 0 0.025453437784913602 -8.9516687993271729e-05 0 0.026015922642836125 0.00063904606125699979 0 0.024077950443677106 0.00025797612607688747 0 0.025453437784913602 -8.9516687993271729e-05 0 0.024303405392663267 -0.0002825031002628452 0 0.025453437784913602 -8.9516687993271729e-05 0 0.026015922642836125 0.00063904606125699979 0 0.02663452508349249 -0.00025377915060038062 0 0.026015922642836125 0.00063904606125699979 0 0.02663452508349249 -0.00025377915060038062 0 0.027742752770226 0.00010226391270799137 0 0.02663452508349249 -0.00025377915060038062 0 0.027223401479480536 -2.0488034485865111e-07 0 0.025185607815264528 -5.8405730455655821e-07 0 0.02663452508349249 -0.00025377915060038062 0 0.027223401479480536 -2.0488034485865111e-07 0 0.027742752770226 0.00010226391270799137 0 0.027223401479480536 -2.0488034485865111e-07 0 0.027742752770226 0.00010226391270799137 0 0.029268038064084109 -7.2683003423793361e-08 0 0.027742752770226 0.00010226391270799137 0 0.029268038064084109 -7.2683003423793361e-08 0 0.028834183589129782 0.0002667636027123575 0 0.027290183477654835 0.00042432841513723971 0 0.027686686136302548 0.00046559158912850993 0 0.026015922642836125 0.00063904606125699979 0 0.027742752770226 0.00010226391270799137 0 0.028834183589129782 0.0002667636027123575 0 0.029536457459150525 7.8267711467376849e-05 0 0.029181975201125428 0.00023985471978114157 0 0.028834183589129782 0.0002667636027123575 0 0.029536457459150525 7.8267711467376849e-05 0 0.029268038064084109 -7.2683003423793361e-08 0 0.028834183589129782 0.0002667636027123575 0 0.0313062514106019 1.7913470653440081e-06 0 0.029536457459150525 7.8267711467376849e-05 0 0.029268038064084109 -7.2683003423793361e-08 0 0.022779529645077738 -0.00036679219428070308 0 0.023507417469312519 -0.0002767442177125562 0 0.023192207077601903 -0.00015446048934392365 0 0.022779529645077738 -0.00036679219428070308 0 0.023120902303375442 -1.0083903077273547e-06 0 0.022153047837673308 -0.00026722420895747355 0 0.023120902303375442 -1.0083903077273547e-06 0 0.022153047837673308 -0.00026722420895747355 0 0.021058494003664639 -1.1218730082148558e-06 0 0.022779529645077738 -0.00036679219428070308 0 0.022153047837673308 -0.00026722420895747355 0 0.022162266275473179 -0.0002803934557448314 0 0.022779529645077738 -0.00036679219428070308 0 0.023120902303375442 -1.0083903077273547e-06 0 0.023507417469312519 -0.0002767442177125562 0 0.023507417469312519 -0.0002767442177125562 0 0.025178285073978058 9.5713565362806557e-07 0 0.023192207077601903 -0.00015446048934392365 0 0.023120902303375442 -1.0083903077273547e-06 0 0.023507417469312519 -0.0002767442177125562 0 0.025178285073978058 9.5713565362806557e-07 0 0.02663452508349249 -0.00025377915060038062 0 0.025185607815264528 -5.8405730455655821e-07 0 0.026108201840337398 -0.00053856651083566802 0 0.025181252628450806 -3.8754458625240137e-07 0 0.024687970972276898 -0.00019451096515941691 0 0.025453437784913602 -8.9516687993271729e-05 0 0.02663452508349249 -0.00025377915060038062 0 0.026108201840337398 -0.00053856651083566802 0 0.024687970972276898 -0.00019451096515941691 0 0.024433125490043301 -0.00028976594948897479 0 0.023192207077601903 -0.00015446048934392365 0 0.023952212173003889 -0.00071046342005292348 0 0.023266568275955014 -0.00043494945969267559 0 0.025453437784913602 -8.9516687993271729e-05 0 0.026108201840337398 -0.00053856651083566802 0 0.023952212173003889 -0.00071046342005292348 0 0.024303405392663267 -0.0002825031002628452 0 0.023952212173003889 -0.00071046342005292348 0 0.023824612404077461 -0.00038117109927811619 0 0.025453437784913602 -8.9516687993271729e-05 0 0.024303405392663267 -0.0002825031002628452 0 0.023952212173003889 -0.00071046342005292348 0 0.023952212173003889 -0.00071046342005292348 0 0.023266568275955014 -0.00043494945969267559 0 0.023408703597155418 -0.00061301232758077622 0 0.022779529645077738 -0.00036679219428070308 0 0.023192207077601903 -0.00015446048934392365 0 0.023266568275955014 -0.00043494945969267559 0 0.023266568275955014 -0.00043494945969267559 0 0.02288907354761744 -0.00041157367950013567 0 0.023112305843811121 -0.00048312511597009382 0 0.023266568275955014 -0.00043494945969267559 0 0.023408703597155418 -0.00061301232758077622 0 0.023112305843811121 -0.00048312511597009382 0 0.022779529645077738 -0.00036679219428070308 0 0.023266568275955014 -0.00043494945969267559 0 0.02288907354761744 -0.00041157367950013567 0 0.022779529645077738 -0.00036679219428070308 0 0.02288907354761744 -0.00041157367950013567 0 0.022532875401075209 -0.00032708087297729293 0 0.022779529645077738 -0.00036679219428070308 0 0.022532875401075209 -0.00032708087297729293 0 0.022162266275473179 -0.0002803934557448314 0 0.02288907354761744 -0.00041157367950013567 0 0.022586399490970979 -0.00027381591862966269 0 0.022532875401075209 -0.00032708087297729293 0 0.02288907354761744 -0.00041157367950013567 0 0.022918712775297872 -0.00038102056162639126 0 0.022586399490970979 -0.00027381591862966269 0 0.022918712775297872 -0.00038102056162639126 0 0.0231271002512764 -0.00049010004330298006 0 0.023112305843811121 -0.00048312511597009382 0 0.02288907354761744 -0.00041157367950013567 0 0.022918712775297872 -0.00038102056162639126 0 0.023112305843811121 -0.00048312511597009382 0 0.023363440876381699 -0.00072023428087320852 0 0.023275552154977456 -0.00071940654974038387 0 0.023299459612957759 -0.0008257106477354291 0 0.021548091253551165 0.00047846506079954223 0 0.020810330547668034 0.0011672974661693291 0 0.022918712775297872 -0.00038102056162639126 0 0.0231271002512764 -0.00049010004330298006 0 0.023215857564974293 -0.00028928684598070734 0 0.023363440876381699 -0.00072023428087320852 0 0.023323502539747985 -0.00065231762938444617 0 0.023408703597155418 -0.00061301232758077622 0 0.023323502539747985 -0.00065231762938444617 0 0.023408703597155418 -0.00061301232758077622 0 0.023365920290807363 -0.00058998759842326324 0 0.023363440876381699 -0.00072023428087320852 0 0.023323502539747985 -0.00065231762938444617 0 0.023275552154977456 -0.00071940654974038387 0 0.0231271002512764 -0.00049010004330298006 0 0.023408703597155418 -0.00061301232758077622 0 0.023112305843811121 -0.00048312511597009382 0 0.021548091253551165 0.00047846506079954223 0 0.021782048005751658 0.0002788146095450054 0 0.023952212173003889 -0.00071046342005292348 0 0.023408703597155418 -0.00061301232758077622 0 0.023558091620764256 -0.00056189984668294384 0 0.023558091620764256 -0.00056189984668294384 0 0.023824612404077461 -0.00038117109927811619 0 0.023316110095868932 -0.00035406793264668201 0 0.023952212173003889 -0.00071046342005292348 0 0.023558091620764256 -0.00056189984668294384 0 0.023824612404077461 -0.00038117109927811619 0 0.023558091620764256 -0.00056189984668294384 0 0.023316110095868932 -0.00035406793264668201 0 0.023365920290807363 -0.00058998759842326324 0 0.023408703597155418 -0.00061301232758077622 0 0.023558091620764256 -0.00056189984668294384 0 0.023365920290807363 -0.00058998759842326324 0 0.023316110095868932 -0.00035406793264668201 0 0.023365920290807363 -0.00058998759842326324 0 0.023268342112006738 -0.00058212125941177917 0 0.023323502539747985 -0.00065231762938444617 0 0.023365920290807363 -0.00058998759842326324 0 0.023268342112006738 -0.00058212125941177917 0 0.023268342112006738 -0.00058212125941177917 0 0.023173516962042305 -0.00054862739065070091 0 0.023217794331690304 -0.00065206550469480934 0 0.023316110095868932 -0.00035406793264668201 0 0.023268342112006738 -0.00058212125941177917 0 0.023173516962042305 -0.00054862739065070091 0 0.029023406762101019 0.00032538206538426385 0 0.028526981955593028 0.0001834928674872883 0 0.028453819332081489 -0.00015682269209035446 0 0.025973211746030022 0.00029435113844273085 0 0.025032428083335678 0.00040610866466288541 0 0.028610878055351622 0.00042857982349919809 0 0.029023406762101019 0.00032538206538426385 0 0.028526981955593028 0.0001834928674872883 0 0.028610878055351622 0.00042857982349919809 0 0.028526981955593028 0.0001834928674872883 0 0.028287507182500209 0.00031110803596011199 0 0.028526981955593028 0.0001834928674872883 0 0.028287507182500209 0.00031110803596011199 0 0.028214041245076933 4.2798307391211502e-06 0 0.028526981955593028 0.0001834928674872883 0 0.028214041245076933 4.2798307391211502e-06 0 0.028453819332081489 -0.00015682269209035446 0 0.028287507182500209 0.00031110803596011199 0 0.028214041245076933 4.2798307391211502e-06 0 0.02796763313676499 0.00019743884541894639 0 0.025032428083335678 0.00040610866466288541 0 0.022869966306861621 0.00066868053707973762 0 0.028214041245076933 4.2798307391211502e-06 0 0.028453819332081489 -0.00015682269209035446 0 0.027601014581246568 -0.00078795991721344384 0 0.023147604004752839 -0.00064828133420802368 0 0.023165678844715064 -0.00074026454437087382 0 0.023035548359363663 -0.00065092919267831846 0 0.023173516962042305 -0.00054862739065070091 0 0.023147604004752839 -0.00064828133420802368 0 0.023035548359363663 -0.00065092919267831846 0 0.023173516962042305 -0.00054862739065070091 0 0.023147604004752839 -0.00064828133420802368 0 0.023217794331690304 -0.00065206550469480934 0 0.023147604004752839 -0.00064828133420802368 0 0.023217794331690304 -0.00065206550469480934 0 0.023165678844715064 -0.00074026454437087382 0 0.023217794331690304 -0.00065206550469480934 0 0.023275552154977456 -0.00071940654974038387 0 0.023165678844715064 -0.00074026454437087382 0 0.023323502539747985 -0.00065231762938444617 0 0.023268342112006738 -0.00058212125941177917 0 0.023217794331690304 -0.00065206550469480934 0 0.023323502539747985 -0.00065231762938444617 0 0.023217794331690304 -0.00065206550469480934 0 0.023275552154977456 -0.00071940654974038387 0 0.019870345998617419 0.0013147443062961573 0 0.019830031346116078 0.0013580157876486225 0 0.019980632234531514 0.0012588874271267298 0 0.023275552154977456 -0.00071940654974038387 0 0.023165678844715064 -0.00074026454437087382 0 0.023299459612957759 -0.0008257106477354291 0 0.021785082558848982 0.00076030921219038628 0 0.020810330547668034 0.0011672974661693291 0 0.019870345998617419 0.0013147443062961573 0 0.019830031346116078 0.0013580157876486225 0 0.019764262691855206 0.0013481415496239572 0 0.019642550682358029 0.0012427309067571746 0 0.019471410134261107 0.0012457008444329409 0 0.019870345998617419 0.0013147443062961573 0 0.01976544216195348 0.0012454842535980577 0 0.019532672802499006 0.0013954363733503466 0 0.013140536334732101 0.0042233511367162808 0 0.013159458845874191 0.0036768868717548704 0 0.012426437527188559 0.0037520630389194466 0 0.019870345998617419 0.0013147443062961573 0 0.01976544216195348 0.0012454842535980577 0 0.019971523244872381 0.0012323111290462401 0 0.013140536334732101 0.0042233511367162808 0 0.013159458845874191 0.0036768868717548704 0 0.014041163379056604 0.0039859713277074294 0 0.017314561869129438 0.0020605482392629416 0 0.020252448651679765 0.0014030295865649785 0 0.013159458845874191 0.0036768868717548704 0 0.014041163379056604 0.0039859713277074294 0 0.0137167116335777 0.0034568379910969553 0 0.019870345998617419 0.0013147443062961573 0 0.019971523244872381 0.0012323111290462401 0 0.019980632234531514 0.0012588874271267298 0 0.020252448651679765 0.0014030295865649785 0 0.020810330547668034 0.0011672974661693291 0 0.020252448651679765 0.0014030295865649785 0 0.018509104779071625 0.00086506425839477186 0 0.022138728442802163 -0.00012916251941003825 0 0.022118891365735048 -0.00016079848034238406 0 0.02216050812854347 -0.00015920721044005657 0 0.0137167116335777 0.0034568379910969553 0 0.013317400310110963 0.0033047809302238669 0 0.013077768614593739 0.0024259932125381273 0 0.013159458845874191 0.0036768868717548704 0 0.012808285162319692 0.0033135200715529475 0 0.012426437527188559 0.0037520630389194466 0 0.013159458845874191 0.0036768868717548704 0 0.0137167116335777 0.0034568379910969553 0 0.013317400310110963 0.0033047809302238669 0 0.013159458845874191 0.0036768868717548704 0 0.013317400310110963 0.0033047809302238669 0 0.012808285162319692 0.0033135200715529475 0 0.013317400310110963 0.0033047809302238669 0 0.012808285162319692 0.0033135200715529475 0 0.012814391088503829 0.00292249340752357 0 0.018509104779071625 0.00086506425839477186 0 0.015858268507324528 0.00093125560088154729 0 0.013317400310110963 0.0033047809302238669 0 0.012814391088503829 0.00292249340752357 0 0.013077768614593739 0.0024259932125381273 0 0.012814391088503829 0.00292249340752357 0 0.013077768614593739 0.0024259932125381273 0 0.012554139610133261 0.0025384351231896433 0 0.015858268507324528 0.00093125560088154729 0 0.015064338126927621 0.0011451328018720135 0 0.013324676884811235 0.0025822289616346163 0 0.013182169521447868 0.0023439765803309584 0 0.012554139610133261 0.0025384351231896433 0 0.013182169521447868 0.0023439765803309584 0 0.01405781928885028 0.0021122595791256723 0 0.012793541120446471 0.0014367220731265934 0 0.015858268507324528 0.00093125560088154729 0 0.015823262094168643 0.00095355046947646134 0 0.013411456275701238 0.0028038588749640754 0 0.013182169521447868 0.0023439765803309584 0 0.01405781928885028 0.0021122595791256723 0 0.015858268507324528 0.00093125560088154729 0 0.017183067437152144 0.0011046058255241612 0 0.01405781928885028 0.0021122595791256723 0 0.01562030112534684 0.0027876271306194779 0 0.014974314823190789 0.0012230133201289344 0 0.013411456275701238 0.0028038588749640754 0 0.01405781928885028 0.0021122595791256723 0 0.01562030112534684 0.0027876271306194779 0 0.017596786018578104 0.00084527372181020851 0 0.018016806617057197 0.0010392641825866949 0 0.018210149032750849 0.00074099027333955592 0 0.017943473058486172 0.0014239221334507025 0 0.017596786018578104 0.00084527372181020851 0 0.018016806617057197 0.0010392641825866949 0 0.017943473058486172 0.0014239221334507025 0 0.018016806617057197 0.0010392641825866949 0 0.018383344887519585 0.0010310978586249376 0 0.018016806617057197 0.0010392641825866949 0 0.018383344887519585 0.0010310978586249376 0 0.018210149032750849 0.00074099027333955592 0 0.01562030112534684 0.0027876271306194779 0 0.016398581433817869 0.0017775391373951476 0 0.014974314823190789 0.0012230133201289344 0 0.018383344887519585 0.0010310978586249376 0 0.018210149032750849 0.00074099027333955592 0 0.018827385004390178 0.00063815691748807615 0 0.01562030112534684 0.0027876271306194779 0 0.017321104024590514 0.0019934627437401833 0 0.016398581433817869 0.0017775391373951476 0 0.019604037644609901 0.0004064308451909327 0 0.019409426457281154 0.00071075867407306269 0 0.01562030112534684 0.0027876271306194779 0 0.018409834533824061 0.0026837583718883956 0 0.017321104024590514 0.0019934627437401833 0 0.017183067437152144 0.0011046058255241612 0 0.019409426457281154 0.00071075867407306269 0 0.018409834533824061 0.0026837583718883956 0 0.017321104024590514 0.0019934627437401833 0 0.01874674473379348 0.0015431946539387876 0 0.022037356235833371 -0.00019216175235420782 0 0.022240355898377508 -0.00012260403425487978 0 0.021716510862777986 -0.00024460425031872803 0 0.02185008055899058 0.00033129677179765711 0 0.022037356235833371 -0.00019216175235420782 0 0.021716510862777986 -0.00024460425031872803 0 0.022224220791053694 -0.0001726860641122818 0 0.02185008055899058 0.00033129677179765711 0 0.022037356235833371 -0.00019216175235420782 0 0.022224220791053694 -0.0001726860641122818 0 0.022037356235833371 -0.00019216175235420782 0 0.022160502244802035 -0.00017609058569327345 0 0.023023448362816116 -0.00016711972367164642 0 0.022532164326081978 -0.00018458993445138159 0 0.022240355898377508 -0.00012260403425487978 0 0.021473358910016765 0.00081797751296550428 0 0.02214536702436657 0.00028199341466308097 0 0.022160502244802035 -0.00017609058569327345 0 0.022154799246931679 -0.00013678891585658558 0 0.022240355898377508 -0.00012260403425487978 0 0.022037356235833371 -0.00019216175235420782 0 0.022160502244802035 -0.00017609058569327345 0 0.022240355898377508 -0.00012260403425487978 0 0.018509104779071625 0.00086506425839477186 0 0.019604037644609901 0.0004064308451909327 0 0.022224220791053694 -0.0001726860641122818 0 0.022160502244802035 -0.00017609058569327345 0 0.02216050812854347 -0.00015920721044005657 0 0.022118891365735048 -0.00016079848034238406 0 0.022224220791053694 -0.0001726860641122818 0 0.02216050812854347 -0.00015920721044005657 0 0.022160502244802035 -0.00017609058569327345 0 0.02216050812854347 -0.00015920721044005657 0 0.022154799246931679 -0.00013678891585658558 0 0.022918712775297872 -0.00038102056162639126 0 0.023076024910033653 -0.00020113807710967919 0 0.023215857564974293 -0.00028928684598070734 0 0.020252448651679765 0.0014030295865649785 0 0.021473358910016765 0.00081797751296550428 0 0.021073959163582592 0.0015288522285665219 0 0.020945098936987667 0.0015621880003353649 0 0.021050873758745751 0.0014894920819972467 0 0.022138728442802163 -0.00012916251941003825 0 0.02216050812854347 -0.00015920721044005657 0 0.022154799246931679 -0.00013678891585658558 0 0.021473358910016765 0.00081797751296550428 0 0.020810330547668034 0.0011672974661693291 0 0.021473358910016765 0.00081797751296550428 0 0.022006452360602207 0.00059495650901144985 0 0.022918712775297872 -0.00038102056162639126 0 0.022532164326081978 -0.00018458993445138159 0 0.022586399490970979 -0.00027381591862966269 0 0.022918712775297872 -0.00038102056162639126 0 0.023076024910033653 -0.00020113807710967919 0 0.022532164326081978 -0.00018458993445138159 0 0.022586399490970979 -0.00027381591862966269 0 0.022532875401075209 -0.00032708087297729293 0 0.02229808986910823 -0.00017880782898695212 0 0.022586399490970979 -0.00027381591862966269 0 0.02229808986910823 -0.00017880782898695212 0 0.022347918873223054 -0.00015287918103297065 0 0.022532164326081978 -0.00018458993445138159 0 0.022586399490970979 -0.00027381591862966269 0 0.022347918873223054 -0.00015287918103297065 0 0.022532875401075209 -0.00032708087297729293 0 0.02229808986910823 -0.00017880782898695212 0 0.022162266275473179 -0.0002803934557448314 0 0.02229808986910823 -0.00017880782898695212 0 0.021931692188685566 -1.8252883458044341e-05 0 0.022162266275473179 -0.0002803934557448314 0 0.02229808986910823 -0.00017880782898695212 0 0.021931692188685566 -1.8252883458044341e-05 0 0.022083432727944836 -3.9455568195042517e-05 0 0.02229808986910823 -0.00017880782898695212 0 0.022083432727944836 -3.9455568195042517e-05 0 0.022347918873223054 -0.00015287918103297065 0 0.022532164326081978 -0.00018458993445138159 0 0.022347918873223054 -0.00015287918103297065 0 0.022240355898377508 -0.00012260403425487978 0 0.022083432727944836 -3.9455568195042517e-05 0 0.022347918873223054 -0.00015287918103297065 0 0.022240355898377508 -0.00012260403425487978 0 0.022083432727944836 -3.9455568195042517e-05 0 0.022240355898377508 -0.00012260403425487978 0 0.021716510862777986 -0.00024460425031872803 0 0.02185008055899058 0.00033129677179765711 0 0.021716510862777986 -0.00024460425031872803 0 0.020676351694570737 0.00049885462186879698 0 0.021442170879587493 0.00044841425509286925 0 0.020676351694570737 0.00049885462186879698 0 0.020087521625113968 0.00094408711019309253 0 0.019409426457281154 0.00071075867407306269 0 0.019792366489165977 0.00064667430444187326 0 0.020676351694570737 0.00049885462186879698 0 0.01957121431560236 0.00044290276655421497 0 0.019105049287115202 -0.00049417063248178455 0 0.021716510862777986 -0.00024460425031872803 0 0.020676351694570737 0.00049885462186879698 0 0.019105049287115202 -0.00049417063248178455 0 0.021931692188685566 -1.8252883458044341e-05 0 0.022083432727944836 -3.9455568195042517e-05 0 0.021830930180701189 0.00044241888190778251 0 0.022083432727944836 -3.9455568195042517e-05 0 0.021716510862777986 -0.00024460425031872803 0 0.021830930180701189 0.00044241888190778251 0 0.020860020363623392 -6.7959409649285499e-05 0 0.020281262843127104 -3.6713846437013144e-05 0 0.01957121431560236 0.00044290276655421497 0 0.019105049287115202 -0.00049417063248178455 0 0.018493875132168238 -4.8171995272380831e-05 0 0.019105049287115202 -0.00049417063248178455 0 0.018493875132168238 -4.8171995272380831e-05 0 0.01899453173295217 -7.2314387152051277e-07 0 0.018493875132168238 -4.8171995272380831e-05 0 0.017871360022210986 -4.0215406198738302e-07 0 0.01899453173295217 -7.2314387152051277e-07 0 0.021830930180701189 0.00044241888190778251 0 0.019001305501655293 2.1535857974753194e-06 0 0.02114132550586759 -0.00017158784236037536 0 0.020281262843127104 -3.6713846437013144e-05 0 0.018998754903642501 -7.631313990340445e-08 0 0.019001305501655293 2.1535857974753194e-06 0 0.02114132550586759 -0.00017158784236037536 0 0.021058494003664639 -1.1218730082148558e-06 0 0.021931692188685566 -1.8252883458044341e-05 0 0.02114132550586759 -0.00017158784236037536 0 0.022162266275473179 -0.0002803934557448314 0 0.021931692188685566 -1.8252883458044341e-05 0 0.021830930180701189 0.00044241888190778251 0 0.02114132550586759 -0.00017158784236037536 0 0.02114132550586759 -0.00017158784236037536 0 0.022153047837673308 -0.00026722420895747355 0 0.022162266275473179 -0.0002803934557448314 0 0.02114132550586759 -0.00017158784236037536 0 0.022153047837673308 -0.00026722420895747355 0 0.021058494003664639 -1.1218730082148558e-06 0 0.020193698912710334 0.00010661800583720302 0 0.021595775474950424 -0.00040900287272675658 0 0.018710825419859731 -0.00062162552684742094 0 0.019362168105343615 0.00031422182485695406 0 0.020349800042364728 -0.00092791521926804054 0 0.022814080652862643 -0.00037034872859585563 0 0.022780718344225924 -0.00034113399682455229 0 0.022855329871144824 -0.00035825533735243936 0 0.022814080652862643 -0.00037034872859585563 0 0.022855329871144824 -0.00035825533735243936 0 0.022832471831715089 -0.00038906157606369616 0 0.022814080652862643 -0.00037034872859585563 0 0.022780718344225924 -0.00034113399682455229 0 0.022787781480812154 -0.00039269790712909321 0 0.02225248375906929 0.00018451350093123513 0 0.022284676907342201 0.00022518449271042367 0 0.022304505224761666 0.00020494652803350186 0 0.020193698912710334 0.00010661800583720302 0 0.022918418873198312 0.00012990158571125139 0 0.017511990562551118 0.00082211502329096204 0 0.017217259868000202 0.00088551639200449563 0 0.017321833452564325 0.00094854881687264213 0 0.020193698912710334 0.00010661800583720302 0 0.019681576614421072 0.00063230777117021365 0 0.017511990562551118 0.00082211502329096204 0 0.017435047544864767 0.0010747342592922053 0 0.01762202014498886 0.00098100792054723099 0 0.017511990562551118 0.00082211502329096204 0 0.017435047544864767 0.0010747342592922053 0 0.017321833452564325 0.00094854881687264213 0 0.01502867634345521 0.0014803259945116397 0 0.01756947775912978 5.8958807460400403e-05 0 0.020193698912710334 0.00010661800583720302 0 0.01756947775912978 5.8958807460400403e-05 0 0.01756947775912978 5.8958807460400403e-05 0 0.020478301098775981 -0.00055144264635816921 0 0.020565037367257767 -0.00054738723338940468 0 0.021050157868812529 -0.00044043472496112983 0 0.020947960045525314 -0.00073414603650518925 0 0.021050157868812529 -0.00044043472496112983 0 0.021354847999904839 -0.00063773341280831501 0 0.020947960045525314 -0.00073414603650518925 0 0.021050157868812529 -0.00044043472496112983 0 0.021354847999904839 -0.00063773341280831501 0 0.021318447645246652 -0.00038740946277107273 0 0.021994207365381008 -0.001234664304710734 0 0.022225190666818672 -0.001094007892426041 0 0.020792032966385467 -0.0003888094504369912 0 0.022734850361124891 -0.00091255484660693288 0 0.020478301098775981 -0.00055144264635816921 0 0.021354847999904839 -0.00063773341280831501 0 0.021329214799445672 -0.00092050928578164197 0 0.020947960045525314 -0.00073414603650518925 0 0.026056164805923213 -0.0007066550863637749 0 0.025960007196918395 -0.00057203405310094391 0 0.025991496224554198 -0.00052461403136488342 0 0.022908180298979158 -0.00080699342001320758 0 0.022921724288795197 -0.00080857338694477184 0 0.02592237987629778 -0.00056494014275298597 0 0.025960007196918395 -0.00057203405310094391 0 0.025991496224554198 -0.00052461403136488342 0 0.022908180298979158 -0.00080699342001320758 0 0.022734850361124891 -0.00091255484660693288 0 0.021994207365381008 -0.001234664304710734 0 0.020792032966385467 -0.0003888094504369912 0 0.020349800042364728 -0.00092791521926804054 0 0.019362168105343615 0.00031422182485695406 0 0.020792032966385467 -0.0003888094504369912 0 0.020349800042364728 -0.00092791521926804054 0 0.02292852104961144 -0.00037532768466502715 0 0.022855329871144824 -0.00035825533735243936 0 0.022881480319905275 -0.00040110775624647928 0 0.022908180298979158 -0.00080699342001320758 0 0.021595775474950424 -0.00040900287272675658 0 0.02561020980991275 -0.0007511997851729537 0 0.025810092702223966 -0.0010185035179631678 0 0.025291725010045216 -0.00094252853545470291 0 0.022855329871144824 -0.00035825533735243936 0 0.022881480319905275 -0.00040110775624647928 0 0.022832471831715089 -0.00038906157606369616 0 0.024069408671876107 -0.0006311136172104609 0 0.025058294908111168 -0.00054774888298211096 0 0.022881480319905275 -0.00040110775624647928 0 0.022835058616520153 -0.00042634362409888025 0 0.022832471831715089 -0.00038906157606369616 0 0.026056164805923213 -0.0007066550863637749 0 0.026125980384432392 -0.00087313398019212972 0 0.025914985104916161 -0.00074771906688951464 0 0.025923972474953295 -0.00056488137161107995 0 0.025960007196918395 -0.00057203405310094391 0 0.025914985104916161 -0.00074771906688951464 0 0.026056164805923213 -0.0007066550863637749 0 0.025960007196918395 -0.00057203405310094391 0 0.025914985104916161 -0.00074771906688951464 0 0.022908180298979158 -0.00080699342001320758 0 0.024069408671876107 -0.0006311136172104609 0 0.025923972474953295 -0.00056488137161107995 0 0.02561020980991275 -0.0007511997851729537 0 0.025914985104916161 -0.00074771906688951464 0 0.02561020980991275 -0.0007511997851729537 0 0.025914985104916161 -0.00074771906688951464 0 0.025810092702223966 -0.0010185035179631678 0 0.026125980384432392 -0.00087313398019212972 0 0.025914985104916161 -0.00074771906688951464 0 0.025810092702223966 -0.0010185035179631678 0 0.02674426111579721 -0.0011130043445287735 0 0.026714509765817004 -0.001106171971489266 0 0.026725258898152436 -0.0011209284867526174 0 0.026702068878497895 -0.0011218919686548732 0 0.026714509765817004 -0.001106171971489266 0 0.026725258898152436 -0.0011209284867526174 0 0.026047636585897857 -0.00084854973009147554 0 0.025058294908111168 -0.00054774888298211096 0 0.026702068878497895 -0.0011218919686548732 0 0.026714509765817004 -0.001106171971489266 0 0.02668393977720564 -0.0011002826217963555 0 0.025058294908111168 -0.00054774888298211096 0 0.027140928130543866 -0.00026859485725776243 0 0.026680065503703054 -0.0011169724491805913 0 0.02668393977720564 -0.0011002826217963555 0 0.026658791872259602 -0.0011152505728593116 0 0.026702068878497895 -0.0011218919686548732 0 0.026680065503703054 -0.0011169724491805913 0 0.02668393977720564 -0.0011002826217963555 0 0.025058294908111168 -0.00054774888298211096 0 0.024211006162131669 -0.00019319194197766745 0 0.022835058616520153 -0.00042634362409888025 0 0.022787781480812154 -0.00039269790712909321 0 0.022786674564038715 -0.00041580731238495327 0 0.022814080652862643 -0.00037034872859585563 0 0.022832471831715089 -0.00038906157606369616 0 0.022787781480812154 -0.00039269790712909321 0 0.022835058616520153 -0.00042634362409888025 0 0.022832471831715089 -0.00038906157606369616 0 0.022787781480812154 -0.00039269790712909321 0 0.022780718344225924 -0.00034113399682455229 0 0.022741295989354607 -0.00039724312666273155 0 0.022787781480812154 -0.00039269790712909321 0 0.022918418873198312 0.00012990158571125139 0 0.022873948122181183 9.0593919646860527e-05 0 0.02275631814951001 -0.00039616084542445435 0 0.022787781480812154 -0.00039269790712909321 0 0.022786674564038715 -0.00041580731238495327 0 0.024211006162131669 -0.00019319194197766745 0 0.023418353221045143 0.00018094271325943656 0 0.02275631814951001 -0.00039616084542445435 0 0.022786674564038715 -0.00041580731238495327 0 0.022749112200173113 -0.00040639833026636946 0 0.02547338165816113 -0.00023352067652700729 0 0.025334730457314037 -0.00051695821865173895 0 0.025210302717605066 -0.00019159391737404231 0 0.025734371306607672 -0.0002736215846227894 0 0.02547338165816113 -0.00023352067652700729 0 0.025334730457314037 -0.00051695821865173895 0 0.027140928130543866 -0.00026859485725776243 0 0.027465552642339519 -0.00015883177501971901 0 0.027465552642339519 -0.00015883177501971901 0 0.026324168069404026 4.8688393918232057e-05 0 0.02667993621652014 -0.00045749271998118198 0 0.026562850318521947 -0.00052895063341061837 0 0.025654269583810174 8.9499906568555162e-05 0 0.025334730457314037 -0.00051695821865173895 0 0.025210302717605066 -0.00019159391737404231 0 0.02500594093650222 -0.00014695524778264062 0 0.027140928130543866 -0.00026859485725776243 0 0.024133800322347177 0.00021247422494567595 0 0.02667993621652014 -0.00045749271998118198 0 0.025654269583810174 8.9499906568555162e-05 0 0.025553267758411744 0.00081303105441864556 0 0.027016189499273667 0.00061081598287290797 0 0.026608791300452999 0.0003582686088251251 0 0.026950625115734855 0.00012536677787596508 0 0.027016189499273667 0.00061081598287290797 0 0.026950625115734855 0.00012536677787596508 0 0.027525390313708188 0.00036580573577489839 0 0.026950625115734855 0.00012536677787596508 0 0.0272938936952552 -0.00010812908333810783 0 0.027525390313708188 0.00036580573577489839 0 0.026324168069404026 4.8688393918232057e-05 0 0.025230520593051798 0.00021153223409127843 0 0.024267212801562528 0.00021053133661121359 0 0.025230520593051798 0.00021153223409127843 0 0.022355938136166157 0.00019594957915571788 0 0.022359619487465818 0.00019326613583386476 0 0.0223521511926329 0.00019748969687943338 0 0.025654269583810174 8.9499906568555162e-05 0 0.025388628805750105 0.00079152839887999663 0 0.024747718364020618 0.0007080903541006624 0 0.022355938136166157 0.00019594957915571788 0 0.0223521511926329 0.00019748969687943338 0 0.02234602083338167 0.00019717690561361751 0 0.02420672633521468 0.00021692410801163537 0 0.024267212801562528 0.00021053133661121359 0 0.02235926833431812 0.00019583944205398487 0 0.022361465146559446 0.00019634284747218302 0 0.02234602083338167 0.00019717690561361751 0 0.024133800322347177 0.00021247422494567595 0 0.023644896653037921 0.00047543817409195717 0 0.022355938136166157 0.00019594957915571788 0 0.02235926833431812 0.00019583944205398487 0 0.02234602083338167 0.00019717690561361751 0 0.022284676907342201 0.00022518449271042367 0 0.022319320415281972 0.00022886428055235233 0 0.022304505224761666 0.00020494652803350186 0 0.022918418873198312 0.00012990158571125139 0 0.024133800322347177 0.00021247422494567595 0 0.023600250270318084 0.00037434736758897681 0 0.023582907466248478 0.00034882110107271414 0 0.023516446356614054 0.00036340116123050335 0 0.023418353221045143 0.00018094271325943656 0 0.024133800322347177 0.00021247422494567595 0 0.022918418873198312 0.00012990158571125139 0 0.023418353221045143 0.00018094271325943656 0 0.025654269583810174 8.9499906568555162e-05 0 0.025388628805750105 0.00079152839887999663 0 0.025553267758411744 0.00081303105441864556 0 0.024267212801562528 0.00021053133661121359 0 0.024133800322347177 0.00021247422494567595 0 0.028031932698064633 0.00053630394496928155 0 0.02796763313676499 0.00019743884541894639 0 0.027525390313708188 0.00036580573577489839 0 0.028214041245076933 4.2798307391211502e-06 0 0.02796763313676499 0.00019743884541894639 0 0.027764260273286576 -4.6673852111052093e-05 0 0.028031932698064633 0.00053630394496928155 0 0.028287507182500209 0.00031110803596011199 0 0.02796763313676499 0.00019743884541894639 0 0.02796763313676499 0.00019743884541894639 0 0.027525390313708188 0.00036580573577489839 0 0.027764260273286576 -4.6673852111052093e-05 0 0.0272938936952552 -0.00010812908333810783 0 0.027525390313708188 0.00036580573577489839 0 0.027764260273286576 -4.6673852111052093e-05 0 0.026685045751169804 -0.00018202888686477954 0 0.027450679852299622 -8.0896842136334712e-05 0 0.027601014581246568 -0.00078795991721344384 0 0.025230520593051798 0.00021153223409127843 0 0.022869966306861621 0.00066868053707973762 0 0.025230520593051798 0.00021153223409127843 0 0.02689854645567983 0.00023094798534397548 0 0.028214041245076933 4.2798307391211502e-06 0 0.027450679852299622 -8.0896842136334712e-05 0 0.027601014581246568 -0.00078795991721344384 0 0.027401016375632976 0.0002368691785789483 0 0.02689854645567983 0.00023094798534397548 0 0.021785082558848982 0.00076030921219038628 0 0.022869966306861621 0.00066868053707973762 0 0.0223521511926329 0.00019748969687943338 0 0.022358550659602374 0.00019945471585677677 0 0.02234602083338167 0.00019717690561361751 0 0.022358550659602374 0.00019945471585677677 0 0.022348681428328986 0.00018478023791504257 0 0.02234602083338167 0.00019717690561361751 0 0.022869966306861621 0.00066868053707973762 0 0.018916206983754312 0.0012449116287873681 0 0.012226903681743019 0.0044529152608959377 0 0.011333943135926578 0.0046603680584639392 0 0.011682137381144177 0.0040534199372287104 0 0.016425994688634597 0.0019984321275270732 0 0.017112135226263304 0.0012232675194999757 0 0.019125092596723021 0.0014667709099739513 0 0.019532672802499006 0.0013954363733503466 0 0.019421167099671208 0.0013171985488232086 0 0.019125092596723021 0.0014667709099739513 0 0.019421167099671208 0.0013171985488232086 0 0.019040596317317124 0.0014064102582456708 0 0.018916206983754312 0.0012449116287873681 0 0.019471410134261107 0.0012457008444329409 0 0.019752577905409435 0.0014005712763788566 0 0.019698863498236966 0.0013595071100392638 0 0.019764262691855206 0.0013481415496239572 0 0.01976544216195348 0.0012454842535980577 0 0.019532672802499006 0.0013954363733503466 0 0.019421167099671208 0.0013171985488232086 0 0.017314561869129438 0.0020605482392629416 0 0.016425994688634597 0.0019984321275270732 0 0.019830031346116078 0.0013580157876486225 0 0.019752577905409435 0.0014005712763788566 0 0.019764262691855206 0.0013481415496239572 0 0.02225248375906929 0.00018451350093123513 0 0.02230949076972984 0.00017862174647147641 0 0.022304505224761666 0.00020494652803350186 0 0.02230949076972984 0.00017862174647147641 0 0.022304505224761666 0.00020494652803350186 0 0.02234602083338167 0.00019717690561361751 0 0.022319320415281972 0.00022886428055235233 0 0.022304505224761666 0.00020494652803350186 0 0.02234602083338167 0.00019717690561361751 0 0.022348681428328986 0.00018478023791504257 0 0.02230949076972984 0.00017862174647147641 0 0.02234602083338167 0.00019717690561361751 0 0.017112135226263304 0.0012232675194999757 0 0.017138882838302113 0.0011841658487145963 0 0.017112135226263304 0.0012232675194999757 0 0.013761171036778527 0.002271612233535713 0 0.018916206983754312 0.0012449116287873681 0 0.019681576614421072 0.00063230777117021365 0 0.016980195674669123 0.00097809000148172862 0 0.017241741075285606 0.0010237412207336884 0 0.017203515294310998 0.00091904651322580579 0 0.017217259868000202 0.00088551639200449563 0 0.017047044092309241 0.00097172875208886096 0 0.017203515294310998 0.00091904651322580579 0 0.017004272850798769 0.00094343633030488303 0 0.017217259868000202 0.00088551639200449563 0 0.017047044092309241 0.00097172875208886096 0 0.018916206983754312 0.0012449116287873681 0 0.017112135226263304 0.0012232675194999757 0 0.016980195674669123 0.00097809000148172862 0 0.017241741075285606 0.0010237412207336884 0 0.017250848140357052 0.0011682641928453964 0 0.017241741075285606 0.0010237412207336884 0 0.017203515294310998 0.00091904651322580579 0 0.017321833452564325 0.00094854881687264213 0 0.017217259868000202 0.00088551639200449563 0 0.017203515294310998 0.00091904651322580579 0 0.017321833452564325 0.00094854881687264213 0 0.017435047544864767 0.0010747342592922053 0 0.017241741075285606 0.0010237412207336884 0 0.017321833452564325 0.00094854881687264213 0 0.017435047544864767 0.0010747342592922053 0 0.017241741075285606 0.0010237412207336884 0 0.017250848140357052 0.0011682641928453964 0 0.010380035945516824 0.0037686266550035733 0 0.010947994489250672 0.0036173288511031328 0 0.010323780516193426 0.0033415843506426251 0 0.013761171036778527 0.002271612233535713 0 0.012116564897463855 0.0020606355106903528 0 0.010380035945516824 0.0037686266550035733 0 0.010323780516193426 0.0033415843506426251 0 0.010029233297622581 0.0033620861589016005 0 0.013761171036778527 0.002271612233535713 0 0.012210711668252586 0.0030528611434590311 0 0.011333943135926578 0.0046603680584639392 0 0.010474851661034694 0.0040390876739179885 0 0.011090275976232017 0.0037352889499623022 0 0.011333943135926578 0.0046603680584639392 0 0.011090275976232017 0.0037352889499623022 0 0.011682137381144177 0.0040534199372287104 0 0.010947994489250672 0.0036173288511031328 0 0.010943799799432932 0.0030590142437141783 0 0.010323780516193426 0.0033415843506426251 0 0.010947994489250672 0.0036173288511031328 0 0.010943799799432932 0.0030590142437141783 0 0.01168883194856722 0.0034128244342560938 0 0.012210711668252586 0.0030528611434590311 0 0.011953385319730538 0.0031884361449863855 0 0.010943799799432932 0.0030590142437141783 0 0.010323780516193426 0.0033415843506426251 0 0.010369257191929526 0.0029082371064127087 0 0.010323780516193426 0.0033415843506426251 0 0.010369257191929526 0.0029082371064127087 0 0.010075121837937436 0.0031440549270636592 0 0.013140536334732101 0.0042233511367162808 0 0.012226903681743019 0.0044529152608959377 0 0.012426437527188559 0.0037520630389194466 0 0.012226903681743019 0.0044529152608959377 0 0.012426437527188559 0.0037520630389194466 0 0.011682137381144177 0.0040534199372287104 0 0.012426437527188559 0.0037520630389194466 0 0.011682137381144177 0.0040534199372287104 0 0.01168883194856722 0.0034128244342560938 0 0.011090275976232017 0.0037352889499623022 0 0.011682137381144177 0.0040534199372287104 0 0.01168883194856722 0.0034128244342560938 0 0.01168883194856722 0.0034128244342560938 0 0.012322039405701332 0.0030603010292808101 0 0.011765617979168187 0.0025834531904147104 0 0.010943799799432932 0.0030590142437141783 0 0.01168883194856722 0.0034128244342560938 0 0.011765617979168187 0.0025834531904147104 0 0.012808285162319692 0.0033135200715529475 0 0.012426437527188559 0.0037520630389194466 0 0.012322039405701332 0.0030603010292808101 0 0.012426437527188559 0.0037520630389194466 0 0.01168883194856722 0.0034128244342560938 0 0.012322039405701332 0.0030603010292808101 0 0.012808285162319692 0.0033135200715529475 0 0.012814391088503829 0.00292249340752357 0 0.012322039405701332 0.0030603010292808101 0 0.012322039405701332 0.0030603010292808101 0 0.012554139610133261 0.0025384351231896433 0 0.011765617979168187 0.0025834531904147104 0 0.012554139610133261 0.0025384351231896433 0 0.011765617979168187 0.0025834531904147104 0 0.012303978021849512 0.0020917294675976005 0 0.012814391088503829 0.00292249340752357 0 0.012322039405701332 0.0030603010292808101 0 0.012554139610133261 0.0025384351231896433 0 0.011765617979168187 0.0025834531904147104 0 0.011384708808426222 0.0015666676756280382 0 0.012303978021849512 0.0020917294675976005 0 0.011765617979168187 0.0025834531904147104 0 0.011384708808426222 0.0015666676756280382 0 0.010874596828333596 0.0023771047470795181 0 0.013182169521447868 0.0023439765803309584 0 0.012554139610133261 0.0025384351231896433 0 0.012303978021849512 0.0020917294675976005 0 0.011384708808426222 0.0015666676756280382 0 0.012303978021849512 0.0020917294675976005 0 0.012793541120446471 0.0014367220731265934 0 0.013182169521447868 0.0023439765803309584 0 0.012303978021849512 0.0020917294675976005 0 0.012793541120446471 0.0014367220731265934 0 0.010369257191929526 0.0029082371064127087 0 0.010874596828333596 0.0023771047470795181 0 0.0099144983051561789 0.0016717751817882766 0 0.010943799799432932 0.0030590142437141783 0 0.011765617979168187 0.0025834531904147104 0 0.010874596828333596 0.0023771047470795181 0 0.010943799799432932 0.0030590142437141783 0 0.010369257191929526 0.0029082371064127087 0 0.010874596828333596 0.0023771047470795181 0 0.011034801591572382 0.0016205205921208219 0 0.010458492954095188 0.001664364453467795 0 0.011384708808426222 0.0015666676756280382 0 0.010874596828333596 0.0023771047470795181 0 0.0099144983051561789 0.0016717751817882766 0 0.010369257191929526 0.0029082371064127087 0 0.0099144983051561789 0.0016717751817882766 0 0.0095446688115340475 0.0019984569909058921 0 0.0095446688115340475 0.0019984569909058921 0 0.0091726274591711482 0.0017772497833899944 0 0.0093594566549862392 0.0014479920921353095 0 0.0099144983051561789 0.0016717751817882766 0 0.0095446688115340475 0.0019984569909058921 0 0.0093594566549862392 0.0014479920921353095 0 0.0095446688115340475 0.0019984569909058921 0 0.0091726274591711482 0.0017772497833899944 0 0.0093776384541959679 0.002482815392808911 0 0.010268864784239532 0.0020636778050166288 0 0.011029344669219289 0.0016839154863647081 0 0.0091726274591711482 0.0017772497833899944 0 0.0093776384541959679 0.002482815392808911 0 0.008819408545556769 0.0021602720022470914 0 0.0099607676198642092 0.0030191895398576827 0 0.0099214736882753604 0.0030961981374051416 0 0.0098901173286939682 0.0030494289171156897 0 0.0099214736882753604 0.0030961981374051416 0 0.0098981061004694941 0.0030863851594268004 0 0.0098901173286939682 0.0030494289171156897 0 0.010369257191929526 0.0029082371064127087 0 0.0099607676198642092 0.0030191895398576827 0 0.010075121837937436 0.0031440549270636592 0 0.010369257191929526 0.0029082371064127087 0 0.0095446688115340475 0.0019984569909058921 0 0.0093776384541959679 0.002482815392808911 0 0.010310957370561225 0.0022271507766241953 0 0.010268864784239532 0.0020636778050166288 0 0.0099607676198642092 0.0030191895398576827 0 0.010075121837937436 0.0031440549270636592 0 0.0099214736882753604 0.0030961981374051416 0 0.010075121837937436 0.0031440549270636592 0 0.010029233297622581 0.0033620861589016005 0 0.0099214736882753604 0.0030961981374051416 0 0.010013659065139006 0.0031202520516614928 0 0.0099214736882753604 0.0030961981374051416 0 0.0099597269036097499 0.0031536334871261336 0 0.010323780516193426 0.0033415843506426251 0 0.010075121837937436 0.0031440549270636592 0 0.010029233297622581 0.0033620861589016005 0 0.012116564897463855 0.0020606355106903528 0 0.011663106218761113 0.0020291608779438586 0 0.0099214736882753604 0.0030961981374051416 0 0.0099025200661046597 0.0031416575551479272 0 0.0098981061004694941 0.0030863851594268004 0 0.009957182159099064 0.0032218123521673245 0 0.0099597269036097499 0.0031536334871261336 0 0.0099025200661046597 0.0031416575551479272 0 0.01756947775912978 5.8958807460400403e-05 0 0.016464549591138543 0.00075505240327361251 0 0.010018881820798511 0.0031988185619209546 0 0.009957182159099064 0.0032218123521673245 0 0.0099597269036097499 0.0031536334871261336 0 0.0099214736882753604 0.0030961981374051416 0 0.0099597269036097499 0.0031536334871261336 0 0.0099025200661046597 0.0031416575551479272 0 0.010018881820798511 0.0031988185619209546 0 0.010013659065139006 0.0031202520516614928 0 0.0099597269036097499 0.0031536334871261336 0 0.010018881820798511 0.0031988185619209546 0 0.010096142343940687 0.0031667492177927842 0 0.010013659065139006 0.0031202520516614928 0 0.01502867634345521 0.0014803259945116397 0 0.013761171036778527 0.002271612233535713 0 0.021050157868812529 -0.00044043472496112983 0 0.021298652342455364 -0.00013677748830505764 0 0.021318447645246652 -0.00038740946277107273 0 0.021050157868812529 -0.00044043472496112983 0 0.021298652342455364 -0.00013677748830505764 0 0.020812197028603777 -0.00020230449194726037 0 0.020565037367257767 -0.00054738723338940468 0 0.021050157868812529 -0.00044043472496112983 0 0.020812197028603777 -0.00020230449194726037 0 0.016464549591138543 0.00075505240327361251 0 0.015845097342639829 0.0012220269640646412 0 0.0099025200661046597 0.0031416575551479272 0 0.0098981061004694941 0.0030863851594268004 0 0.0098762522282332694 0.0030794588750692785 0 0.021298652342455364 -0.00013677748830505764 0 0.020812197028603777 -0.00020230449194726037 0 0.021058165009564932 0.00013556775982070636 0 0.021495856597326418 0.00020002719463805917 0 0.021298652342455364 -0.00013677748830505764 0 0.021058165009564932 0.00013556775982070636 0 0.0098762522282332694 0.0030794588750692785 0 0.0098745363647320186 0.0030433623542381462 0 0.0098901173286939682 0.0030494289171156897 0 0.015280116164904217 0.0013941737737122857 0 0.011029344669219289 0.0016839154863647081 0 0.021495856597326418 0.00020002719463805917 0 0.021058165009564932 0.00013556775982070636 0 0.021297744686409829 0.00046455548663055092 0 0.015845097342639829 0.0012220269640646412 0 0.015280116164904217 0.0013941737737122857 0 0.0098981061004694941 0.0030863851594268004 0 0.0098762522282332694 0.0030794588750692785 0 0.0098901173286939682 0.0030494289171156897 0 0.0091726274591711482 0.0017772497833899944 0 0.008819408545556769 0.0021602720022470914 0 0.0087489894884294137 0.0017014734440949438 0 0.0083680429212126158 0.0019597693425453581 0 0.008819408545556769 0.0021602720022470914 0 0.0087489894884294137 0.0017014734440949438 0 0.0083680429212126158 0.0019597693425453581 0 0.0085378074935951263 0.0013637071020551972 0 0.0081307572805022401 0.0014308720977916278 0 0.0083680429212126158 0.0019597693425453581 0 0.0087489894884294137 0.0017014734440949438 0 0.0085378074935951263 0.0013637071020551972 0 0.0085378074935951263 0.0013637071020551972 0 0.0084671038429894267 0.00098387435405237274 0 0.0081307572805022401 0.0014308720977916278 0 0.0087489894884294137 0.0017014734440949438 0 0.0085378074935951263 0.0013637071020551972 0 0.0089969568116647827 0.0012451627518793797 0 0.0085378074935951263 0.0013637071020551972 0 0.0087658191277222176 0.00087257452345526881 0 0.0089969568116647827 0.0012451627518793797 0 0.0085378074935951263 0.0013637071020551972 0 0.0084671038429894267 0.00098387435405237274 0 0.0087658191277222176 0.00087257452345526881 0 0.0084671038429894267 0.00098387435405237274 0 0.0084943800858342019 0.00065499781101714194 0 0.0087658191277222176 0.00087257452345526881 0 0.0084671038429894267 0.00098387435405237274 0 0.0084943800858342019 0.00065499781101714194 0 0.0082324695511296342 0.00084407899521155363 0 0.0087658191277222176 0.00087257452345526881 0 0.0087279964701272271 0.0005725065907827313 0 0.0090760005964967503 0.00074911095029932815 0 0.0084943800858342019 0.00065499781101714194 0 0.0087658191277222176 0.00087257452345526881 0 0.0087279964701272271 0.0005725065907827313 0 0.0087279964701272271 0.0005725065907827313 0 0.0085576840680837898 0.00031401950540267014 0 0.0088402659040800607 0.00035300800079930027 0 0.0084943800858342019 0.00065499781101714194 0 0.0085576840680837898 0.00031401950540267014 0 0.0082924586004132841 0.00045045535115830068 0 0.0084943800858342019 0.00065499781101714194 0 0.0087279964701272271 0.0005725065907827313 0 0.0085576840680837898 0.00031401950540267014 0 0.0091539293886714196 0.00034266202911020609 0 0.0090760005964967503 0.00074911095029932815 0 0.0093961510463314406 0.00061886609375478544 0 0.0091539293886714196 0.00034266202911020609 0 0.0093961510463314406 0.00061886609375478544 0 0.0096336121503997375 0.0002525228336272384 0 0.0087279964701272271 0.0005725065907827313 0 0.0088402659040800607 0.00035300800079930027 0 0.0090760005964967503 0.00074911095029932815 0 0.0091539293886714196 0.00034266202911020609 0 0.0088402659040800607 0.00035300800079930027 0 0.0090760005964967503 0.00074911095029932815 0 0.0093961510463314406 0.00061886609375478544 0 0.0094866811327961546 0.0010517293225060593 0 0.0098472896840059373 0.00064306296873306091 0 0.0090760005964967503 0.00074911095029932815 0 0.0093961510463314406 0.00061886609375478544 0 0.0094866811327961546 0.0010517293225060593 0 0.0090760005964967503 0.00074911095029932815 0 0.0094866811327961546 0.0010517293225060593 0 0.0089969568116647827 0.0012451627518793797 0 0.0087658191277222176 0.00087257452345526881 0 0.0090760005964967503 0.00074911095029932815 0 0.0089969568116647827 0.0012451627518793797 0 0.0091726274591711482 0.0017772497833899944 0 0.0089969568116647827 0.0012451627518793797 0 0.0093594566549862392 0.0014479920921353095 0 0.0094866811327961546 0.0010517293225060593 0 0.0089969568116647827 0.0012451627518793797 0 0.0093594566549862392 0.0014479920921353095 0 0.0091726274591711482 0.0017772497833899944 0 0.0087489894884294137 0.0017014734440949438 0 0.0089969568116647827 0.0012451627518793797 0 0.0099144983051561789 0.0016717751817882766 0 0.0094866811327961546 0.0010517293225060593 0 0.0093594566549862392 0.0014479920921353095 0 0.0099144983051561789 0.0016717751817882766 0 0.0094866811327961546 0.0010517293225060593 0 0.0099491705494563955 0.001097523125989409 0 0.010358619139300695 0.0015682958349661452 0 0.0099144983051561789 0.0016717751817882766 0 0.0099491705494563955 0.001097523125989409 0 0.010358619139300695 0.0015682958349661452 0 0.0099491705494563955 0.001097523125989409 0 0.010351057805429061 0.0011208267605832105 0 0.0099491705494563955 0.001097523125989409 0 0.010351057805429061 0.0011208267605832105 0 0.010252754653298644 0.0007671362705499136 0 0.0094866811327961546 0.0010517293225060593 0 0.0099491705494563955 0.001097523125989409 0 0.0098472896840059373 0.00064306296873306091 0 0.011022593961727839 0.0016556277336350158 0 0.010964787016049117 0.001080835689734878 0 0.011369853596978226 0.00095194675587847305 0 0.011022593961727839 0.0016556277336350158 0 0.0106707164325447 0.0012765746306602494 0 0.010964787016049117 0.001080835689734878 0 0.011034801591572382 0.0016205205921208219 0 0.012282748102946925 0.0015443918222772055 0 0.010358619139300695 0.0015682958349661452 0 0.0106707164325447 0.0012765746306602494 0 0.010351057805429061 0.0011208267605832105 0 0.010358619139300695 0.0015682958349661452 0 0.011022593961727839 0.0016556277336350158 0 0.0106707164325447 0.0012765746306602494 0 0.010351057805429061 0.0011208267605832105 0 0.010545352333957866 0.00088994069514641014 0 0.010252754653298644 0.0007671362705499136 0 0.0106707164325447 0.0012765746306602494 0 0.010545352333957866 0.00088994069514641014 0 0.010854647445030939 0.00082135893213055222 0 0.0106707164325447 0.0012765746306602494 0 0.010351057805429061 0.0011208267605832105 0 0.010545352333957866 0.00088994069514641014 0 0.0106707164325447 0.0012765746306602494 0 0.010854647445030939 0.00082135893213055222 0 0.010964787016049117 0.001080835689734878 0 0.010854647445030939 0.00082135893213055222 0 0.010964787016049117 0.001080835689734878 0 0.011258092099325446 0.00063871737738196966 0 0.010964787016049117 0.001080835689734878 0 0.011369853596978226 0.00095194675587847305 0 0.011258092099325446 0.00063871737738196966 0 0.0109649332430577 0.00055009139547482417 0 0.010916731577318288 0.00036286938619722848 0 0.011211456642805118 0.00037848442718091662 0 0.010854647445030939 0.00082135893213055222 0 0.0109649332430577 0.00055009139547482417 0 0.011258092099325446 0.00063871737738196966 0 0.0109649332430577 0.00055009139547482417 0 0.011258092099325446 0.00063871737738196966 0 0.011211456642805118 0.00037848442718091662 0 0.010854647445030939 0.00082135893213055222 0 0.0109649332430577 0.00055009139547482417 0 0.010590995816115015 0.00056786340930118349 0 0.0109649332430577 0.00055009139547482417 0 0.010916731577318288 0.00036286938619722848 0 0.010590995816115015 0.00056786340930118349 0 0.010916731577318288 0.00036286938619722848 0 0.010590995816115015 0.00056786340930118349 0 0.010700392624920252 0.00035042747443716772 0 0.010545352333957866 0.00088994069514641014 0 0.010854647445030939 0.00082135893213055222 0 0.010590995816115015 0.00056786340930118349 0 0.010545352333957866 0.00088994069514641014 0 0.010590995816115015 0.00056786340930118349 0 0.010252754653298644 0.0007671362705499136 0 0.010590995816115015 0.00056786340930118349 0 0.010252754653298644 0.0007671362705499136 0 0.010233720085122607 0.00043766613603089897 0 0.010590995816115015 0.00056786340930118349 0 0.010482804388563107 0.00028051235829140621 0 0.010233720085122607 0.00043766613603089897 0 0.010482804388563107 0.00028051235829140621 0 0.010233720085122607 0.00043766613603089897 0 0.010262830804873242 0.00014869565354849688 0 0.010482804388563107 0.00028051235829140621 0 0.010698983048333706 5.977094794689539e-05 0 0.010262830804873242 0.00014869565354849688 0 0.010482804388563107 0.00028051235829140621 0 0.010698983048333706 5.977094794689539e-05 0 0.01080957263506698 0.00018836847804531753 0 0.010482804388563107 0.00028051235829140621 0 0.010700392624920252 0.00035042747443716772 0 0.01080957263506698 0.00018836847804531753 0 0.010590995816115015 0.00056786340930118349 0 0.010482804388563107 0.00028051235829140621 0 0.010700392624920252 0.00035042747443716772 0 0.010916731577318288 0.00036286938619722848 0 0.010700392624920252 0.00035042747443716772 0 0.01080957263506698 0.00018836847804531753 0 0.010916731577318288 0.00036286938619722848 0 0.01080957263506698 0.00018836847804531753 0 0.011187391447724262 0.0001147893802065753 0 0.01080957263506698 0.00018836847804531753 0 0.011187391447724262 0.0001147893802065753 0 0.011026249179962857 -5.6847636479851123e-05 0 0.010916731577318288 0.00036286938619722848 0 0.011187391447724262 0.0001147893802065753 0 0.011211456642805118 0.00037848442718091662 0 0.0099491705494563955 0.001097523125989409 0 0.0098472896840059373 0.00064306296873306091 0 0.010252754653298644 0.0007671362705499136 0 0.0098472896840059373 0.00064306296873306091 0 0.010252754653298644 0.0007671362705499136 0 0.010233720085122607 0.00043766613603089897 0 0.0098472896840059373 0.00064306296873306091 0 0.010233720085122607 0.00043766613603089897 0 0.009991166917908802 0.00028922207830431009 0 0.010233720085122607 0.00043766613603089897 0 0.010262830804873242 0.00014869565354849688 0 0.009991166917908802 0.00028922207830431009 0 0.0093961510463314406 0.00061886609375478544 0 0.0098472896840059373 0.00064306296873306091 0 0.0096336121503997375 0.0002525228336272384 0 0.0098472896840059373 0.00064306296873306091 0 0.009991166917908802 0.00028922207830431009 0 0.0096336121503997375 0.0002525228336272384 0 0.0096336121503997375 0.0002525228336272384 0 0.0099769930532965165 5.9246007036077682e-05 0 0.0097285472746004922 -0.00010583332486886036 0 0.0096336121503997375 0.0002525228336272384 0 0.0097285472746004922 -0.00010583332486886036 0 0.009278798813754624 0.00011019009418294084 0 0.010262830804873242 0.00014869565354849688 0 0.0099769930532965165 5.9246007036077682e-05 0 0.010194844217975261 -0.00016130083262322443 0 0.0099769930532965165 5.9246007036077682e-05 0 0.010194844217975261 -0.00016130083262322443 0 0.0097285472746004922 -0.00010583332486886036 0 0.009991166917908802 0.00028922207830431009 0 0.0096336121503997375 0.0002525228336272384 0 0.0099769930532965165 5.9246007036077682e-05 0 0.010262830804873242 0.00014869565354849688 0 0.009991166917908802 0.00028922207830431009 0 0.0099769930532965165 5.9246007036077682e-05 0 0.0090696954388261013 5.5893364575694634e-05 0 0.0070898778523586494 -0.00097895685892599826 0 0.010293202440668028 -0.00029753337624538511 0 0.010407378515902441 -0.00058079448909246275 0 0.0099225061440793433 -0.00067489702657414202 0 0.010194844217975261 -0.00016130083262322443 0 0.0097285472746004922 -0.00010583332486886036 0 0.0097378744783158649 -0.00053535648303021616 0 0.0097285472746004922 -0.00010583332486886036 0 0.0097378744783158649 -0.00053535648303021616 0 0.0090925729225025571 -0.00013791383879425861 0 0.0070898778523586494 -0.00097895685892599826 0 0.0079901535508619149 -0.0010681614023579113 0 0.0097285472746004922 -0.00010583332486886036 0 0.009278798813754624 0.00011019009418294084 0 0.0090925729225025571 -0.00013791383879425861 0 0.011026249179962857 -5.6847636479851123e-05 0 0.010936212296314239 -0.00034105302198199117 0 0.011192255717034635 -0.00016800391876583686 0 0.011187391447724262 0.0001147893802065753 0 0.011026249179962857 -5.6847636479851123e-05 0 0.011192255717034635 -0.00016800391876583686 0 0.0096703451435381452 2.4429870911165406e-05 0 0.0092914376135528071 -0.00020442996284302444 0 0.01080957263506698 0.00018836847804531753 0 0.011026249179962857 -5.6847636479851123e-05 0 0.010936212296314239 -0.00034105302198199117 0 0.010936212296314239 -0.00034105302198199117 0 0.011144923678573998 -0.00033032944796585373 0 0.011192255717034635 -0.00016800391876583686 0 0.010698983048333706 5.977094794689539e-05 0 0.01080957263506698 0.00018836847804531753 0 0.010668344272289843 -0.00036082203177049971 0 0.010698983048333706 5.977094794689539e-05 0 0.010262830804873242 0.00014869565354849688 0 0.010194844217975261 -0.00016130083262322443 0 0.0096076517316192704 0.00030590611722143383 0 0.0090696954388261013 5.5893364575694634e-05 0 0.010698983048333706 5.977094794689539e-05 0 0.010293202440668028 -0.00029753337624538511 0 0.010668344272289843 -0.00036082203177049971 0 0.010293202440668028 -0.00029753337624538511 0 0.010407378515902441 -0.00058079448909246275 0 0.010668344272289843 -0.00036082203177049971 0 0.010407378515902441 -0.00058079448909246275 0 0.010668344272289843 -0.00036082203177049971 0 0.010610552369854838 -0.00095026567564624267 0 0.010936212296314239 -0.00034105302198199117 0 0.011144923678573998 -0.00033032944796585373 0 0.01114528085850953 -0.0004694638490088535 0 0.01114528085850953 -0.0004694638490088535 0 0.010947211816965643 -0.00062224972912458445 0 0.011142698162813753 -0.00068715812047806144 0 0.010936212296314239 -0.00034105302198199117 0 0.01114528085850953 -0.0004694638490088535 0 0.010947211816965643 -0.00062224972912458445 0 0.0092914376135528071 -0.00020442996284302444 0 0.0079486385130401616 -0.00047209261087701593 0 0.010407378515902441 -0.00058079448909246275 0 0.010610552369854838 -0.00095026567564624267 0 0.01026959163598614 -0.00081297404762245508 0 0.0079486385130401616 -0.00047209261087701593 0 0.0070824675092421765 -0.00081064135189587037 0 -0.00033569927912551818 -0.0036116040764500824 0 0.00076392516725086901 -0.0028211346360263109 0 0.0010077169159235623 -0.0041573953972398213 0 0.010281085026315381 -0.00033537568109137103 0 0.010531456841546235 -0.00073034276605729652 0 0.01023915013335876 -0.00091365547940193783 0 -0.00033569927912551818 -0.0036116040764500824 0 0.00076392516725086901 -0.0028211346360263109 0 -0.00022319287960404361 -0.0019059832178723339 0 0.0079486385130401616 -0.00047209261087701593 0 0.0049154537312592443 -0.0011787490500323268 0 0.0079486385130401616 -0.00047209261087701593 0 0.0097771187660659273 -0.00089691625347105815 0 0.010281085026315381 -0.00033537568109137103 0 0.010531456841546235 -0.00073034276605729652 0 0.010795212918695332 -0.00054285179950098181 0 0.010531456841546235 -0.00073034276605729652 0 0.010795212918695332 -0.00054285179950098181 0 0.010753205784009297 -0.00086228901083377205 0 0.0091765119937454089 -0.00017454920997449479 0 0.0090167805867238018 -0.0002020274490431669 0 0.0090925729225025571 -0.00013791383879425861 0 0.0091179162043368168 -0.0002654606984689871 0 0.0091765119937454089 -0.00017454920997449479 0 0.0090167805867238018 -0.0002020274490431669 0 0.003179912914801959 -0.0038318960807769663 0 0.0023558065967411801 -0.0047009356320571721 0 0.0020627350342459368 -0.003658336958672073 0 0.0060209676633012936 -0.0018441731272765788 0 0.0070898778523586494 -0.00097895685892599826 0 0.0023558065967411801 -0.0047009356320571721 0 0.0010077169159235623 -0.0041573953972398213 0 0.0020627350342459368 -0.003658336958672073 0 0.010407378515902441 -0.00058079448909246275 0 0.0099225061440793433 -0.00067489702657414202 0 0.01026959163598614 -0.00081297404762245508 0 0.0070898778523586494 -0.00097895685892599826 0 0.0070824675092421765 -0.00081064135189587037 0 0.00076392516725086901 -0.0028211346360263109 0 0.0010077169159235623 -0.0041573953972398213 0 0.0020627350342459368 -0.003658336958672073 0 0.00076392516725086901 -0.0028211346360263109 0 0.0020627350342459368 -0.003658336958672073 0 0.0020438763307642923 -0.0025381317172822305 0 0.003179912914801959 -0.0038318960807769663 0 0.0020438763307642923 -0.0025381317172822305 0 0.002985229396147298 -0.001294330179122216 0 0.0060209676633012936 -0.0018441731272765788 0 0.0044997949245749163 -0.0010642889196472482 0 0.003179912914801959 -0.0038318960807769663 0 0.0020627350342459368 -0.003658336958672073 0 0.0020438763307642923 -0.0025381317172822305 0 0.0060209676633012936 -0.0018441731272765788 0 0.0069970586783555085 -0.001179927272348935 0 0.0040704895447216402 -0.004269904237698071 0 0.0058710905631318561 -0.0023814136210306325 0 0.0038508647684819841 -0.0015626611344894601 0 0.0091179162043368168 -0.0002654606984689871 0 0.0087514489934330652 -0.0003016422264709747 0 0.0086319685118499013 -0.0005828999778018549 0 0.0090167805867238018 -0.0002020274490431669 0 0.0085999340624474379 -8.6497161449375145e-05 0 0.0090925729225025571 -0.00013791383879425861 0 0.0091179162043368168 -0.0002654606984689871 0 0.0087514489934330652 -0.0003016422264709747 0 0.0090167805867238018 -0.0002020274490431669 0 0.0087514489934330652 -0.0003016422264709747 0 0.0090167805867238018 -0.0002020274490431669 0 0.0085999340624474379 -8.6497161449375145e-05 0 0.0087514489934330652 -0.0003016422264709747 0 0.0085999340624474379 -8.6497161449375145e-05 0 0.0084051612415782934 -0.00040874334380997939 0 0.0087514489934330652 -0.0003016422264709747 0 0.0084051612415782934 -0.00040874334380997939 0 0.0086319685118499013 -0.0005828999778018549 0 0.0084051612415782934 -0.00040874334380997939 0 0.0083017169131278084 -9.1293542079749681e-05 0 0.0081636362235842346 -0.00068640580706313633 0 0.0083017169131278084 -9.1293542079749681e-05 0 0.0082942495395667091 0.00040330621526840681 0 0.0079142944632178015 0.00049129890922704688 0 0.007979772231636888 3.267129029360251e-05 0 0.0078813060981316897 0.00026323948595998381 0 0.0083017169131278084 -9.1293542079749681e-05 0 0.0082942495395667091 0.00040330621526840681 0 0.0084105814069904521 0.00021539758454864214 0 0.0083698233265468436 6.587977349800315e-06 0 0.0084240499946922742 0.00012522394217714703 0 0.0084105814069904521 0.00021539758454864214 0 0.0083698233265468436 6.587977349800315e-06 0 0.0083017169131278084 -9.1293542079749681e-05 0 0.0084105814069904521 0.00021539758454864214 0 0.0085999340624474379 -8.6497161449375145e-05 0 0.0083698233265468436 6.587977349800315e-06 0 0.0083017169131278084 -9.1293542079749681e-05 0 0.0085999340624474379 -8.6497161449375145e-05 0 0.0084051612415782934 -0.00040874334380997939 0 0.0083017169131278084 -9.1293542079749681e-05 0 0.0085999340624474379 -8.6497161449375145e-05 0 0.0084863475434422322 8.8052168136014582e-05 0 0.0087577182242925562 8.9745414226553532e-05 0 0.0085999340624474379 -8.6497161449375145e-05 0 0.0083698233265468436 6.587977349800315e-06 0 0.0084863475434422322 8.8052168136014582e-05 0 0.0083698233265468436 6.587977349800315e-06 0 0.0084863475434422322 8.8052168136014582e-05 0 0.0083845574891125464 5.6332249323457288e-05 0 0.0084863475434422322 8.8052168136014582e-05 0 0.0083712585384383732 0.00016317220127025893 0 0.0083845574891125464 5.6332249323457288e-05 0 0.0085576840680837898 0.00031401950540267014 0 0.0084863475434422322 8.8052168136014582e-05 0 0.0083712585384383732 0.00016317220127025893 0 0.0085576840680837898 0.00031401950540267014 0 0.0084863475434422322 8.8052168136014582e-05 0 0.0087577182242925562 8.9745414226553532e-05 0 0.0085576840680837898 0.00031401950540267014 0 0.0088402659040800607 0.00035300800079930027 0 0.0087577182242925562 8.9745414226553532e-05 0 0.0091539293886714196 0.00034266202911020609 0 0.0088402659040800607 0.00035300800079930027 0 0.0087577182242925562 8.9745414226553532e-05 0 0.0091539293886714196 0.00034266202911020609 0 0.0096336121503997375 0.0002525228336272384 0 0.009278798813754624 0.00011019009418294084 0 0.0091539293886714196 0.00034266202911020609 0 0.0087577182242925562 8.9745414226553532e-05 0 0.009278798813754624 0.00011019009418294084 0 0.0087577182242925562 8.9745414226553532e-05 0 0.009278798813754624 0.00011019009418294084 0 0.0090925729225025571 -0.00013791383879425861 0 0.0085999340624474379 -8.6497161449375145e-05 0 0.0087577182242925562 8.9745414226553532e-05 0 0.0090925729225025571 -0.00013791383879425861 0 0.013157706579910203 -2.3815943519697253e-07 0 0.013160314268152229 -9.531065776101576e-05 0 0.01495128839058265 -4.5347180430926648e-07 0 0.013157706579910203 -2.3815943519697253e-07 0 0.013160314268152229 -9.531065776101576e-05 0 0.012399031887753448 -0.00029286386718144187 0 0.013160314268152229 -9.531065776101576e-05 0 0.012687839278924321 -3.5424101227601278e-05 0 0.012399031887753448 -0.00029286386718144187 0 0.012687839278924321 -3.5424101227601278e-05 0 0.012145103204822432 -0.00020363637188599692 0 0.012399031887753448 -0.00029286386718144187 0 0.013160314268152229 -9.531065776101576e-05 0 0.012687839278924321 -3.5424101227601278e-05 0 0.013967747129836143 9.6416459595352396e-05 0 0.013048847135315622 0.00016822619644024696 0 0.012727016690928178 0.00014227252762623514 0 0.013967747129836143 9.6416459595352396e-05 0 0.014150341776021768 5.4081738281231993e-05 0 0.014023876646850479 -7.8578320634763903e-05 0 0.012687839278924321 -3.5424101227601278e-05 0 0.013967747129836143 9.6416459595352396e-05 0 0.011301936652145284 0.00056445927307816242 0 0.013967747129836143 9.6416459595352396e-05 0 0.014150341776021768 5.4081738281231993e-05 0 0.01482844707277123 1.9031683393855897e-05 0 0.013967747129836143 9.6416459595352396e-05 0 0.01495128839058265 -4.5347180430926648e-07 0 0.01482844707277123 1.9031683393855897e-05 0 0.013160314268152229 -9.531065776101576e-05 0 0.013967747129836143 9.6416459595352396e-05 0 0.01495128839058265 -4.5347180430926648e-07 0 0.01495128839058265 -4.5347180430926648e-07 0 0.01482844707277123 1.9031683393855897e-05 0 0.016740531573737696 2.0069112098065462e-06 0 0.01482844707277123 1.9031683393855897e-05 0 0.016740531573737696 2.0069112098065462e-06 0 0.014335524621794727 0.00068953276334457003 0 0.018493875132168238 -4.8171995272380831e-05 0 0.016746111852397286 2.0439216316612598e-06 0 0.019301759847907336 0.0010611631629041927 0 0.016743926059679271 8.3137679173531605e-07 0 0.016660939101965307 0.00039058223456502663 0 0.018493875132168238 -4.8171995272380831e-05 0 0.017871360022210986 -4.0215406198738302e-07 0 0.016746111852397286 2.0439216316612598e-06 0 0.01957121431560236 0.00044290276655421497 0 0.018493875132168238 -4.8171995272380831e-05 0 0.019301759847907336 0.0010611631629041927 0 0.014150341776021768 5.4081738281231993e-05 0 0.01482844707277123 1.9031683393855897e-05 0 0.014335524621794727 0.00068953276334457003 0 0.013998625966697891 0.0005004871452686583 0 0.013800038833023633 0.00024350904822431974 0 0.013995182676511302 6.6267485559572226e-05 0 0.014150341776021768 5.4081738281231993e-05 0 0.014335524621794727 0.00068953276334457003 0 0.013998625966697891 0.0005004871452686583 0 0.014150341776021768 5.4081738281231993e-05 0 0.013998625966697891 0.0005004871452686583 0 0.013995182676511302 6.6267485559572226e-05 0 0.013998625966697891 0.0005004871452686583 0 0.013785664867748437 0.00048213906512441777 0 0.013800038833023633 0.00024350904822431974 0 0.013998625966697891 0.0005004871452686583 0 0.013675984505175978 0.00070110797685733544 0 0.013785664867748437 0.00048213906512441777 0 0.019301759847907336 0.0010611631629041927 0 0.020087521625113968 0.00094408711019309253 0 0.019985920239495615 0.00077819626558889277 0 0.014335524621794727 0.00068953276334457003 0 0.013998625966697891 0.0005004871452686583 0 0.013675984505175978 0.00070110797685733544 0 0.016660939101965307 0.00039058223456502663 0 0.016109515303434744 0.00056863455115640615 0 0.01957121431560236 0.00044290276655421497 0 0.019301759847907336 0.0010611631629041927 0 0.020087521625113968 0.00094408711019309253 0 0.020676351694570737 0.00049885462186879698 0 0.01957121431560236 0.00044290276655421497 0 0.020087521625113968 0.00094408711019309253 0 0.01874674473379348 0.0015431946539387876 0 0.019985920239495615 0.00077819626558889277 0 0.017620578769194144 0.0010752734864819353 0 0.019409426457281154 0.00071075867407306269 0 0.019605029910105636 0.00071432061877380547 0 0.018409834533824061 0.0026837583718883956 0 0.020087521625113968 0.00094408711019309253 0 0.01874674473379348 0.0015431946539387876 0 0.020087521625113968 0.00094408711019309253 0 0.01874674473379348 0.0015431946539387876 0 0.019985920239495615 0.00077819626558889277 0 0.013675984505175978 0.00070110797685733544 0 0.0136394476789368 0.00042708640537764868 0 0.013346016050411439 0.00046269858081102096 0 0.013675984505175978 0.00070110797685733544 0 0.013785664867748437 0.00048213906512441777 0 0.0136394476789368 0.00042708640537764868 0 0.013785664867748437 0.00048213906512441777 0 0.0136394476789368 0.00042708640537764868 0 0.013800038833023633 0.00024350904822431974 0 0.0136394476789368 0.00042708640537764868 0 0.013800038833023633 0.00024350904822431974 0 0.013563060694440195 0.00020787517463239245 0 0.0136394476789368 0.00042708640537764868 0 0.013563060694440195 0.00020787517463239245 0 0.013346016050411439 0.00046269858081102096 0 0.012727016690928178 0.00014227252762623514 0 0.012751800108423377 0.00016007781275071775 0 0.013800038833023633 0.00024350904822431974 0 0.013563060694440195 0.00020787517463239245 0 0.014023876646850479 -7.8578320634763903e-05 0 0.013563060694440195 0.00020787517463239245 0 0.013399434633007473 -1.9070266934164397e-05 0 0.013361376011145322 0.0002240688518044847 0 0.01284875232121719 0.00020480876707901628 0 0.012452258942242962 0.0001335707654464517 0 0.012441162997630326 0.00029025177378883937 0 0.013563060694440195 0.00020787517463239245 0 0.014023876646850479 -7.8578320634763903e-05 0 0.013399434633007473 -1.9070266934164397e-05 0 0.013800038833023633 0.00024350904822431974 0 0.013995182676511302 6.6267485559572226e-05 0 0.014023876646850479 -7.8578320634763903e-05 0 0.014150341776021768 5.4081738281231993e-05 0 0.013995182676511302 6.6267485559572226e-05 0 0.014023876646850479 -7.8578320634763903e-05 0 0.012669321744057174 0.00014427120119737128 0 0.012727016690928178 0.00014227252762623514 0 0.012687839278924321 -3.5424101227601278e-05 0 0.012040381640613353 9.2009906089391037e-05 0 0.012145103204822432 -0.00020363637188599692 0 0.012040381640613353 9.2009906089391037e-05 0 0.012145103204822432 -0.00020363637188599692 0 0.011848644531902743 -0.00020963884045816839 0 0.012040381640613353 9.2009906089391037e-05 0 0.011848644531902743 -0.00020963884045816839 0 0.011687929815901258 -8.979804941798992e-05 0 0.012727016690928178 0.00014227252762623514 0 0.012203811316711511 4.9677793280197857e-05 0 0.011848644531902743 -0.00020963884045816839 0 0.011687929815901258 -8.979804941798992e-05 0 0.01168665056420758 -0.00020860031869634175 0 0.011687929815901258 -8.979804941798992e-05 0 0.011582520708251562 -0.00013555633493355368 0 0.01168665056420758 -0.00020860031869634175 0 0.012238941187999669 0.00020341107050937259 0 0.012452258942242962 0.0001335707654464517 0 0.012060698533756463 6.091942163151863e-05 0 0.012203811316711511 4.9677793280197857e-05 0 0.011882814677862733 -8.5919450517981955e-06 0 0.012060698533756463 6.091942163151863e-05 0 0.012011344416278999 0.00037810629753637863 0 0.011781771570229445 0.0002555566486844532 0 0.012238941187999669 0.00020341107050937259 0 0.012060698533756463 6.091942163151863e-05 0 0.012011344416278999 0.00037810629753637863 0 0.012717198489245853 0.00013378773659987442 0 0.013136084190809484 0.00024623604727216014 0 0.012951518105383929 0.00046771295796672657 0 0.012717198489245853 0.00013378773659987442 0 0.013136084190809484 0.00024623604727216014 0 0.013399434633007473 -1.9070266934164397e-05 0 0.01240983811340835 0.00024668843255051467 0 0.012751800108423377 0.00016007781275071775 0 0.012238941187999669 0.00020341107050937259 0 0.012011344416278999 0.00037810629753637863 0 0.012441162997630326 0.00029025177378883937 0 0.012238941187999669 0.00020341107050937259 0 0.012452258942242962 0.0001335707654464517 0 0.012441162997630326 0.00029025177378883937 0 0.013136084190809484 0.00024623604727216014 0 0.013399434633007473 -1.9070266934164397e-05 0 0.013361376011145322 0.0002240688518044847 0 0.013563060694440195 0.00020787517463239245 0 0.013361376011145322 0.0002240688518044847 0 0.013346016050411439 0.00046269858081102096 0 0.013675984505175978 0.00070110797685733544 0 0.013346016050411439 0.00046269858081102096 0 0.012945731959517627 0.00083725190534653918 0 0.013136084190809484 0.00024623604727216014 0 0.013361376011145322 0.0002240688518044847 0 0.013346016050411439 0.00046269858081102096 0 0.013136084190809484 0.00024623604727216014 0 0.013346016050411439 0.00046269858081102096 0 0.012951518105383929 0.00046771295796672657 0 0.013346016050411439 0.00046269858081102096 0 0.012945731959517627 0.00083725190534653918 0 0.012951518105383929 0.00046771295796672657 0 0.019985920239495615 0.00077819626558889277 0 0.017620578769194144 0.0010752734864819353 0 0.016122586106584989 0.00033536273786004522 0 0.016109515303434744 0.00056863455115640615 0 0.014679511017559587 0.0006117957541727486 0 0.017321104024590514 0.0019934627437401833 0 0.017620578769194144 0.0010752734864819353 0 0.016398581433817869 0.0017775391373951476 0 0.017321104024590514 0.0019934627437401833 0 0.01874674473379348 0.0015431946539387876 0 0.017620578769194144 0.0010752734864819353 0 0.015679063702011158 0.0012633866551830363 0 0.014172072064348579 0.0014094400640891115 0 0.017620578769194144 0.0010752734864819353 0 0.016122586106584989 0.00033536273786004522 0 0.013047945246399784 0.0018790807598701846 0 0.017620578769194144 0.0010752734864819353 0 0.016398581433817869 0.0017775391373951476 0 0.014974314823190789 0.0012230133201289344 0 0.014679511017559587 0.0006117957541727486 0 0.013691087249860442 0.00063447653251945976 0 0.012945731959517627 0.00083725190534653918 0 0.01256195446208647 0.00061532983009453355 0 0.012182746723349581 0.00094918846699723939 0 0.012945731959517627 0.00083725190534653918 0 0.012951518105383929 0.00046771295796672657 0 0.01256195446208647 0.00061532983009453355 0 0.012717198489245853 0.00013378773659987442 0 0.012951518105383929 0.00046771295796672657 0 0.01256195446208647 0.00061532983009453355 0 0.01256195446208647 0.00061532983009453355 0 0.012182746723349581 0.00094918846699723939 0 0.011752676308445772 0.00045989358244832022 0 0.016122586106584989 0.00033536273786004522 0 0.012182746723349581 0.00094918846699723939 0 0.013047945246399784 0.0018790807598701846 0 0.01405781928885028 0.0021122595791256723 0 0.012793541120446471 0.0014367220731265934 0 0.014974314823190789 0.0012230133201289344 0 0.011022593961727839 0.0016556277336350158 0 0.012182746723349581 0.00094918846699723939 0 0.011369853596978226 0.00095194675587847305 0 0.011022593961727839 0.0016556277336350158 0 0.012182746723349581 0.00094918846699723939 0 0.013047945246399784 0.0018790807598701846 0 0.012282748102946925 0.0015443918222772055 0 0.014172072064348579 0.0014094400640891115 0 0.012182746723349581 0.00094918846699723939 0 0.011369853596978226 0.00095194675587847305 0 0.011752676308445772 0.00045989358244832022 0 0.011369853596978226 0.00095194675587847305 0 0.011258092099325446 0.00063871737738196966 0 0.011752676308445772 0.00045989358244832022 0 0.011258092099325446 0.00063871737738196966 0 0.011211456642805118 0.00037848442718091662 0 0.011525435126442234 0.00026883694621907163 0 0.011258092099325446 0.00063871737738196966 0 0.011525435126442234 0.00026883694621907163 0 0.011752676308445772 0.00045989358244832022 0 0.01240983811340835 0.00024668843255051467 0 0.012171487079665502 0.00030613457427259259 0 0.012011344416278999 0.00037810629753637863 0 0.011752676308445772 0.00045989358244832022 0 0.011781771570229445 0.0002555566486844532 0 0.012717198489245853 0.00013378773659987442 0 0.01256195446208647 0.00061532983009453355 0 0.011752676308445772 0.00045989358244832022 0 0.011525435126442234 0.00026883694621907163 0 0.011752676308445772 0.00045989358244832022 0 0.011781771570229445 0.0002555566486844532 0 0.011882814677862733 -8.5919450517981955e-06 0 0.011736703355474753 -3.2470152676125519e-05 0 0.011525435126442234 0.00026883694621907163 0 0.011781771570229445 0.0002555566486844532 0 0.011536346173833815 -4.4194963022586376e-05 0 0.011582520708251562 -0.00013555633493355368 0 0.011536346173833815 -4.4194963022586376e-05 0 0.011554980117077304 -0.0001810510024107112 0 0.012060698533756463 6.091942163151863e-05 0 0.011781771570229445 0.0002555566486844532 0 0.011536346173833815 -4.4194963022586376e-05 0 0.011187391447724262 0.0001147893802065753 0 0.011536346173833815 -4.4194963022586376e-05 0 0.011192255717034635 -0.00016800391876583686 0 0.011187391447724262 0.0001147893802065753 0 0.011525435126442234 0.00026883694621907163 0 0.011536346173833815 -4.4194963022586376e-05 0 0.011187391447724262 0.0001147893802065753 0 0.011211456642805118 0.00037848442718091662 0 0.011525435126442234 0.00026883694621907163 0 0.011536346173833815 -4.4194963022586376e-05 0 0.011192255717034635 -0.00016800391876583686 0 0.01137606208852578 -0.00031243898216257653 0 0.011144923678573998 -0.00033032944796585373 0 0.011192255717034635 -0.00016800391876583686 0 0.01137606208852578 -0.00031243898216257653 0 0.011554980117077304 -0.0001810510024107112 0 0.01137606208852578 -0.00031243898216257653 0 0.011536865411908436 -0.00033478284954046417 0 0.011536346173833815 -4.4194963022586376e-05 0 0.011554980117077304 -0.0001810510024107112 0 0.01137606208852578 -0.00031243898216257653 0 0.01137606208852578 -0.00031243898216257653 0 0.011348123455535692 -0.00048535268205538996 0 0.011536865411908436 -0.00033478284954046417 0 0.011144923678573998 -0.00033032944796585373 0 0.01114528085850953 -0.0004694638490088535 0 0.01137606208852578 -0.00031243898216257653 0 0.01114528085850953 -0.0004694638490088535 0 0.01137606208852578 -0.00031243898216257653 0 0.011348123455535692 -0.00048535268205538996 0 0.011142698162813753 -0.00068715812047806144 0 0.011348123455535692 -0.00048535268205538996 0 0.011346921239396728 -0.00062547389753925004 0 0.01114528085850953 -0.0004694638490088535 0 0.011142698162813753 -0.00068715812047806144 0 0.011348123455535692 -0.00048535268205538996 0 0.0097771187660659273 -0.00089691625347105815 0 0.010275090720904517 -0.0010032197945793041 0 0.010795212918695332 -0.00054285179950098181 0 0.011296461321847811 -0.00076458243501958262 0 0.010967645861359352 -0.00085340187282673162 0 0.011142698162813753 -0.00068715812047806144 0 0.011296461321847811 -0.00076458243501958262 0 0.011346921239396728 -0.00062547389753925004 0 0.010795212918695332 -0.00054285179950098181 0 0.010967645861359352 -0.00085340187282673162 0 0.010753205784009297 -0.00086228901083377205 0 0.011448310469893055 -0.00073172132907856893 0 0.011346921239396728 -0.00062547389753925004 0 0.011501231823017188 -0.00051120101742033858 0 0.011448310469893055 -0.00073172132907856893 0 0.011296461321847811 -0.00076458243501958262 0 0.011346921239396728 -0.00062547389753925004 0 0.011348123455535692 -0.00048535268205538996 0 0.011501231823017188 -0.00051120101742033858 0 0.011536865411908436 -0.00033478284954046417 0 0.011348123455535692 -0.00048535268205538996 0 0.011346921239396728 -0.00062547389753925004 0 0.011501231823017188 -0.00051120101742033858 0 0.011448310469893055 -0.00073172132907856893 0 0.011501231823017188 -0.00051120101742033858 0 0.011618951748043574 -0.00052209482294823285 0 0.011501231823017188 -0.00051120101742033858 0 0.011618951748043574 -0.00052209482294823285 0 0.011631487801917025 -0.00038796092356448207 0 0.012737070073779855 0.00020237289039722688 0 0.012251914552134183 0.00023599454444503035 0 0.012552675874203655 0.00048709453654688703 0 0.010892095771111655 0.00021634386068911565 0 0.011476297241299753 4.2306506411813875e-05 0 0.012737070073779855 0.00020237289039722688 0 0.012142450590686048 -0.00018824289989315314 0 0.012251914552134183 0.00023599454444503035 0 0.012142450590686048 -0.00018824289989315314 0 0.012251914552134183 0.00023599454444503035 0 0.011774971578991343 -2.3061039168000703e-05 0 0.012251914552134183 0.00023599454444503035 0 0.011774971578991343 -2.3061039168000703e-05 0 0.011896810128150852 0.00047813827580353493 0 0.012142450590686048 -0.00018824289989315314 0 0.011774971578991343 -2.3061039168000703e-05 0 0.011703390228108967 -0.00041142524100101503 0 0.011476297241299753 4.2306506411813875e-05 0 0.011542086360894099 -6.6428729233520691e-05 0 0.011618951748043574 -0.00052209482294823285 0 0.011631487801917025 -0.00038796092356448207 0 0.011703390228108967 -0.00041142524100101503 0 0.011631487801917025 -0.00038796092356448207 0 0.01164147021625743 -0.00028046666211116813 0 0.011703390228108967 -0.00041142524100101503 0 0.011631487801917025 -0.00038796092356448207 0 0.011536865411908436 -0.00033478284954046417 0 0.01164147021625743 -0.00028046666211116813 0 0.011501231823017188 -0.00051120101742033858 0 0.011631487801917025 -0.00038796092356448207 0 0.011536865411908436 -0.00033478284954046417 0 0.011582520708251562 -0.00013555633493355368 0 0.011554980117077304 -0.0001810510024107112 0 0.01164147021625743 -0.00028046666211116813 0 0.011554980117077304 -0.0001810510024107112 0 0.011536865411908436 -0.00033478284954046417 0 0.01164147021625743 -0.00028046666211116813 0 0.011582520708251562 -0.00013555633493355368 0 0.01164147021625743 -0.00028046666211116813 0 0.01168665056420758 -0.00020860031869634175 0 0.01164147021625743 -0.00028046666211116813 0 0.01168665056420758 -0.00020860031869634175 0 0.011744521840467254 -0.00030189298820550544 0 0.01164147021625743 -0.00028046666211116813 0 0.011744521840467254 -0.00030189298820550544 0 0.011703390228108967 -0.00041142524100101503 0 0.011744521840467254 -0.00030189298820550544 0 0.011864378952921507 -0.00035704913059550209 0 0.011703390228108967 -0.00041142524100101503 0 0.011848644531902743 -0.00020963884045816839 0 0.011744521840467254 -0.00030189298820550544 0 0.011864378952921507 -0.00035704913059550209 0 0.011848644531902743 -0.00020963884045816839 0 0.01168665056420758 -0.00020860031869634175 0 0.011744521840467254 -0.00030189298820550544 0 0.012145103204822432 -0.00020363637188599692 0 0.011864378952921507 -0.00035704913059550209 0 0.012399031887753448 -0.00029286386718144187 0 0.012145103204822432 -0.00020363637188599692 0 0.011848644531902743 -0.00020963884045816839 0 0.011864378952921507 -0.00035704913059550209 0 0.011864378952921507 -0.00035704913059550209 0 0.011703390228108967 -0.00041142524100101503 0 0.011560244386626329 -0.00035600491216097326 0 0.011774971578991343 -2.3061039168000703e-05 0 0.011703390228108967 -0.00041142524100101503 0 0.011293281577242001 -0.00023298007576747035 0 0.011774971578991343 -2.3061039168000703e-05 0 0.011293281577242001 -0.00023298007576747035 0 0.011400371920290834 0.000242909482661627 0 0.011774971578991343 -2.3061039168000703e-05 0 0.011400371920290834 0.000242909482661627 0 0.011896810128150852 0.00047813827580353493 0 0.011293281577242001 -0.00023298007576747035 0 0.010410448639676743 2.1555549568053753e-05 0 0.011400371920290834 0.000242909482661627 0 0.011703390228108967 -0.00041142524100101503 0 0.011293281577242001 -0.00023298007576747035 0 0.011560244386626329 -0.00035600491216097326 0 0.011293281577242001 -0.00023298007576747035 0 0.010845883656459174 -0.00023930102754380421 0 0.011560244386626329 -0.00035600491216097326 0 0.011293281577242001 -0.00023298007576747035 0 0.010845883656459174 -0.00023930102754380421 0 0.010410448639676743 2.1555549568053753e-05 0 0.010845883656459174 -0.00023930102754380421 0 0.0095720008229157969 -1.1516605507733904e-06 0 0.010410448639676743 2.1555549568053753e-05 0 0.010845883656459174 -0.00023930102754380421 0 0.0095720008229157969 -1.1516605507733904e-06 0 0.011365906763811639 -4.7023730777277482e-07 0 0.011365906763811639 -4.7023730777277482e-07 0 0.011560244386626329 -0.00035600491216097326 0 0.012399031887753448 -0.00029286386718144187 0 0.010845883656459174 -0.00023930102754380421 0 0.011365906763811639 -4.7023730777277482e-07 0 0.011560244386626329 -0.00035600491216097326 0 0.011864378952921507 -0.00035704913059550209 0 0.011560244386626329 -0.00035600491216097326 0 0.012399031887753448 -0.00029286386718144187 0 0.013157706579910203 -2.3815943519697253e-07 0 0.011365906763811639 -4.7023730777277482e-07 0 0.012399031887753448 -0.00029286386718144187 0 0.0049993782254695637 1.1228023718305674e-06 0 0.0037661047080516301 0.00030394366304631592 0 0.0041361576139548172 -0.0001382327154127326 0 0.0050026469963330364 7.8771248970670445e-07 0 0.0057177193406633886 0.00033240750750993995 0 0.0037661047080516301 0.00030394366304631592 0 0.0037603182870770461 -0.00016961712053311902 0 0.0041361576139548172 -0.0001382327154127326 0 0.0037661047080516301 0.00030394366304631592 0 0.0036539654275642743 -3.3807885071330682e-05 0 0.0037603182870770461 -0.00016961712053311902 0 0.0064113205756773373 1.917372155387003e-05 0 0.0063306561410521678 -0.00014512785751114997 0 0.0062923259964133924 -1.8182037467331832e-05 0 0.0050040574796254879 6.7720409903547458e-07 0 0.0063306561410521678 -0.00014512785751114997 0 0.0063908267695951086 -6.688421560092696e-07 0 0.0050040574796254879 6.7720409903547458e-07 0 0.0064113205756773373 1.917372155387003e-05 0 0.0063306561410521678 -0.00014512785751114997 0 0.0063306561410521678 -0.00014512785751114997 0 0.0063908267695951086 -6.688421560092696e-07 0 0.0077774394137628614 6.6060121186364308e-07 0 0.0077799460351888113 4.9971466800726946e-07 0 0.0080886989904253581 0.00034249988704961883 0 0.0063306561410521678 -0.00014512785751114997 0 0.0077774394137628614 6.6060121186364308e-07 0 0.0062923259964133924 -1.8182037467331832e-05 0 0.0095720008229157969 -1.1516605507733904e-06 0 0.0077841869243712941 2.8805988389311359e-06 0 0.010410448639676743 2.1555549568053753e-05 0 0.0077841869243712941 2.8805988389311359e-06 0 0.010410448639676743 2.1555549568053753e-05 0 0.010123136555898192 0.0013026571370528474 0 0.010410448639676743 2.1555549568053753e-05 0 0.010123136555898192 0.0013026571370528474 0 0.010936183317380287 0.0007477000726594078 0 0.0080886989904253581 0.00034249988704961883 0 0.0079293825217444033 0.00037364317157807353 0 0.010123136555898192 0.0013026571370528474 0 0.010936183317380287 0.0007477000726594078 0 0.011249115027493053 0.0015813299938573649 0 0.010410448639676743 2.1555549568053753e-05 0 0.010936183317380287 0.0007477000726594078 0 0.011400371920290834 0.000242909482661627 0 0.010936183317380287 0.0007477000726594078 0 0.011400371920290834 0.000242909482661627 0 0.011543497784531724 0.00079542126352656248 0 0.011400371920290834 0.000242909482661627 0 0.011543497784531724 0.00079542126352656248 0 0.011896810128150852 0.00047813827580353493 0 0.011543497784531724 0.00079542126352656248 0 0.011249115027493053 0.0015813299938573649 0 0.011989169414386635 0.0011331050655932129 0 0.010936183317380287 0.0007477000726594078 0 0.011543497784531724 0.00079542126352656248 0 0.011249115027493053 0.0015813299938573649 0 0.0035057671137817296 0.0003361535924368215 0 0.0034166179634825661 0.00015137628347738582 0 0.0031933431162225463 0.00017556820348253597 0 0.0079293825217444033 0.00037364317157807353 0 0.010699934680658644 0.0002918856975221161 0 0.0079293825217444033 0.00037364317157807353 0 0.0076367696685677548 -0.00022788123215209565 0 0.0057177193406633886 0.00033240750750993995 0 0.0079293825217444033 0.00037364317157807353 0 0.0037661047080516301 0.00030394366304631592 0 0.0035057671137817296 0.0003361535924368215 0 0.0035669304645853908 0.00013554141835176356 0 0.0064113205756773373 1.917372155387003e-05 0 0.0062923259964133924 -1.8182037467331832e-05 0 0.0064145750170875272 2.0739617715756964e-06 0 0.0037661047080516301 0.00030394366304631592 0 0.0035669304645853908 0.00013554141835176356 0 0.0036539654275642743 -3.3807885071330682e-05 0 0.0035669304645853908 0.00013554141835176356 0 0.0035878290655520844 -4.7569800832166323e-06 0 0.0036539654275642743 -3.3807885071330682e-05 0 0.0035669304645853908 0.00013554141835176356 0 0.003500601632624379 3.8595490084535358e-05 0 0.0035878290655520844 -4.7569800832166323e-06 0 0.0035057671137817296 0.0003361535924368215 0 0.0035669304645853908 0.00013554141835176356 0 0.0034166179634825661 0.00015137628347738582 0 0.0035669304645853908 0.00013554141835176356 0 0.003500601632624379 3.8595490084535358e-05 0 0.0034166179634825661 0.00015137628347738582 0 0.003500601632624379 3.8595490084535358e-05 0 0.0033383784299178751 5.3481940994431598e-05 0 0.0034166179634825661 0.00015137628347738582 0 0.0051027980840274573 -0.00090102179847022777 0 0.0055770245201944004 -0.0011166545877430076 0 0.0050831776647112768 -0.00074430493762333823 0 0.0032178632321951117 -0.00032229973381146164 0 0.0029100507492653238 -0.00038468888454560663 0 0.0051027980840274573 -0.00090102179847022777 0 0.0054134802115698146 -0.0011284614436667586 0 0.0055770245201944004 -0.0011166545877430076 0 0.0033383784299178751 5.3481940994431598e-05 0 0.0034166179634825661 0.00015137628347738582 0 0.0031933431162225463 0.00017556820348253597 0 0.00035681206271407419 6.5044305826553653e-05 0 0.00041000514963119238 -0.00017208871785282759 0 0.00069510703052666132 -0.00015962062970366879 0 0.0058030412263622285 0.00016724041869788155 0 0.0076367696685677548 -0.00022788123215209565 0 0.00035681206271407419 6.5044305826553653e-05 0 0.00015791852314310249 4.7772136462731139e-05 0 0.00041000514963119238 -0.00017208871785282759 0 0.0054134802115698146 -0.0011284614436667586 0 0.0055770245201944004 -0.0011166545877430076 0 0.0055883093542123223 -0.0012421702388087969 0 0.0055770245201944004 -0.0011166545877430076 0 0.0055883093542123223 -0.0012421702388087969 0 0.0059819725804158511 -0.0014218892384396142 0 0.0080440692912538293 -0.00032332541358158886 0 0.0086143393511352844 -0.00059538626995244467 0 0.012010220164240056 0.0017505545787387699 0 0.012346469682108768 0.0012469088588148254 0 0.012789848731186278 0.0010917527563360269 0 0.0076367696685677548 -0.00022788123215209565 0 0.0080440692912538293 -0.00032332541358158886 0 0.00035681206271407419 6.5044305826553653e-05 0 9.1777879919094916e-05 0.00020260565120158082 0 0.00015791852314310249 4.7772136462731139e-05 0 0.0032178632321951117 -0.00032229973381146164 0 0.0038329115274535154 -0.00025243021393903835 0 0.012010220164240056 0.0017505545787387699 0 0.011987208994447475 0.0013141674176123533 0 0.012346469682108768 0.0012469088588148254 0 0.012010220164240056 0.0017505545787387699 0 0.011987208994447475 0.0013141674176123533 0 0.011553139673102545 0.0015283725564001357 0 0.010538171442239168 0.0014677044899091853 0 0.011682249843777489 0.0020057179737778177 0 0.011553139673102545 0.0015283725564001357 0 0.011987208994447475 0.0013141674176123533 0 0.011553139673102545 0.0015283725564001357 0 0.011541503074733374 0.0011178099663472949 0 0.010538171442239168 0.0014677044899091853 0 0.011553139673102545 0.0015283725564001357 0 0.011541503074733374 0.0011178099663472949 0 0.011682249843777489 0.0020057179737778177 0 0.012010220164240056 0.0017505545787387699 0 0.011553139673102545 0.0015283725564001357 0 0.011543497784531724 0.00079542126352656248 0 0.011989169414386635 0.0011331050655932129 0 0.011896810128150852 0.00047813827580353493 0 0.011989169414386635 0.0011331050655932129 0 0.011896810128150852 0.00047813827580353493 0 0.012246969501341525 0.00063106619570487332 0 0.012251914552134183 0.00023599454444503035 0 0.012246969501341525 0.00063106619570487332 0 0.012552675874203655 0.00048709453654688703 0 0.012251914552134183 0.00023599454444503035 0 0.011896810128150852 0.00047813827580353493 0 0.012246969501341525 0.00063106619570487332 0 0.012246969501341525 0.00063106619570487332 0 0.012520297467148521 0.00083603543885505793 0 0.012552675874203655 0.00048709453654688703 0 0.011989169414386635 0.0011331050655932129 0 0.012246969501341525 0.00063106619570487332 0 0.012520297467148521 0.00083603543885505793 0 0.011987208994447475 0.0013141674176123533 0 0.011541503074733374 0.0011178099663472949 0 0.012520297467148521 0.00083603543885505793 0 0.010699934680658644 0.0002918856975221161 0 0.011462142004116788 0.00027281270170508557 0 0.011987208994447475 0.0013141674176123533 0 0.012346469682108768 0.0012469088588148254 0 0.012520297467148521 0.00083603543885505793 0 0.012346469682108768 0.0012469088588148254 0 0.01258203036722179 0.001029438589978366 0 0.012789848731186278 0.0010917527563360269 0 0.012346469682108768 0.0012469088588148254 0 0.01258203036722179 0.001029438589978366 0 0.012520297467148521 0.00083603543885505793 0 0.01258203036722179 0.001029438589978366 0 0.012789848731186278 0.0010917527563360269 0 0.012671619243179201 0.00094172897214089759 0 0.012789848731186278 0.0010917527563360269 0 0.012793014902865224 0.00081490418394628646 0 0.012671619243179201 0.00094172897214089759 0 0.012793014902865224 0.00081490418394628646 0 0.012520297467148521 0.00083603543885505793 0 0.012671619243179201 0.00094172897214089759 0 0.012793014902865224 0.00081490418394628646 0 0.012520297467148521 0.00083603543885505793 0 0.01271065113184619 0.00064147704040766094 0 0.01258203036722179 0.001029438589978366 0 0.012520297467148521 0.00083603543885505793 0 0.012671619243179201 0.00094172897214089759 0 0.012520297467148521 0.00083603543885505793 0 0.01271065113184619 0.00064147704040766094 0 0.012552675874203655 0.00048709453654688703 0 0.012793014902865224 0.00081490418394628646 0 0.01271065113184619 0.00064147704040766094 0 0.012895482637951107 0.00062398203698820691 0 0.01271065113184619 0.00064147704040766094 0 0.012895482637951107 0.00062398203698820691 0 0.01279494388640485 0.00045479090162517638 0 0.012737070073779855 0.00020237289039722688 0 0.01279494388640485 0.00045479090162517638 0 0.012552675874203655 0.00048709453654688703 0 0.01271065113184619 0.00064147704040766094 0 0.01279494388640485 0.00045479090162517638 0 0.012552675874203655 0.00048709453654688703 0 0.012895482637951107 0.00062398203698820691 0 0.01279494388640485 0.00045479090162517638 0 0.013328183023441962 0.00062085508184343667 0 0.010892095771111655 0.00021634386068911565 0 0.0079277222369119604 -0.00048596557783142511 0 0.012737070073779855 0.00020237289039722688 0 0.01279494388640485 0.00045479090162517638 0 0.013328183023441962 0.00062085508184343667 0 0.011448310469893055 -0.00073172132907856893 0 0.011296461321847811 -0.00076458243501958262 0 0.010862821802259195 -0.0011699370913513885 0 0.012793014902865224 0.00081490418394628646 0 0.012895482637951107 0.00062398203698820691 0 0.013328183023441962 0.00062085508184343667 0 0.011296461321847811 -0.00076458243501958262 0 0.010967645861359352 -0.00085340187282673162 0 0.010862821802259195 -0.0011699370913513885 0 0.010967645861359352 -0.00085340187282673162 0 0.010862821802259195 -0.0011699370913513885 0 0.010753205784009297 -0.00086228901083377205 0 0.005842660276347977 -0.00065645313017273325 0 0.0038329115274535154 -0.00025243021393903835 0 0.0059909479794946104 -0.0015473825251325749 0 0.006396961639338089 -0.0018584106353162907 0 0.0063909259293431038 -0.0017291207438338736 0 0.012789848731186278 0.0010917527563360269 0 0.012793014902865224 0.00081490418394628646 0 0.013328183023441962 0.00062085508184343667 0 0.0086143393511352844 -0.00059538626995244467 0 0.0079277222369119604 -0.00048596557783142511 0 0.0059909479794946104 -0.0015473825251325749 0 0.0063909259293431038 -0.0017291207438338736 0 0.0059819725804158511 -0.0014218892384396142 0 9.1777879919094916e-05 0.00020260565120158082 0 2.6909677572248454e-05 3.9149481346100112e-05 0 -0.00010146740391576909 0.00010485187435371893 0 -6.380528075575632e-05 0.00030126658547958307 0 9.1777879919094916e-05 0.00020260565120158082 0 -0.00010146740391576909 0.00010485187435371893 0 0.0055883093542123223 -0.0012421702388087969 0 0.0059909479794946104 -0.0015473825251325749 0 0.0059819725804158511 -0.0014218892384396142 0 9.1777879919094916e-05 0.00020260565120158082 0 0.00015791852314310249 4.7772136462731139e-05 0 2.6909677572248454e-05 3.9149481346100112e-05 0 0.00015791852314310249 4.7772136462731139e-05 0 2.6909677572248454e-05 3.9149481346100112e-05 0 5.5523300946519146e-05 -6.4920316267250651e-05 0 2.6909677572248454e-05 3.9149481346100112e-05 0 -6.2511955418235451e-05 -6.7988285820039945e-05 0 -0.00010146740391576909 0.00010485187435371893 0 2.6909677572248454e-05 3.9149481346100112e-05 0 -6.2511955418235451e-05 -6.7988285820039945e-05 0 5.5523300946519146e-05 -6.4920316267250651e-05 0 -6.2511955418235451e-05 -6.7988285820039945e-05 0 -1.6088556124145791e-06 -0.00018655743839607656 0 -0.00014350648838919202 -0.00019752691710079161 0 -6.2511955418235451e-05 -6.7988285820039945e-05 0 5.5523300946519146e-05 -6.4920316267250651e-05 0 -1.6088556124145791e-06 -0.00018655743839607656 0 5.5523300946519146e-05 -6.4920316267250651e-05 0 -1.6088556124145791e-06 -0.00018655743839607656 0 0.00015597716814750483 -0.00014660221494640187 0 0.00015791852314310249 4.7772136462731139e-05 0 5.5523300946519146e-05 -6.4920316267250651e-05 0 0.00015597716814750483 -0.00014660221494640187 0 0.0001101713243342306 -0.00013322458249675885 0 0.00011420555139614162 -0.00027999148638928252 0 -1.6088556124145791e-06 -0.00018655743839607656 0 5.6080607529433091e-05 -0.00028213594650434119 0 0.00015597716814750483 -0.00014660221494640187 0 5.6080607529433091e-05 -0.00028213594650434119 0 0.00018177848360841092 -0.00034231970445253 0 0.00015597716814750483 -0.00014660221494640187 0 -1.6088556124145791e-06 -0.00018655743839607656 0 -8.0843954860220716e-05 -0.00031198312715082313 0 -0.00014350648838919202 -0.00019752691710079161 0 -1.6088556124145791e-06 -0.00018655743839607656 0 -8.0843954860220716e-05 -0.00031198312715082313 0 5.6080607529433091e-05 -0.00028213594650434119 0 -8.0843954860220716e-05 -0.00031198312715082313 0 2.0543865767256138e-05 -0.00042656056196654929 0 5.6080607529433091e-05 -0.00028213594650434119 0 -1.1445129842728993e-05 -0.00052109240954058614 0 -0.0001184496595298777 -0.00044277356024332069 0 2.0543865767256138e-05 -0.00042656056196654929 0 -8.0843954860220716e-05 -0.00031198312715082313 0 -0.0001184496595298777 -0.00044277356024332069 0 2.0543865767256138e-05 -0.00042656056196654929 0 -0.00011284009510100109 -0.0005783661475013181 0 -1.1445129842728993e-05 -0.00052109240954058614 0 -0.0001184496595298777 -0.00044277356024332069 0 9.8392987154927763e-05 -0.00051044908782155759 0 2.0543865767256138e-05 -0.00042656056196654929 0 0.00018177848360841092 -0.00034231970445253 0 -1.1445129842728993e-05 -0.00052109240954058614 0 9.8392987154927763e-05 -0.00051044908782155759 0 2.0543865767256138e-05 -0.00042656056196654929 0 2.0543865767256138e-05 -0.00042656056196654929 0 5.6080607529433091e-05 -0.00028213594650434119 0 0.00018177848360841092 -0.00034231970445253 0 -5.3111046919974064e-05 -0.00070473383953831834 0 8.5854617095707143e-05 -0.00053683069889009941 0 0.00036606693519741193 -0.0011417030322952643 0 0.00029341950019133036 -0.00073466153536187544 0 0.00049610542743726066 -0.00092225985844250451 0 0.00021981494991333281 -0.0005509850887829616 0 9.8392987154927763e-05 -0.00051044908782155759 0 0.00018177848360841092 -0.00034231970445253 0 0.00036606693519741193 -0.0011417030322952643 0 0.00049610542743726066 -0.00092225985844250451 0 0.00072324800387322868 -0.00099847699780357163 0 -5.3111046919974064e-05 -0.00070473383953831834 0 0.00044980893965937147 -0.00066418572638922045 0 0.00049610542743726066 -0.00092225985844250451 0 0.00066908430852698599 -0.00076565579049781127 0 0.00072324800387322868 -0.00099847699780357163 0 0.00029341950019133036 -0.00073466153536187544 0 0.00049610542743726066 -0.00092225985844250451 0 0.00066908430852698599 -0.00076565579049781127 0 0.00029341950019133036 -0.00073466153536187544 0 0.00066908430852698599 -0.00076565579049781127 0 0.00051325803827069027 -0.00044594683659393748 0 0.00051325803827069027 -0.00044594683659393748 0 0.00069510703052666132 -0.00015962062970366879 0 0.00078044240457581719 -0.00050887220219677858 0 0.00066908430852698599 -0.00076565579049781127 0 0.00051325803827069027 -0.00044594683659393748 0 0.00078044240457581719 -0.00050887220219677858 0 8.5854617095707143e-05 -0.00053683069889009941 0 0.00011420555139614162 -0.00027999148638928252 0 0.00029341950019133036 -0.00073466153536187544 0 0.00051325803827069027 -0.00044594683659393748 0 0.00022218062434178773 -0.00033233125953627583 0 0.00015791852314310249 4.7772136462731139e-05 0 0.00022218062434178773 -0.00033233125953627583 0 0.00041000514963119238 -0.00017208871785282759 0 0.00051325803827069027 -0.00044594683659393748 0 0.00022218062434178773 -0.00033233125953627583 0 0.00041000514963119238 -0.00017208871785282759 0 0.00051325803827069027 -0.00044594683659393748 0 0.00041000514963119238 -0.00017208871785282759 0 0.00069510703052666132 -0.00015962062970366879 0 0.0051027980840274573 -0.00090102179847022777 0 0.0050831776647112768 -0.00074430493762333823 0 0.004503756532719028 -0.00048430070989454919 0 0.0029100507492653238 -0.00038468888454560663 0 0.0025847999949273892 -0.00038316924758763707 0 0.0058030412263622285 0.00016724041869788155 0 0.004624986210210306 0.00026244370311881497 0 0.0050831776647112768 -0.00074430493762333823 0 0.004503756532719028 -0.00048430070989454919 0 0.0044736402333701479 -0.00027942536796628166 0 0.003500601632624379 3.8595490084535358e-05 0 0.0033383784299178751 5.3481940994431598e-05 0 0.0036512644331267567 -0.00014544512824889752 0 0.003500601632624379 3.8595490084535358e-05 0 0.0035878290655520844 -4.7569800832166323e-06 0 0.0036512644331267567 -0.00014544512824889752 0 0.0035878290655520844 -4.7569800832166323e-06 0 0.0036539654275642743 -3.3807885071330682e-05 0 0.0036512644331267567 -0.00014544512824889752 0 0.0036539654275642743 -3.3807885071330682e-05 0 0.0036512644331267567 -0.00014544512824889752 0 0.0036806428583443154 -0.00012548991359885909 0 0.004503756532719028 -0.00048430070989454919 0 0.0044736402333701479 -0.00027942536796628166 0 0.0036587562339885351 0.00010493025167474548 0 0.0010287125004730855 -0.00039883086433899586 0 0.0010136186312392642 -0.00070820554703450965 0 0.001363286113012276 -0.00064509801172042984 0 0.0010287125004730855 -0.00039883086433899586 0 0.00078044240457581719 -0.00050887220219677858 0 0.0010136186312392642 -0.00070820554703450965 0 0.00069510703052666132 -0.00015962062970366879 0 0.0010287125004730855 -0.00039883086433899586 0 0.00078044240457581719 -0.00050887220219677858 0 0.00066908430852698599 -0.00076565579049781127 0 0.00087961987208902783 -0.00082661107424673809 0 0.0010289297382698661 -0.00069252582108498162 0 0.00066908430852698599 -0.00076565579049781127 0 0.00078044240457581719 -0.00050887220219677858 0 0.0010136186312392642 -0.00070820554703450965 0 0.00099985947871002612 -0.0005823004802632182 0 0.0012432643734145619 -0.00051258231261542121 0 0.00087961987208902783 -0.00082661107424673809 0 0.00072324800387322868 -0.00099847699780357163 0 0.0011000991078108475 -0.00084900651697600782 0 0.00066908430852698599 -0.00076565579049781127 0 0.00087961987208902783 -0.00082661107424673809 0 0.00072324800387322868 -0.00099847699780357163 0 0.00044980893965937147 -0.00066418572638922045 0 0.0010364653530798122 -0.00051047031638827502 0 0.00082822896192899596 -0.0010815654547564689 0 0.00019813129233744477 -0.00062003142513493415 0 0.00086542243305906183 -0.00034767075392672352 0 0.0011000991078108475 -0.00084900651697600782 0 0.0010289297382698661 -0.00069252582108498162 0 0.0014052791480137778 -0.00062177567329454889 0 0.00087961987208902783 -0.00082661107424673809 0 0.0011000991078108475 -0.00084900651697600782 0 0.0010289297382698661 -0.00069252582108498162 0 0.0012432643734145619 -0.00051258231261542121 0 0.0019984070397169201 -0.00028851731960623358 0 0.0011000991078108475 -0.00084900651697600782 0 0.0014052791480137778 -0.00062177567329454889 0 0.0014926987074934022 -0.00068695775044826709 0 0.00086542243305906183 -0.00034767075392672352 0 0.0013851696956273694 -0.00052955716894918412 0 0.0015322199313145617 -8.5359578838283464e-05 0 0.0010364653530798122 -0.00051047031638827502 0 0.001829321133529829 -0.00023709549570530533 0 0.0019984070397169201 -0.00028851731960623358 0 0.001829321133529829 -0.00023709549570530533 0 0.00082822896192899596 -0.0010815654547564689 0 0.00086542243305906183 -0.00034767075392672352 0 0.0013851696956273694 -0.00052955716894918412 0 -3.1397079116357296e-05 -3.2956796583084767e-07 0 -0.00060810530166199557 0.00016314223979167538 0 0.0019328496998129345 1.1927645365624766e-06 0 0.00051530329975439648 -0.00038224072077932273 0 0.0019331280653927282 -1.6725112406128735e-07 0 0.0017391605349742446 -3.5929785939190716e-05 0 0.0018594772410722971 -0.00013010999159923447 0 0.0021998294682143275 -3.3109660439098775e-09 0 0.0013851696956273694 -0.00052955716894918412 0 0.0016785747173914489 -0.00019769398375415348 0 0.0019380260119507143 -2.9716886707652008e-07 0 0.0036070589317035544 0.00040711630937027995 0 0.002204899190541509 1.2182280219526964e-06 0 0.0036587562339885351 0.00010493025167474548 0 0.0019984070397169201 -0.00028851731960623358 0 0.0022026862413882962 -6.0782959152017247e-07 0 0.0013851696956273694 -0.00052955716894918412 0 0.0016785747173914489 -0.00019769398375415348 0 0.0015322199313145617 -8.5359578838283464e-05 0 0.0018194133210307547 -0.00023074409381694774 0 0.001829321133529829 -0.00023709549570530533 0 0.001829321133529829 -0.00023709549570530533 0 0.0020983788678659077 -5.782007037223851e-07 0 0.001542189589894044 -8.1831147931835032e-05 0 0.0020960670411137848 3.0014901319784341e-07 0 0.0019380260119507143 -2.9716886707652008e-07 0 0.0016785747173914489 -0.00019769398375415348 0 0.001542189589894044 -8.1831147931835032e-05 0 0.0019380260119507143 -2.9716886707652008e-07 0 0.0018594772410722971 -0.00013010999159923447 0 0.0021016697321333835 2.7776277474969074e-09 0 0.0021998294682143275 -3.3109660439098775e-09 0 0.002204899190541509 1.2182280219526964e-06 0 0.0034425913422289262 -0.00014473516100067053 0 0.0036023705195103229 -1.1620500139259602e-06 0 0.002204899190541509 1.2182280219526964e-06 0 0.0034425913422289262 -0.00014473516100067053 0 0.0036587562339885351 0.00010493025167474548 0 0.004624986210210306 0.00026244370311881497 0 0.0042518403074251745 0.00033244606780424862 0 0.0036512644331267567 -0.00014544512824889752 0 0.0036587562339885351 0.00010493025167474548 0 0.0036806428583443154 -0.00012548991359885909 0 0.0025847999949273892 -0.00038316924758763707 0 0.0019984070397169201 -0.00028851731960623358 0 0.0044736402333701479 -0.00027942536796628166 0 0.0036070589317035544 0.00040711630937027995 0 0.0036587562339885351 0.00010493025167474548 0 0.0034425913422289262 -0.00014473516100067053 0 0.0036587562339885351 0.00010493025167474548 0 0.0036514281179009728 -0.00010166670352351426 0 0.0036587562339885351 0.00010493025167474548 0 0.0036514281179009728 -0.00010166670352351426 0 0.0036806428583443154 -0.00012548991359885909 0 0.0036514281179009728 -0.00010166670352351426 0 0.0036806428583443154 -0.00012548991359885909 0 0.0037603182870770461 -0.00016961712053311902 0 0.0034425913422289262 -0.00014473516100067053 0 0.0036514281179009728 -0.00010166670352351426 0 0.0037603182870770461 -0.00016961712053311902 0 0.0036539654275642743 -3.3807885071330682e-05 0 0.0036806428583443154 -0.00012548991359885909 0 0.0037603182870770461 -0.00016961712053311902 0 0.0034425913422289262 -0.00014473516100067053 0 0.0037603182870770461 -0.00016961712053311902 0 0.0041361576139548172 -0.0001382327154127326 0 0.0049993782254695637 1.1228023718305674e-06 0 0.0036023705195103229 -1.1620500139259602e-06 0 0.0041361576139548172 -0.0001382327154127326 0 0.0034425913422289262 -0.00014473516100067053 0 0.0036023705195103229 -1.1620500139259602e-06 0 0.0041361576139548172 -0.0001382327154127326 0 0.0060729420680298799 0.0017572428246765694 0 0.0065520332988955234 9.9442880981301732e-05 0 0.0051294225395051565 0.0002201805950180984 0 0.0060729420680298799 0.0017572428246765694 0 0.0075543733904465281 0.0007212384182040787 0 0.0065520332988955234 9.9442880981301732e-05 0 0.0046896359629283709 0.002373086004048557 0 0.0051294225395051565 0.0002201805950180984 0 0.0035439699142111006 0.0010708759411099792 0 0.0060729420680298799 0.0017572428246765694 0 0.0046896359629283709 0.002373086004048557 0 0.0051294225395051565 0.0002201805950180984 0 0.0060729420680298799 0.0017572428246765694 0 0.0046896359629283709 0.002373086004048557 0 0.0058207518293484136 0.0028578378243605614 0 0.0046896359629283709 0.002373086004048557 0 0.0050852369445358288 0.0032711594524577011 0 0.0043588068147088392 0.0037501296695338832 0 0.0046896359629283709 0.002373086004048557 0 0.0050852369445358288 0.0032711594524577011 0 0.0058207518293484136 0.0028578378243605614 0 0.0060729420680298799 0.0017572428246765694 0 0.0075543733904465281 0.0007212384182040787 0 0.007056486077379515 0.0031597512760330065 0 0.0060729420680298799 0.0017572428246765694 0 0.0058207518293484136 0.0028578378243605614 0 0.007056486077379515 0.0031597512760330065 0 0.0076351607177835082 0.0011584801928411599 0 0.0074616922813284907 0.0019901459179273626 0 0.0078544745744772437 0.0023746123899686775 0 0.007056486077379515 0.0031597512760330065 0 0.0082510518351866513 0.0036464152610843534 0 0.0078544745744772437 0.0023746123899686775 0 0.0074838910770399112 0.0012716673115020034 0 0.007056486077379515 0.0031597512760330065 0 0.0078544745744772437 0.0023746123899686775 0 0.0085315776141023491 0.0023814829295865808 0 0.0080626422325477901 0.0015961930329519913 0 0.0078544745744772437 0.0023746123899686775 0 0.0085315776141023491 0.0023814829295865808 0 0.0082510518351866513 0.0036464152610843534 0 0.0066560166268970428 0.0015073250154756127 0 0.0059214863884546583 0.0016935955692342335 0 0.0085134065345675632 0.0012686061331521603 0 0.0084675262322592773 0.0012589983026094083 0 0.0084212953979607378 0.0013444992575898697 0 0.0085134065345675632 0.0012686061331521603 0 0.0084675262322592773 0.0012589983026094083 0 0.0084930642732404457 0.0012191165267275994 0 0.0084930642732404457 0.0012191165267275994 0 0.0080626422325477901 0.0015961930329519913 0 0.0080637222198027599 0.00089496049386453389 0 0.0066560166268970428 0.0015073250154756127 0 0.0068969371308733604 0.001385059016340134 0 0.0085315776141023491 0.0023814829295865808 0 0.0084930642732404457 0.0012191165267275994 0 0.0080626422325477901 0.0015961930329519913 0 0.0080626422325477901 0.0015961930329519913 0 0.0074838910770399112 0.0012716673115020034 0 0.0080637222198027599 0.00089496049386453389 0 0.0078544745744772437 0.0023746123899686775 0 0.0080626422325477901 0.0015961930329519913 0 0.0074838910770399112 0.0012716673115020034 0 0.0076351607177835082 0.0011584801928411599 0 0.0078813060981316897 0.00026323948595998381 0 0.0074838910770399112 0.0012716673115020034 0 0.0080637222198027599 0.00089496049386453389 0 0.0079142944632178015 0.00049129890922704688 0 0.0075543733904465281 0.0007212384182040787 0 0.00781958939232987 -0.00020070325109304194 0 0.0081636362235842346 -0.00068640580706313633 0 0.0080637222198027599 0.00089496049386453389 0 0.0081482116910097588 0.00062006388237230425 0 0.0079142944632178015 0.00049129890922704688 0 0.0084930642732404457 0.0012191165267275994 0 0.0080637222198027599 0.00089496049386453389 0 0.0085232404491651821 0.00094835153058073977 0 0.0080637222198027599 0.00089496049386453389 0 0.0083460013953156678 0.00069693038820567183 0 0.0085232404491651821 0.00094835153058073977 0 0.0080637222198027599 0.00089496049386453389 0 0.0083460013953156678 0.00069693038820567183 0 0.0081482116910097588 0.00062006388237230425 0 0.0083460013953156678 0.00069693038820567183 0 0.0082942495395667091 0.00040330621526840681 0 0.008527056596616572 0.00057419562206545319 0 0.0083460013953156678 0.00069693038820567183 0 0.0081482116910097588 0.00062006388237230425 0 0.0082942495395667091 0.00040330621526840681 0 0.0081482116910097588 0.00062006388237230425 0 0.0082942495395667091 0.00040330621526840681 0 0.0079142944632178015 0.00049129890922704688 0 0.00781958939232987 -0.00020070325109304194 0 0.0081636362235842346 -0.00068640580706313633 0 0.0086319685118499013 -0.0005828999778018549 0 0.0084051612415782934 -0.00040874334380997939 0 0.0081636362235842346 -0.00068640580706313633 0 0.0086319685118499013 -0.0005828999778018549 0 0.007487358857476584 -0.00069365620771222813 0 0.0069970586783555085 -0.001179927272348935 0 0.00781958939232987 -0.00020070325109304194 0 0.0065520332988955234 9.9442880981301732e-05 0 0.0058710905631318561 -0.0023814136210306325 0 0.0075543733904465281 0.0007212384182040787 0 0.00781958939232987 -0.00020070325109304194 0 0.0065520332988955234 9.9442880981301732e-05 0 0.0065520332988955234 9.9442880981301732e-05 0 0.0051294225395051565 0.0002201805950180984 0 0.0058710905631318561 -0.0023814136210306325 0 0.0051294225395051565 0.0002201805950180984 0 0.0058710905631318561 -0.0023814136210306325 0 0.0038508647684819841 -0.0015626611344894601 0 0.0020438763307642923 -0.0025381317172822305 0 0.002985229396147298 -0.001294330179122216 0 0.0013243961173932776 -0.00088253083655977151 0 0.00076392516725086901 -0.0028211346360263109 0 0.0020438763307642923 -0.0025381317172822305 0 0.0013243961173932776 -0.00088253083655977151 0 0.0013243961173932776 -0.00088253083655977151 0 0.002829817507647357 0.0012435726164867296 0 0.00098606497743405821 0.0012878266304191153 0 0.0044997949245749163 -0.0010642889196472482 0 0.0037375002132808161 0.0011612407613644825 0 0.002985229396147298 -0.001294330179122216 0 0.0013243961173932776 -0.00088253083655977151 0 0.002829817507647357 0.0012435726164867296 0 0.0051294225395051565 0.0002201805950180984 0 0.0038508647684819841 -0.0015626611344894601 0 0.0035439699142111006 0.0010708759411099792 0 0.0067118745989605743 -0.00094866590015292866 0 0.0049154537312592443 -0.0011787490500323268 0 -9.4464295446790617e-05 0.00032170476183671011 0 -0.00020248231924472154 0.00040124051073384142 0 -0.000238009033582754 0.00022249286214081067 0 0.010718552667611084 -0.0012666530700626843 0 0.01063826265002032 -0.0010199601496823419 0 0.01023915013335876 -0.00091365547940193783 0 0.010834489021781062 -0.0011732292900498485 0 0.010718552667611084 -0.0012666530700626843 0 0.01063826265002032 -0.0010199601496823419 0 0.006396961639338089 -0.0018584106353162907 0 0.0063909259293431038 -0.0017291207438338736 0 0.006478937621835568 -0.0017952143556275997 0 0.0079277222369119604 -0.00048596557783142511 0 0.0067118745989605743 -0.00094866590015292866 0 0.0079277222369119604 -0.00048596557783142511 0 0.0081871531862556194 -0.0006364419401916941 0 0.010531456841546235 -0.00073034276605729652 0 0.010753205784009297 -0.00086228901083377205 0 0.01063826265002032 -0.0010199601496823419 0 0.010862821802259195 -0.0011699370913513885 0 0.010753205784009297 -0.00086228901083377205 0 0.01063826265002032 -0.0010199601496823419 0 0.010531456841546235 -0.00073034276605729652 0 0.01063826265002032 -0.0010199601496823419 0 0.01023915013335876 -0.00091365547940193783 0 0.00076392516725086901 -0.0028211346360263109 0 0.0013243961173932776 -0.00088253083655977151 0 -0.00022319287960404361 -0.0019059832178723339 0 0.0013243961173932776 -0.00088253083655977151 0 -0.00022319287960404361 -0.0019059832178723339 0 -7.2230318694327375e-05 0.00044196174780192866 0 0.0013243961173932776 -0.00088253083655977151 0 -7.2230318694327375e-05 0.00044196174780192866 0 0.00098606497743405821 0.0012878266304191153 0 0.0049154537312592443 -0.0011787490500323268 0 0.0022327938538247256 5.8548954418553815e-05 0 -6.380528075575632e-05 0.00030126658547958307 0 -9.4464295446790617e-05 0.00032170476183671011 0 -0.000238009033582754 0.00022249286214081067 0 -6.380528075575632e-05 0.00030126658547958307 0 -0.000238009033582754 0.00022249286214081067 0 -0.00010146740391576909 0.00010485187435371893 0 0.005842660276347977 -0.00065645313017273325 0 0.0067118745989605743 -0.00094866590015292866 0 -0.000238009033582754 0.00022249286214081067 0 -0.00010146740391576909 0.00010485187435371893 0 -0.00027776548886572462 2.3160514463407407e-05 0 -7.2230318694327375e-05 0.00044196174780192866 0 0.00023034147850755046 0.002818543486751071 0 0.00098606497743405821 0.0012878266304191153 0 0.0022327938538247256 5.8548954418553815e-05 0 0.0010237666545895943 0.00095765882336124736 0 0.00023034147850755046 0.002818543486751071 0 0.00098606497743405821 0.0012878266304191153 0 0.00077792109668902213 0.0027475561512114001 0 0.00023034147850755046 0.002818543486751071 0 0.00077792109668902213 0.0027475561512114001 0 0.0005543703997385953 0.0029528540625739881 0 -0.00010146740391576909 0.00010485187435371893 0 -0.00027776548886572462 2.3160514463407407e-05 0 -0.00019039636520871013 -7.2239973421820929e-05 0 -6.2511955418235451e-05 -6.7988285820039945e-05 0 -0.00010146740391576909 0.00010485187435371893 0 -0.00019039636520871013 -7.2239973421820929e-05 0 0.002829817507647357 0.0012435726164867296 0 0.00098606497743405821 0.0012878266304191153 0 0.00077792109668902213 0.0027475561512114001 0 0.002829817507647357 0.0012435726164867296 0 0.00077792109668902213 0.0027475561512114001 0 0.0021439483379686593 0.003714084327444361 0 0.00077792109668902213 0.0027475561512114001 0 0.0005543703997385953 0.0029528540625739881 0 0.00037804793363478641 0.0031066534655456381 0 0.0016152698240010396 0.0025194086737388797 0 0.0018379354843875253 0.0026073859267189345 0 0.0037375002132808161 0.0011612407613644825 0 0.0034644800388777576 0.0026123087942187991 0 0.002829817507647357 0.0012435726164867296 0 0.0029280183130721295 0.0039298860050371257 0 0.0021439483379686593 0.003714084327444361 0 0.0046896359629283709 0.002373086004048557 0 0.0035439699142111006 0.0010708759411099792 0 0.0029280183130721295 0.0039298860050371257 0 0.0035380507277091222 0.0047423934633073865 0 0.0029280183130721295 0.0039298860050371257 0 0.0043588068147088392 0.0037501296695338832 0 0.0046896359629283709 0.002373086004048557 0 0.0029280183130721295 0.0039298860050371257 0 0.0043588068147088392 0.0037501296695338832 0 0.00025224819300601281 0.0031592796859857466 0 0.00037804793363478641 0.0031066534655456381 0 0.00022170535391917131 0.0031627667769865055 0 0.002253158233685592 0.0026042587921650357 0 0.0018379354843875253 0.0026073859267189345 0 0.002253158233685592 0.0026042587921650357 0 0.0019245694402613618 0.0026561057264409584 0 0.0035380507277091222 0.0047423934633073865 0 0.0029280183130721295 0.0039298860050371257 0 0.0021439483379686593 0.003714084327444361 0 0.0005543703997385953 0.0029528540625739881 0 0.00037804793363478641 0.0031066534655456381 0 0.00044911729870720748 0.0031075125724573608 0 0.00037804793363478641 0.0031066534655456381 0 0.00044911729870720748 0.0031075125724573608 0 0.00022170535391917131 0.0031627667769865055 0 0.00044911729870720748 0.0031075125724573608 0 0.00025047123000916774 0.0029552627647425121 0 0.00044214641215457374 0.0031156047236247301 0 0.00044911729870720748 0.0031075125724573608 0 0.00022170535391917131 0.0031627667769865055 0 0.00025047123000916774 0.0029552627647425121 0 0.00022170535391917131 0.0031627667769865055 0 0.00025047123000916774 0.0029552627647425121 0 -0.00014588393740160377 0.002818255122035841 0 -0.00017032438727351677 0.0032872655095340909 0 -0.00014588393740160377 0.002818255122035841 0 -0.00084899544004878199 0.002991291686278525 0 -0.00017032438727351677 0.0032872655095340909 0 0.00022170535391917131 0.0031627667769865055 0 -0.00014588393740160377 0.002818255122035841 0 -6.2511955418235451e-05 -6.7988285820039945e-05 0 -0.00019039636520871013 -7.2239973421820929e-05 0 -0.00014350648838919202 -0.00019752691710079161 0 -0.00019039636520871013 -7.2239973421820929e-05 0 -0.00031368935975702021 -0.00018807029111191952 0 -0.00014350648838919202 -0.00019752691710079161 0 -0.00027776548886572462 2.3160514463407407e-05 0 -0.00019039636520871013 -7.2239973421820929e-05 0 -0.00031368935975702021 -0.00018807029111191952 0 0.00023034147850755046 0.002818543486751071 0 0.0005543703997385953 0.0029528540625739881 0 0.00044911729870720748 0.0031075125724573608 0 0.0010237666545895943 0.00095765882336124736 0 0.0004375657622471422 0.0012126194086440076 0 0.00023034147850755046 0.002818543486751071 0 0.00044911729870720748 0.0031075125724573608 0 0.00044214641215457374 0.0031156047236247301 0 0.00025047123000916774 0.0029552627647425121 0 0.00044214641215457374 0.0031156047236247301 0 0.00044146441533926957 0.0025150518405596197 0 -0.00031368935975702021 -0.00018807029111191952 0 -0.00014350648838919202 -0.00019752691710079161 0 -0.0002169717044545945 -0.00034775505441046582 0 -8.0843954860220716e-05 -0.00031198312715082313 0 -0.0001184496595298777 -0.00044277356024332069 0 -0.0002169717044545945 -0.00034775505441046582 0 -8.0843954860220716e-05 -0.00031198312715082313 0 -0.00014350648838919202 -0.00019752691710079161 0 -0.0002169717044545945 -0.00034775505441046582 0 0.0004375657622471422 0.0012126194086440076 0 6.8923136622301462e-05 0.0010348625881401511 0 -0.00031368935975702021 -0.00018807029111191952 0 -0.0002169717044545945 -0.00034775505441046582 0 -0.00033331134395352607 -0.00040430352115424596 0 -0.00029559567104372965 0.00074437095775098979 0 6.8923136622301462e-05 0.0010348625881401511 0 -0.00028093419863149015 -0.00046656703919033992 0 -0.0002937031291445808 -0.00049808553199418828 0 -0.00033331134395352607 -0.00040430352115424596 0 -0.0002937031291445808 -0.00049808553199418828 0 -0.0002169717044545945 -0.00034775505441046582 0 -0.00033331134395352607 -0.00040430352115424596 0 -0.0002937031291445808 -0.00049808553199418828 0 -0.0001184496595298777 -0.00044277356024332069 0 -0.0002169717044545945 -0.00034775505441046582 0 -0.0002937031291445808 -0.00049808553199418828 0 -0.00011284009510100109 -0.0005783661475013181 0 -0.0001184496595298777 -0.00044277356024332069 0 -0.00014588393740160377 0.002818255122035841 0 -0.00031156856403356651 0.0022779885605196722 0 -0.00065050005601969012 0.002598887911969253 0 0.00044146441533926957 0.0025150518405596197 0 -0.00014588393740160377 0.002818255122035841 0 -0.00031156856403356651 0.0022779885605196722 0 0.00025047123000916774 0.0029552627647425121 0 0.00044146441533926957 0.0025150518405596197 0 -0.00014588393740160377 0.002818255122035841 0 0.00031234539264195102 0.0017958476895553281 0 0.00044146441533926957 0.0025150518405596197 0 -0.00031156856403356651 0.0022779885605196722 0 -0.00074191651912404899 0.0018563483971171667 0 -0.00031156856403356651 0.0022779885605196722 0 -0.0009342746270457721 0.0022904741525024337 0 -0.00031156856403356651 0.0022779885605196722 0 -0.0009342746270457721 0.0022904741525024337 0 -0.00065050005601969012 0.002598887911969253 0 -0.0009342746270457721 0.0022904741525024337 0 -0.00107382348805647 0.0025738961784531247 0 -0.00065050005601969012 0.002598887911969253 0 -0.0017226428474084838 0.002015203972199401 0 -0.0009342746270457721 0.0022904741525024337 0 -0.0015773412816106887 0.0022543340349179108 0 -0.0009342746270457721 0.0022904741525024337 0 -0.0015773412816106887 0.0022543340349179108 0 -0.0013871126295833885 0.0023817107009667339 0 -0.0017226428474084838 0.002015203972199401 0 -0.0015773412816106887 0.0022543340349179108 0 -0.0017806613490431887 0.0021744027663347077 0 -0.0009342746270457721 0.0022904741525024337 0 -0.0013871126295833885 0.0023817107009667339 0 -0.00107382348805647 0.0025738961784531247 0 0.0026164195124555637 0.0025203320969182084 0 0.0028330933853410014 0.0024166195307676244 0 -0.0015773412816106887 0.0022543340349179108 0 -0.0016701110920847302 0.0026000770639235107 0 -0.0017250651696328469 0.0023277905275932488 0 -0.0013871126295833885 0.0023817107009667339 0 -0.0015489626904716513 0.0025808552564065747 0 -0.00107382348805647 0.0025738961784531247 0 -0.0015773412816106887 0.0022543340349179108 0 -0.0013871126295833885 0.0023817107009667339 0 -0.001638796052624058 0.0026504313158495444 0 0.0025099418584791843 0.0026103578956356292 0 0.0028330933853410014 0.0024166195307676244 0 0.0028330933853410014 0.0024166195307676244 0 0.0020339468888273681 0.0023290650985564928 0 0.0037464393370696841 0.0027311849465068722 0 0.0034116815618656197 0.0024419223241434994 0 0.0036835371446886514 0.0024637767173279518 0 -0.0015489626904716513 0.0025808552564065747 0 -0.00107382348805647 0.0025738961784531247 0 -0.00084899544004878199 0.002991291686278525 0 0.0037464393370696841 0.0027311849465068722 0 0.0036835371446886514 0.0024637767173279518 0 0.0037893634136871609 0.002686589939720414 0 -0.00014588393740160377 0.002818255122035841 0 -0.00065050005601969012 0.002598887911969253 0 -0.00084899544004878199 0.002991291686278525 0 -0.00107382348805647 0.0025738961784531247 0 -0.00065050005601969012 0.002598887911969253 0 -0.00084899544004878199 0.002991291686278525 0 0.0030737081134309657 0.0021515372342614443 0 0.0034116815618656197 0.0024419223241434994 0 0.0035560746171526508 0.002093670656572671 0 0.002253158233685592 0.0026042587921650357 0 0.0020339468888273681 0.0023290650985564928 0 0.0036835371446886514 0.0024637767173279518 0 0.0035560746171526508 0.002093670656572671 0 0.0039136378431084192 0.0023629959821671715 0 0.0034116815618656197 0.0024419223241434994 0 0.0036835371446886514 0.0024637767173279518 0 0.0035560746171526508 0.002093670656572671 0 0.0058207518293484136 0.0028578378243605614 0 0.0062229759297436635 0.0041635258943008352 0 0.007056486077379515 0.0031597512760330065 0 0.002253158233685592 0.0026042587921650357 0 0.0044704127851428249 0.0023525015570012566 0 0.0035380507277091222 0.0047423934633073865 0 0.0062229759297436635 0.0041635258943008352 0 0.0043588068147088392 0.0037501296695338832 0 0.0050852369445358288 0.0032711594524577011 0 0.0058207518293484136 0.0028578378243605614 0 0.0062229759297436635 0.0041635258943008352 0 0.0050852369445358288 0.0032711594524577011 0 0.0062229759297436635 0.0041635258943008352 0 0.0043588068147088392 0.0037501296695338832 0 0.0059999416626081012 0.0013928267232371908 0 0.0073380846371238675 0.001137098441850907 0 0.0059214863884546583 0.0016935955692342335 0 0.0073380846371238675 0.001137098441850907 0 0.0054273005008285352 0.0010685160487634094 0 0.0056238658148640647 0.0017043886938101274 0 0.0063390633063579076 0.00096355277116243925 0 0.0085134065345675632 0.0012686061331521603 0 0.0084212953979607378 0.0013444992575898697 0 0.0085592714916677137 0.0013393655633358239 0 0.0062229759297436635 0.0041635258943008352 0 0.007056486077379515 0.0031597512760330065 0 0.0082510518351866513 0.0036464152610843534 0 0.0035560746171526508 0.002093670656572671 0 0.0040387312825311029 0.002036054222211957 0 0.0039136378431084192 0.0023629959821671715 0 0.0044704127851428249 0.0023525015570012566 0 0.0059214863884546583 0.0016935955692342335 0 0.0059214863884546583 0.0016935955692342335 0 0.0047132718629333565 0.0020002425517340362 0 0.0054273005008285352 0.0010685160487634094 0 0.0051676923609945873 0.0017567983544522555 0 0.0056238658148640647 0.0017043886938101274 0 0.0051676923609945873 0.0017567983544522555 0 0.0056238658148640647 0.0017043886938101274 0 0.0049058750490059699 0.0024444776677178897 0 0.0077758006285355329 0.001528418063741195 0 0.0078972705033530984 0.0017493434438495493 0 0.0080919474372166417 0.0016582853058067556 0 0.0077758006285355329 0.001528418063741195 0 0.0078972705033530984 0.0017493434438495493 0 0.0077189616629928653 0.0018471977309198341 0 0.0077189616629928653 0.0018471977309198341 0 0.007839483476331139 0.0018745491162316177 0 0.0077355662998967968 0.0019914707671993478 0 0.0077189616629928653 0.0018471977309198341 0 0.0075788727242319014 0.0019600852880670059 0 0.0077355662998967968 0.0019914707671993478 0 0.0078972705033530984 0.0017493434438495493 0 0.0077189616629928653 0.0018471977309198341 0 0.007839483476331139 0.0018745491162316177 0 0.0078972705033530984 0.0017493434438495493 0 0.007839483476331139 0.0018745491162316177 0 0.0080055531243842706 0.0019112611716248166 0 0.007839483476331139 0.0018745491162316177 0 0.0077355662998967968 0.0019914707671993478 0 0.0080055531243842706 0.0019112611716248166 0 0.0047132718629333565 0.0020002425517340362 0 0.0036019103543919817 0.0021679354630328982 0 0.0059999416626081012 0.0013928267232371908 0 0.0036019103543919817 0.0021679354630328982 0 0.0077189616629928653 0.0018471977309198341 0 0.0074221994593393617 0.0018632790418548612 0 0.0075788727242319014 0.0019600852880670059 0 0.0077758006285355329 0.001528418063741195 0 0.0077189616629928653 0.0018471977309198341 0 0.0074221994593393617 0.0018632790418548612 0 0.0036835371446886514 0.0024637767173279518 0 0.0039136378431084192 0.0023629959821671715 0 0.0037893634136871609 0.002686589939720414 0 0.0073776798512909039 0.0019086561067694044 0 0.0074221994593393617 0.0018632790418548612 0 0.0075788727242319014 0.0019600852880670059 0 0.0028330933853410014 0.0024166195307676244 0 0.0036019103543919817 0.0021679354630328982 0 -0.0016701110920847302 0.0026000770639235107 0 -0.0017250651696328469 0.0023277905275932488 0 -0.0018504665466761313 0.002285612860293146 0 -0.0016701110920847302 0.0026000770639235107 0 -0.0018504665466761313 0.002285612860293146 0 -0.0021297509786677412 0.0021839148042088943 0 0.0028330933853410014 0.0024166195307676244 0 0.0028054163087992746 0.001942100172178328 0 0.0073776798512909039 0.0019086561067694044 0 0.0075788727242319014 0.0019600852880670059 0 0.0076377614685399923 0.002134702937903056 0 0.0075788727242319014 0.0019600852880670059 0 0.0076377614685399923 0.002134702937903056 0 0.0077355662998967968 0.0019914707671993478 0 0.0020838212026286205 0.0018914706268739023 0 0.0025642081857545265 0.0015802585062396535 0 0.0028791316251544274 0.0018547349345128742 0 -0.0018657440062020347 0.002025942340928821 0 -0.0021297509786677412 0.0021839148042088943 0 -0.0019050524330379364 0.0021699650172936633 0 0.0015598930452487326 0.0020215775931985481 0 0.0028054163087992746 0.001942100172178328 0 -0.0018504665466761313 0.002285612860293146 0 -0.0021297509786677412 0.0021839148042088943 0 -0.0019050524330379364 0.0021699650172936633 0 -0.0018504665466761313 0.002285612860293146 0 -0.0019050524330379364 0.0021699650172936633 0 -0.0017806613490431887 0.0021744027663347077 0 -0.0018657440062020347 0.002025942340928821 0 -0.0019050524330379364 0.0021699650172936633 0 -0.0017806613490431887 0.0021744027663347077 0 -0.0017226428474084838 0.002015203972199401 0 -0.0018657440062020347 0.002025942340928821 0 -0.0017806613490431887 0.0021744027663347077 0 -0.0015773412816106887 0.0022543340349179108 0 -0.0017250651696328469 0.0023277905275932488 0 -0.0017806613490431887 0.0021744027663347077 0 -0.0017250651696328469 0.0023277905275932488 0 -0.0018504665466761313 0.002285612860293146 0 -0.0017806613490431887 0.0021744027663347077 0 0.0076377614685399923 0.002134702937903056 0 0.0077355662998967968 0.0019914707671993478 0 0.0080055531243842706 0.0019112611716248166 0 0.0028054163087992746 0.001942100172178328 0 0.0063769168335614601 0.0011746949603208992 0 0.0080015016562977812 0.0017034633165562353 0 0.0079638847128160935 0.001678873984688538 0 0.0078936922193168294 0.0017034010833493849 0 0.0080015016562977812 0.0017034633165562353 0 0.0078936922193168294 0.0017034010833493849 0 0.0078447758833027886 0.0017823205982856398 0 0.0028054163087992746 0.001942100172178328 0 0.0015731224861799231 0.0015010878592319375 0 0.0015731224861799231 0.0015010878592319375 0 0.0016184554404442141 0.00090470769338249827 0 0.0078936922193168294 0.0017034010833493849 0 0.0078647419622635689 0.0017335628428923619 0 0.0077978801872278175 0.0015823618736452822 0 0.0079638847128160935 0.001678873984688538 0 0.0078936922193168294 0.0017034010833493849 0 0.0077978801872278175 0.0015823618736452822 0 0.0078936922193168294 0.0017034010833493849 0 0.0078647419622635689 0.0017335628428923619 0 0.0078447758833027886 0.0017823205982856398 0 0.0078647419622635689 0.0017335628428923619 0 0.0078447758833027886 0.0017823205982856398 0 0.0079303694719827771 0.001786954499371227 0 0.0078647419622635689 0.0017335628428923619 0 0.0077766182919457496 0.0017231704175463894 0 0.0079303694719827771 0.001786954499371227 0 0.0078647419622635689 0.0017335628428923619 0 0.0077978801872278175 0.0015823618736452822 0 0.0077766182919457496 0.0017231704175463894 0 0.0074314887981050187 0.0018145231172690458 0 0.0077766182919457496 0.0017231704175463894 0 0.0079303694719827771 0.001786954499371227 0 0.0072818555273873823 0.0017343828000971021 0 0.0075546710665814138 0.0017876342803257285 0 0.0077978801872278175 0.0015823618736452822 0 0.0074314887981050187 0.0018145231172690458 0 0.0070734182393244263 0.0015119956321261448 0 0.0016184554404442141 0.00090470769338249827 0 0.0014700741355865876 0.00064126546335056779 0 0.0077978801872278175 0.0015823618736452822 0 0.0074314887981050187 0.0018145231172690458 0 0.0077766182919457496 0.0017231704175463894 0 0.0083158096555983226 0.0019050869092429987 0 0.008132351456011969 0.0016336862757312686 0 0.0079303694719827771 0.001786954499371227 0 0.008132351456011969 0.0016336862757312686 0 0.0078447758833027886 0.0017823205982856398 0 0.0079303694719827771 0.001786954499371227 0 0.0083378532861708848 0.0016828601983018188 0 0.0080919474372166417 0.0016582853058067556 0 0.0080055531243842706 0.0019112611716248166 0 0.007531052315682075 0.0011144390381818735 0 0.0063769168335614601 0.0011746949603208992 0 0.0078972705033530984 0.0017493434438495493 0 0.0080919474372166417 0.0016582853058067556 0 0.0080055531243842706 0.0019112611716248166 0 0.0068130794612148628 0.0016988837748544651 0 0.0070734182393244263 0.0015119956321261448 0 0.0061047655642135108 0.0015040294055311274 0 0.0014700741355865876 0.00064126546335056779 0 0.0019582319868634347 0.00054585827960962861 0 0.0060567820693255923 0.0014682886250599074 0 0.0019582319868634347 0.00054585827960962861 0 0.0086687087255573093 0.0019361356526550002 0 0.0087097132085526604 0.0017811900962967065 0 0.0088618465435334453 0.0017942675412368427 0 0.0074314887981050187 0.0018145231172690458 0 0.0068130794612148628 0.0016988837748544651 0 0.0070734182393244263 0.0015119956321261448 0 0.0083158096555983226 0.0019050869092429987 0 0.0086687087255573093 0.0019361356526550002 0 0.0085496726162047829 0.0017309786124908007 0 0.0072818555273873823 0.0017343828000971021 0 0.0060567820693255923 0.0014682886250599074 0 0.0083158096555983226 0.0019050869092429987 0 0.008132351456011969 0.0016336862757312686 0 0.0085496726162047829 0.0017309786124908007 0 0.008132351456011969 0.0016336862757312686 0 0.0085496726162047829 0.0017309786124908007 0 0.0085748178190181348 0.0014754816245782546 0 0.0085496726162047829 0.0017309786124908007 0 0.0087097132085526604 0.0017811900962967065 0 0.0087843100091703503 0.0016425250404999787 0 0.0085496726162047829 0.0017309786124908007 0 0.0087843100091703503 0.0016425250404999787 0 0.0085748178190181348 0.0014754816245782546 0 0.0086687087255573093 0.0019361356526550002 0 0.0085496726162047829 0.0017309786124908007 0 0.0087097132085526604 0.0017811900962967065 0 0.0087097132085526604 0.0017811900962967065 0 0.0087843100091703503 0.0016425250404999787 0 0.0088618465435334453 0.0017942675412368427 0 0.0087843100091703503 0.0016425250404999787 0 0.0085748178190181348 0.0014754816245782546 0 0.0088796761942824785 0.0014744576976730725 0 0.0085748178190181348 0.0014754816245782546 0 0.0088655104574188511 0.0012784578159125487 0 0.0088796761942824785 0.0014744576976730725 0 0.007531052315682075 0.0011144390381818735 0 0.0078654639675842571 0.0010977448014242398 0 0.0085748178190181348 0.0014754816245782546 0 0.00859894301020705 0.0012250736754153854 0 0.0084166194409110145 0.0014113499802423882 0 0.0085748178190181348 0.0014754816245782546 0 0.00859894301020705 0.0012250736754153854 0 0.0088655104574188511 0.0012784578159125487 0 0.0077758006285355329 0.001528418063741195 0 0.0080919474372166417 0.0016582853058067556 0 0.0082044441536979172 0.0014565773948445567 0 0.0077758006285355329 0.001528418063741195 0 0.0082044441536979172 0.0014565773948445567 0 0.0081045441391487966 0.0012396661425240071 0 0.0083378532861708848 0.0016828601983018188 0 0.0080919474372166417 0.0016582853058067556 0 0.0082044441536979172 0.0014565773948445567 0 0.0083378532861708848 0.0016828601983018188 0 0.0082044441536979172 0.0014565773948445567 0 0.0084166194409110145 0.0014113499802423882 0 0.0083378532861708848 0.0016828601983018188 0 0.0085748178190181348 0.0014754816245782546 0 0.0084166194409110145 0.0014113499802423882 0 0.0082044441536979172 0.0014565773948445567 0 0.0084166194409110145 0.0014113499802423882 0 0.0083362167908159236 0.0012416823249291353 0 0.00859894301020705 0.0012250736754153854 0 0.0084166194409110145 0.0014113499802423882 0 0.0083362167908159236 0.0012416823249291353 0 0.0075628729091330935 0.0011263629934855112 0 0.0073380846371238675 0.001137098441850907 0 0.0082044441536979172 0.0014565773948445567 0 0.0083362167908159236 0.0012416823249291353 0 0.0081045441391487966 0.0012396661425240071 0 0.0085592714916677137 0.0013393655633358239 0 0.0085700801792380904 0.0012037876024729327 0 0.0087202639191244716 0.001142217919906361 0 0.0085134065345675632 0.0012686061331521603 0 0.0084930642732404457 0.0012191165267275994 0 0.0085700801792380904 0.0012037876024729327 0 0.0085134065345675632 0.0012686061331521603 0 0.0085592714916677137 0.0013393655633358239 0 0.0085700801792380904 0.0012037876024729327 0 0.0084930642732404457 0.0012191165267275994 0 0.0085700801792380904 0.0012037876024729327 0 0.0085232404491651821 0.00094835153058073977 0 0.0085700801792380904 0.0012037876024729327 0 0.0085232404491651821 0.00094835153058073977 0 0.0086367391435754094 0.00092722607916119384 0 0.0087202639191244716 0.001142217919906361 0 0.0087222693833451295 0.000900159881065695 0 0.0086367391435754094 0.00092722607916119384 0 0.0085700801792380904 0.0012037876024729327 0 0.0087202639191244716 0.001142217919906361 0 0.0086367391435754094 0.00092722607916119384 0 0.00859894301020705 0.0012250736754153854 0 0.0083362167908159236 0.0012416823249291353 0 0.0084361734333919351 0.0010282947735851208 0 0.0083362167908159236 0.0012416823249291353 0 0.0081590228712704518 0.0012581456791040443 0 0.0084361734333919351 0.0010282947735851208 0 0.0073380846371238675 0.001137098441850907 0 0.0081404210724931592 0.00089301946270783689 0 0.00859894301020705 0.0012250736754153854 0 0.0087993618810202831 0.0011203667716387458 0 0.0087126977967449566 0.0010282799150250611 0 0.00859894301020705 0.0012250736754153854 0 0.0084361734333919351 0.0010282947735851208 0 0.0087126977967449566 0.0010282799150250611 0 0.00859894301020705 0.0012250736754153854 0 0.0087993618810202831 0.0011203667716387458 0 0.0088655104574188511 0.0012784578159125487 0 0.0087993618810202831 0.0011203667716387458 0 0.0088874681048785806 0.00095072842347367699 0 0.0089350869115401368 0.0011041757501160743 0 0.0087993618810202831 0.0011203667716387458 0 0.0089350869115401368 0.0011041757501160743 0 0.0088655104574188511 0.0012784578159125487 0 0.0088874681048785806 0.00095072842347367699 0 0.0087126977967449566 0.0010282799150250611 0 0.0087978336819587687 0.00084231064112631272 0 0.0087993618810202831 0.0011203667716387458 0 0.0088874681048785806 0.00095072842347367699 0 0.0087126977967449566 0.0010282799150250611 0 0.0087202639191244716 0.001142217919906361 0 0.0087978336819587687 0.00084231064112631272 0 0.0087222693833451295 0.000900159881065695 0 0.0084361734333919351 0.0010282947735851208 0 0.0087126977967449566 0.0010282799150250611 0 0.0087978336819587687 0.00084231064112631272 0 0.0081404210724931592 0.00089301946270783689 0 0.0083677829538663026 0.00081654085457127435 0 0.0087978336819587687 0.00084231064112631272 0 0.0087291622601184064 0.00068943859728778369 0 0.0087222693833451295 0.000900159881065695 0 0.0087978336819587687 0.00084231064112631272 0 0.008833212239948993 0.00068706647803554969 0 0.0087291622601184064 0.00068943859728778369 0 0.0087978336819587687 0.00084231064112631272 0 0.008833212239948993 0.00068706647803554969 0 0.0089495054191652719 0.00072523206603915854 0 0.0088874681048785806 0.00095072842347367699 0 0.0087978336819587687 0.00084231064112631272 0 0.0089495054191652719 0.00072523206603915854 0 0.008833212239948993 0.00068706647803554969 0 0.0089495054191652719 0.00072523206603915854 0 0.0088597608543086008 0.00049821028658307673 0 0.0092604585775144226 0.00093924442946013628 0 0.0090724104984248998 0.00071876651789188337 0 0.008833212239948993 0.00068706647803554969 0 0.0087291622601184064 0.00068943859728778369 0 0.0088597608543086008 0.00049821028658307673 0 0.0087291622601184064 0.00068943859728778369 0 0.008527056596616572 0.00057419562206545319 0 0.0085796800098323651 0.00033868151728135248 0 0.0082942495395667091 0.00040330621526840681 0 0.008527056596616572 0.00057419562206545319 0 0.0084105814069904521 0.00021539758454864214 0 0.0083460013953156678 0.00069693038820567183 0 0.008527056596616572 0.00057419562206545319 0 0.0085232404491651821 0.00094835153058073977 0 0.008527056596616572 0.00057419562206545319 0 0.0085232404491651821 0.00094835153058073977 0 0.0086367391435754094 0.00092722607916119384 0 0.0087291622601184064 0.00068943859728778369 0 0.0087222693833451295 0.000900159881065695 0 0.0086367391435754094 0.00092722607916119384 0 0.0087291622601184064 0.00068943859728778369 0 0.008527056596616572 0.00057419562206545319 0 0.0086367391435754094 0.00092722607916119384 0 0.010372494902191295 0.0015569399087246515 0 0.0099997516935986536 0.0014755418750678243 0 0.010296679279056191 0.0017649269109538807 0 0.010372494902191295 0.0015569399087246515 0 0.01044633029713328 0.001547813075268713 0 0.010396767311886964 0.001283657854192809 0 0.010372494902191295 0.0015569399087246515 0 0.010396767311886964 0.001283657854192809 0 0.0099997516935986536 0.0014755418750678243 0 0.010372494902191295 0.0015569399087246515 0 0.01044633029713328 0.001547813075268713 0 0.010440496363395346 0.0016256333040057418 0 0.011440196927779301 0.0018193790130943577 0 0.011194077025606547 0.0010797862461552231 0 0.010396767311886964 0.001283657854192809 0 0.010924242317289123 0.0016641225900343938 0 0.010708993079915621 0.0015477461010239217 0 0.011440196927779301 0.0018193790130943577 0 0.011194077025606547 0.0010797862461552231 0 0.01186825808545904 0.0012720459885781285 0 0.010396767311886964 0.001283657854192809 0 0.00979891312842604 0.0010241234474346647 0 0.0099227861320877672 0.00047189279651825729 0 0.010396767311886964 0.001283657854192809 0 0.00979891312842604 0.0010241234474346647 0 0.0099997516935986536 0.0014755418750678243 0 0.00979891312842604 0.0010241234474346647 0 0.0093249551185885932 0.00129574547290747 0 0.0099997516935986536 0.0014755418750678243 0 0.00979891312842604 0.0010241234474346647 0 0.0093249551185885932 0.00129574547290747 0 0.0094023672435788134 0.00054624175470234211 0 0.0093249551185885932 0.00129574547290747 0 0.0099997516935986536 0.0014755418750678243 0 0.0098499724394636654 0.0018552802878735542 0 0.0088874681048785806 0.00095072842347367699 0 0.0089495054191652719 0.00072523206603915854 0 0.0090896533066141885 0.00096325143057677555 0 0.0092604585775144226 0.00093924442946013628 0 0.0096370485671613496 0.0012554581087590392 0 0.0099997516935986536 0.0014755418750678243 0 0.0098499724394636654 0.0018552802878735542 0 0.010296679279056191 0.0017649269109538807 0 0.0096370485671613496 0.0012554581087590392 0 0.010255258413396903 0.0014409104787503864 0 0.01111626439493664 0.0016378487253390778 0 0.010940869384718719 0.0013766187878902745 0 0.010814057926163459 0.0016222736747327738 0 0.0088874681048785806 0.00095072842347367699 0 0.0090658091883181347 0.00097359872611821243 0 0.0089350869115401368 0.0011041757501160743 0 0.0093195381136270301 0.0011992796403872991 0 0.0096370485671613496 0.0012554581087590392 0 0.0090658091883181347 0.00097359872611821243 0 0.0089350869115401368 0.0011041757501160743 0 0.0090401136059390721 0.0011984406811307415 0 0.0089350869115401368 0.0011041757501160743 0 0.0090401136059390721 0.0011984406811307415 0 0.0088655104574188511 0.0012784578159125487 0 0.0096370485671613496 0.0012554581087590392 0 0.0096795127695158863 0.0014105236431220444 0 0.0090658091883181347 0.00097359872611821243 0 0.0090401136059390721 0.0011984406811307415 0 0.0092021360933643281 0.0011787338962824612 0 0.010940869384718719 0.0013766187878902745 0 0.010814057926163459 0.0016222736747327738 0 0.010697436985263299 0.0014132256237466528 0 0.010255258413396903 0.0014409104787503864 0 0.010371395170559185 0.001503724445176362 0 0.010814057926163459 0.0016222736747327738 0 0.01050084315067926 0.001599463264109247 0 0.010697436985263299 0.0014132256237466528 0 0.010372494902191295 0.0015569399087246515 0 0.010296679279056191 0.0017649269109538807 0 0.010440496363395346 0.0016256333040057418 0 0.01050084315067926 0.001599463264109247 0 0.010500241309112 0.0013437002332517664 0 0.010697436985263299 0.0014132256237466528 0 0.010500241309112 0.0013437002332517664 0 0.010697436985263299 0.0014132256237466528 0 0.010767460653085308 0.0010965896977088677 0 0.010500241309112 0.0013437002332517664 0 0.010767460653085308 0.0010965896977088677 0 0.010399469822652304 0.0010990135769028968 0 0.0092021360933643281 0.0011787338962824612 0 0.0093409356273538562 0.0014029007831252497 0 0.0090835823846455808 0.0013755463631505529 0 0.0096795127695158863 0.0014105236431220444 0 0.0094355525622122835 0.0014622942635033889 0 0.010940869384718719 0.0013766187878902745 0 0.010697436985263299 0.0014132256237466528 0 0.010767460653085308 0.0010965896977088677 0 0.0093409356273538562 0.0014029007831252497 0 0.009469697315975233 0.0016218996896119873 0 0.0092702912970849503 0.0016878191158628398 0 0.0093409356273538562 0.0014029007831252497 0 0.0090596008425741295 0.0016037072717987567 0 0.0092702912970849503 0.0016878191158628398 0 0.0094355525622122835 0.0014622942635033889 0 0.0087470595489584288 0.001361997831955184 0 0.010767460653085308 0.0010965896977088677 0 0.01056917270032577 0.00079198199719394784 0 0.010399469822652304 0.0010990135769028968 0 0.0090401136059390721 0.0011984406811307415 0 0.0088655104574188511 0.0012784578159125487 0 0.0090835823846455808 0.0013755463631505529 0 0.0088655104574188511 0.0012784578159125487 0 0.0090835823846455808 0.0013755463631505529 0 0.0088796761942824785 0.0014744576976730725 0 0.0090401136059390721 0.0011984406811307415 0 0.0092021360933643281 0.0011787338962824612 0 0.0090835823846455808 0.0013755463631505529 0 0.0093409356273538562 0.0014029007831252497 0 0.0090835823846455808 0.0013755463631505529 0 0.0090596008425741295 0.0016037072717987567 0 0.0087843100091703503 0.0016425250404999787 0 0.0088796761942824785 0.0014744576976730725 0 0.0090596008425741295 0.0016037072717987567 0 0.0090835823846455808 0.0013755463631505529 0 0.0088796761942824785 0.0014744576976730725 0 0.0090596008425741295 0.0016037072717987567 0 0.0088618465435334453 0.0017942675412368427 0 0.0090728010606242679 0.0017927559034401973 0 0.0090596008425741295 0.0016037072717987567 0 0.0087843100091703503 0.0016425250404999787 0 0.0088618465435334453 0.0017942675412368427 0 0.0090596008425741295 0.0016037072717987567 0 0.0090728010606242679 0.0017927559034401973 0 0.0090596008425741295 0.0016037072717987567 0 0.0092702912970849503 0.0016878191158628398 0 0.0019582319868634347 0.00054585827960962861 0 0.0029591299722743864 0.00056843220745871829 0 -0.0039152622503124757 -0.00082234159223891804 0 -0.0035206135226446287 -0.00069571283078950958 0 -0.004086273365013768 -0.00073154124023960148 0 0.0090728010606242679 0.0017927559034401973 0 0.008923558462408273 0.0019510775983253908 0 0.0092616788016415454 0.0019004123214347861 0 -0.0021850813210727137 -0.00041083725610857369 0 0.0019582319868634347 0.00054585827960962861 0 0.0086687087255573093 0.0019361356526550002 0 0.0088618465435334453 0.0017942675412368427 0 0.008923558462408273 0.0019510775983253908 0 0.0088618465435334453 0.0017942675412368427 0 0.0090728010606242679 0.0017927559034401973 0 0.008923558462408273 0.0019510775983253908 0 0.009469697315975233 0.0016218996896119873 0 0.0094561506704921704 0.0017938385326310632 0 0.0095930906692732847 0.0018195888913138108 0 0.0093810841454611358 0.0017601112773906941 0 0.009469697315975233 0.0016218996896119873 0 0.0094561506704921704 0.0017938385326310632 0 0.0093810841454611358 0.0017601112773906941 0 0.009469697315975233 0.0016218996896119873 0 0.0092702912970849503 0.0016878191158628398 0 0.0093810841454611358 0.0017601112773906941 0 0.0092702912970849503 0.0016878191158628398 0 0.0092616788016415454 0.0019004123214347861 0 0.0090728010606242679 0.0017927559034401973 0 0.0092702912970849503 0.0016878191158628398 0 0.0092616788016415454 0.0019004123214347861 0 0.0092616788016415454 0.0019004123214347861 0 0.0094561506704921704 0.0017938385326310632 0 0.0095713061480664947 0.0018692025919073965 0 0.0029591299722743864 0.00056843220745871829 0 0.0056411801028188038 0.00052145801245558141 0 -0.004086273365013768 -0.00073154124023960148 0 -0.0042682538401581059 -0.00084177721356066919 0 -0.0042721253765498563 -0.00083130751444654709 0 0.0093810841454611358 0.0017601112773906941 0 0.0092616788016415454 0.0019004123214347861 0 0.0094561506704921704 0.0017938385326310632 0 -0.0042061280607607002 -0.00084115827059298525 0 -0.004086273365013768 -0.00073154124023960148 0 -0.0042682538401581059 -0.00084177721356066919 0 -0.004255357566770885 -0.00085577801135616836 0 -0.0042682538401581059 -0.00084177721356066919 0 -0.0042635710350603772 -0.00085111208599416091 0 0.010388941935641447 -0.00025578426955173857 0 0.010295679601282822 -0.00018397114986828546 0 0.0096469434506668943 -0.00023982801995441161 0 0.005616898264090466 0.00053239768204285979 0 0.0056411801028188038 0.00052145801245558141 0 0.010295679601282822 -0.00018397114986828546 0 0.010334926482306347 -0.00012869529385860278 0 0.010010660828455633 5.9350622042722635e-05 0 0.0094561506704921704 0.0017938385326310632 0 0.0095713061480664947 0.0018692025919073965 0 0.0095930906692732847 0.0018195888913138108 0 0.010388941935641447 -0.00025578426955173857 0 0.010295679601282822 -0.00018397114986828546 0 0.010333379565216481 -0.00012859287492710699 0 0.0056411801028188038 0.00052145801245558141 0 0.0068784163572208172 0.00044297975756414431 0 0.0068942440610316614 0.00045092160318268854 0 0.0068784163572208172 0.00044297975756414431 0 0.01056917270032577 0.00079198199719394784 0 0.010355155377040154 0.00049224193705133261 0 0.010220301504198238 0.00082293960541115216 0 0.0087470595489584288 0.001361997831955184 0 0.0068784163572208172 0.00044297975756414431 0 0.0068784163572208172 0.00044297975756414431 0 0.0084627953727007942 0.00033075051527373898 0 0.010334926482306347 -0.00012869529385860278 0 0.010010660828455633 5.9350622042722635e-05 0 0.010115528425068143 0.0004352786426414285 0 0.010010660828455633 5.9350622042722635e-05 0 0.0096469434506668943 -0.00023982801995441161 0 0.0096811167795358786 0.00028569969272885739 0 0.010010660828455633 5.9350622042722635e-05 0 0.0096811167795358786 0.00028569969272885739 0 0.010115528425068143 0.0004352786426414285 0 0.0056411801028188038 0.00052145801245558141 0 0.003163503268758824 -0.0001327855491719603 0 0.010295679601282822 -0.00018397114986828546 0 0.010010660828455633 5.9350622042722635e-05 0 0.0096469434506668943 -0.00023982801995441161 0 -0.0042341420871108097 -0.00087634154028794187 0 -0.0042635710350603772 -0.00085111208599416091 0 -0.0041920182028529502 -0.00093727116977597739 0 0.003163503268758824 -0.0001327855491719603 0 0.0024382544559719442 -0.00052966536090728021 0 0.0096469434506668943 -0.00023982801995441161 0 0.0088649072162800477 -0.00022706332946040739 0 0.0092273563452334624 0.00021636988733118067 0 -0.0041089023843607613 -0.00088936410186576443 0 -0.0041920182028529502 -0.00093727116977597739 0 -0.004033173746789691 -0.00099507704226949414 0 0.0092273563452334624 0.00021636988733118067 0 0.0090831650619901359 0.00060948307217809853 0 0.0086820506031771421 0.00027580235384129514 0 0.0088649072162800477 -0.00022706332946040739 0 0.0092273563452334624 0.00021636988733118067 0 0.0086820506031771421 0.00027580235384129514 0 0.0096469434506668943 -0.00023982801995441161 0 0.0092273563452334624 0.00021636988733118067 0 0.0096811167795358786 0.00028569969272885739 0 0.0092273563452334624 0.00021636988733118067 0 0.0096811167795358786 0.00028569969272885739 0 0.0094143139306501963 0.00055212458485938952 0 0.0096811167795358786 0.00028569969272885739 0 0.0094143139306501963 0.00055212458485938952 0 0.0097040777328952135 0.00064855782852616924 0 0.0094143139306501963 0.00055212458485938952 0 0.0090831650619901359 0.00060948307217809853 0 0.009418951708115816 0.00090794391872753364 0 0.0094143139306501963 0.00055212458485938952 0 0.0097040777328952135 0.00064855782852616924 0 0.009418951708115816 0.00090794391872753364 0 0.0090831650619901359 0.00060948307217809853 0 0.0086820506031771421 0.00027580235384129514 0 0.0087438309479664477 0.00061001870035244708 0 0.0092273563452334624 0.00021636988733118067 0 0.0094143139306501963 0.00055212458485938952 0 0.0090831650619901359 0.00060948307217809853 0 0.0090831650619901359 0.00060948307217809853 0 0.0090392782347763906 0.00092727702003952419 0 0.009418951708115816 0.00090794391872753364 0 0.0090831650619901359 0.00060948307217809853 0 0.0090392782347763906 0.00092727702003952419 0 0.0087438309479664477 0.00061001870035244708 0 0.0090392782347763906 0.00092727702003952419 0 0.0088637943627129494 0.0012411645973732692 0 0.0086874703896748662 0.00094531801723350022 0 0.0090392782347763906 0.00092727702003952419 0 0.0091970932164509283 0.0012548222336412234 0 0.009418951708115816 0.00090794391872753364 0 0.0090392782347763906 0.00092727702003952419 0 0.0091970932164509283 0.0012548222336412234 0 0.0088637943627129494 0.0012411645973732692 0 0.0097040777328952135 0.00064855782852616924 0 0.009418951708115816 0.00090794391872753364 0 0.0099046358555127875 0.0010199389076540975 0 0.009418951708115816 0.00090794391872753364 0 0.0095194710941109827 0.0012724665865250738 0 0.0099046358555127875 0.0010199389076540975 0 0.0091970932164509283 0.0012548222336412234 0 0.009418951708115816 0.00090794391872753364 0 0.0095194710941109827 0.0012724665865250738 0 0.01005970532820538 0.0011354527851657815 0 0.010399469822652304 0.0010990135769028968 0 0.010274789300845501 0.0014279589855213984 0 0.010500241309112 0.0013437002332517664 0 0.010399469822652304 0.0010990135769028968 0 0.010274789300845501 0.0014279589855213984 0 0.01056917270032577 0.00079198199719394784 0 0.010399469822652304 0.0010990135769028968 0 0.010220301504198238 0.00082293960541115216 0 0.01005970532820538 0.0011354527851657815 0 0.010399469822652304 0.0010990135769028968 0 0.010220301504198238 0.00082293960541115216 0 0.0089991195030814063 0.00074032147982831234 0 0.0084627953727007942 0.00033075051527373898 0 0.0096811167795358786 0.00028569969272885739 0 0.0097040777328952135 0.00064855782852616924 0 0.010115528425068143 0.0004352786426414285 0 0.0097040777328952135 0.00064855782852616924 0 0.0099046358555127875 0.0010199389076540975 0 0.010115528425068143 0.0004352786426414285 0 0.0071308049431291348 0.00019186449358379136 0 0.0075739343267188231 0.00024088848139382739 0 0.0071719119036377146 0.00050648261682829173 0 0.0071308049431291348 0.00019186449358379136 0 0.0074020881578739381 -0.0001269217811746393 0 0.0075739343267188231 0.00024088848139382739 0 0.0056056959968513514 -0.0014245290317904116 0 0.0026482740927298728 -0.0010408616323986609 0 0.0067791108826241999 -0.00010986898640021277 0 0.0071308049431291348 0.00019186449358379136 0 0.0074020881578739381 -0.0001269217811746393 0 -0.0036741486560452658 -0.0012435602226062565 0 -0.0035605289825864574 -0.0012867787813807879 0 -0.0036866973405956004 -0.0013599994455723182 0 -0.003781632958106912 -0.0012589937639186943 0 -0.0036741486560452658 -0.0012435602226062565 0 -0.0036866973405956004 -0.0013599994455723182 0 0.0026482740927298728 -0.0010408616323986609 0 0.0017538575294063041 -0.00087313160826182131 0 -0.003781632958106912 -0.0012589937639186943 0 -0.0036866973405956004 -0.0013599994455723182 0 -0.0038850563278228618 -0.001339616783193398 0 0.0074020881578739381 -0.0001269217811746393 0 0.0075739343267188231 0.00024088848139382739 0 0.0079688391075620549 -0.00014396035201051457 0 0.0075739343267188231 0.00024088848139382739 0 0.0081528068255285521 0.00029740718960349829 0 0.0079017309284466989 0.00057972414218241146 0 0.003886916505338716 -0.0015956789612868677 0 0.0017538575294063041 -0.00087313160826182131 0 0.0075739343267188231 0.00024088848139382739 0 0.0081528068255285521 0.00029740718960349829 0 0.0080657953129924572 -0.00020250288253398816 0 0.0081528068255285521 0.00029740718960349829 0 0.0080657953129924572 -0.00020250288253398816 0 0.0086820506031771421 0.00027580235384129514 0 -0.003781632958106912 -0.0012589937639186943 0 -0.0038858604763676329 -0.001199826285780823 0 -0.0038850563278228618 -0.001339616783193398 0 -0.0021636999568198766 -0.00012403889770900637 0 0.0017538575294063041 -0.00087313160826182131 0 0.0024382544559719442 -0.00052966536090728021 0 0.0017538575294063041 -0.00087313160826182131 0 0.0088649072162800477 -0.00022706332946040739 0 0.0080657953129924572 -0.00020250288253398816 0 0.0086820506031771421 0.00027580235384129514 0 -0.0039741127845827062 -0.00087493917457326007 0 -0.004033173746789691 -0.00099507704226949414 0 -0.0037845452769154062 -0.0010212661748035207 0 0.0081528068255285521 0.00029740718960349829 0 0.0086820506031771421 0.00027580235384129514 0 0.0083889650252545276 0.00066501085489444165 0 0.0086820506031771421 0.00027580235384129514 0 0.0087438309479664477 0.00061001870035244708 0 0.0083889650252545276 0.00066501085489444165 0 0.0087438309479664477 0.00061001870035244708 0 0.0083889650252545276 0.00066501085489444165 0 0.0086874703896748662 0.00094531801723350022 0 0.0090392782347763906 0.00092727702003952419 0 0.0087438309479664477 0.00061001870035244708 0 0.0086874703896748662 0.00094531801723350022 0 0.0083889650252545276 0.00066501085489444165 0 0.0086874703896748662 0.00094531801723350022 0 0.0083780634920963635 0.0011105074204065758 0 0.0088637943627129494 0.0012411645973732692 0 0.0086874703896748662 0.00094531801723350022 0 0.0086195901114999463 0.0011631481649713644 0 0.0088637943627129494 0.0012411645973732692 0 0.0086195901114999463 0.0011631481649713644 0 0.0085923429163869084 0.0013954466794409408 0 0.0086195901114999463 0.0011631481649713644 0 0.0083780634920963635 0.0011105074204065758 0 0.0085923429163869084 0.0013954466794409408 0 0.0086874703896748662 0.00094531801723350022 0 0.0086195901114999463 0.0011631481649713644 0 0.0083780634920963635 0.0011105074204065758 0 0.0083780634920963635 0.0011105074204065758 0 0.0080379064538323476 0.00087645394781088232 0 0.007802213590450819 0.0011768012367402399 0 0.0083780634920963635 0.0011105074204065758 0 0.007802213590450819 0.0011768012367402399 0 0.0085252029369818887 0.0015250146925591839 0 0.0083889650252545276 0.00066501085489444165 0 0.0083780634920963635 0.0011105074204065758 0 0.0080379064538323476 0.00087645394781088232 0 0.0083889650252545276 0.00066501085489444165 0 0.0080379064538323476 0.00087645394781088232 0 0.0079017309284466989 0.00057972414218241146 0 0.0081528068255285521 0.00029740718960349829 0 0.0083889650252545276 0.00066501085489444165 0 0.0079017309284466989 0.00057972414218241146 0 0.0075739343267188231 0.00024088848139382739 0 0.0079017309284466989 0.00057972414218241146 0 0.0074539098900271421 0.0006338402278385887 0 0.0079017309284466989 0.00057972414218241146 0 0.0077211377889848925 0.0008460505755367838 0 0.0074539098900271421 0.0006338402278385887 0 0.0077211377889848925 0.0008460505755367838 0 0.0073582881392800555 0.0010127286601950981 0 0.0074539098900271421 0.0006338402278385887 0 0.0080379064538323476 0.00087645394781088232 0 0.0079017309284466989 0.00057972414218241146 0 0.0077211377889848925 0.0008460505755367838 0 0.0080379064538323476 0.00087645394781088232 0 0.0077211377889848925 0.0008460505755367838 0 0.007802213590450819 0.0011768012367402399 0 0.0077211377889848925 0.0008460505755367838 0 0.007802213590450819 0.0011768012367402399 0 0.0073582881392800555 0.0010127286601950981 0 0.007802213590450819 0.0011768012367402399 0 0.0073582881392800555 0.0010127286601950981 0 0.0071595417696273794 0.0014825409347725357 0 0.0069696589991505541 0.0011180881709602572 0 0.0073582881392800555 0.0010127286601950981 0 0.0071595417696273794 0.0014825409347725357 0 0.0070484093895861371 0.00082658792889044866 0 0.0069696589991505541 0.0011180881709602572 0 0.0073582881392800555 0.0010127286601950981 0 0.0070603239509414049 0.0008053867300041312 0 0.0074539098900271421 0.0006338402278385887 0 0.0071719119036377146 0.00050648261682829173 0 0.0077882176572669822 0.0011573911569455636 0 0.0076955701231094078 0.0011337202970797256 0 0.0070484093895861371 0.00082658792889044866 0 0.0073582881392800555 0.0010127286601950981 0 0.0074539098900271421 0.0006338402278385887 0 0.0075739343267188231 0.00024088848139382739 0 0.0074539098900271421 0.0006338402278385887 0 0.0071719119036377146 0.00050648261682829173 0 0.011965810133554189 0.0020427138032515293 0 0.012636085844538385 0.0018380946995415488 0 0.012560949090226732 0.002494345875448088 0 0.011965810133554189 0.0020427138032515293 0 0.012034930397366974 0.0013886226763781301 0 0.012636085844538385 0.0018380946995415488 0 0.0096426251119967159 0.0013488031111196504 0 0.010431990216997856 0.0016450067286569684 0 0.007802213590450819 0.0011768012367402399 0 0.0077176677053197498 0.0017916040622740642 0 0.0081024029025414633 0.0016514129527145981 0 0.007802213590450819 0.0011768012367402399 0 0.0071595417696273794 0.0014825409347725357 0 0.0077176677053197498 0.0017916040622740642 0 0.012636085844538385 0.0018380946995415488 0 0.013099051433747472 0.0022327266840416206 0 0.012560949090226732 0.002494345875448088 0 0.0082993574414786733 0.002107469817921264 0 0.0081024029025414633 0.0016514129527145981 0 0.0085948227167801476 0.0015326857095263656 0 0.01161378276000246 0.0020253988155778582 0 0.010390123371977587 0.0015832434736142078 0 0.0077176677053197498 0.0017916040622740642 0 0.0082993574414786733 0.002107469817921264 0 0.0081024029025414633 0.0016514129527145981 0 0.010431990216997856 0.0016450067286569684 0 0.01161378276000246 0.0020253988155778582 0 0.0088988317541625703 0.0010977177156592988 0 0.010390123371977587 0.0015832434736142078 0 0.007802213590450819 0.0011768012367402399 0 0.0081024029025414633 0.0016514129527145981 0 0.0085948227167801476 0.0015326857095263656 0 0.0085228816994585462 0.0015320845172881626 0 0.0085923429163869084 0.0013954466794409408 0 0.0090629516066783426 0.0017914099797745726 0 0.010390123371977587 0.0015832434736142078 0 0.01067069551043685 0.001691125018138634 0 0.0083780634920963635 0.0011105074204065758 0 0.0085252029369818887 0.0015250146925591839 0 0.0085923429163869084 0.0013954466794409408 0 0.010390123371977587 0.0015832434736142078 0 0.010360291524834933 0.0016014136157319824 0 0.011366883225453773 0.0019437285891869586 0 0.011447566705424787 0.0017837179117678344 0 0.011485926992105237 0.0019046001389236198 0 0.011447566705424787 0.0017837179117678344 0 0.011485926992105237 0.0019046001389236198 0 0.011603347837216853 0.0018571614017447269 0 0.011366883225453773 0.0019437285891869586 0 0.011485926992105237 0.0019046001389236198 0 0.011490910388726438 0.0020098092658785544 0 0.01161378276000246 0.0020253988155778582 0 0.0122980373944251 0.0020320337573196002 0 0.011485926992105237 0.0019046001389236198 0 0.011490910388726438 0.0020098092658785544 0 0.011591417587264867 0.001958980856783879 0 0.013402798907846233 0.0022034730949476895 0 0.013539799607816845 0.0018890714620895151 0 0.012784643140676037 0.0022345771705439338 0 0.014043433024473143 0.0028668108869783723 0 0.013453885427883734 0.0025618781775550857 0 0.013895730717264274 0.002402913559324228 0 0.013402798907846233 0.0022034730949476895 0 0.014001212236329566 0.0020054201676311125 0 0.013895730717264274 0.002402913559324228 0 0.014003964041838485 0.0021216309597553982 0 0.014163866640591605 0.0020781608831072014 0 0.013453885427883734 0.0025618781775550857 0 0.013402798907846233 0.0022034730949476895 0 0.013895730717264274 0.002402913559324228 0 0.013453885427883734 0.0025618781775550857 0 0.013402798907846233 0.0022034730949476895 0 0.012784643140676037 0.0022345771705439338 0 0.01422057031077156 0.0013081290344770353 0 0.012759309334809486 0.0018822215541945447 0 0.013539799607816845 0.0018890714620895151 0 0.013685295374056017 0.0013092609289995544 0 0.012784643140676037 0.0022345771705439338 0 0.013539799607816845 0.0018890714620895151 0 0.013685295374056017 0.0013092609289995544 0 0.014120072294619573 0.0019654093719969723 0 0.013402798907846233 0.0022034730949476895 0 0.013539799607816845 0.0018890714620895151 0 0.014120072294619573 0.0019654093719969723 0 0.014120072294619573 0.0019654093719969723 0 0.014848677246160864 0.0017152638335043036 0 0.014479895019789924 0.0011430149142562915 0 0.014001212236329566 0.0020054201676311125 0 0.013895730717264274 0.002402913559324228 0 0.014593129292324617 0.0017964987506825479 0 0.013685295374056017 0.0013092609289995544 0 0.014120072294619573 0.0019654093719969723 0 0.014479895019789924 0.0011430149142562915 0 0.014163866640591605 0.0020781608831072014 0 0.014387123792202668 0.0020391614892558978 0 0.014043433024473143 0.0028668108869783723 0 0.013895730717264274 0.002402913559324228 0 0.014593129292324617 0.0017964987506825479 0 0.01161378276000246 0.0020253988155778582 0 0.014387123792202668 0.0020391614892558978 0 0.013099051433747472 0.0022327266840416206 0 0.012560949090226732 0.002494345875448088 0 0.01241720384709891 0.0028703896369127466 0 0.012560949090226732 0.002494345875448088 0 0.01241720384709891 0.0028703896369127466 0 0.012787794619058638 0.0029303534599001788 0 0.01241720384709891 0.0028703896369127466 0 0.012787794619058638 0.0029303534599001788 0 0.013682295119482971 0.0024454066061733674 0 0.011825561175534615 0.0027029026093622938 0 0.012787794619058638 0.0029303534599001788 0 0.012308904219566912 0.0025173993876852234 0 0.014387123792202668 0.0020391614892558978 0 0.01624463315115085 0.001852159802992308 0 0.011965810133554189 0.0020427138032515293 0 0.012560949090226732 0.002494345875448088 0 0.012308904219566912 0.0025173993876852234 0 0.011825561175534615 0.0027029026093622938 0 0.011965810133554189 0.0020427138032515293 0 0.012308904219566912 0.0025173993876852234 0 0.012560949090226732 0.002494345875448088 0 0.012787794619058638 0.0029303534599001788 0 0.012308904219566912 0.0025173993876852234 0 0.010290901169276714 0.0015574286417256898 0 0.010204105283256538 0.0016044812229724184 0 0.010355082872597062 0.0016298735512988854 0 0.010290901169276714 0.0015574286417256898 0 0.010274789300845501 0.0014279589855213984 0 0.010204105283256538 0.0016044812229724184 0 0.011369550962202516 0.0018934900295448482 0 0.011241038245263488 0.0018306991063442902 0 0.010371395170559185 0.001503724445176362 0 0.01035815887155743 0.0015153011158839265 0 0.010440496363395346 0.0016256333040057418 0 0.010290901169276714 0.0015574286417256898 0 0.010355082872597062 0.0016298735512988854 0 0.01050084315067926 0.001599463264109247 0 0.010290901169276714 0.0015574286417256898 0 0.010274789300845501 0.0014279589855213984 0 0.01050084315067926 0.001599463264109247 0 0.010500241309112 0.0013437002332517664 0 0.010274789300845501 0.0014279589855213984 0 0.010844126590681012 0.0019850909554050625 0 0.011369550962202516 0.0018934900295448482 0 0.01005970532820538 0.0011354527851657815 0 0.010274789300845501 0.0014279589855213984 0 0.0097191872438359417 0.0016379105669115056 0 0.0089991195030814063 0.00074032147982831234 0 0.0090901738304897811 0.0010067481316837427 0 0.010274789300845501 0.0014279589855213984 0 0.0097191872438359417 0.0016379105669115056 0 0.009633859160795703 0.002060637830762773 0 0.0095194710941109827 0.0012724665865250738 0 0.0099046358555127875 0.0010199389076540975 0 0.0097191872438359417 0.0016379105669115056 0 0.0091970932164509283 0.0012548222336412234 0 0.0095194710941109827 0.0012724665865250738 0 0.0093737953404971121 0.0015781032470937445 0 0.0095194710941109827 0.0012724665865250738 0 0.0093737953404971121 0.0015781032470937445 0 0.0097191872438359417 0.0016379105669115056 0 0.0091970932164509283 0.0012548222336412234 0 0.0093737953404971121 0.0015781032470937445 0 0.0090629516066783426 0.0017914099797745726 0 0.0088637943627129494 0.0012411645973732692 0 0.0085923429163869084 0.0013954466794409408 0 0.0090629516066783426 0.0017914099797745726 0 0.0091970932164509283 0.0012548222336412234 0 0.0088637943627129494 0.0012411645973732692 0 0.0090629516066783426 0.0017914099797745726 0 0.011603347837216853 0.0018571614017447269 0 0.011591417587264867 0.001958980856783879 0 0.011758689932743959 0.0019308772849312471 0 0.011485926992105237 0.0019046001389236198 0 0.011603347837216853 0.0018571614017447269 0 0.011591417587264867 0.001958980856783879 0 0.0093737953404971121 0.0015781032470937445 0 0.0097191872438359417 0.0016379105669115056 0 0.009633859160795703 0.002060637830762773 0 0.0093737953404971121 0.0015781032470937445 0 0.0090629516066783426 0.0017914099797745726 0 0.009633859160795703 0.002060637830762773 0 0.01067069551043685 0.001691125018138634 0 0.011369550962202516 0.0018934900295448482 0 0.01324719915664258 0.002008807048867833 0 0.01392058834100072 0.0018756936849866064 0 0.013165338353804975 0.0014705033393720159 0 0.013195874981510583 0.0026043554773584731 0 0.01324719915664258 0.002008807048867833 0 0.01392058834100072 0.0018756936849866064 0 0.011369550962202516 0.0018934900295448482 0 0.012759309334809486 0.0018822215541945447 0 0.01324719915664258 0.002008807048867833 0 0.013165338353804975 0.0014705033393720159 0 0.012867304364014513 0.0016748680497068317 0 0.011591417587264867 0.001958980856783879 0 0.011758689932743959 0.0019308772849312471 0 0.011615174448652588 0.0020758626521068906 0 0.0122980373944251 0.0020320337573196002 0 0.012759309334809486 0.0018822215541945447 0 0.011490910388726438 0.0020098092658785544 0 0.011591417587264867 0.001958980856783879 0 0.011615174448652588 0.0020758626521068906 0 0.013302354253516039 0.0018422846238158256 0 0.014475196330194069 0.001400018644104412 0 0.014218582254440549 0.0032951418764843973 0 0.013080233249240784 0.0026862202215971404 0 0.014502259181434487 0.0017070089480118802 0 0.015444630526929373 0.0020769652423565021 0 0.014218582254440549 0.0032951418764843973 0 0.014502259181434487 0.0017070089480118802 0 0.012759309334809486 0.0018822215541945447 0 0.013302354253516039 0.0018422846238158256 0 0.013302354253516039 0.0018422846238158256 0 0.013282879725269927 0.0018419277508035833 0 0.013302354253516039 0.0018422846238158256 0 0.013002437946765526 0.0015029897268238456 0 0.013002437946765526 0.0015029897268238456 0 0.012948814433032269 0.0015279444696085082 0 0.012668892259403163 0.0011973219668194683 0 0.01234754413628584 0.0015319071141874736 0 0.012867304364014513 0.0016748680497068317 0 0.013170016542649095 0.0014664942710305088 0 0.012668892259403163 0.0011973219668194683 0 0.012867304364014513 0.0016748680497068317 0 0.013195874981510583 0.0026043554773584731 0 0.01324719915664258 0.002008807048867833 0 0.01234479148243837 0.0022138816354247822 0 0.01324719915664258 0.002008807048867833 0 0.012867304364014513 0.0016748680497068317 0 0.01234479148243837 0.0022138816354247822 0 0.01234754413628584 0.0015319071141874736 0 0.012867304364014513 0.0016748680497068317 0 0.01234479148243837 0.0022138816354247822 0 0.01044633029713328 0.001547813075268713 0 0.010440496363395346 0.0016256333040057418 0 0.010355082872597062 0.0016298735512988854 0 0.010924242317289123 0.0016641225900343938 0 0.011241038245263488 0.0018306991063442902 0 0.011440196927779301 0.0018193790130943577 0 0.01234754413628584 0.0015319071141874736 0 0.01234479148243837 0.0022138816354247822 0 0.012681866578810609 0.0011771877006380724 0 0.01186825808545904 0.0012720459885781285 0 0.011836837890015977 0.00071217822907542762 0 0.012681866578810609 0.0011771877006380724 0 0.01234754413628584 0.0015319071141874736 0 0.01186825808545904 0.0012720459885781285 0 0.011440196927779301 0.0018193790130943577 0 0.01234754413628584 0.0015319071141874736 0 0.01186825808545904 0.0012720459885781285 0 0.011194077025606547 0.0010797862461552231 0 0.01186825808545904 0.0012720459885781285 0 0.011836837890015977 0.00071217822907542762 0 0.013002437946765526 0.0015029897268238456 0 0.012535369111476255 0.0012250774446733879 0 0.011836837890015977 0.00071217822907542762 0 0.012375807766817615 -0.00053600208850003211 0 0.01131294482942897 -0.00075368638105577552 0 0.011836837890015977 0.00071217822907542762 0 0.012869768124355734 0.00027700183552237733 0 0.012375807766817615 -0.00053600208850003211 0 0.012869768124355734 0.00027700183552237733 0 0.013765447452690852 -0.00051063980431200774 0 0.012375807766817615 -0.00053600208850003211 0 0.012885972831356979 0.0013102366032001508 0 0.012869768124355734 0.00027700183552237733 0 0.013793258746027878 0.00039563474466819941 0 0.012885972831356979 0.0013102366032001508 0 0.011836837890015977 0.00071217822907542762 0 0.012869768124355734 0.00027700183552237733 0 0.013290708249412329 0.0025043035060439362 0 0.013614580920376424 0.0010577307206073665 0 0.014620169166634979 0.0015943260994186745 0 0.013002437946765526 0.0015029897268238456 0 0.013777707836900343 0.00068438766671372292 0 0.013290708249412329 0.0025043035060439362 0 0.012596274732385187 0.002132231862343955 0 0.013614580920376424 0.0010577307206073665 0 0.013614580920376424 0.0010577307206073665 0 0.014620169166634979 0.0015943260994186745 0 0.014960396344925611 0.00071862937057378057 0 0.013614580920376424 0.0010577307206073665 0 0.0146414128106693 -3.972412998003236e-05 0 0.014960396344925611 0.00071862937057378057 0 0.013777707836900343 0.00068438766671372292 0 0.014701943697865949 -0.00027345404865014334 0 0.012869768124355734 0.00027700183552237733 0 0.013793258746027878 0.00039563474466819941 0 0.013765447452690852 -0.00051063980431200774 0 0.013793258746027878 0.00039563474466819941 0 0.013765447452690852 -0.00051063980431200774 0 0.014730845606841105 -0.00049004786716005922 0 0.013765447452690852 -0.00051063980431200774 0 0.014300174063202099 -0.0017158117062385876 0 0.013102951097949289 -0.0012160039841499879 0 0.013765447452690852 -0.00051063980431200774 0 0.014730845606841105 -0.00049004786716005922 0 0.014300174063202099 -0.0017158117062385876 0 0.014730845606841105 -0.00049004786716005922 0 0.014300174063202099 -0.0017158117062385876 0 0.015714411924043166 -0.0014046245606262023 0 0.014300174063202099 -0.0017158117062385876 0 0.013102951097949289 -0.0012160039841499879 0 0.013340667825392383 -0.0021135075550179046 0 0.012032868295102646 -0.001640994399401266 0 0.013102951097949289 -0.0012160039841499879 0 0.013340667825392383 -0.0021135075550179046 0 0.012032868295102646 -0.001640994399401266 0 0.012375807766817615 -0.00053600208850003211 0 0.01131294482942897 -0.00075368638105577552 0 0.012032868295102646 -0.001640994399401266 0 0.012375807766817615 -0.00053600208850003211 0 0.013102951097949289 -0.0012160039841499879 0 0.013765447452690852 -0.00051063980431200774 0 0.012375807766817615 -0.00053600208850003211 0 0.013102951097949289 -0.0012160039841499879 0 0.018338640449436734 0.0004202811331602929 0 0.017693041102348324 0.0011626365412476958 0 0.018360230512601931 -6.2616604514152059e-05 0 0.015863256589603952 0.00071710312234925678 0 0.016781366262320838 -0.00035001498623319532 0 0.015418003614320419 0.000627939671926106 0 0.015597375334518269 -0.00060860298284624544 0 0.015991116249039969 -0.00047011488035237877 0 0.018338640449436734 0.0004202811331602929 0 0.018406610903404272 0.0010633242572395381 0 0.017693041102348324 0.0011626365412476958 0 0.018717588250713405 0.00072953593517583013 0 0.018338640449436734 0.0004202811331602929 0 0.018406610903404272 0.0010633242572395381 0 0.018406610903404272 0.0010633242572395381 0 0.018518548561729561 0.0018288550321679086 0 0.017693041102348324 0.0011626365412476958 0 0.017077812039761383 0.002339734728605612 0 0.018518548561729561 0.0018288550321679086 0 0.017693041102348324 0.0011626365412476958 0 0.015418003614320419 0.000627939671926106 0 0.014635628072218966 0.0003524029893078992 0 0.014479895019789924 0.0011430149142562915 0 0.014848677246160864 0.0017152638335043036 0 0.015418003614320419 0.000627939671926106 0 0.014479895019789924 0.0011430149142562915 0 0.014387123792202668 0.0020391614892558978 0 0.015863256589603952 0.00071710312234925678 0 0.015418003614320419 0.000627939671926106 0 0.014635628072218966 0.0003524029893078992 0 0.015597375334518269 -0.00060860298284624544 0 0.01548897959898062 0.00043885281471737998 0 0.016606543650507864 -0.00050523555166779709 0 0.015984076919681258 0.00067813037371184152 0 0.015510036341308589 -2.5680516492508733e-05 0 0.016289774469013616 -0.00032856168225467436 0 0.015766044157656919 0.00066822743533021922 0 0.016501377457582265 0.00020727966190119333 0 0.016689521321766248 0.00085235692107833586 0 0.015939074560346423 0.00072110631340168124 0 0.017401020719851668 -0.00026371175470998225 0 0.01422057031077156 0.0013081290344770353 0 0.01548897959898062 0.00043885281471737998 0 0.015444630526929373 0.0020769652423565021 0 0.016689521321766248 0.00085235692107833586 0 0.015939074560346423 0.00072110631340168124 0 0.013685295374056017 0.0013092609289995544 0 0.014635628072218966 0.0003524029893078992 0 0.014479895019789924 0.0011430149142562915 0 0.014475196330194069 0.001400018644104412 0 0.015766044157656919 0.00066822743533021922 0 0.015444630526929373 0.0020769652423565021 0 0.014502259181434487 0.0017070089480118802 0 0.015939074560346423 0.00072110631340168124 0 0.014620169166634979 0.0015943260994186745 0 0.015984076919681258 0.00067813037371184152 0 0.014960396344925611 0.00071862937057378057 0 0.015984076919681258 0.00067813037371184152 0 0.014960396344925611 0.00071862937057378057 0 0.015510036341308589 -2.5680516492508733e-05 0 0.0146414128106693 -3.972412998003236e-05 0 0.014960396344925611 0.00071862937057378057 0 0.015510036341308589 -2.5680516492508733e-05 0 0.0146414128106693 -3.972412998003236e-05 0 0.015510036341308589 -2.5680516492508733e-05 0 0.015685405099352984 -0.0011780000079832406 0 0.014701943697865949 -0.00027345404865014334 0 0.015597786812518317 -0.0011967669155444627 0 0.014300174063202099 -0.0017158117062385876 0 0.015714411924043166 -0.0014046245606262023 0 0.015323625499124255 -0.0024911652557188168 0 0.015685405099352984 -0.0011780000079832406 0 0.016828366985015827 -0.0010336274910667212 0 0.016777516288816283 -0.0023700673992561316 0 0.015597786812518317 -0.0011967669155444627 0 0.016100153426284739 -0.0017145860673677842 0 0.015984076919681258 0.00067813037371184152 0 0.016289774469013616 -0.00032856168225467436 0 0.017401020719851668 -0.00026371175470998225 0 0.015685405099352984 -0.0011780000079832406 0 0.016289774469013616 -0.00032856168225467436 0 0.016828366985015827 -0.0010336274910667212 0 0.015510036341308589 -2.5680516492508733e-05 0 0.015685405099352984 -0.0011780000079832406 0 0.016289774469013616 -0.00032856168225467436 0 0.016289774469013616 -0.00032856168225467436 0 0.017401020719851668 -0.00026371175470998225 0 0.016828366985015827 -0.0010336274910667212 0 0.016689521321766248 0.00085235692107833586 0 0.017401020719851668 -0.00026371175470998225 0 0.017947772825161835 -0.00037468954701135358 0 0.017401020719851668 -0.00026371175470998225 0 0.017876617513699868 -0.0014222661705679284 0 0.017947772825161835 -0.00037468954701135358 0 0.017401020719851668 -0.00026371175470998225 0 0.016828366985015827 -0.0010336274910667212 0 0.017876617513699868 -0.0014222661705679284 0 0.016828366985015827 -0.0010336274910667212 0 0.017876617513699868 -0.0014222661705679284 0 0.016777516288816283 -0.0023700673992561316 0 0.017344116071557315 -0.0011895807810919673 0 0.016606543650507864 -0.00050523555166779709 0 0.018827100936673492 -0.002073573555011872 0 0.019204550012615718 -0.0015811291999508605 0 0.017876617513699868 -0.0014222661705679284 0 0.019204550012615718 -0.0015811291999508605 0 0.017876617513699868 -0.0014222661705679284 0 0.017947772825161835 -0.00037468954701135358 0 0.016564212588638091 -0.0015716347347599917 0 0.015597375334518269 -0.00060860298284624544 0 0.015991116249039969 -0.00047011488035237877 0 0.018712799870584162 -0.0034110750093647771 0 0.01811243883639466 -0.0025181388641029017 0 0.017370045795228696 -0.0032682270772189234 0 0.018712799870584162 -0.0034110750093647771 0 0.017370045795228696 -0.0032682270772189234 0 0.017562626391084586 -0.0042666168934676878 0 0.019053121141491585 -0.0027046067970605699 0 0.018712799870584162 -0.0034110750093647771 0 0.01811243883639466 -0.0025181388641029017 0 0.018827100936673492 -0.002073573555011872 0 0.017876617513699868 -0.0014222661705679284 0 0.01811243883639466 -0.0025181388641029017 0 0.018827100936673492 -0.002073573555011872 0 0.019053121141491585 -0.0027046067970605699 0 0.01811243883639466 -0.0025181388641029017 0 0.01811243883639466 -0.0025181388641029017 0 0.017370045795228696 -0.0032682270772189234 0 0.016777516288816283 -0.0023700673992561316 0 0.017876617513699868 -0.0014222661705679284 0 0.01811243883639466 -0.0025181388641029017 0 0.016777516288816283 -0.0023700673992561316 0 0.017370045795228696 -0.0032682270772189234 0 0.015779163635842055 -0.0037461987887173701 0 0.017562626391084586 -0.0042666168934676878 0 0.017370045795228696 -0.0032682270772189234 0 0.016777516288816283 -0.0023700673992561316 0 0.015779163635842055 -0.0037461987887173701 0 0.016777516288816283 -0.0023700673992561316 0 0.015323625499124255 -0.0024911652557188168 0 0.015779163635842055 -0.0037461987887173701 0 0.015714411924043166 -0.0014046245606262023 0 0.016777516288816283 -0.0023700673992561316 0 0.015323625499124255 -0.0024911652557188168 0 0.023392195555856487 0.0017120406446588382 0 0.022798229674757357 0.0018532118681864654 0 0.02373629719742516 0.0014346339225925649 0 0.015323625499124255 -0.0024911652557188168 0 0.015779163635842055 -0.0037461987887173701 0 0.015004411550889928 -0.0035102662572193016 0 0.020627799618114496 -0.00049118374951599394 0 0.021142871630578548 -0.0002178391773802287 0 0.021142871630578548 -0.0002178391773802287 0 0.023525003111859268 0.00018486856206413152 0 0.024773440841735828 0.001372432730557544 0 0.025057100285681238 0.00098860041388306287 0 0.025241674125015247 0.0011249878785054197 0 0.024773440841735828 0.001372432730557544 0 0.025057100285681238 0.00098860041388306287 0 0.024794478757732188 0.0010184077474028098 0 0.024794478757732188 0.0010184077474028098 0 0.025013512917576742 0.00076111071017698239 0 0.024594349513243401 0.0008536503023042209 0 0.025057100285681238 0.00098860041388306287 0 0.024794478757732188 0.0010184077474028098 0 0.025013512917576742 0.00076111071017698239 0 0.025057100285681238 0.00098860041388306287 0 0.025013512917576742 0.00076111071017698239 0 0.025301705389820253 0.00077631991493054531 0 0.025057100285681238 0.00098860041388306287 0 0.025301705389820253 0.00077631991493054531 0 0.025341298040979111 0.00092825231541129362 0 0.025160045787835868 0.00052325311583538599 0 0.025013512917576742 0.00076111071017698239 0 0.025301705389820253 0.00077631991493054531 0 0.025301705389820253 0.00077631991493054531 0 0.025341298040979111 0.00092825231541129362 0 0.025452910706772271 0.00084153057678207702 0 0.020627799618114496 -0.00049118374951599394 0 0.021299142554595311 -0.0011241397313552738 0 0.023392195555856487 0.0017120406446588382 0 0.02373629719742516 0.0014346339225925649 0 0.024635003281855083 0.0014134661266613445 0 0.025341298040979111 0.00092825231541129362 0 0.025241674125015247 0.0011249878785054197 0 0.025624956629040213 0.00090211708961315167 0 0.025057100285681238 0.00098860041388306287 0 0.025341298040979111 0.00092825231541129362 0 0.025241674125015247 0.0011249878785054197 0 0.02373629719742516 0.0014346339225925649 0 0.024635003281855083 0.0014134661266613445 0 0.024663915057083076 0.0010564110676558184 0 0.023525003111859268 0.00018486856206413152 0 0.024695921068175395 0.00038674866767499745 0 0.025341298040979111 0.00092825231541129362 0 0.025624956629040213 0.00090211708961315167 0 0.025452910706772271 0.00084153057678207702 0 0.025624956629040213 0.00090211708961315167 0 0.025452910706772271 0.00084153057678207702 0 0.025538705138434148 0.00071718048383612111 0 0.025301705389820253 0.00077631991493054531 0 0.025452910706772271 0.00084153057678207702 0 0.025538705138434148 0.00071718048383612111 0 0.025399278921185812 0.00059317500525482244 0 0.025301705389820253 0.00077631991493054531 0 0.025538705138434148 0.00071718048383612111 0 0.025538705138434148 0.00071718048383612111 0 0.025660002655427894 0.00074501870977900246 0 0.025700090204767705 0.00063705777574504005 0 0.025590051221738547 0.00053572135260016723 0 0.025538705138434148 0.00071718048383612111 0 0.025700090204767705 0.00063705777574504005 0 0.025624956629040213 0.00090211708961315167 0 0.025538705138434148 0.00071718048383612111 0 0.025660002655427894 0.00074501870977900246 0 0.025496355188553785 0.00073322252223308334 0 0.024663915057083076 0.0010564110676558184 0 0.025324873891426333 0.00095180872921055018 0 0.025963538388260113 0.00070999120301417338 0 0.025624956629040213 0.00090211708961315167 0 0.025760290440447378 0.00071935538369808782 0 0.025624956629040213 0.00090211708961315167 0 0.025660002655427894 0.00074501870977900246 0 0.025760290440447378 0.00071935538369808782 0 0.025402465210520999 0.00040377474522378728 0 0.024695921068175395 0.00038674866767499745 0 0.025660002655427894 0.00074501870977900246 0 0.025760290440447378 0.00071935538369808782 0 0.025700090204767705 0.00063705777574504005 0 0.025851499783992243 0.00060437681000112986 0 0.025760290440447378 0.00071935538369808782 0 0.025700090204767705 0.00063705777574504005 0 0.025963538388260113 0.00070999120301417338 0 0.025851499783992243 0.00060437681000112986 0 0.025760290440447378 0.00071935538369808782 0 0.025703934062501273 0.0011190863918904782 0 0.024635003281855083 0.0014134661266613445 0 0.025324873891426333 0.00095180872921055018 0 0.024635003281855083 0.0014134661266613445 0 0.024663915057083076 0.0010564110676558184 0 0.025324873891426333 0.00095180872921055018 0 0.019462994849894458 -0.0047892095736283766 0 0.018712799870584162 -0.0034110750093647771 0 0.017562626391084586 -0.0042666168934676878 0 0.022648131329959801 -0.0016395044563064169 0 0.021299142554595311 -0.0011241397313552738 0 0.023776856765166873 0.0015788410739820788 0 0.024078476359898082 0.0012967153667081354 0 0.023811022652007512 0.0012352711757782147 0 0.023776856765166873 0.0015788410739820788 0 0.023811022652007512 0.0012352711757782147 0 0.023432517983794685 0.0011435495154998472 0 0.023776856765166873 0.0015788410739820788 0 0.023432517983794685 0.0011435495154998472 0 0.023214195409720022 0.00167463867924204 0 0.018378958503804013 -0.00034570098884401579 0 0.017260408185594284 -0.00021918755064761339 0 0.012032868295102646 -0.001640994399401266 0 0.012648333870182724 -0.0028115155130812768 0 0.011215100869062132 -0.0023785102752574947 0 0.012032868295102646 -0.001640994399401266 0 0.012648333870182724 -0.0028115155130812768 0 0.013340667825392383 -0.0021135075550179046 0 0.014300174063202099 -0.0017158117062385876 0 0.013340667825392383 -0.0021135075550179046 0 0.014162769826864513 -0.0032592617033105902 0 0.012648333870182724 -0.0028115155130812768 0 0.013340667825392383 -0.0021135075550179046 0 0.014162769826864513 -0.0032592617033105902 0 0.014300174063202099 -0.0017158117062385876 0 0.015323625499124255 -0.0024911652557188168 0 0.014162769826864513 -0.0032592617033105902 0 0.015323625499124255 -0.0024911652557188168 0 0.015004411550889928 -0.0035102662572193016 0 0.014162769826864513 -0.0032592617033105902 0 0.024773440841735828 0.001372432730557544 0 0.024417393175492529 0.0014607761360975742 0 0.024530731628956415 0.0011323398002882905 0 0.021142871630578548 -0.0002178391773802287 0 0.019869557066981468 -0.00031169358366592173 0 0.018378958503804013 -0.00034570098884401579 0 0.019869557066981468 -0.00031169358366592173 0 0.023776856765166873 0.0015788410739820788 0 0.024417393175492529 0.0014607761360975742 0 0.024078476359898082 0.0012967153667081354 0 0.024417393175492529 0.0014607761360975742 0 0.024078476359898082 0.0012967153667081354 0 0.024292588888705998 0.0011625495346215876 0 0.024078476359898082 0.0012967153667081354 0 0.024292588888705998 0.0011625495346215876 0 0.024126688636943092 0.0010674993432132022 0 0.024292588888705998 0.0011625495346215876 0 0.024530731628956415 0.0011323398002882905 0 0.02428041553181887 0.00094275341181507678 0 0.024292588888705998 0.0011625495346215876 0 0.024126688636943092 0.0010674993432132022 0 0.02428041553181887 0.00094275341181507678 0 0.024126688636943092 0.0010674993432132022 0 0.024098239374303981 0.0009393327557061169 0 0.02428041553181887 0.00094275341181507678 0 0.024773440841735828 0.001372432730557544 0 0.024794478757732188 0.0010184077474028098 0 0.024530731628956415 0.0011323398002882905 0 0.024417393175492529 0.0014607761360975742 0 0.024292588888705998 0.0011625495346215876 0 0.024530731628956415 0.0011323398002882905 0 0.024530731628956415 0.0011323398002882905 0 0.024594349513243401 0.0008536503023042209 0 0.02428041553181887 0.00094275341181507678 0 0.024794478757732188 0.0010184077474028098 0 0.024530731628956415 0.0011323398002882905 0 0.024594349513243401 0.0008536503023042209 0 0.024740624655524478 0.0007170349088951851 0 0.024534149027159346 0.00067034384859610951 0 0.025013512917576742 0.00076111071017698239 0 0.024474904921157219 0.00066500383854627815 0 0.024594349513243401 0.0008536503023042209 0 0.024896758828726655 0.00054143268753239517 0 0.025013512917576742 0.00076111071017698239 0 0.024660366064620316 0.00065651873549219929 0 0.024286664163745492 0.00083302382580526522 0 0.024061227386815775 0.00080187111095658768 0 0.024474904921157219 0.00066500383854627815 0 0.024594349513243401 0.0008536503023042209 0 0.024169595303557934 0.00078495560092853311 0 0.024085741383133418 0.00061071457235465059 0 0.024474904921157219 0.00066500383854627815 0 0.024169595303557934 0.00078495560092853311 0 0.024594349513243401 0.0008536503023042209 0 0.02428041553181887 0.00094275341181507678 0 0.024018843606994026 0.00078747771409163616 0 0.024098239374303981 0.0009393327557061169 0 0.02428041553181887 0.00094275341181507678 0 0.024018843606994026 0.00078747771409163616 0 0.024018843606994026 0.00078747771409163616 0 0.02397011266270645 0.00096031430611218473 0 0.023553232346764211 0.00075029960867652721 0 0.024085741383133418 0.00061071457235465059 0 0.024169595303557934 0.00078495560092853311 0 0.023813897955273392 0.00074503903459253236 0 0.024061227386815775 0.00080187111095658768 0 0.023675486393919136 0.00075407557972778649 0 0.024098239374303981 0.0009393327557061169 0 0.024018843606994026 0.00078747771409163616 0 0.02397011266270645 0.00096031430611218473 0 0.024126688636943092 0.0010674993432132022 0 0.024098239374303981 0.0009393327557061169 0 0.02397011266270645 0.00096031430611218473 0 0.024126688636943092 0.0010674993432132022 0 0.02397011266270645 0.00096031430611218473 0 0.023811022652007512 0.0012352711757782147 0 0.02397011266270645 0.00096031430611218473 0 0.023811022652007512 0.0012352711757782147 0 0.023432517983794685 0.0011435495154998472 0 0.024078476359898082 0.0012967153667081354 0 0.024126688636943092 0.0010674993432132022 0 0.023811022652007512 0.0012352711757782147 0 0.023678248077583449 0.0010685570793460819 0 0.023435327227434112 0.0011506732166718947 0 0.02397011266270645 0.00096031430611218473 0 0.023491195405548081 0.0011383296112053131 0 0.023553232346764211 0.00075029960867652721 0 0.023115851288847883 0.00070725863206869014 0 0.023553232346764211 0.00075029960867652721 0 0.02323769657953223 0.00097590348476238873 0 0.023491195405548081 0.0011383296112053131 0 0.023553232346764211 0.00075029960867652721 0 0.02323769657953223 0.00097590348476238873 0 0.02326434432897306 0.00070586524612079114 0 0.023675486393919136 0.00075407557972778649 0 0.023115851288847883 0.00070725863206869014 0 0.02323769657953223 0.00097590348476238873 0 0.022947187023147408 0.00093721028590539664 0 0.02323769657953223 0.00097590348476238873 0 0.022947187023147408 0.00093721028590539664 0 0.02303918904669703 0.0012907659168535615 0 0.023491195405548081 0.0011383296112053131 0 0.02323769657953223 0.00097590348476238873 0 0.02303918904669703 0.0012907659168535615 0 0.023435327227434112 0.0011506732166718947 0 0.023051857573728466 0.0012799894081340177 0 0.023432517983794685 0.0011435495154998472 0 0.022970852892118618 0.0013092773088280835 0 0.023214195409720022 0.00167463867924204 0 0.017260408185594284 -0.00021918755064761339 0 0.016023098935891936 5.3882695395853101e-05 0 0.011215100869062132 -0.0023785102752574947 0 0.0098874046235822802 -0.0019735033832313717 0 0.010664786707468267 -0.001645588020554463 0 0.022970852892118618 0.0013092773088280835 0 0.023214195409720022 0.00167463867924204 0 0.02274363835329498 0.0017581794761851535 0 0.02274363835329498 0.0017581794761851535 0 0.022580512294961455 0.0014411886734531359 0 0.022281532774459906 0.0018690051542087545 0 0.022970852892118618 0.0013092773088280835 0 0.02274363835329498 0.0017581794761851535 0 0.022580512294961455 0.0014411886734531359 0 0.023051857573728466 0.0012799894081340177 0 0.022831762605917759 0.0013535430029942399 0 0.02303918904669703 0.0012907659168535615 0 0.022580512294961455 0.0014411886734531359 0 0.022652126222973298 0.0010658067036836926 0 0.022580512294961455 0.0014411886734531359 0 0.022652126222973298 0.0010658067036836926 0 0.022294616963161065 0.0013684154199710547 0 0.022947187023147408 0.00093721028590539664 0 0.02303918904669703 0.0012907659168535615 0 0.022652126222973298 0.0010658067036836926 0 0.02270271340517346 0.00066052379419755157 0 0.023115851288847883 0.00070725863206869014 0 0.022947187023147408 0.00093721028590539664 0 0.02270271340517346 0.00066052379419755157 0 0.022947187023147408 0.00093721028590539664 0 0.022652126222973298 0.0010658067036836926 0 0.022652126222973298 0.0010658067036836926 0 0.022447100717367292 0.00084007736883413711 0 0.022266882737234997 0.0010719809270587403 0 0.02270271340517346 0.00066052379419755157 0 0.022652126222973298 0.0010658067036836926 0 0.022447100717367292 0.00084007736883413711 0 0.022353060528387671 0.0005965876118106979 0 0.022447100717367292 0.00084007736883413711 0 0.022049855594708498 0.00090106470237824652 0 0.022447100717367292 0.00084007736883413711 0 0.022049855594708498 0.00090106470237824652 0 0.022266882737234997 0.0010719809270587403 0 0.021998216976411803 0.0005838112706047664 0 0.022049855594708498 0.00090106470237824652 0 0.02180359674995953 0.00081149170172722896 0 0.022266882737234997 0.0010719809270587403 0 0.021820038356292499 0.0011959167786922216 0 0.022294616963161065 0.0013684154199710547 0 0.022049855594708498 0.00090106470237824652 0 0.022266882737234997 0.0010719809270587403 0 0.021820038356292499 0.0011959167786922216 0 0.022652126222973298 0.0010658067036836926 0 0.022266882737234997 0.0010719809270587403 0 0.022294616963161065 0.0013684154199710547 0 0.021526973303111759 0.00083805300218813006 0 0.02180359674995953 0.00081149170172722896 0 0.021820038356292499 0.0011959167786922216 0 0.022049855594708498 0.00090106470237824652 0 0.02180359674995953 0.00081149170172722896 0 0.021820038356292499 0.0011959167786922216 0 0.014891617570380945 0.0012095444129345632 0 0.014654283356159679 0.0012352191608609371 0 0.0081307572805022401 0.0014308720977916278 0 0.0079644790015785984 0.0009669324955131045 0 0.0082324695511296342 0.00084407899521155363 0 0.0084671038429894267 0.00098387435405237274 0 0.0081307572805022401 0.0014308720977916278 0 0.0082324695511296342 0.00084407899521155363 0 0.0082324695511296342 0.00084407899521155363 0 0.0080672017478311212 0.00065110029775999943 0 0.0082924586004132841 0.00045045535115830068 0 0.0084943800858342019 0.00065499781101714194 0 0.0082324695511296342 0.00084407899521155363 0 0.0082924586004132841 0.00045045535115830068 0 0.0079644790015785984 0.0009669324955131045 0 0.0080672017478311212 0.00065110029775999943 0 0.0077996827481358255 0.00058306573738318307 0 0.0079644790015785984 0.0009669324955131045 0 0.0082324695511296342 0.00084407899521155363 0 0.0080672017478311212 0.00065110029775999943 0 0.0080672017478311212 0.00065110029775999943 0 0.0080391012701331449 0.00042283882072528426 0 0.0077996827481358255 0.00058306573738318307 0 0.0080391012701331449 0.00042283882072528426 0 0.0082924586004132841 0.00045045535115830068 0 0.0082318815130163828 0.00025044070398454318 0 0.0080672017478311212 0.00065110029775999943 0 0.0080391012701331449 0.00042283882072528426 0 0.0082924586004132841 0.00045045535115830068 0 0.022580512294961455 0.0014411886734531359 0 0.022294616963161065 0.0013684154199710547 0 0.022281532774459906 0.0018690051542087545 0 0.022294616963161065 0.0013684154199710547 0 0.022055913230055381 0.0015291035863698186 0 0.022281532774459906 0.0018690051542087545 0 0.021820038356292499 0.0011959167786922216 0 0.022294616963161065 0.0013684154199710547 0 0.022055913230055381 0.0015291035863698186 0 0.014654283356159679 0.0012352191608609371 0 0.014218057971489038 0.0012662946090165519 0 0.0077996827481358255 0.00058306573738318307 0 0.0075455479956110915 0.00019475767786586144 0 0.0078470381045360089 0.00031163389497659833 0 0.0080391012701331449 0.00042283882072528426 0 0.0078470381045360089 0.00031163389497659833 0 0.0080488078034914052 0.00021952568814679542 0 0.0080391012701331449 0.00042283882072528426 0 0.0077996827481358255 0.00058306573738318307 0 0.0078470381045360089 0.00031163389497659833 0 0.014218057971489038 0.0012662946090165519 0 0.012965423713007808 0.00085671534825842836 0 0.0094568640202484441 -0.00045497204417104301 0 0.01061185092931291 -0.00043214652170951468 0 0.0093731249218599044 -0.00039178354418978594 0 0.0087966673367297944 -0.00024218704187212417 0 0.0096170277026506289 -4.5066013866693443e-05 0 0.012965423713007808 0.00085671534825842836 0 0.010243368068685725 0.00094856045175742854 0 0.012965423713007808 0.00085671534825842836 0 0.01061185092931291 -0.00043214652170951468 0 0.0075455479956110915 0.00019475767786586144 0 0.0078470381045360089 0.00031163389497659833 0 0.0078547350928532458 9.9022972811931923e-05 0 0.0087966673367297944 -0.00024218704187212417 0 0.008685767435127183 -0.00016492469938847185 0 0.0083209160376403364 8.5587116876262644e-06 0 0.0087966673367297944 -0.00024218704187212417 0 0.008685767435127183 -0.00016492469938847185 0 0.0096170277026506289 -4.5066013866693443e-05 0 0.0078470381045360089 0.00031163389497659833 0 0.0078547350928532458 9.9022972811931923e-05 0 0.0080488078034914052 0.00021952568814679542 0 0.008685767435127183 -0.00016492469938847185 0 0.0088234845629655088 1.8677270523023605e-06 0 0.0085548199906008721 4.6127619165767879e-05 0 0.0088234845629655088 1.8677270523023605e-06 0 0.0085548199906008721 4.6127619165767879e-05 0 0.0086657624134946851 0.00017853935754961396 0 0.0088234845629655088 1.8677270523023605e-06 0 0.0089485193299752939 9.409950606532301e-05 0 0.0086657624134946851 0.00017853935754961396 0 0.008685767435127183 -0.00016492469938847185 0 0.0088234845629655088 1.8677270523023605e-06 0 0.0092737699854531751 -0.0001837143252785066 0 0.0088234845629655088 1.8677270523023605e-06 0 0.0089485193299752939 9.409950606532301e-05 0 0.0092737699854531751 -0.0001837143252785066 0 0.0089485193299752939 9.409950606532301e-05 0 0.0092055457500080148 0.00021177587343866909 0 0.0092737699854531751 -0.0001837143252785066 0 0.0085576840680837898 0.00031401950540267014 0 0.0082924586004132841 0.00045045535115830068 0 0.0083712585384383732 0.00016317220127025893 0 0.0082924586004132841 0.00045045535115830068 0 0.0083712585384383732 0.00016317220127025893 0 0.0082318815130163828 0.00025044070398454318 0 0.0083712585384383732 0.00016317220127025893 0 0.0083209160376403364 8.5587116876262644e-06 0 0.0082318815130163828 0.00025044070398454318 0 0.010243368068685725 0.00094856045175742854 0 0.0095941703405782574 0.00093435846415316354 0 0.0078547350928532458 9.9022972811931923e-05 0 0.0083209160376403364 8.5587116876262644e-06 0 0.0080488078034914052 0.00021952568814679542 0 0.0083209160376403364 8.5587116876262644e-06 0 0.0082318815130163828 0.00025044070398454318 0 0.0080488078034914052 0.00021952568814679542 0 0.0080391012701331449 0.00042283882072528426 0 0.0082318815130163828 0.00025044070398454318 0 0.0080488078034914052 0.00021952568814679542 0 0.0083209160376403364 8.5587116876262644e-06 0 0.0085548199906008721 4.6127619165767879e-05 0 0.0084595201110191087 0.00010549668078623916 0 0.008685767435127183 -0.00016492469938847185 0 0.0083209160376403364 8.5587116876262644e-06 0 0.0085548199906008721 4.6127619165767879e-05 0 0.0085548199906008721 4.6127619165767879e-05 0 0.0084595201110191087 0.00010549668078623916 0 0.0086657624134946851 0.00017853935754961396 0 0.0083712585384383732 0.00016317220127025893 0 0.0083209160376403364 8.5587116876262644e-06 0 0.0083845574891125464 5.6332249323457288e-05 0 0.0083209160376403364 8.5587116876262644e-06 0 0.0084595201110191087 0.00010549668078623916 0 0.0083845574891125464 5.6332249323457288e-05 0 0.0083698233265468436 6.587977349800315e-06 0 0.0083845574891125464 5.6332249323457288e-05 0 0.0084240499946922742 0.00012522394217714703 0 0.0084595201110191087 0.00010549668078623916 0 0.0083845574891125464 5.6332249323457288e-05 0 0.0084240499946922742 0.00012522394217714703 0 0.0084595201110191087 0.00010549668078623916 0 0.0085796800098323651 0.00033868151728135248 0 0.0086657624134946851 0.00017853935754961396 0 0.0084595201110191087 0.00010549668078623916 0 0.0084240499946922742 0.00012522394217714703 0 0.0085796800098323651 0.00033868151728135248 0 0.0084240499946922742 0.00012522394217714703 0 0.0085796800098323651 0.00033868151728135248 0 0.0084105814069904521 0.00021539758454864214 0 0.008527056596616572 0.00057419562206545319 0 0.0085796800098323651 0.00033868151728135248 0 0.0084105814069904521 0.00021539758454864214 0 0.0089485193299752939 9.409950606532301e-05 0 0.0092055457500080148 0.00021177587343866909 0 0.0088597608543086008 0.00049821028658307673 0 0.0085796800098323651 0.00033868151728135248 0 0.0086657624134946851 0.00017853935754961396 0 0.0088597608543086008 0.00049821028658307673 0 0.0089485193299752939 9.409950606532301e-05 0 0.0086657624134946851 0.00017853935754961396 0 0.0088597608543086008 0.00049821028658307673 0 0.0087291622601184064 0.00068943859728778369 0 0.0085796800098323651 0.00033868151728135248 0 0.0088597608543086008 0.00049821028658307673 0 0.0093249551185885932 0.00129574547290747 0 0.0088597608543086008 0.00049821028658307673 0 0.0094023672435788134 0.00054624175470234211 0 0.0092055457500080148 0.00021177587343866909 0 0.0088597608543086008 0.00049821028658307673 0 0.0094023672435788134 0.00054624175470234211 0 0.0094023672435788134 0.00054624175470234211 0 0.0095730406329755085 0.00011928986526620805 0 0.0099227861320877672 0.00047189279651825729 0 0.0092055457500080148 0.00021177587343866909 0 0.0094023672435788134 0.00054624175470234211 0 0.0095730406329755085 0.00011928986526620805 0 0.0093719060996549277 -0.00031516018480587946 0 0.0099227861320877672 0.00047189279651825729 0 0.010409888862455946 -0.00016783670581407609 0 0.010222705554614884 -0.00035767845835904191 0 0.010210989474805771 -0.00018961173338749037 0 0.00979891312842604 0.0010241234474346647 0 0.0094023672435788134 0.00054624175470234211 0 0.0099227861320877672 0.00047189279651825729 0 0.011194077025606547 0.0010797862461552231 0 0.010396767311886964 0.001283657854192809 0 0.010834589790467189 0.00046605816237345609 0 0.010396767311886964 0.001283657854192809 0 0.0099227861320877672 0.00047189279651825729 0 0.010834589790467189 0.00046605816237345609 0 0.011194077025606547 0.0010797862461552231 0 0.011836837890015977 0.00071217822907542762 0 0.010834589790467189 0.00046605816237345609 0 0.011836837890015977 0.00071217822907542762 0 0.010834589790467189 0.00046605816237345609 0 0.01131294482942897 -0.00075368638105577552 0 0.0099227861320877672 0.00047189279651825729 0 0.010834589790467189 0.00046605816237345609 0 0.010409888862455946 -0.00016783670581407609 0 0.010834589790467189 0.00046605816237345609 0 0.010409888862455946 -0.00016783670581407609 0 0.01131294482942897 -0.00075368638105577552 0 0.01131294482942897 -0.00075368638105577552 0 0.010664786707468267 -0.001645588020554463 0 0.01010858014131198 -0.00098496611859847749 0 0.010686734034764226 -0.00067583455679106935 0 0.01027878418304691 -0.00068201230654606356 0 0.010409888862455946 -0.00016783670581407609 0 0.01131294482942897 -0.00075368638105577552 0 0.01006409216999707 -0.00089404106773902277 0 0.012032868295102646 -0.001640994399401266 0 0.01131294482942897 -0.00075368638105577552 0 0.010664786707468267 -0.001645588020554463 0 0.012032868295102646 -0.001640994399401266 0 0.011215100869062132 -0.0023785102752574947 0 0.010664786707468267 -0.001645588020554463 0 0.0098874046235822802 -0.0019735033832313717 0 0.0095792242793611149 -0.0013798696380266128 0 0.01010858014131198 -0.00098496611859847749 0 0.0098874046235822802 -0.0019735033832313717 0 0.010664786707468267 -0.001645588020554463 0 0.01010858014131198 -0.00098496611859847749 0 0.0098874046235822802 -0.0019735033832313717 0 0.0086412592745189337 -0.001629544240848504 0 0.0095792242793611149 -0.0013798696380266128 0 0.016023098935891936 5.3882695395853101e-05 0 0.012965423713007808 0.00085671534825842836 0 0.0086412592745189337 -0.001629544240848504 0 0.0095792242793611149 -0.0013798696380266128 0 0.0089649321378200975 -0.0011665297125874718 0 0.010222705554614884 -0.00035767845835904191 0 0.01061185092931291 -0.00043214652170951468 0 0.01061185092931291 -0.00043214652170951468 0 0.01027878418304691 -0.00068201230654606356 0 0.0095792242793611149 -0.0013798696380266128 0 0.0089649321378200975 -0.0011665297125874718 0 0.01010858014131198 -0.00098496611859847749 0 0.0093719060996549277 -0.00031516018480587946 0 0.0088523362543667782 -0.001066095985704114 0 0.01006409216999707 -0.00089404106773902277 0 0.0092055457500080148 0.00021177587343866909 0 0.0095730406329755085 0.00011928986526620805 0 0.0092737699854531751 -0.0001837143252785066 0 0.0093719060996549277 -0.00031516018480587946 0 0.010409888862455946 -0.00016783670581407609 0 0.01006409216999707 -0.00089404106773902277 0 
</DataArray>
</PointData>
<CellData Scalars="region_id,cross_section_updated," Vectors="" Tensors="stress,">
<DataArray type="Float64" Name="region_id" format="ascii">
5 5 5 5 5 5 5 5 5 5 5 5 5 5 6 5 5 6 5 5 5 5 5 6 5 5 5 5 5 5 5 6 5 5 5 5 6 5 5 5 5 5 5 6 5 5 5 5 6 5 5 5 5 5 5 5 6 5 5 6 5 6 5 6 5 5 5 5 5 5 5 5 5 5 5 5 5 5 6 5 6 5 5 5 5 5 5 6 5 5 6 5 5 5 6 5 5 5 6 5 6 5 5 5 5 5 6 5 6 5 5 5 6 5 5 5 5 5 5 6 5 5 5 5 5 5 5 5 6 5 5 5 5 5 5 5 5 5 6 5 5 5 5 5 5 5 5 5 5 5 5 5 5 5 5 6 5 5 6 5 6 5 5 5 6 5 5 6 5 5 5 5 5 5 5 5 5 5 5 5 5 5 6 6 5 5 5 5 6 5 6 5 5 6 6 5 5 5 5 5 5 6 5 5 5 5 5 5 5 5 5 5 5 5 5 5 5 5 5 5 5 5 5 5 5 5 6 5 5 6 5 5 5 5 6 5 5 5 5 6 5 5 5 6 5 5 5 5 5 5 5 5 5 5 6 5 5 6 5 5 5 5 5 5 6 5 5 5 5 6 5 6 5 5 5 5 6 5 5 5 5 5 5 5 5 5 5 5 5 5 5 5 5 6 5 5 6 5 5 5 5 6 5 5 5 5 5 5 5 5 5 6 5 5 5 5 5 5 5 6 5 6 5 5 5 5 5 5 5 5 5 5 5 5 5 5 5 6 5 5 5 6 5 5 5 5 6 6 5 6 5 5 5 5 6 5 5 6 6 5 6 5 5 5 5 5 5 5 5 5 5 6 5 6 5 5 5 6 5 5 5 5 5 5 5 5 5 5 5 5 5 5 6 5 5 5 5 5 5 5 5 5 5 5 6 5 5 5 5 5 5 5 5 5 5 5 5 5 5 5 5 6 5 5 5 5 5 5 5 5 5 5 5 5 5 5 5 5 5 5 6 5 5 6 5 5 5 5 5 5 6 5 5 6 5 5 5 5 6 5 5 5 6 5 6 5 6 5 5 5 6 5 5 5 5 5 5 5 5 6 5 5 5 5 5 5 5 5 5 5 6 5 5 5 5 5 5 5 5 5 5 5 5 5 6 6 5 5 5 5 5 5 5 5 5 5 6 6 5 6 6 5 5 5 5 6 5 5 5 6 5 5 5 5 5 5 5 5 5 5 5 5 5 5 5 5 5 5 5 5 5 5 5 5 5 5 5 6 5 5 5 6 5 5 5 5 5 5 5 5 5 5 5 5 5 5 5 5 5 5 5 5 5 5 5 5 6 5 5 5 5 5 5 5 5 5 5 5 5 5 5 5 5 6 5 5 5 5 5 6 5 6 5 5 5 5 5 5 5 5 6 5 5 5 5 5 5 5 5 5 6 5 5 5 6 5 5 5 6 5 5 5 5 5 5 5 5 5 5 5 5 6 5 5 5 6 6 5 5 5 5 6 5 5 5 5 5 5 5 6 5 5 6 5 5 5 5 5 5 5 5 5 5 5 5 6 5 6 5 6 5 5 5 6 5 5 6 5 5 6 5 5 5 5 5 5 5 5 5 5 6 6 5 5 5 5 5 5 5 5 5 5 5 5 5 5 5 6 5 5 5 5 5 6 5 5 5 6 5 5 6 5 5 5 5 5 5 5 5 5 5 5 5 5 6 5 5 5 5 5 5 5 5 5 5 6 5 5 5 5 6 5 5 6 5 5 5 5 5 5 5 5 5 5 5 5 6 5 6 5 5 6 5 6 5 5 5 5 6 5 5 5 5 5 5 5 5 5 5 5 6 6 5 5 5 6 5 5 5 5 5 6 5 5 5 5 5 5 5 5 5 5 5 5 5 5 6 5 5 6 5 5 5 5 5 5 5 6 5 5 6 5 5 5 5 5 5 5 5 5 5 5 5 5 5 5 5 5 5 5 5 5 5 5 5 5 6 5 5 6 5 5 5 5 5 5 5 6 5 5 5 6 5 5 5 6 5 5 5 5 5 6 6 5 5 5 5 5 5 5 5 5 5 5 5 5 5 5 6 6 6 5 6 5 5 5 5 5 5 6 5 6 5 6 5 5 5 5 6 5 5 6 5 5 5 5 6 6 5 5 5 5 5 5 5 6 5 5 5 5 5 5 5 5 5 5 6 5 5 5 5 5 5 5 5 5 5 5 6 5 5 5 5 6 5 5 5 5 6 5 5 5 5 5 6 5 5 5 6 5 5 5 5 5 5 5 5 5 5 5 5 5 5 5 6 5 5 5 5 5 5 5 5 6 5 5 5 5 5 6 6 5 5 6 5 5 5 6 5 5 5 5 5 6 6 5 5 5 6 6 6 5 5 5 5 5 6 5 6 5 5 5 5 5 5 5 5 5 5 6 5 5 5 5 6 5 6 5 5 5 5 5 5 6 5 5 5 5 5 6 5 5 5 5 5 6 5 5 6 5 5 5 6 5 5 6 5 5 5 5 5 5 6 5 6 5 5 5 5 5 6 5 5 5 5 5 5 5 5 5 6 5 5 5 5 5 5 6 5 5 6 5 5 5 5 5 5 5 6 5 5 5 5 5 5 5 5 5 6 5 6 5 6 5 5 5 5 5 5 5 5 5 5 5 6 5 5 5 5 6 5 5 5 5 6 5 5 5 5 5 5 5 5 5 5 6 5 6 5 5 5 5 5 6 5 5 5 5 5 5 5 5 6 5 5 5 5 5 5 5 6 5 6 5 5 5 5 5 5 5 5 5 6 5 5 6 5 5 6 5 6 5 5 5 5 5 5 5 6 5 6 5 5 5 5 5 5 5 5 5 5 5 5 5 5 5 5 5 5 5 6 5 5 5 6 6 6 5 5 5 5 5 6 5 5 5 5 5 5 5 5 5 5 5 5 5 6 5 6 6 5 5 5 5 5 5 6 5 6 5 5 5 5 6 5 5 5 5 5 5 5 5 5 5 5 6 5 5 5 6 6 5 5 6 6 6 5 6 5 5 5 5 6 5 5 5 6 5 6 5 6 5 6 6 5 5 6 5 6 5 5 5 6 5 6 6 5 5 6 5 5 6 6 6 5 5 6 5 5 6 5 5 6 6 5 6 5 5 6 6 5 5 5 5 5 5 6 5 6 5 6 5 5 5 5 5 6 5 5 5 5 5 6 5 5 6 6 5 6 5 5 5 6 5 5 5 5 5 6 5 5 6 6 5 6 5 5 5 6 5 5 6 5 5 5 6 5 6 6 6 5 5 5 6 5 5 6 5 5 5 6 6 5 5 5 6 5 5 5 6 6 5 6 5 6 6 5 6 5 5 6 6 6 5 5 5 6 5 5 5 5 5 5 5 5 6 5 5 6 6 5 5 5 5 5 5 5 5 5 5 5 5 5 5 6 6 5 5 6 5 5 5 5 5 5 6 6 5 5 5 5 5 5 5 5 5 5 5 5 5 5 5 5 5 5 5 5 5 5 5 5 5 5 5 5 5 5 5 5 5 5 5 5 5 5 5 5 5 5 5 5 5 5 5 5 5 5 5 6 5 5 5 5 5 5 5 5 5 5 5 5 5 5 5 5 5 5 5 5 5 5 5 5 5 5 6 5 6 5 5 5 5 5 5 5 5 5 5 5 5 5 5 5 5 5 5 5 5 5 5 5 5 5 5 6 5 5 5 6 5 5 5 5 5 5 5 5 5 6 5 5 5 5 5 5 5 5 5 5 5 5 5 5 5 5 5 5 5 5 5 5 5 5 5 5 5 5 5 5 5 5 6 5 5 5 5 5 5 5 6 5 5 5 5 6 5 5 5 5 6 5 5 5 5 5 5 5 5 5 5 5 5 5 5 5 5 5 5 5 5 5 5 5 6 5 5 5 5 6 5 5 6 5 5 5 6 6 5 5 6 5 5 6 5 5 5 5 5 5 5 5 5 5 5 5 5 5 5 5 5 6 5 5 6 5 5 6 5 5 5 5 5 5 5 5 5 5 5 5 5 5 5 5 5 5 5 5 5 5 5 6 6 5 5 6 5 5 5 6 5 5 5 5 5 5 6 5 5 5 6 5 5 5 5 5 5 5 5 5 6 6 5 5 5 5 5 5 6 5 5 5 5 5 5 5 5 6 6 6 5 5 5 5 5 6 5 5 5 6 5 5 6 5 5 6 5 5 5 5 5 5 5 5 5 5 6 6 5 6 5 6 5 5 5 6 5 5 6 5 5 5 5 5 5 5 5 5 5 5 5 6 5 5 5 5 5 5 6 5 5 5 5 5 6 5 5 5 5 6 5 5 5 6 5 5 5 6 5 5 5 5 5 5 5 5 6 5 5 5 5 5 5 5 6 5 5 6 5 5 5 5 5 5 6 5 6 5 5 6 6 5 5 5 5 5 6 5 6 6 6 5 5 6 6 5 5 5 5 6 5 5 5 5 5 5 5 5 5 5 5 6 5 5 6 5 5 5 5 5 5 5 5 5 5 5 5 5 5 5 5 5 6 5 5 5 5 5 5 5 5 5 5 5 5 6 5 5 5 5 5 5 5 6 5 5 6 5 5 5 5 6 5 6 5 5 6 5 5 5 6 5 5 5 5 5 5 5 6 5 5 5 5 6 6 5 5 5 5 5 6 5 5 5 5 5 6 5 5 5 5 5 6 5 5 5 5 5 5 5 5 5 5 5 5 5 5 5 5 5 5 5 5 5 5 5 5 6 5 5 6 6 5 5 5 5 5 6 5 5 5 5 5 5 5 5 5 5 5 5 5 5 5 5 5 5 6 5 5 5 5 5 5 5 5 5 5 5 5 5 5 5 5 5 5 5 5 5 5 5 5 5 5 5 5 5 5 6 5 5 5 6 5 5 5 5 5 5 6 5 5 5 5 5 6 5 5 5 5 5 5 5 5 6 5 5 5 5 5 5 5 5 5 5 5 5 6 5 5 5 5 5 5 6 5 6 5 5 5 6 5 5 5 5 5 5 5 6 5 5 5 5 5 5 6 5 5 5 5 5 5 5 5 5 5 5 5 5 5 6 5 6 5 5 5 5 5 5 5 5 5 5 5 5 5 5 5 5 5 5 5 5 6 5 5 5 5 5 5 5 5 5 6 5 6 5 5 5 5 5 5 6 5 6 5 5 5 5 5 6 5 5 5 5 5 5 5 5 5 5 5 5 5 5 5 5 5 5 5 6 5 5 5 5 5 5 5 5 5 5 5 5 5 5 5 5 5 5 5 5 5 5 5 6 6 5 5 5 6 5 5 5 5 5 5 5 5 5 5 5 5 5 5 5 5 5 5 5 5 5 5 5 5 5 5 5 5 5 5 5 5 5 5 5 5 5 5 5 5 5 6 5 5 6 5 5 5 5 6 5 6 5 6 5 5 5 5 5 5 5 5 5 5 5 5 5 5 5 5 5 5 5 5 5 5 5 6 5 5 6 5 5 6 5 5 5 5 6 5 5 6 5 5 5 5 5 5 6 5 5 5 5 5 5 5 5 5 6 5 5 5 5 5 5 5 5 5 5 5 5 5 5 5 5 5 5 5 5 6 5 5 5 5 5 5 6 5 5 5 5 5 6 5 5 5 5 5 6 5 5 5 5 5 5 5 5 5 5 5 5 5 5 5 6 5 5 6 5 6 5 5 5 5 6 6 5 6 6 5 5 5 5 5 5 6 5 5 5 5 5 5 5 5 6 6 5 5 6 6 5 5 5 5 5 6 5 6 6 5 5 5 5 5 5 5 5 5 5 6 6 5 5 5 5 6 6 5 5 5 5 5 5 5 5 6 5 5 5 5 5 5 5 5 5 5 5 5 5 6 5 6 5 5 5 5 5 5 5 5 5 5 6 5 5 6 5 5 5 5 5 5 5 5 5 5 6 6 5 6 5 5 5 5 5 5 6 5 5 5 5 5 6 5 6 5 5 6 5 5 5 5 5 5 5 5 6 6 5 5 5 6 5 5 5 5 5 5 6 5 5 5 5 5 6 5 5 6 5 5 5 5 6 5 5 6 6 5 5 5 6 5 6 6 5 5 5 5 6 5 5 5 5 5 6 5 5 6 5 5 5 5 6 5 5 6 5 5 6 5 6 5 5 5 5 5 5 6 5 5 5 5 5 5 5 5 5 5 6 5 5 6 5 5 5 5 5 5 5 6 5 5 5 5 5 5 5 6 5 5 5 5 5 5 5 5 5 6 5 5 5 5 5 5 5 5 5 5 5 5 5 6 6 5 5 5 5 5 5 6 5 6 5 5 6 5 5 5 5 6 5 5 5 5 5 5 5 5 5 5 5 5 5 5 5 5 5 5 5 5 5 5 5 5 5 5 5 5 5 5 5 6 5 5 5 5 5 5 5 5 5 5 5 5 6 5 5 5 5 5 5 5 5 5 5 6 5 5 5 5 6 5 6 5 5 5 5 6 5 5 5 5 5 5 5 5 5 5 5 5 5 5 5 5 5 5 5 5 5 5 5 5 5 5 5 6 5 5 5 5 5 5 5 5 5 5 5 5 5 6 5 5 6 5 5 5 5 5 5 6 5 5 5 5 5 5 5 5 5 5 5 5 5 5 6 5 5 6 5 5 5 5 5 6 5 5 5 5 5 5 5 5 5 5 5 5 5 5 5 5 5 5 5 5 5 5 5 5 6 5 5 5 5 5 6 5 5 5 6 5 5 5 5 5 5 5 5 5 5 5 5 5 5 5 5 5 5 5 5 6 5 5 5 5 6 5 5 5 5 5 5 5 5 5 5 5 5 5 5 6 5 6 5 5 5 6 5 5 5 6 5 5 5 5 5 6 5 5 6 5 5 5 6 5 6 5 5 5 5 5 5 5 5 5 5 5 5 5 5 6 5 5 6 5 5 5 5 5 5 5 5 6 5 6 5 5 6 5 5 5 5 5 5 5 5 6 6 5 5 5 5 5 5 5 5 5 5 5 5 5 5 5 6 5 5 6 5 5 5 6 5 5 5 5 5 5 5 6 6 5 5 5 5 5 5 6 5 5 5 5 5 5 5 5 5 5 5 5 5 5 5 5 5 5 5 6 5 5 5 6 5 5 5 6 5 5 5 5 6 5 5 6 5 5 5 5 5 5 5 5 5 5 5 5 5 5 5 5 5 5 5 5 6 6 5 5 5 5 6 5 5 5 5 5 5 5 6 5 5 5 5 5 5 5 5 5 5 5 5 5 5 5 5 5 5 6 5 5 5 5 5 5 5 6 5 6 5 6 5 5 5 5 6 5 5 5 5 6 5 5 5 5 5 5 5 5 5 5 5 5 5 5 6 5 5 5 5 5 5 5 5 6 5 5 5 5 5 6 6 5 5 5 5 5 5 6 5 5 5 6 5 5 5 6 5 5 5 5 5 5 5 5 5 5 5 5 5 5 5 6 5 5 5 5 5 6 5 5 5 5 5 5 5 5 5 5 5 5 5 5 5 5 5 5 5 5 5 5 5 5 5 6 5 5 5 5 5 6 5 5 6 5 5 5 5 5 5 6 5 5 5 5 6 5 6 5 5 5 5 5 5 5 5 5 6 5 5 5 5 5 5 6 5 5 5 5 5 5 6 5 5 5 6 5 5 5 5 5 5 5 5 5 6 5 5 6 5 5 5 5 5 5 5 6 5 5 5 5 5 5 6 5 5 5 5 5 5 6 5 5 5 5 5 5 5 5 5 5 5 5 5 5 5 5 5 6 5 5 5 5 5 6 5 6 5 5 5 5 5 5 5 5 5 6 5 5 6 5 5 5 5 5 5 5 5 5 5 5 5 5 5 5 5 5 5 5 6 5 5 5 5 5 5 5 5 5 5 5 5 5 5 5 5 5 5 5 5 5 6 5 5 5 5 6 6 5 5 5 6 5 5 5 6 5 5 5 6 5 5 6 5 5 5 5 5 5 5 5 5 5 5 5 5 5 5 5 5 5 5 5 5 5 5 5 5 5 5 5 5 5 5 5 5 5 5 5 5 5 5 5 5 5 5 5 5 5 5 5 5 5 5 5 5 6 5 5 5 5 5 5 6 6 5 5 5 5 5 5 5 5 5 5 5 5 5 5 5 5 5 5 5 5 5 5 5 5 6 5 5 5 5 5 5 5 5 5 6 5 5 5 5 5 5 5 6 5 5 5 5 5 5 5 5 5 5 5 6 5 5 5 5 5 5 5 5 5 5 5 5 5 5 6 5 5 6 5 5 5 5 5 5 5 6 5 5 6 5 5 5 5 5 5 5 5 5 5 5 5 5 5 5 5 5 5 5 5 5 5 5 5 5 5 5 5 5 5 5 5 5 5 5 5 5 5 5 5 5 5 5 5 5 5 5 5 6 5 5 5 5 5 5 5 5 5 5 5 5 5 5 5 5 5 5 5 5 5 5 6 5 6 5 5 5 6 5 5 5 5 5 5 5 6 5 5 6 5 5 5 5 5 6 5 5 5 5 5 5 5 5 5 5 6 5 5 5 5 5 5 5 5 5 5 5 5 5 5 5 5 5 5 6 5 5 5 5 5 5 5 5 5 5 6 5 5 5 6 5 5 5 5 5 6 5 5 5 6 5 5 5 5 5 5 5 5 5 5 5 5 6 6 5 5 5 5 5 5 5 5 5 6 5 5 5 5 6 5 5 5 5 5 5 5 5 5 5 5 5 5 6 5 6 5 5 5 5 5 5 5 5 5 5 5 5 5 5 6 5 6 5 5 5 5 5 5 5 5 5 6 5 5 5 5 5 5 5 5 5 6 5 5 5 6 5 6 5 5 5 5 5 5 5 6 5 5 5 6 5 5 5 5 5 5 5 5 5 5 5 6 5 5 6 5 5 5 6 6 5 5 5 6 5 5 5 5 5 6 5 6 5 5 5 5 5 5 5 5 6 5 5 6 5 5 5 5 6 5 6 5 5 5 5 5 5 5 5 5 5 6 5 5 5 5 5 5 5 5 5 5 5 5 5 5 5 5 5 5 5 6 5 5 5 5 6 6 5 5 5 5 5 5 5 5 6 5 5 5 5 6 5 5 6 5 5 5 6 5 6 6 5 5 5 5 5 5 5 5 5 5 5 5 5 5 5 5 5 5 5 5 5 5 5 5 5 5 5 5 5 5 6 5 6 5 5 6 5 5 6 5 5 5 6 5 5 5 5 6 5 6 6 5 6 5 5 6 5 6 5 5 6 5 6 5 5 6 5 5 6 5 5 5 6 5 5 5 5 5 5 6 5 5 5 5 5 6 6 5 5 5 6 5 5 5 5 5 5 5 5 5 5 5 5 5 5 5 6 5 5 5 6 5 5 5 5 5 6 6 6 5 5 6 6 5 5 5 5 6 5 5 6 6 5 5 6 5 6 5 6 5 5 6 5 5 5 5 6 5 5 5 5 5 5 5 5 5 5 5 5 5 5 5 5 5 5 5 5 5 5 5 5 5 5 6 5 6 5 6 6 5 6 5 6 5 5 6 5 5 6 5 5 5 5 5 5 6 5 5 5 5 5 5 5 5 5 5 5 5 5 5 5 5 5 5 5 5 5 5 5 5 5 5 5 5 5 6 5 6 5 5 5 5 5 5 6 5 5 6 6 5 5 5 5 5 5 5 5 5 5 5 5 5 6 5 5 5 5 5 5 5 5 6 5 5 5 5 5 5 5 5 5 5 5 5 5 5 5 5 6 5 5 5 5 5 5 5 5 5 5 5 5 5 5 5 5 5 5 5 5 5 5 5 5 5 5 5 5 5 5 5 5 5 5 5 5 5 5 5 5 5 5 5 5 5 5 5 5 5 5 5 5 5 5 5 5 5 5 5 5 5 5 5 5 5 5 5 5 5 5 5 5 5 5 5 5 5 5 5 5 5 5 6 5 6 5 5 6 5 5 5 5 5 5 5 6 5 5 5 6 6 5 5 6 5 5 5 5 5 5 6 5 6 5 5 5 5 6 5 5 5 5 5 5 5 5 5 5 5 5 5 5 5 5 5 5 6 5 5 6 5 6 5 5 6 5 5 5 5 5 5 5 6 5 5 6 5 6 5 6 5 6 5 5 5 5 5 5 5 6 5 5 5 5 5 5 6 6 5 5 5 6 5 5 5 5 5 6 5 5 5 5 5 5 5 6 5 5 5 6 5 6 5 6 6 5 5 6 5 5 6 5 5 5 6 5 5 5 5 5 5 5 6 5 5 5 5 5 5 5 5 5 5 5 6 5 6 5 6 5 6 5 5 5 5 5 6 5 5 6 5 5 5 6 5 5 5 5 5 6 6 5 5 5 5 6 5 6 6 5 5 5 5 5 6 5 5 5 5 5 6 5 5 5 5 5 5 6 5 6 5 6 5 5 5 5 5 5 5 5 5 5 5 5 5 5 5 5 5 5 5 5 5 6 5 6 5 5 5 5 5 6 5 5 6 5 5 5 5 5 5 5 5 5 5 5 5 5 5 5 6 5 5 5 5 5 5 5 5 5 5 5 5 5 5 5 5 6 5 5 5 5 5 5 5 5 6 5 5 6 5 5 5 6 5 5 5 6 5 5 5 5 5 5 5 5 5 5 5 5 5 5 5 5 6 5 5 5 6 5 5 5 6 5 5 5 5 5 5 5 5 5 5 5 5 5 5 6 5 5 5 5 5 6 5 5 5 5 5 5 5 5 5 5 5 5 5 5 6 5 5 5 5 6 5 5 5 5 5 6 6 6 5 5 5 5 5 5 5 5 5 5 5 5 5 5 5 5 5 5 5 5 5 5 5 5 5 6 5 5 5 5 5 6 5 5 5 5 5 5 5 5 5 5 5 5 5 5 5 5 5 5 5 5 5 5 5 5 5 5 5 5 5 5 5 5 5 5 5 5 5 5 5 5 5 5 5 5 5 6 5 5 5 5 5 5 5 5 5 5 5 5 5 5 5 5 5 5 5 5 5 5 5 5 5 5 5 5 5 5 5 5 5 5 5 5 5 5 5 5 5 5 5 5 5 6 5 6 5 5 5 5 5 5 5 5 6 6 6 5 5 6 5 6 6 5 5 5 5 5 6 6 5 5 5 6 5 5 5 5 6 5 5 5 5 6 6 5 5 5 5 5 5 5 5 6 6 5 5 6 5 5 5 6 5 6 5 6 5 5 6 6 6 5 5 5 5 5 5 5 5 6 5 5 5 5 6 6 5 5 5 5 5 5 5 5 6 5 5 5 5 6 5 5 5 5 5 5 5 5 5 5 5 5 5 6 5 5 5 6 5 5 6 5 6 5 5 5 5 5 5 5 5 5 5 5 5 5 5 5 5 5 5 5 5 5 5 5 5 5 5 5 5 5 5 5 5 5 5 5 5 5 5 5 5 5 5 6 5 5 5 5 5 5 5 5 5 5 5 5 5 6 5 5 5 5 5 5 5 5 5 5 5 5 5 5 5 5 5 5 5 5 5 5 5 5 5 5 5 5 5 5 5 5 5 5 5 5 5 5 5 5 5 5 5 5 5 6 5 5 5 5 6 6 5 5 5 6 5 5 6 5 5 5 5 5 5 5 5 5 5 5 5 5 5 5 5 5 5 5 5 5 5 5 5 5 5 5 5 5 6 5 5 5 5 6 5 5 5 6 5 5 5 5 5 5 5 5 5 6 5 6 5 5 5 6 5 5 5 5 5 5 5 5 5 5 5 6 5 5 5 6 5 5 6 5 5 6 5 5 5 5 5 6 5 6 6 5 5 5 5 5 5 5 5 5 5 5 5 5 5 5 5 5 5 5 5 5 5 5 5 6 6 5 5 6 5 5 5 5 5 6 5 5 5 5 6 5 5 6 5 5 5 5 5 5 6 6 5 5 6 6 5 6 5 5 5 6 6 6 5 5 5 5 5 6 5 6 5 5 5 6 5 5 5 5 5 5 5 6 6 5 6 5 5 5 5 6 5 5 5 6 6 5 5 5 5 5 5 5 5 5 5 5 5 6 5 5 5 5 5 5 5 5 5 5 5 5 5 5 5 5 5 5 6 5 5 5 5 5 5 6 5 5 5 5 5 5 5 5 5 5 5 5 5 6 5 5 5 5 6 5 5 5 6 5 5 5 5 5 5 5 6 5 5 5 5 5 5 5 5 5 5 5 5 5 5 5 5 5 5 5 5 5 5 5 5 5 5 5 5 5 5 5 5 5 5 6 6 5 5 5 5 5 5 5 5 5 5 5 5 5 5 5 5 5 5 5 5 5 6 5 5 5 5 5 5 5 6 5 6 5 5 5 6 5 5 6 5 5 5 5 5 5 5 5 5 5 5 5 5 6 5 5 5 6 5 6 5 5 5 5 5 5 5 5 5 6 5 6 5 6 5 5 5 6 5 5 5 5 6 5 5 6 5 5 5 5 5 5 5 5 5 5 5 5 5 5 5 6 5 5 5 5 5 5 6 5 5 5 6 5 5 5 6 5 5 6 6 5 5 6 5 6 5 5 5 5 5 5 6 5 6 5 5 5 5 5 5 6 5 5 5 5 5 5 5 5 5 5 5 5 5 5 6 5 5 5 5 6 5 5 5 6 5 5 5 5 5 5 5 5 5 5 5 5 6 5 6 5 5 5 5 5 5 5 5 5 5 5 5 6 5 5 5 5 6 5 5 5 5 6 6 5 5 6 5 6 6 5 6 5 6 5 5 5 5 5 5 5 5 5 5 5 5 6 5 5 5 5 6 6 5 5 5 5 5 5 5 5 5 6 5 5 6 5 5 5 6 5 5 5 5 5 5 5 5 5 5 5 5 5 5 5 5 5 5 5 5 5 5 5 6 5 5 5 5 5 5 5 5 5 5 5 5 5 5 5 5 5 5 5 5 5 6 5 5 5 5 5 5 5 5 5 5 6 5 5 6 5 5 5 5 6 5 5 5 5 5 6 5 5 5 5 5 5 5 5 5 5 5 5 5 5 5 5 5 5 5 5 6 5 6 5 5 6 5 5 5 5 5 5 5 5 5 5 5 5 5 5 5 5 5 5 5 5 5 5 5 5 5 5 5 5 5 5 5 5 5 5 5 5 6 5 6 5 5 5 5 5 5 5 5 6 5 6 5 5 5 5 5 5 5 5 5 5 5 5 5 5 5 5 5 5 5 5 6 6 5 5 6 6 5 5 5 5 6 5 5 5 5 5 5 5 5 5 5 5 5 5 5 5 5 5 5 5 5 5 5 5 5 5 5 5 5 5 5 6 5 6 5 5 5 6 5 5 5 5 5 5 5 5 5 5 5 5 5 5 5 5 5 5 5 5 6 5 5 5 5 6 5 5 6 5 5 5 5 5 6 6 5 5 5 6 5 5 5 5 5 5 5 5 6 5 5 5 5 5 5 5 5 5 5 5 5 5 5 5 5 5 6 5 5 5 5 5 5 5 5 5 5 5 5 5 6 5 5 5 5 5 5 5 5 5 5 5 6 5 5 5 5 5 5 5 5 5 5 5 5 6 5 5 5 5 5 5 5 5 5 5 6 5 5 5 6 5 6 5 5 5 5 5 6 5 5 5 5 5 5 5 6 5 6 5 5 6 5 5 5 5 6 5 6 5 5 5 5 5 6 6 5 5 5 5 5 5 5 5 5 5 5 6 5 6 5 5 5 5 6 5 5 5 5 5 5 5 6 6 5 6 5 5 6 5 5 5 5 5 6 5 5 5 5 5 5 5 5 5 6 5 6 5 5 6 5 5 5 5 5 5 6 5 5 5 5 6 5 5 5 6 6 5 5 5 5 6 5 5 5 6 5 5 5 5 5 5 5 5 5 5 6 5 5 5 5 5 6 5 5 5 5 5 5 5 5 6 5 5 5 5 5 5 5 5 5 5 5 5 6 5 6 6 5 5 6 6 5 5 5 5 5 6 5 6 5 5 5 6 6 5 5 5 5 5 5 5 5 5 5 5 5 5 5 5 5 5 5 5 5 5 5 5 5 5 5 5 5 5 5 5 5 5 5 5 5 5 5 5 5 5 5 5 6 5 5 5 5 6 5 5 5 5 5 5 5 5 6 5 5 5 6 5 5 6 5 5 5 5 5 5 5 5 6 5 5 6 5 5 5 5 5 5 6 5 5 6 5 5 5 5 6 5 5 5 5 5 5 5 5 5 5 6 5 5 5 5 5 5 5 5 5 5 6 5 5 5 5 5 5 5 5 5 5 5 5 5 5 5 5 5 5 5 5 5 5 5 5 5 5 5 5 5 5 5 6 6 5 5 6 5 5 5 5 6 5 5 5 5 6 6 5 5 5 5 6 5 5 5 5 5 5 5 5 5 5 5 6 5 5 5 6 5 5 5 5 5 5 6 5 5 5 6 6 5 5 5 5 5 5 5 6 5 5 5 6 5 6 5 5 5 5 5 5 5 5 5 5 5 5 5 5 5 5 5 5 5 5 5 5 5 5 5 5 5 5 6 5 5 5 5 5 5 5 5 5 6 5 5 5 5 5 5 5 5 5 5 5 5 6 5 5 5 5 5 5 5 5 5 6 6 5 5 5 5 5 6 5 5 5 6 5 6 5 5 5 5 5 5 5 5 5 5 5 5 5 5 5 5 5 5 5 5 5 5 5 5 5 6 5 5 6 5 5 5 5 5 5 6 5 5 5 5 5 5 5 5 5 5 5 5 5 5 5 5 5 5 5 5 5 5 5 5 6 5 5 6 5 5 5 5 5 5 5 5 6 5 5 5 5 5 5 5 5 5 5 5 5 5 5 5 5 5 5 5 5 5 5 5 5 5 5 5 6 5 5 5 5 6 6 5 5 6 5 5 5 5 5 5 5 5 6 6 5 5 5 6 5 5 5 5 5 5 5 6 5 5 6 5 5 5 5 5 5 5 5 6 5 5 5 5 5 6 5 5 6 5 5 6 5 5 5 5 6 6 6 5 5 5 5 5 6 5 5 6 5 5 5 5 5 5 5 5 5 5 5 5 5 5 6 5 6 5 5 5 5 5 6 5 5 5 5 5 5 5 6 6 5 5 5 5 5 5 5 5 5 5 5 5 5 5 5 5 5 5 6 5 5 5 6 5 5 5 5 5 5 5 5 6 5 6 5 5 5 5 5 5 5 5 5 5 6 5 5 5 5 5 5 5 5 5 5 5 5 5 5 5 5 6 6 5 5 5 6 5 5 5 5 6 5 5 5 5 6 5 5 5 5 5 5 5 5 6 5 5 5 6 5 5 5 5 5 5 5 5 5 5 5 5 5 5 5 5 5 5 6 5 5 5 5 6 5 5 5 5 5 5 5 5 5 5 5 5 5 5 5 5 5 6 5 6 5 5 5 5 6 5 5 6 5 6 6 5 5 5 5 5 5 6 5 6 5 5 5 5 5 5 5 6 5 5 5 5 5 6 5 5 5 6 5 5 6 5 5 5 5 5 5 5 5 6 5 5 6 5 5 5 5 5 5 5 5 5 5 5 5 5 5 5 5 5 5 5 5 5 5 5 5 5 5 5 5 5 5 5 6 5 5 5 5 5 5 5 6 5 6 5 5 5 5 6 5 5 5 5 6 5 5 5 5 5 6 5 5 5 5 5 5 5 5 5 5 6 6 5 5 5 6 5 5 5 5 6 5 5 5 5 5 5 5 6 6 6 5 5 5 5 5 5 5 5 5 5 5 5 6 5 6 5 5 5 5 5 5 5 5 5 5 5 5 5 5 5 6 5 5 5 5 5 5 6 5 5 5 5 5 5 5 5 5 5 5 5 5 5 5 5 5 5 5 5 5 5 5 5 5 6 5 5 6 5 5 5 6 5 6 6 5 5 5 6 5 5 5 5 5 5 6 5 5 5 6 6 5 6 5 5 5 5 5 5 5 6 5 5 5 5 5 5 6 5 5 5 5 5 6 5 5 5 5 5 5 5 5 5 5 5 5 5 5 5 5 5 5 5 5 5 5 5 5 5 5 5 5 6 5 5 5 6 5 5 5 5 5 6 5 5 6 5 6 5 5 5 5 5 5 5 5 5 5 5 5 5 5 6 5 5 6 5 5 5 5 5 5 5 5 5 5 5 5 5 5 6 5 5 5 5 5 6 5 5 5 5 5 5 5 5 5 5 5 5 5 5 5 5 5 5 5 5 5 5 5 5 5 5 5 5 5 5 5 5 5 5 5 5 5 5 5 5 5 5 5 5 5 5 5 5 5 5 5 5 5 5 5 5 5 5 5 5 5 5 5 5 5 5 5 6 5 6 5 5 5 5 5 5 5 6 5 5 5 6 5 6 5 5 5 6 5 5 6 5 5 5 5 5 5 6 5 5 5 5 5 5 5 5 5 5 5 5 5 5 5 5 5 6 5 5 5 5 5 6 5 5 6 5 5 6 6 5 5 5 5 5 5 5 5 6 5 5 5 5 5 5 5 5 5 5 5 5 5 5 5 5 5 5 5 5 5 5 5 5 5 5 5 5 5 5 5 5 5 5 5 5 5 5 5 5 5 5 5 5 5 5 5 5 5 5 5 5 5 5 5 5 6 5 5 5 5 5 5 6 5 5 5 6 6 5 5 5 5 5 5 5 5 5 5 5 5 5 5 5 5 6 5 5 5 5 5 5 5 6 5 5 5 5 6 5 5 5 5 5 5 6 5 5 5 5 5 5 6 5 5 5 5 5 5 6 5 5 5 5 5 5 5 5 5 5 5 5 5 5 5 5 5 5 5 6 5 5 5 6 5 5 6 5 5 6 5 5 5 5 5 5 5 5 5 5 5 5 5 5 5 5 5 5 5 6 5 6 5 6 5 5 6 5 6 5 5 5 6 5 5 6 5 5 6 6 6 6 5 5 6 6 5 5 5 5 6 6 5 5 6 6 5 5 6 6 5 5 5 5 5 5 5 5 5 5 5 5 5 5 5 5 5 5 5 5 5 5 5 5 5 5 5 5 6 5 6 5 5 6 5 5 5 6 5 5 5 5 5 5 5 5 5 5 6 5 5 5 5 5 5 5 5 5 5 5 6 5 5 5 5 5 5 5 5 5 5 5 6 5 5 5 5 5 5 5 5 5 6 5 5 6 5 6 5 5 5 6 5 5 5 5 6 5 5 5 5 5 5 5 5 5 5 5 5 5 5 5 5 5 5 5 5 5 5 5 5 5 5 5 5 5 6 5 5 5 6 5 5 5 5 5 6 5 5 5 5 6 5 5 5 6 5 5 5 5 6 5 5 6 5 5 5 6 5 5 5 5 6 6 6 5 5 5 5 5 6 5 5 5 5 5 5 5 5 6 5 5 5 5 5 5 5 6 5 5 5 5 5 5 6 5 5 6 6 5 5 5 5 5 5 5 5 5 6 5 5 5 5 5 5 6 5 5 5 5 5 5 5 5 5 5 5 5 5 5 5 5 5 5 5 5 5 5 5 5 5 5 5 5 5 5 5 5 6 5 5 5 5 5 5 5 5 5 5 6 5 5 5 5 5 5 5 5 5 6 6 5 6 5 5 5 5 6 5 5 5 5 5 5 6 5 5 5 5 5 5 5 6 5 5 5 5 6 5 5 5 6 5 5 5 5 5 5 6 5 5 5 5 5 5 5 5 5 5 5 6 5 5 5 5 5 5 5 5 5 5 5 5 5 5 5 5 5 5 5 5 5 5 5 5 5 5 5 5 5 5 5 5 5 5 5 5 5 5 5 5 5 5 5 5 5 6 5 5 5 5 5 5 5 5 5 5 5 5 5 5 5 5 5 5 5 5 5 5 5 6 5 5 5 5 5 5 5 5 5 5 6 5 5 5 5 5 6 5 6 5 5 5 5 5 5 5 5 5 5 5 5 5 5 5 5 6 5 5 5 5 5 5 5 6 5 5 5 5 5 5 5 5 5 5 5 5 5 5 5 6 5 5 5 5 5 5 5 5 5 5 5 5 5 5 5 5 5 6 5 6 5 5 6 5 5 6 5 5 5 6 5 6 5 6 5 5 5 6 5 5 5 5 5 5 5 6 5 5 5 5 5 5 5 5 5 5 5 5 6 6 5 5 5 5 6 5 5 5 6 5 6 5 5 5 5 6 5 5 5 5 5 6 5 6 6 5 5 5 5 5 5 6 5 5 6 6 5 5 5 6 5 5 6 6 5 6 5 5 5 5 6 5 5 5 5 5 5 5 5 5 5 5 5 5 5 5 5 5 5 5 5 5 5 5 5 5 5 5 6 5 5 6 5 6 5 5 6 5 5 5 6 5 6 5 5 5 5 5 5 5 5 5 5 5 5 5 5 5 5 5 5 5 5 6 5 6 5 5 5 5 5 5 5 5 5 5 5 5 5 5 5 5 5 5 5 5 5 5 5 5 5 5 5 5 5 5 5 5 5 5 5 5 5 5 5 5 5 5 5 5 5 5 5 5 5 5 5 5 5 5 5 5 5 5 5 5 5 5 5 5 5 5 5 5 5 5 6 5 5 5 5 5 5 5 5 5 6 5 5 5 6 5 6 6 5 5 5 5 6 5 5 5 5 5 5 5 5 5 5 5 5 5 5 5 5 5 5 5 5 5 5 5 5 5 5 5 5 5 5 5 6 5 5 6 5 5 5 6 5 5 5 5 5 5 6 5 6 5 5 5 5 5 6 5 5 6 5 5 5 5 5 5 5 5 5 5 5 6 5 5 5 6 5 5 6 5 5 6 5 5 5 5 5 5 5 6 6 5 5 5 5 5 5 6 5 5 5 5 5 5 5 5 5 5 5 5 5 5 5 5 5 5 5 5 6 5 6 5 5 5 5 6 5 5 5 5 5 5 5 6 5 5 5 5 5 5 5 5 5 5 5 5 6 6 5 5 5 5 5 5 5 5 5 5 6 5 5 5 5 5 5 5 5 5 5 5 5 5 6 5 5 5 5 5 5 5 5 5 6 5 5 5 6 6 5 5 5 5 5 6 5 5 5 5 6 5 5 5 6 5 5 6 5 5 5 5 6 5 5 6 5 6 5 5 5 5 6 5 5 5 5 5 6 5 6 6 6 5 5 5 5 5 5 6 5 5 5 5 6 5 6 5 5 5 5 5 5 5 5 6 5 6 5 5 6 5 6 5 5 5 6 6 5 6 5 5 5 6 6 5 5 5 5 5 5 5 5 5 5 6 6 5 6 5 5 5 6 5 6 6 5 5 5 6 5 5 5 5 5 6 5 5 6 5 5 5 6 5 5 5 6 5 5 5 5 5 5 5 5 5 6 5 5 5 6 6 5 5 5 5 5 5 5 6 5 5 5 5 5 5 5 5 5 5 5 5 5 5 5 5 5 5 5 5 6 5 6 5 6 5 5 6 5 5 6 5 5 5 5 5 5 5 5 5 5 5 5 5 5 5 5 5 5 5 5 5 5 5 5 5 5 5 5 5 5 5 5 5 5 5 5 5 5 5 5 5 6 5 5 5 6 5 5 5 5 5 5 5 5 5 5 5 5 5 5 5 5 5 5 5 5 5 5 5 5 5 5 5 6 5 5 5 5 5 5 5 5 5 6 5 5 5 5 5 6 6 5 5 5 5 5 5 5 5 5 5 5 5 5 5 5 5 5 6 5 5 5 5 5 5 5 6 5 5 6 5 6 5 5 6 5 5 5 6 5 5 5 6 5 6 6 5 5 6 5 5 5 6 5 6 5 5 5 5 5 5 6 5 5 5 6 5 5 5 6 5 5 5 5 5 5 6 5 5 6 5 5 5 5 5 5 5 5 5 5 5 5 5 5 5 5 6 5 5 5 5 5 5 5 6 5 5 5 5 5 5 5 5 5 5 5 5 6 5 5 5 5 5 5 5 5 5 5 5 5 6 5 5 5 5 5 5 5 5 6 5 5 5 6 5 5 5 6 5 5 5 5 5 6 5 5 6 5 5 5 5 5 5 5 5 5 5 5 5 5 6 6 5 6 5 5 5 5 5 5 5 5 6 5 6 5 5 5 5 6 5 5 5 5 5 5 5 5 5 5 5 5 5 5 5 5 5 5 5 5 5 5 5 5 5 5 5 5 5 5 5 5 5 5 5 5 5 5 5 5 5 5 5 5 5 5 5 5 5 6 5 5 6 5 5 5 5 5 5 5 5 6 6 5 5 5 6 6 5 5 5 5 5 6 5 5 5 5 5 5 5 5 5 5 5 6 5 5 5 5 5 5 5 6 5 5 5 5 5 5 6 5 5 6 6 5 5 5 5 6 5 5 5 5 5 5 5 5 6 5 5 5 5 5 5 5 5 5 5 5 5 6 5 5 6 5 5 5 5 5 6 6 5 5 5 5 5 5 5 5 5 5 5 5 5 5 5 5 5 5 6 5 5 5 5 5 5 5 5 5 5 5 5 5 5 5 5 6 5 5 5 5 6 5 5 6 5 5 5 6 5 5 5 5 5 5 5 5 5 5 5 5 5 5 5 5 5 5 5 5 5 5 5 5 6 5 5 5 5 5 5 6 5 6 6 5 6 5 5 5 6 5 5 5 6 5 6 5 5 6 6 5 5 5 5 5 5 5 6 6 6 5 6 5 5 5 5 5 5 5 5 5 6 5 6 5 5 5 5 5 5 5 6 5 5 6 5 5 6 5 5 6 6 5 5 5 6 5 6 6 5 5 6 6 5 6 5 5 5 5 5 5 5 6 6 5 5 5 5 5 5 6 5 6 5 5 6 5 5 5 6 5 6 5 5 5 5 5 6 5 5 5 5 5 5 5 6 6 5 5 5 5 6 5 6 6 5 5 5 5 5 5 5 6 5 5 5 5 6 5 5 5 5 5 5 5 5 6 5 5 5 5 5 5 6 6 5 5 5 5 5 5 5 5 5 5 6 6 5 6 5 6 5 5 5 5 5 5 6 5 5 5 5 5 5 5 5 5 5 6 5 5 6 5 5 5 5 5 5 5 5 5 6 5 5 5 6 5 5 5 5 6 5 5 5 6 5 5 5 6 5 6 5 6 5 5 5 6 5 6 5 5 5 5 5 5 5 5 5 6 5 6 5 6 5 5 5 5 5 5 5 5 5 5 5 5 5 5 6 5 5 5 5 5 6 5 5 5 5 5 5 5 5 5 5 5 5 5 5 6 5 5 6 5 5 5 5 6 5 5 5 5 5 5 6 6 5 5 5 5 5 6 5 5 5 5 5 6 5 5 5 6 6 5 6 5 5 5 5 5 5 6 6 5 5 5 6 5 5 5 5 5 5 5 5 5 5 6 5 5 5 6 5 5 6 5 5 5 5 6 5 6 5 6 5 5 5 5 5 5 5 5 6 5 5 6 5 5 5 5 6 6 5 5 5 5 5 5 5 5 6 5 6 5 5 5 5 5 5 5 5 6 5 5 5 5 5 6 6 5 5 5 5 5 5 5 5 5 5 5 5 5 5 5 5 5 5 5 5 5 5 6 5 5 5 5 5 5 6 5 5 5 5 6 5 5 5 5 5 6 5 5 5 5 5 5 5 5 5 5 6 5 6 5 5 5 5 5 5 5 5 5 5 6 5 5 6 5 5 5 5 5 5 5 5 5 5 5 5 5 5 5 5 5 5 5 6 6 5 5 5 5 5 5 5 6 5 5 5 5 5 5 5 5 5 5 5 5 5 5 5 5 5 5 5 6 5 5 5 5 6 5 5 5 5 5 6 5 5 5 5 5 5 5 6 5 5 5 6 5 5 5 5 5 5 5 5 5 5 5 5 5 5 5 5 5 5 5 5 5 5 6 5 5 5 5 5 5 5 5 5 6 5 5 5 5 5 5 5 5 5 5 5 5 6 5 6 5 5 5 5 5 5 5 5 5 5 5 5 5 5 5 5 6 5 5 5 5 5 6 5 5 5 5 5 5 5 5 5 5 6 5 5 5 5 5 6 5 5 5 5 5 5 5 5 5 5 6 5 6 5 5 5 5 6 5 5 6 6 5 5 5 5 5 5 6 5 5 6 5 5 6 5 6 5 5 5 5 5 5 5 5 5 6 5 6 5 5 5 5 5 5 6 5 5 6 5 5 5 5 6 5 5 6 6 5 5 5 5 5 5 5 5 5 5 5 5 5 5 6 5 5 5 5 6 5 5 5 5 6 5 5 5 5 5 6 5 5 5 5 5 6 5 6 5 5 6 6 6 5 5 5 5 6 5 5 6 5 6 5 5 5 6 5 5 6 5 5 5 5 6 5 5 5 5 5 6 5 6 5 5 6 5 5 5 5 6 5 6 5 5 5 6 6 5 5 6 5 5 5 5 6 6 5 5 5 6 5 6 5 5 6 5 6 6 5 6 5 5 5 5 5 5 6 6 5 6 6 5 5 6 5 6 5 5 6 5 5 6 5 5 5 5 5 6 6 6 5 5 5 6 5 5 5 5 5 5 6 5 6 5 5 5 5 6 5 5 5 5 5 5 5 5 5 5 5 5 5 5 5 5 5 5 5 5 5 5 6 5 5 5 5 5 6 5 5 5 5 5 6 5 5 5 5 6 5 5 6 5 5 5 5 6 5 5 5 6 5 5 5 5 6 5 6 5 5 5 5 5 5 5 5 5 5 5 5 5 5 5 5 5 5 5 5 5 5 5 5 5 5 5 5 5 5 5 5 5 5 5 6 5 5 5 5 5 5 5 5 5 5 5 5 5 5 5 5 5 5 5 5 5 5 5 5 5 5 5 5 5 5 5 5 5 5 5 5 5 5 5 6 5 5 5 6 5 5 5 6 5 5 5 5 6 5 5 5 5 5 5 6 5 6 5 5 5 6 6 5 5 5 5 5 6 5 5 6 5 5 5 6 5 6 5 5 5 5 5 5 5 5 5 6 5 5 5 5 5 5 5 5 5 5 5 5 5 5 5 5 5 5 5 5 5 5 6 5 5 5 5 5 5 5 5 6 5 5 5 5 5 5 5 5 5 5 6 5 5 5 6 5 5 5 5 5 5 5 6 5 5 5 5 5 5 6 5 5 5 6 5 5 5 6 5 5 5 5 6 5 5 5 5 5 5 5 5 5 6 5 5 6 5 5 6 5 5 5 5 5 5 5 5 6 5 5 5 5 6 5 5 5 6 5 5 5 5 5 5 5 5 5 5 5 5 5 5 5 6 5 5 5 5 5 5 5 5 5 5 6 5 5 5 5 6 5 5 5 5 5 5 5 5 5 5 5 5 5 5 5 5 5 5 5 5 5 5 5 5 5 5 5 5 5 6 5 5 5 5 5 5 6 5 5 5 5 6 5 5 5 5 5 5 5 6 6 6 5 5 5 5 5 5 5 5 5 6 5 5 5 6 5 5 5 6 5 6 5 6 5 5 5 5 5 5 5 5 5 5 5 5 5 6 5 5 5 5 5 5 5 5 5 5 5 5 5 5 6 5 5 5 5 5 6 5 5 6 5 5 5 5 5 5 5 5 5 5 5 5 6 5 5 5 5 5 5 5 5 5 5 5 6 5 5 5 6 5 5 5 5 5 6 5 5 5 5 5 6 6 5 5 5 5 5 5 5 5 5 5 5 6 5 5 6 5 5 5 6 5 5 6 6 5 5 6 5 5 5 6 5 6 6 5 5 5 5 5 6 5 6 5 5 5 5 5 5 5 5 5 5 5 5 5 5 5 5 5 5 6 5 5 5 5 6 5 5 5 6 5 5 5 6 5 5 5 5 5 5 5 5 5 5 5 6 5 5 5 5 5 5 5 6 5 5 6 5 5 5 5 6 6 5 5 5 5 5 5 6 5 5 6 5 5 6 5 5 5 5 5 5 5 6 6 5 5 5 5 5 6 6 5 5 5 5 5 5 5 5 5 5 5 5 6 5 5 5 5 5 6 5 6 5 5 5 5 5 5 5 5 5 5 5 5 5 5 5 6 5 5 5 6 6 5 5 5 5 5 5 6 5 5 5 6 5 5 5 6 6 5 5 5 5 6 6 5 5 5 5 5 5 5 5 5 6 6 5 5 5 5 6 5 5 6 5 5 5 5 6 5 5 5 5 5 5 5 6 5 5 6 6 5 5 5 5 5 5 5 6 5 6 5 5 5 5 6 5 5 6 6 5 5 5 6 5 5 5 5 5 5 5 5 6 5 5 5 5 5 5 5 5 5 6 5 5 5 5 5 5 5 5 5 5 6 5 5 5 5 5 5 5 5 5 6 5 5 5 5 5 6 5 5 5 5 5 5 5 5 5 5 5 5 6 5 5 5 5 5 5 5 6 5 6 5 5 6 5 5 6 5 5 6 5 5 5 5 5 5 6 5 5 5 6 5 5 5 5 5 5 5 5 5 5 6 5 5 6 5 5 5 5 5 5 5 5 6 5 5 5 5 5 6 5 5 5 6 6 5 6 6 5 5 5 6 5 5 6 5 5 5 5 5 5 5 5 5 5 5 5 5 5 5 5 5 5 5 5 5 5 5 6 5 5 5 5 6 5 5 5 6 5 5 5 6 5 5 5 6 6 5 5 5 5 5 5 5 5 5 5 5 5 5 5 5 5 5 5 5 5 5 5 5 5 5 5 6 5 5 5 5 6 5 5 5 5 6 5 6 6 5 5 6 5 6 5 5 5 6 5 5 5 5 6 5 5 6 5 5 5 5 5 5 6 5 6 5 5 5 5 6 5 5 5 5 5 6 6 5 5 5 6 5 6 5 5 5 5 5 5 5 5 5 5 5 6 5 5 6 5 5 6 5 6 5 5 6 6 6 6 5 5 5 5 5 5 6 5 5 5 5 5 6 5 5 5 5 5 5 6 5 5 5 6 5 5 5 5 5 5 5 5 5 5 5 6 5 5 5 5 5 5 5 6 5 6 5 6 5 6 5 5 6 5 5 5 5 5 6 5 5 6 5 5 5 5 5 5 5 5 6 5 5 5 5 5 5 5 5 5 5 5 5 5 5 5 5 6 6 5 5 5 5 5 5 5 5 6 5 5 5 5 6 5 5 5 5 5 5 5 5 5 5 6 5 5 5 5 5 5 6 5 5 5 6 5 5 5 5 5 5 5 6 6 5 5 5 5 5 5 5 5 5 5 6 5 5 6 5 5 5 5 5 5 6 5 5 5 5 5 6 5 5 5 6 5 5 5 6 5 6 5 5 5 5 6 5 5 5 5 5 5 5 5 5 5 5 5 5 5 5 6 5 5 5 5 5 5 5 5 5 5 5 5 6 5 5 5 6 6 5 6 6 5 5 5 5 5 5 5 5 5 5 5 5 5 6 5 5 5 5 5 5 5 5 5 5 5 5 5 5 5 5 5 5 5 5 5 5 5 6 5 5 5 5 5 5 5 5 6 5 5 5 5 5 5 6 5 6 6 5 5 5 5 
</DataArray>
<DataArray type="Float64" Name="stress" NumberOfComponents="9" format="ascii">
1314147389.4217224 -129424815.32257324 0 -129424815.32257324 -211608.30770247665 0 0 0 0 2202233584.546627 -352924953.45148951 0 -352924953.45148951 -204834263.17941362 0 0 0 0 1974000079.7092247 -655527843.19164431 0 -655527843.19164431 -20277758.088604137 0 0 0 0 1276077262.226326 -525412718.45290577 0 -525412718.45290577 -44279101.453738138 0 0 0 0 221333527.1664505 -88656670.003467679 0 -88656670.003467679 153319181.02721822 0 0 0 0 604097422.49458313 -286768494.31587124 0 -286768494.31587124 16563293.609759271 0 0 0 0 1001919241.3594437 -450659506.58172733 0 -450659506.58172733 257978877.71969217 0 0 0 0 1372666216.7753181 -280124497.37030029 0 -280124497.37030029 62782696.41543065 0 0 0 0 567712872.19835663 -353141524.46120489 0 -353141524.46120489 238614738.61813265 0 0 0 0 587654490.40004349 -314745539.2622 0 -314745539.2622 165988639.04804438 0 0 0 0 622591055.39001274 -233093254.87674496 0 -233093254.87674496 -26067710.442517847 0 0 0 0 258217250.46150208 -55134247.567430422 0 -55134247.567430422 359788.44058919599 0 0 0 0 -8927482.8502197266 -57255961.433385938 0 -57255961.433385938 88838592.434474871 0 0 0 0 36185925.182945251 -36545514.83518406 0 -36545514.83518406 -3196044.9711827403 0 0 0 0 479585.00450471044 145747.22574084625 0 145747.22574084625 -15777.198512351348 0 0 0 0 -31568457.260803223 -8549241.8120539188 0 -8549241.8120539188 99997189.61644195 0 0 0 0 -26953388.062764168 28433873.660116557 0 28433873.660116557 25118787.140864737 0 0 0 0 3343876.6141365953 2295218.2140588425 0 2295218.2140588425 959368.87878085929 0 0 0 0 7265018.2845001221 16030063.357557297 0 16030063.357557297 3027035.2200741768 0 0 0 0 33030806.471122742 -23648075.319916964 0 -23648075.319916964 -83549914.645411015 0 0 0 0 21392534.428174973 26393767.150409818 0 26393767.150409818 8264006.6130695343 0 0 0 0 -17725373.252044678 11271800.11909008 0 11271800.11909008 14673453.961382985 0 0 0 0 -6377752.9010429382 3078253.0872969627 0 3078253.0872969627 -76270137.607013702 0 0 0 0 2595392.0233457424 2008984.5316014457 0 2008984.5316014457 1163019.8459964718 0 0 0 0 -10557406.545410156 -10704719.64062959 0 -10704719.64062959 -82076280.279661655 0 0 0 0 7036215.3951034546 48440859.689854383 0 48440859.689854383 -131977472.05450487 0 0 0 0 427730.28906822205 37365536.459423661 0 37365536.459423661 -134811414.81713915 0 0 0 0 95206048.45967865 61816603.371899351 0 61816603.371899351 -5743278.7194241881 0 0 0 0 270494334.39260101 -64835424.540023357 0 -64835424.540023357 212706989.89030594 0 0 0 0 192351412.37221527 -196839159.46537703 0 -196839159.46537703 27523675.188519537 0 0 0 0 144177260.07482147 118729868.38499272 0 118729868.38499272 15013319.715241965 0 0 0 0 2060840.2782935947 1535436.9156857058 0 1535436.9156857058 737473.47472643561 0 0 0 0 160091747.36515951 -171089250.77551088 0 -171089250.77551088 46867070.841000319 0 0 0 0 193831555.60543823 114937006.8840692 0 114937006.8840692 -232972777.24714202 0 0 0 0 26781039.710929871 16968562.475383401 0 16968562.475383401 -202629003.03449106 0 0 0 0 -28964250.980171204 140086552.14101422 0 140086552.14101422 -223288166.31249952 0 0 0 0 379127.3541456759 357146.19907288207 0 357146.19907288207 16625.538483283774 0 0 0 0 126835336.86134338 91452900.394206643 0 91452900.394206643 4891212.9482043982 0 0 0 0 56727751.609817505 184794410.21299362 0 184794410.21299362 -70599827.092539072 0 0 0 0 75406139.038482666 -35935045.033550262 0 -35935045.033550262 -186265155.51457012 0 0 0 0 -274333530.71829987 193866010.97894788 0 193866010.97894788 -18143627.427796364 0 0 0 0 -80417.149169921875 -10351143.639849901 0 -10351143.639849901 -170747579.57711184 0 0 0 0 12313790.088342667 49132647.655816734 0 49132647.655816734 -240135364.52186704 0 0 0 0 842846.74825178832 493899.8307684618 0 493899.8307684618 -60455.833216642961 0 0 0 0 -8676401.9649963379 1318290.7805893421 0 1318290.7805893421 -171298191.52737474 0 0 0 0 -18877088.966880798 198400869.22574878 0 198400869.22574878 25179674.906850815 0 0 0 0 -35899821.042800903 -61911937.056390643 0 -61911937.056390643 69798112.936151981 0 0 0 0 213543883.63651276 133914395.95663762 0 133914395.95663762 -364871732.20470595 0 0 0 0 707765.58543127775 237795.96706939721 0 237795.96706939721 -63596.493373525678 0 0 0 0 146058679.17653275 -96649915.064955771 0 -96649915.064955771 -221951013.75006461 0 0 0 0 -77141926.318267822 174687793.50896347 0 174687793.50896347 432791902.11046827 0 0 0 0 -91858537.036334991 -24502122.841734529 0 -24502122.841734529 168179641.49491167 0 0 0 0 196285462.66582489 202035306.53576207 0 202035306.53576207 -54471209.960962296 0 0 0 0 -89286028.136817932 160842891.27243137 0 160842891.27243137 -398032302.10433674 0 0 0 0 75667311.351348877 104612330.04872417 0 104612330.04872417 17772272.028551817 0 0 0 0 18284542.31347847 172699303.1913951 0 172699303.1913951 89053560.336562634 0 0 0 0 2354773.8275265694 875548.81607090402 0 875548.81607090402 -319143.57384474203 0 0 0 0 3554360.8997650146 152768567.11847508 0 152768567.11847508 95663978.542238951 0 0 0 0 227271290.1065979 -14955479.716794968 0 -14955479.716794968 -287399727.10920131 0 0 0 0 1912664.2903716341 801782.61732471967 0 801782.61732471967 -271343.72956405766 0 0 0 0 -62939844.248504639 -42030852.402338147 0 -42030852.402338147 190729548.35637546 0 0 0 0 468629.19826879352 44207.130989757366 0 44207.130989757366 134946.31686025145 0 0 0 0 -26849922.542980194 226177725.76142418 0 226177725.76142418 531101430.90400052 0 0 0 0 1522712.6945180744 -174417.08097860729 0 -174417.08097860729 410539.13828284026 0 0 0 0 -7073981.5185317993 11100295.467427492 0 11100295.467427492 -6460025.9665875435 0 0 0 0 -3408102.3514709473 133691912.91127634 0 133691912.91127634 238978400.89379179 0 0 0 0 16641552.246429443 87923496.206553459 0 87923496.206553459 94246624.801376343 0 0 0 0 14633041.269830704 62202456.392019004 0 62202456.392019004 83117161.013960838 0 0 0 0 37115445.834960938 94980807.299030304 0 94980807.299030304 105180914.49167585 0 0 0 0 57120656.810882568 30368959.147058487 0 30368959.147058487 150724217.04489994 0 0 0 0 38839190.697906494 64150502.698504925 0 64150502.698504925 98708652.635406613 0 0 0 0 -87899560.216171265 118314409.18473721 0 118314409.18473721 395024909.59629273 0 0 0 0 -40548882.063659668 27485834.332255363 0 27485834.332255363 329710679.37433529 0 0 0 0 38766636.616905212 8112677.4220013618 0 8112677.4220013618 200905753.84988785 0 0 0 0 19748251.032653809 73939960.379858971 0 73939960.379858971 211546022.98794866 0 0 0 0 23365603.93661499 132853532.51371288 0 132853532.51371288 65557031.699184418 0 0 0 0 -16494375.481613159 184427318.70060921 0 184427318.70060921 85516502.888537407 0 0 0 0 -27051336.092468262 151552677.92355585 0 151552677.92355585 257933791.05945945 0 0 0 0 3099688.2190705985 -1864627.512934763 0 -1864627.512934763 1873483.5858655476 0 0 0 0 81366452.257064819 122221991.29352999 0 122221991.29352999 -94837184.111363411 0 0 0 0 2451333.9878207445 -1633783.1590373125 0 -1633783.1590373125 1032128.8442915035 0 0 0 0 -5628012.2875061035 -2085569.327067852 0 -2085569.327067852 2546403.4055961967 0 0 0 0 46755601.237617493 49622419.838651896 0 49622419.838651896 22127555.010972023 0 0 0 0 -12705495.001235962 57003926.242115721 0 57003926.242115721 -52279535.586413443 0 0 0 0 -109482039.5826416 -69605563.438230485 0 -69605563.438230485 -84484557.414803386 0 0 0 0 331885933.27689362 -242110705.51910645 0 -242110705.51910645 -251618921.58544314 0 0 0 0 208787549.50150299 -82239705.82703045 0 -82239705.82703045 -459219459.54343843 0 0 0 0 1532750.3910082802 -2492623.4214304285 0 -2492623.4214304285 1675356.04233545 0 0 0 0 312023487.2931366 148135595.05525467 0 148135595.05525467 12633338.386005342 0 0 0 0 272255402.13235474 -263423173.3805266 0 -263423173.3805266 130312837.78499773 0 0 0 0 756079.24105571955 -1026062.8299209944 0 -1026062.8299209944 1177832.0529097256 0 0 0 0 1461823873.6758347 924561345.23946524 0 924561345.23946524 -43229950.829977021 0 0 0 0 2427986469.4935989 -1156250519.8031523 0 -1156250519.8031523 550600666.74603999 0 0 0 0 2180039355.195282 202993989.2070789 0 202993989.2070789 -183390793.12054965 0 0 0 0 4296457.4320930466 -1922949.8609535843 0 -1922949.8609535843 643839.97126548027 0 0 0 0 41359840.494400024 210098259.19089127 0 210098259.19089127 -158377742.25690392 0 0 0 0 480963311.20290375 -294314554.25335479 0 -294314554.25335479 -284863000.39680004 0 0 0 0 -58199284.113891602 -56177360.72201544 0 -56177360.72201544 86307723.374605566 0 0 0 0 3913551.8210194036 -2288486.3493294455 0 -2288486.3493294455 2012337.4152019273 0 0 0 0 -23650225.747369766 192956299.91507518 0 192956299.91507518 280826178.577878 0 0 0 0 2557336.2440597042 -1919878.2096930649 0 -1919878.2096930649 -204928.44243037701 0 0 0 0 2203885933.2290053 -1355271153.2769589 0 -1355271153.2769589 701115652.62144291 0 0 0 0 1328231218.3525887 -1204607714.0619993 0 -1204607714.0619993 628535338.88159585 0 0 0 0 393242674.18389893 429146271.84530056 0 429146271.84530056 -37733403.155003071 0 0 0 0 -99682306.583839417 -69533.60408616066 0 -69533.60408616066 -158152862.62153721 0 0 0 0 417927176.21087646 -758867711.66870391 0 -758867711.66870391 1386002037.165554 0 0 0 0 319255.87679843605 -178041.10428037122 0 -178041.10428037122 153024.52142736834 0 0 0 0 222436051.71356964 -145045215.9089992 0 -145045215.9089992 -42856038.214632511 0 0 0 0 1052311.7968167514 -526059.34629038721 0 -526059.34629038721 -68959.358280742541 0 0 0 0 248780588.07643509 -94501266.702437401 0 -94501266.702437401 -12666530.796469688 0 0 0 0 293493679.50720215 -139049533.83368492 0 -139049533.83368492 40534819.026876211 0 0 0 0 333510920.1896286 -118818288.64347756 0 -118818288.64347756 -83441451.21444273 0 0 0 0 851167.89715831354 608493.67868912965 0 608493.67868912965 242853.49835217209 0 0 0 0 -86599996.368103027 430640876.07203484 0 430640876.07203484 -158946669.85041428 0 0 0 0 -226589427.60947609 271048149.13336307 0 271048149.13336307 -231700330.03424263 0 0 0 0 355642988.06248474 -199008213.76269388 0 -199008213.76269388 -36923654.382747173 0 0 0 0 409060859.66151428 -107091164.29670179 0 -107091164.29670179 -129165646.84512615 0 0 0 0 -184565790.96485138 -422009752.52387732 0 -422009752.52387732 724438010.75628853 0 0 0 0 96437462.292205811 -167633702.7022686 0 -167633702.7022686 -268924036.08885169 0 0 0 0 1133942.4713550806 242284.37998112151 0 242284.37998112151 -93064.638144475757 0 0 0 0 144682323.77233887 -296696606.72270918 0 -296696606.72270918 -140868797.02032471 0 0 0 0 -38223590.940231323 -115593419.63059402 0 -115593419.63059402 -2490894.9933986664 0 0 0 0 36303879.990432739 -138198613.24655151 0 -138198613.24655151 -29740124.286674976 0 0 0 0 224534304.00244141 -137834634.6535902 0 -137834634.6535902 -81373682.447256565 0 0 0 0 227609325.67434692 -129647034.6018548 0 -129647034.6018548 -74764182.600800037 0 0 0 0 70184738.120910645 -42162560.745811939 0 -42162560.745811939 -100753338.21465886 0 0 0 0 9317636.6402282715 59582934.140436336 0 59582934.140436336 102379600.96075103 0 0 0 0 -42985312.392547607 19777910.08573617 0 19777910.08573617 61299571.950925544 0 0 0 0 2514081.7916933894 -52150.329441323411 0 -52150.329441323411 -262831.06358886353 0 0 0 0 68377493.22379303 73676201.759414107 0 73676201.759414107 15576452.979276836 0 0 0 0 34447873.490783691 62363901.985168934 0 62363901.985168934 75496091.135977075 0 0 0 0 131088894.74925613 44646809.448322609 0 44646809.448322609 64179638.460032403 0 0 0 0 82131906.575820923 135404877.07185838 0 135404877.07185838 149559663.67841858 0 0 0 0 106637845.90705872 140766355.70170969 0 140766355.70170969 102792763.76908992 0 0 0 0 23976655.468154907 163260435.93527848 0 163260435.93527848 170545445.0658887 0 0 0 0 52316434.4585495 200528586.52335179 0 200528586.52335179 398689570.2393353 0 0 0 0 15595853.778091431 91685543.17076534 0 91685543.17076534 176804127.33833683 0 0 0 0 -26754732.072654724 35891641.893960208 0 35891641.893960208 -140701.13947006618 0 0 0 0 366622.77562930435 183861.48936810868 0 183861.48936810868 -4374.6392321456378 0 0 0 0 161137977.9597168 62751800.911464065 0 62751800.911464065 -161400880.6108849 0 0 0 0 200592194.47175884 38597919.155132048 0 38597919.155132048 105333882.41647339 0 0 0 0 215015974.97207642 200551001.84299946 0 200551001.84299946 122777703.5317933 0 0 0 0 46220768.167526245 60864273.834078938 0 60864273.834078938 127726755.2216799 0 0 0 0 71863588.547512054 46196863.738971673 0 46196863.738971673 56962347.866819769 0 0 0 0 195995697.47075748 156344560.76882866 0 156344560.76882866 44637.886887112647 0 0 0 0 60836113.481109619 86039052.657310575 0 86039052.657310575 123888603.26549001 0 0 0 0 70056255.085800171 84789989.070495263 0 84789989.070495263 71884130.387094453 0 0 0 0 46733456.487045288 10013644.397112429 0 10013644.397112429 58450355.182666138 0 0 0 0 17996303.19342041 21765560.70737049 0 21765560.70737049 57683537.267126568 0 0 0 0 28400851.735458374 -16709190.938113529 0 -16709190.938113529 26433005.713013828 0 0 0 0 43474669.23210144 1234770.0540679991 0 1234770.0540679991 16947586.410710074 0 0 0 0 30514149.88092041 16461315.173073873 0 16461315.173073873 86722006.838751748 0 0 0 0 22822097.205612183 -20160475.59557404 0 -20160475.59557404 42424840.657803625 0 0 0 0 35961711.578063965 -2514426.3655593768 0 -2514426.3655593768 13118389.602775984 0 0 0 0 12317420.780132294 -49840113.829329967 0 -49840113.829329967 -42699824.182105005 0 0 0 0 3678233.6638601497 -84413.662846819032 0 -84413.662846819032 -485942.78431175824 0 0 0 0 -51497050.676635742 21568650.655198976 0 21568650.655198976 -44203135.639622666 0 0 0 0 84719155.944274902 -38960272.085745648 0 -38960272.085745648 -51033915.678098671 0 0 0 0 -93775.330299675465 -239926.73308927752 0 -239926.73308927752 -254795.18463559664 0 0 0 0 31779118.841587067 -6133607.6380463373 0 -6133607.6380463373 -18962129.422893066 0 0 0 0 4483973.0127029046 -257359.61115177907 0 -257359.61115177907 -831312.23289857362 0 0 0 0 21665867.632598877 -17909211.993399702 0 -17909211.993399702 -23202376.644103583 0 0 0 0 -8462370.6456756592 60346605.221231699 0 60346605.221231699 -244515756.00281495 0 0 0 0 -7845309.1075134277 -371545.96122618765 0 -371545.96122618765 -11399098.278101975 0 0 0 0 568242.10111956671 198288.37554397061 0 198288.37554397061 -464762.95826032315 0 0 0 0 61975977.559944153 -262432501.09890401 0 -262432501.09890401 -586648777.72808266 0 0 0 0 2042254.5581817627 -10980176.233878776 0 -10980176.233878776 -10089466.221280195 0 0 0 0 -750104.32727264613 -1556039.9788211505 0 -1556039.9788211505 -541822.98179910658 0 0 0 0 -7062870.9977111816 12393589.297564544 0 12393589.297564544 22860075.41624894 0 0 0 0 -14302370.282623291 -7319435.2146973051 0 -7319435.2146973051 15706537.551792495 0 0 0 0 21507268.792850494 16363084.707945958 0 16363084.707945958 18321661.142688408 0 0 0 0 3719924.4477920532 5923830.3809761517 0 5923830.3809761517 28526665.221938908 0 0 0 0 10706553.661071777 32901924.528496001 0 32901924.528496001 40755839.756539114 0 0 0 0 38040013.706150055 36531635.199838296 0 36531635.199838296 70535.97694211964 0 0 0 0 11134714.347088337 20508563.280363794 0 20508563.280363794 13375741.361467294 0 0 0 0 5769029.0193634033 9342416.5744042471 0 9342416.5744042471 15127750.379509987 0 0 0 0 -2687618.6118621826 147093.59148687311 0 147093.59148687311 17502668.892618418 0 0 0 0 -1310538.0128631592 -2015545.2590165436 0 -2015545.2590165436 -1263676.7170841955 0 0 0 0 10764591.659576416 9853365.6958114207 0 9853365.6958114207 5345699.8493262082 0 0 0 0 7979510.0100479126 13718992.661792422 0 13718992.661792422 3431.751379412528 0 0 0 0 8812194.6540145874 -2152324.788741326 0 -2152324.788741326 -1540954.6017118506 0 0 0 0 3663866.5440216064 107070.53122868981 0 107070.53122868981 -2860.0782232718525 0 0 0 0 2603941.816509828 -771192.8544601649 0 -771192.8544601649 -961534.52402433497 0 0 0 0 3461958.6743980423 -219161.67846276425 0 -219161.67846276425 -1349807.741975816 0 0 0 0 25520627.538498878 -2875718.873857379 0 -2875718.873857379 -7597944.8609166145 0 0 0 0 -1982380.7059745789 -12097255.682516575 0 -12097255.682516575 -7226007.301630497 0 0 0 0 13828485.507232666 2053113.8578703403 0 2053113.8578703403 -5044463.7051564455 0 0 0 0 -6214030.7696304321 -5623996.44217062 0 -5623996.44217062 1169041.3852372169 0 0 0 0 -377655.11091022193 -1055234.3733201548 0 -1055234.3733201548 -194380.16135428264 0 0 0 0 1564249.3121643066 3461340.0446931534 0 3461340.0446931534 3912777.5410080217 0 0 0 0 3495773.4801248759 -512100.02954478562 0 -512100.02954478562 -1485619.5173561538 0 0 0 0 -4668967.1815490723 -6179419.0023236275 0 -6179419.0023236275 1918296.8761472702 0 0 0 0 85968445.324920654 15097815.358017206 0 15097815.358017206 -334569449.1240449 0 0 0 0 -140163.61637417972 -923697.75923017226 0 -923697.75923017226 -101262.84748802905 0 0 0 0 4344303.3987294324 -458704.81124764308 0 -458704.81124764308 -1163988.393923776 0 0 0 0 123428277.4924469 45332346.501847506 0 45332346.501847506 -312205565.55821919 0 0 0 0 15187275.575912476 19101681.221421957 0 19101681.221421957 -276731290.23044395 0 0 0 0 19824206.686881065 42091318.546465844 0 42091318.546465844 -90670872.778018951 0 0 0 0 -3162207.9770812988 -13289214.626759768 0 -13289214.626759768 -110571940.24274421 0 0 0 0 -37019097.649112701 58262078.312203646 0 58262078.312203646 -187857347.56608677 0 0 0 0 180480178.56313324 -61213982.002013683 0 -61213982.002013683 -251680925.37424135 0 0 0 0 438139.70063020289 201395.11927854782 0 201395.11927854782 -59714.51368488319 0 0 0 0 33160058.016220093 79650063.605001569 0 79650063.605001569 -273411778.72406363 0 0 0 0 64313586.928756714 52621034.030476332 0 52621034.030476332 -259407417.07873809 0 0 0 0 109987806.32720184 -63219679.454836011 0 -63219679.454836011 -67876782.418610811 0 0 0 0 -100842250.42530823 -33879184.98492825 0 -33879184.98492825 -64941282.768782377 0 0 0 0 420570867.37969971 69022152.214663029 0 69022152.214663029 -46742881.513016284 0 0 0 0 277672473.2061882 96308292.690839887 0 96308292.690839887 33939918.393556356 0 0 0 0 1149617.4680175781 -28627699.817401886 0 -28627699.817401886 102527591.96898592 0 0 0 0 307082599.67797089 -14631566.595685244 0 -14631566.595685244 -71244878.117265463 0 0 0 0 73890918.20135498 -153363880.01999474 0 -153363880.01999474 61793692.594204426 0 0 0 0 1812575.5459811687 -51053193.734182708 0 -51053193.734182708 7187280.1585979462 0 0 0 0 -37339337.202358246 -85296537.655093074 0 -85296537.655093074 -22689702.448096037 0 0 0 0 -64824467.389656067 -62655935.169688463 0 -62655935.169688463 27295555.898146749 0 0 0 0 -45003982.115659714 -49043214.867040217 0 -49043214.867040217 34334189.310022831 0 0 0 0 -45753763.306930542 -52333105.886206985 0 -52333105.886206985 29141420.989475012 0 0 0 0 -14592423.611905098 -61481105.139389947 0 -61481105.139389947 -77524671.682554483 0 0 0 0 -21134130.033638 -39194126.971842647 0 -39194126.971842647 -44785735.649493456 0 0 0 0 -992669.65386199951 -77126156.244643688 0 -77126156.244643688 -7273290.7647967339 0 0 0 0 11068102.768577576 -54498009.504825115 0 -54498009.504825115 -59575684.486736774 0 0 0 0 -25048686.144003868 -89363735.758012503 0 -89363735.758012503 -135308307.65728951 0 0 0 0 -16458924.455551147 40466867.289103746 0 40466867.289103746 -95605776.376850128 0 0 0 0 -179027337.68531799 10126391.568564415 0 10126391.568564415 -62495578.701858521 0 0 0 0 -138288249.27486801 -140734526.89822447 0 -140734526.89822447 -139076787.46302843 0 0 0 0 20268444.189453125 -64703950.557883739 0 -64703950.557883739 -309512235.0837512 0 0 0 0 12785360.251121521 -28905920.481244922 0 -28905920.481244922 -243378220.60574055 0 0 0 0 -56492.080181628466 -238491.22795791086 0 -238491.22795791086 53914.059791373613 0 0 0 0 3894300.3259811401 -36399042.132962704 0 -36399042.132962704 -200780696.84645557 0 0 0 0 -20270570.634986877 -5423153.7765294313 0 -5423153.7765294313 -176546980.1865741 0 0 0 0 -73529.211761325598 -446519.43901375681 0 -446519.43901375681 135132.73090946407 0 0 0 0 -16656850.762294769 -25402368.957030296 0 -25402368.957030296 -27878532.482228994 0 0 0 0 -19852507.172104836 -40691637.338302881 0 -40691637.338302881 28128873.72881937 0 0 0 0 -16184208.39780426 -24745361.141380906 0 -24745361.141380906 -18744442.143512249 0 0 0 0 -48626673.233375549 -51767121.542848229 0 -51767121.542848229 -43662403.677026749 0 0 0 0 -230438.4811777696 -64788.509373564273 0 -64788.509373564273 309397.9519236451 0 0 0 0 -51278656.346946716 -8037592.7577604055 0 -8037592.7577604055 60153622.485945463 0 0 0 0 -54529090.969397545 8827616.6987969577 0 8827616.6987969577 29983953.89972353 0 0 0 0 -15240977.260719299 40081891.682518244 0 40081891.682518244 38859423.407464504 0 0 0 0 20450497.367149353 10385183.942302823 0 10385183.942302823 267808.6510682106 0 0 0 0 265268.6068376489 179616.06305530109 0 179616.06305530109 -27532.288536858745 0 0 0 0 -1145055.7483329773 868427.11601066589 0 868427.11601066589 3839460.4269242287 0 0 0 0 -5532058.1898231506 -3427724.4512701035 0 -3427724.4512701035 771034.31541252136 0 0 0 0 -11104836.587997437 -4499694.0314444304 0 -4499694.0314444304 33991637.368701756 0 0 0 0 31026.577637664974 -464167.28521552216 0 -464167.28521552216 230273.34850812418 0 0 0 0 35049994.540786743 -21381244.796109557 0 -21381244.796109557 -257666749.47051954 0 0 0 0 -18191811.409927368 -2814373.8432017565 0 -2814373.8432017565 -113285821.0183506 0 0 0 0 3264976.4253692627 -50273229.527956724 0 -50273229.527956724 -197647361.56322145 0 0 0 0 6143742.3829460144 23447655.639903545 0 23447655.639903545 -192216971.34355974 0 0 0 0 44219249.469909668 -129133285.80998611 0 -129133285.80998611 -107366182.78460026 0 0 0 0 52545590.499702454 -150839822.32306361 0 -150839822.32306361 -101299827.83193874 0 0 0 0 -51894151.217861176 -89517537.640923262 0 -89517537.640923262 -162198907.95781183 0 0 0 0 -136624655.47619629 -208346767.44979262 0 -208346767.44979262 -185292394.69939888 0 0 0 0 -72539212.373840332 -106695400.41392767 0 -106695400.41392767 -26215215.906248569 0 0 0 0 -38340043.523357391 -39374013.083469987 0 -39374013.083469987 -41721087.163306713 0 0 0 0 -107362.03360482305 -90605.414426527917 0 -90605.414426527917 206729.76938882051 0 0 0 0 21747109.720853806 37235724.916634738 0 37235724.916634738 -21459820.246541023 0 0 0 0 -53178875.555992126 -33894110.940384865 0 -33894110.940384865 -53052262.861148834 0 0 0 0 -280840.6364511624 -156853.34702178836 0 -156853.34702178836 462833.85901802802 0 0 0 0 -71852372.805427551 -117007877.9298954 0 -117007877.9298954 27960705.199182689 0 0 0 0 -71469606.115249634 -83608279.575296283 0 -83608279.575296283 -73744417.747084141 0 0 0 0 -49673927.409496307 -52651038.838890791 0 -52651038.838890791 -93354322.02550292 0 0 0 0 -72877579.45091629 -68812351.718020439 0 -68812351.718020439 -51361501.458515167 0 0 0 0 -80108875.961526394 -123543917.75743105 0 -123543917.75743105 -171953135.4819665 0 0 0 0 -83545496.448291779 -68641096.221892118 0 -68641096.221892118 -87646655.134042025 0 0 0 0 6805847.1370202899 -857280.4399198629 0 -857280.4399198629 -840997.77045501536 0 0 0 0 203428996.09465027 633439706.38346481 0 633439706.38346481 556127453.1325078 0 0 0 0 -37000429.552612305 213835752.8850987 0 213835752.8850987 65795328.149269819 0 0 0 0 454983174.78827667 73317313.434410572 0 73317313.434410572 62060384.077793121 0 0 0 0 -28940084.999595642 -413392169.73932898 0 -413392169.73932898 -470374011.24664813 0 0 0 0 253965.26971456409 810831.22067834623 0 810831.22067834623 -787261.24393082527 0 0 0 0 201570587.30267715 444363494.45261979 0 444363494.45261979 43210370.106651306 0 0 0 0 3171430.9483103678 -109041.36506965384 0 -109041.36506965384 -418512.34158298699 0 0 0 0 -45062378.361343384 553289523.99393487 0 553289523.99393487 884677249.73172355 0 0 0 0 -52708752.286510706 -104622850.13891512 0 -104622850.13891512 -168417697.89504099 0 0 0 0 -33463140.362266541 -24165624.3892591 0 -24165624.3892591 -63677931.587990403 0 0 0 0 307479082.84609222 353593615.26370287 0 353593615.26370287 585327021.93404579 0 0 0 0 810958.30074734986 403.083710167557 0 403.083710167557 -15624.279551322106 0 0 0 0 -37393949.619061828 -167737998.28691006 0 -167737998.28691006 -139293827.77596951 0 0 0 0 252411204.40870333 -68315284.006563842 0 -68315284.006563842 86906321.123979568 0 0 0 0 -39998861.228668213 -127631395.88599586 0 -127631395.88599586 169023209.6477809 0 0 0 0 185521545.9178772 58161886.219727516 0 58161886.219727516 -241804014.83265924 0 0 0 0 -73628888.438247681 203213268.19754982 0 203213268.19754982 -173752792.9165051 0 0 0 0 265505300.91271973 -74816436.766677499 0 -74816436.766677499 -162177033.69945049 0 0 0 0 -59743743.220108032 -32814490.454874516 0 -32814490.454874516 -101234738.77532721 0 0 0 0 168598653.33312988 -12083614.788838863 0 -12083614.788838863 -126679747.67043257 0 0 0 0 31891426.10697937 34060312.584141254 0 34060312.584141254 -114150974.85719514 0 0 0 0 46598161.730484962 104306144.40674818 0 104306144.40674818 -92721030.97276783 0 0 0 0 -78290157.85956955 177874791.0973835 0 177874791.0973835 -130258490.46410942 0 0 0 0 -126183658.81254578 111991645.67738676 0 111991645.67738676 -81147731.849836349 0 0 0 0 -48372392.429641724 99834162.556805134 0 99834162.556805134 -91857891.006229401 0 0 0 0 145772848.41442871 -121552804.72220612 0 -121552804.72220612 81353247.86448884 0 0 0 0 -152211652.74350739 197102986.79883218 0 197102986.79883218 -133841789.98985481 0 0 0 0 -331862510.01212311 74707612.19588232 0 74707612.19588232 -84779232.253746033 0 0 0 0 607001.6481712088 -134769.64736220147 0 -134769.64736220147 -80810.706948325271 0 0 0 0 147222327.4508667 -83702484.577888489 0 -83702484.577888489 69442832.002490044 0 0 0 0 173303398.09013367 -52117322.425678015 0 -52117322.425678015 -132268505.02985954 0 0 0 0 1397891.5010484755 -613087.17318984587 0 -613087.17318984587 -226938.92889995873 0 0 0 0 513516251.73768616 140395978.86281681 0 140395978.86281681 -247955755.20528704 0 0 0 0 71490023.901641846 38617004.060972214 0 38617004.060972214 -162012242.61821556 0 0 0 0 -62567076.062011719 -121092681.53545666 0 -121092681.53545666 -272972489.88831824 0 0 0 0 -21632276.996520996 5694227.8330130577 0 5694227.8330130577 28920647.063182831 0 0 0 0 640762.15989581496 -485984.45533332322 0 -485984.45533332322 3716.0913934261771 0 0 0 0 -10778612.360183716 630655.01367950439 0 630655.01367950439 9161980.5570716858 0 0 0 0 2637091.5995788574 -121917396.48148298 0 -121917396.48148298 140311853.06522179 0 0 0 0 -17944678.338058472 -52894895.287402153 0 -52894895.287402153 109373460.92207909 0 0 0 0 -57776152.685329437 -14689230.782717347 0 -14689230.782717347 115256012.27728081 0 0 0 0 -48820211.086791992 -38783491.169036865 0 -38783491.169036865 111577446.36419868 0 0 0 0 -27764116.002624512 -20844537.701966286 0 -20844537.701966286 109983644.48450279 0 0 0 0 3231012.2545166016 -39319287.252972603 0 -39319287.252972603 105925485.32100487 0 0 0 0 8851558.5523433685 -58674565.219792008 0 -58674565.219792008 103509855.84264374 0 0 0 0 43041329.807197571 77794692.827294827 0 77794692.827294827 -81030597.284052849 0 0 0 0 3072247.4511124231 1430528.804656039 0 1430528.804656039 -385056.79163036216 0 0 0 0 105172672.47410583 -34825768.305162191 0 -34825768.305162191 -75801802.440535545 0 0 0 0 -10842864.661140442 986880.19729852676 0 986880.19729852676 -19812370.024588108 0 0 0 0 96389957.180358887 -19064495.448869705 0 -19064495.448869705 -23587153.726490021 0 0 0 0 263966266.95909119 -200823510.18786049 0 -200823510.18786049 -41447052.920566559 0 0 0 0 155826125.53408813 -117236741.83827496 0 -117236741.83827496 34443404.879255295 0 0 0 0 38119060.273124695 107199195.66831529 0 107199195.66831529 -105619832.38217402 0 0 0 0 159965849.76690674 -110384127.93195546 0 -110384127.93195546 34885284.795105934 0 0 0 0 4582594.0209706947 2911939.2243598681 0 2911939.2243598681 -810016.35893573565 0 0 0 0 -138889821.66833496 11883497.970949173 0 11883497.970949173 199548808.45049572 0 0 0 0 10790415.429619987 -494978.82954919385 0 -494978.82954919385 -1467230.4135624096 0 0 0 0 -1337431.0408744812 38740416.301333129 0 38740416.301333129 -55133736.482858658 0 0 0 0 -34141102.740890503 -66681464.793990374 0 -66681464.793990374 -108740040.77934587 0 0 0 0 -1147285.3401031494 72257714.54087019 0 72257714.54087019 -37388900.932868719 0 0 0 0 78349954.120994568 71397409.941184163 0 71397409.941184163 -228788434.41211653 0 0 0 0 1934821.1260089874 20819831.779415131 0 20819831.779415131 -37190716.933152199 0 0 0 0 -3064223.9560623169 9770168.9140591621 0 9770168.9140591621 -28567574.917088509 0 0 0 0 -39709966.755390167 22239596.761921883 0 22239596.761921883 39131123.095658779 0 0 0 0 16117579.865814209 -25287161.670999527 0 -25287161.670999527 -14923742.520481825 0 0 0 0 159384342.41339874 -125569310.72123671 0 -125569310.72123671 47547096.989225149 0 0 0 0 126265826.30401611 51113671.581168175 0 51113671.581168175 14233131.794032097 0 0 0 0 -18681314.867675781 -27775536.543441772 0 -27775536.543441772 122251534.93868375 0 0 0 0 -103560411.13585186 87199700.645473003 0 87199700.645473003 -68654130.217491627 0 0 0 0 154464530.79183197 26243453.923877239 0 26243453.923877239 -74264756.648587227 0 0 0 0 -9491776.5625610352 -51704453.586848199 0 -51704453.586848199 -12961827.95140934 0 0 0 0 13505025.389160156 -305837062.24687725 0 -305837062.24687725 -317301333.38482785 0 0 0 0 381662.06376543641 2778699.635580048 0 2778699.635580048 -2255637.6997990059 0 0 0 0 86221858.042068481 236345346.8106091 0 236345346.8106091 36841837.636567235 0 0 0 0 292040122.38729858 -30659373.07156305 0 -30659373.07156305 286768988.52249587 0 0 0 0 169165440.39211607 520263812.63043851 0 520263812.63043851 515689475.81842899 0 0 0 0 -1010708.0924387872 326234.0633745743 0 326234.0633745743 -1205101.243904823 0 0 0 0 264650476.10044289 235417002.73415935 0 235417002.73415935 -96775560.419988632 0 0 0 0 15263171.83808136 -15538211.03105104 0 -15538211.03105104 -10993401.749108791 0 0 0 0 -28089885.743415833 30120495.410189867 0 30120495.410189867 -15561992.089153528 0 0 0 0 -66697256.273204803 -160225577.11264083 0 -160225577.11264083 -112934265.58267355 0 0 0 0 789650.34707760066 5684878.590243334 0 5684878.590243334 -4267008.9930186123 0 0 0 0 5056678.1223927699 5096916.993755471 0 5096916.993755471 -1756390.6809362425 0 0 0 0 1340338.7940826416 7759090.1669063568 0 7759090.1669063568 -22126431.997021198 0 0 0 0 9812120.5776730441 -311924.10121514369 0 -311924.10121514369 -2284128.232387376 0 0 0 0 41439192.426773071 -9885463.5239839554 0 -9885463.5239839554 -84447979.907100677 0 0 0 0 -20611955.269668579 -16529498.711243868 0 -16529498.711243868 30582593.624813318 0 0 0 0 25077932.292037964 18782655.915586114 0 18782655.915586114 -36732924.950602055 0 0 0 0 31386749.141582489 27761247.915680647 0 27761247.915680647 -64520193.014391899 0 0 0 0 9595929.417823635 -661627.10702868365 0 -661627.10702868365 -3961988.0296391086 0 0 0 0 44021358.912994385 -64500716.588530302 0 -64500716.588530302 7722123.6945053339 0 0 0 0 3194371.444021225 10783447.410683274 0 10783447.410683274 -23597625.601137161 0 0 0 0 10523216.617485117 8914034.5433827825 0 8914034.5433827825 -9002759.4065344054 0 0 0 0 5177788.1525348723 4301109.41794076 0 4301109.41794076 -1050152.4335424798 0 0 0 0 50542074.012164116 -20570887.834946409 0 -20570887.834946409 -104426351.20389605 0 0 0 0 6142561.5707989391 2606947.4102048492 0 2606947.4102048492 -4285287.2462372808 0 0 0 0 -139835102.15689087 107125553.45910919 0 107125553.45910919 -29134613.791407585 0 0 0 0 26939784.494140625 66879937.182992458 0 66879937.182992458 -168297041.8796289 0 0 0 0 49523732.550292969 16982771.016964078 0 16982771.016964078 -76130293.05226326 0 0 0 0 -13584891.952560425 -164281050.84547257 0 -164281050.84547257 -98467348.873185396 0 0 0 0 -22067485.456713676 20529316.020398438 0 20529316.020398438 35488738.951860428 0 0 0 0 -10973641.961639404 -21351493.699219227 0 -21351493.699219227 2330340.5306444168 0 0 0 0 -30960956.207275391 36291890.663382053 0 36291890.663382053 -17757105.4648211 0 0 0 0 222302911.171875 -14857776.175512314 0 -14857776.175512314 8401548.6172833443 0 0 0 0 -2878152.1097679138 -30448342.816672206 0 -30448342.816672206 27711299.88771534 0 0 0 0 307858681.02914429 547728411.67159379 0 547728411.67159379 397434714.93811417 0 0 0 0 1417947.5218763798 1992500.4235492134 0 1992500.4235492134 220828.97677207831 0 0 0 0 123997833.60502538 274703639.46613276 0 274703639.46613276 491363659.73305941 0 0 0 0 16751110.997362226 -4766670.556564346 0 -4766670.556564346 -150712.62527367426 0 0 0 0 128586024.1013903 -27202222.351982236 0 -27202222.351982236 37183741.678920269 0 0 0 0 53656431.572807312 41365139.677061081 0 41365139.677061081 -23318858.65629077 0 0 0 0 628594624.63891602 337287013.14893758 0 337287013.14893758 -101575820.84451118 0 0 0 0 11481458.072479818 -2388340.6566049363 0 -2388340.6566049363 -880051.05347870721 0 0 0 0 -162005020.60383606 -140520825.11628079 0 -140520825.11628079 381160038.84041607 0 0 0 0 52450268.069869995 -218786151.69027972 0 -218786151.69027972 -358711233.71051836 0 0 0 0 -92048416.567903519 -39888774.604649901 0 -39888774.604649901 -124759027.51004124 0 0 0 0 -8780514.5839004517 -28105831.459565222 0 -28105831.459565222 -64102265.12782824 0 0 0 0 -85332828.386581421 -23554509.604681909 0 -23554509.604681909 -37987052.763553023 0 0 0 0 -88496717.271894693 -81736453.433646277 0 -81736453.433646277 -97874130.140983939 0 0 0 0 -102898671.16880798 -56409813.769552588 0 -56409813.769552588 -58223964.426148474 0 0 0 0 -61709110.155197144 -25254463.046924114 0 -25254463.046924114 -35025591.986078024 0 0 0 0 -50844680.660377502 -57667340.649318457 0 -57667340.649318457 -68279200.111443996 0 0 0 0 -8276314.9811935425 -3596802.7808154225 0 -3596802.7808154225 -47140517.113027573 0 0 0 0 -5887902.183265686 -12164089.301341295 0 -12164089.301341295 -28768885.801125631 0 0 0 0 12355933.797077775 16691999.467360074 0 16691999.467360074 -26808054.581212521 0 0 0 0 12560985.99047792 65512.834183778614 0 65512.834183778614 -35482403.794821262 0 0 0 0 33279898.213516235 962226.77323412895 0 962226.77323412895 -26802461.988217354 0 0 0 0 2295565.1511186771 -1684083.2575153541 0 -1684083.2575153541 1894425.856936987 0 0 0 0 2204752474.0927429 96134071.735449389 0 96134071.735449389 12382306.879947325 0 0 0 0 2475543219.3366241 42672603.822580218 0 42672603.822580218 20179798.63579702 0 0 0 0 -81143800.215423584 -55417374.057256103 0 -55417374.057256103 -18302348.859735012 0 0 0 0 -6881133.2099838257 -18338842.118031621 0 -18338842.118031621 -43352776.058942795 0 0 0 0 -5342552.3461151123 5503516.5051720142 0 5503516.5051720142 -18126383.565768957 0 0 0 0 -12405015.653335571 -17759061.03349185 0 -17759061.03349185 -40562921.335849166 0 0 0 0 -25150037.65512085 -10322186.286213517 0 -10322186.286213517 -27496120.723474264 0 0 0 0 -12306946.972057343 -28613590.300395459 0 -28613590.300395459 -59397774.495578766 0 0 0 0 59899334.883621216 -129265405.63754806 0 -129265405.63754806 -7644519.2204017639 0 0 0 0 96214867.283653259 -40074104.971956551 0 -40074104.971956551 -59790596.821746983 0 0 0 0 -7170714.8696594238 4036552.2466137558 0 4036552.2466137558 7194104.0652754307 0 0 0 0 938752.33885859954 -489208.24340481684 0 -489208.24340481684 640802.43372949178 0 0 0 0 2206294707.7624168 -393953075.75612938 0 -393953075.75612938 110908762.25511202 0 0 0 0 -110629023.66390991 -109130994.37597404 0 -109130994.37597404 35480028.509465352 0 0 0 0 -38916554.521369934 -185581487.18491638 0 -185581487.18491638 29979110.505170368 0 0 0 0 2201256233.9215302 259662843.33114102 0 259662843.33114102 -608609379.6006248 0 0 0 0 1695343811.6644287 -166750950.29232168 0 -166750950.29232168 -134620043.97636682 0 0 0 0 1487021600.1406555 -107361613.84069562 0 -107361613.84069562 52664534.403982274 0 0 0 0 1459936786.8291349 83934354.283980295 0 83934354.283980295 -151022034.68386042 0 0 0 0 483515967.06174469 -405140538.19862211 0 -405140538.19862211 115731270.60401799 0 0 0 0 1657977902.710228 -10815394.650137812 0 -10815394.650137812 -253294682.85403764 0 0 0 0 1869743.6480331421 -125119906.76042992 0 -125119906.76042992 -5166286.6740573049 0 0 0 0 200332553.6533165 46165845.888076738 0 46165845.888076738 95117901.419807881 0 0 0 0 5191346.3278274536 -232189008.07107484 0 -232189008.07107484 144661177.49464938 0 0 0 0 -46222883.324489594 -51459535.688039787 0 -51459535.688039787 -113101862.59573433 0 0 0 0 -149203317.62790012 -248030642.74040547 0 -248030642.74040547 -64554507.237199426 0 0 0 0 -164285987.37382507 -39227489.784382403 0 -39227489.784382403 -27629996.620624781 0 0 0 0 -47062389.119857788 -56833033.889186651 0 -56833033.889186651 -67537390.811903 0 0 0 0 1828421.0492491946 -1800358.0192993376 0 -1800358.0192993376 2235218.5553759206 0 0 0 0 -29858814.715774536 -16213380.564568281 0 -16213380.564568281 6096628.2829291821 0 0 0 0 -194920135.06984997 -143812035.97556436 0 -143812035.97556436 -77663405.766124129 0 0 0 0 -1941289.9127426147 4332183.1300797462 0 4332183.1300797462 2422265.0184025764 0 0 0 0 3751264.856212616 28855257.333748817 0 28855257.333748817 22009047.583377361 0 0 0 0 48175132.715660095 335837.95875239372 0 335837.95875239372 -33445474.340917408 0 0 0 0 5704608.503868103 -40280906.706613064 0 -40280906.706613064 -7146425.3626215458 0 0 0 0 -27304548.589729309 3262103.7624821663 0 3262103.7624821663 44026545.508603334 0 0 0 0 34430192.970855713 61384907.452597857 0 61384907.452597857 221824397.57895207 0 0 0 0 84132932.869613647 92270827.233054876 0 92270827.233054876 184998018.41666853 0 0 0 0 125762518.58650589 116817172.7929796 0 116817172.7929796 107964022.90404272 0 0 0 0 109937062.71503448 12472898.761416912 0 12472898.761416912 42196528.141621113 0 0 0 0 111592357.06562042 -12382412.476072311 0 -12382412.476072311 224247259.96126133 0 0 0 0 148189060.4839325 -32706612.188159943 0 -32706612.188159943 75426141.013289452 0 0 0 0 147138317.8283217 -17828733.739085205 0 -17828733.739085205 -23152683.477386475 0 0 0 0 82304656.760475159 -39596772.725324154 0 -39596772.725324154 -15034282.462810278 0 0 0 0 219218993.45994949 31835825.234060764 0 31835825.234060764 -17479931.85794878 0 0 0 0 211154932.96192169 -116485085.0739361 0 -116485085.0739361 -21367370.967190266 0 0 0 0 255055032.83816528 -45257880.305653572 0 -45257880.305653572 -106538014.44000006 0 0 0 0 1105452.5186245069 -1492891.8930472229 0 -1492891.8930472229 1996702.6773101785 0 0 0 0 -134862957.87281227 -136730746.5849106 0 -136730746.5849106 -104319215.49621224 0 0 0 0 20772796.238441467 10977449.47883153 0 10977449.47883153 63047238.416956425 0 0 0 0 509539.19868059456 -961561.10551319644 0 -961561.10551319644 1459708.2220465303 0 0 0 0 -127603796.50995779 -161643117.41981062 0 -161643117.41981062 -76736347.160222054 0 0 0 0 -124360344.73402774 -87064988.094898924 0 -87064988.094898924 -33748942.473868847 0 0 0 0 -46582877.222930908 -80518262.735133886 0 -80518262.735133886 -101064232.22169049 0 0 0 0 11302011.353993416 -24358097.74451822 0 -24358097.74451822 -61696303.733455658 0 0 0 0 -107643777.7334137 -121080567.05855131 0 -121080567.05855131 -63910196.747457981 0 0 0 0 14726729.378356934 -34234160.496599197 0 -34234160.496599197 -57699793.764378071 0 0 0 0 433655.25256676972 -1177610.2588822965 0 -1177610.2588822965 -75854.016532436741 0 0 0 0 -83917614.576889038 -161088873.13675141 0 -161088873.13675141 -127687069.43456793 0 0 0 0 -13843816.554244995 -128596758.80487466 0 -128596758.80487466 -121302237.4660449 0 0 0 0 118855.15212643147 -703117.67400159396 0 -703117.67400159396 -29305.887831146538 0 0 0 0 46907338.898609161 13109267.006311178 0 13109267.006311178 -111818696.75409222 0 0 0 0 374629629.34725952 -12730707.092711926 0 -12730707.092711926 -168809248.74293041 0 0 0 0 170905284.31837797 -43136705.7248981 0 -43136705.7248981 -74268521.152890205 0 0 0 0 -160769555.96048355 -172544701.74994624 0 -172544701.74994624 -84310597.288805962 0 0 0 0 70064.058233615011 -301754.72645536624 0 -301754.72645536624 607447.41903758887 0 0 0 0 388494031.33574677 147871637.40347672 0 147871637.40347672 -45023993.308067501 0 0 0 0 -441727760.78891754 126494045.93766356 0 126494045.93766356 -11080474.316730499 0 0 0 0 -171771709.14875793 15359990.443220139 0 15359990.443220139 -30491753.949509677 0 0 0 0 315350.08071219176 -572295.773090987 0 -572295.773090987 -48757.651293831164 0 0 0 0 712326503.50067139 121202047.14545822 0 121202047.14545822 -177044820.31356248 0 0 0 0 1824174.9618633613 -1548235.9033475248 0 -1548235.9033475248 -358827.51674412843 0 0 0 0 37023317.551940918 27593434.178043365 0 27593434.178043365 -96528555.291482925 0 0 0 0 1638188.229826875 -991347.05139288923 0 -991347.05139288923 202558.29388892243 0 0 0 0 7379804.7179489136 -6993103.0709004402 0 -6993103.0709004402 -3869459.2631397247 0 0 0 0 109972725.87272644 -955965.91627597809 0 -955965.91627597809 -87688857.894080162 0 0 0 0 28169927.753601074 39510012.139878273 0 39510012.139878273 -96361078.67520076 0 0 0 0 413664.75148075819 244479.7047441107 0 244479.7047441107 -1048319.2957778501 0 0 0 0 61653229.459472656 654117.24322414398 0 654117.24322414398 -78200203.146748543 0 0 0 0 -11203048.001464844 24380581.022465229 0 24380581.022465229 -75127943.407075882 0 0 0 0 25781658.249832153 -30216767.443090916 0 -30216767.443090916 -56501717.168845177 0 0 0 0 12640685.478118896 -28941412.736751556 0 -28941412.736751556 -56366343.369568825 0 0 0 0 5435295.6668739319 -13752996.747526169 0 -13752996.747526169 -41886996.477910995 0 0 0 0 36203865.41847229 92232863.304815292 0 92232863.304815292 -33603549.906642914 0 0 0 0 -75508204.611991882 79090998.830522537 0 79090998.830522537 -20611359.309732437 0 0 0 0 -51352711.938842773 102416715.96359825 0 102416715.96359825 -3010699.7199039459 0 0 0 0 4717636.8432424739 -4048762.3366910145 0 -4048762.3366910145 1292932.3286973471 0 0 0 0 -115945420.8846283 104484871.09961414 0 104484871.09961414 5421897.0060138702 0 0 0 0 -18636888.073242188 85444688.181003571 0 85444688.181003571 -6206373.1831436157 0 0 0 0 -16914591.557800293 87724687.154930115 0 87724687.154930115 -15078083.368703842 0 0 0 0 200113179.46691895 44583222.579742432 0 44583222.579742432 -29930336.112147331 0 0 0 0 144395753.98989868 10247399.60902977 0 10247399.60902977 -11134279.51112175 0 0 0 0 -55387789.892197132 22566035.001989901 0 22566035.001989901 -7136565.9321708679 0 0 0 0 18905076.501983643 -105363919.37134552 0 -105363919.37134552 160479470.19235897 0 0 0 0 -689083961.00497437 124574866.51114655 0 124574866.51114655 272528418.04410744 0 0 0 0 113228810.64701843 -187688016.97983837 0 -187688016.97983837 148069916.54102039 0 0 0 0 105432049.75292969 -67966330.073077202 0 -67966330.073077202 -43973339.611316681 0 0 0 0 1045063.9705895483 350637.31040485855 0 350637.31040485855 -144028.27275738167 0 0 0 0 172877844.38511658 -56087055.183042526 0 -56087055.183042526 -44877674.052900314 0 0 0 0 199186898.31405258 -110744997.646981 0 -110744997.646981 -7178668.7288131714 0 0 0 0 160152873.84481812 7708213.5079059601 0 7708213.5079059601 -41250706.216064453 0 0 0 0 297271144.57583618 -127330808.03525925 0 -127330808.03525925 -31343762.986376762 0 0 0 0 308272256.41177368 -25255154.579654694 0 -25255154.579654694 -45583263.172846675 0 0 0 0 15203869.875137329 -40193301.112500668 0 -40193301.112500668 31329709.373281002 0 0 0 0 -37711981.679725647 -10749848.025323391 0 -10749848.025323391 -18855190.150302887 0 0 0 0 5456825.9602355957 -25704782.334094048 0 -25704782.334094048 -30926638.803294659 0 0 0 0 -4200055.7811050415 -39073638.138051748 0 -39073638.138051748 -48590702.156638145 0 0 0 0 11846253.189086914 -26521898.442156792 0 -26521898.442156792 -41178761.340620995 0 0 0 0 15449391.343231201 -26867419.752509117 0 -26867419.752509117 -41190258.800055742 0 0 0 0 3385256.8542938232 4704458.9831666946 0 4704458.9831666946 -17266610.715485573 0 0 0 0 -3605991.5533981323 6284529.3794261813 0 6284529.3794261813 -1765979.2628181577 0 0 0 0 6887970.012744166 -6117961.9031865112 0 -6117961.9031865112 1099455.9706768151 0 0 0 0 10177579.980442788 -3283395.7555002468 0 -3283395.7555002468 450660.62228171184 0 0 0 0 -30658440.746070862 -37501004.406353951 0 -37501004.406353951 -15222986.210613251 0 0 0 0 20590328.933815002 13913456.453130722 0 13913456.453130722 -44930520.53053093 0 0 0 0 46679046.23374939 74342907.178180218 0 74342907.178180218 -64800853.95428282 0 0 0 0 -8697414.6031799316 11042795.564731598 0 11042795.564731598 -10461503.784086227 0 0 0 0 -981113.81085205078 37007758.95223999 0 37007758.95223999 1938851.8008775711 0 0 0 0 -174513056.06036377 20586472.706688881 0 20586472.706688881 3532508.2862334251 0 0 0 0 -19035810.110185623 -51257932.458824992 0 -51257932.458824992 -18742585.497033119 0 0 0 0 198013.75121307373 -3513146.9687075615 0 -3513146.9687075615 -11381411.918837786 0 0 0 0 -34360279.999443054 8238054.4453644753 0 8238054.4453644753 2741138.8626794815 0 0 0 0 83940027.612174988 -34182120.889765739 0 -34182120.889765739 -29401101.991336823 0 0 0 0 188081.49084290862 -160004.07925224339 0 -160004.07925224339 -383573.7418417912 0 0 0 0 11164409.834928975 -10021088.429034272 0 -10021088.429034272 621001.91331251618 0 0 0 0 12937450.610939026 -20745425.181031674 0 -20745425.181031674 -1076433.7452833951 0 0 0 0 5039117.243930947 -1651315.6002975684 0 -1651315.6002975684 549701.00407144101 0 0 0 0 7117023.2216032296 -3466959.0160237891 0 -3466959.0160237891 699919.41015877039 0 0 0 0 7800313.4920196533 1127497.5584951937 0 1127497.5584951937 -1254735.2102885842 0 0 0 0 -5201773.2646179199 13335069.825953484 0 13335069.825953484 2440632.2620093822 0 0 0 0 297675.76828765869 -14614933.01003933 0 -14614933.01003933 -14987989.991391182 0 0 0 0 34215939.313537598 -22157080.159027576 0 -22157080.159027576 -31501829.80864346 0 0 0 0 12163444.66447641 -3568108.9587392644 0 -3568108.9587392644 579681.97591775167 0 0 0 0 16798225.22782135 -29050536.501872659 0 -29050536.501872659 -16298221.081082985 0 0 0 0 42460521.135147095 -22054401.006523371 0 -22054401.006523371 -21115260.754778683 0 0 0 0 35156953.124847412 -10243812.797815859 0 -10243812.797815859 -37520758.660944104 0 0 0 0 -740530.72319661453 -1998075.2473843216 0 -1998075.2473843216 936473.97686402267 0 0 0 0 33352844.878936768 -30047237.008116424 0 -30047237.008116424 -24566146.61563921 0 0 0 0 13321796.061454773 -13611702.236568451 0 -13611702.236568451 -15615715.755721092 0 0 0 0 8601333.6154174805 -11198389.094119549 0 -11198389.094119549 7287284.9543757439 0 0 0 0 322250.23307800293 -5066888.999563694 0 -5066888.999563694 -8854221.5174131393 0 0 0 0 12840899.616409302 -25101926.015351295 0 -25101926.015351295 3571533.7633571625 0 0 0 0 16705864.561073303 -25590107.077857018 0 -25590107.077857018 -57287276.558779359 0 0 0 0 61685525.008899689 22960309.04573071 0 22960309.04573071 -37554335.654798508 0 0 0 0 -13549135.977783203 -7072396.7520112991 0 -7072396.7520112991 -8274257.0411510468 0 0 0 0 -43343207.37008667 -42422179.755391836 0 -42422179.755391836 104285730.11038287 0 0 0 0 -4329076.0618057251 5632724.2919507027 0 5632724.2919507027 36665567.49941206 0 0 0 0 -3927463.9471588135 -18206872.176185608 0 -18206872.176185608 35726982.409047127 0 0 0 0 23284621.715763092 12039900.4200086 0 12039900.4200086 8950124.7014636993 0 0 0 0 -10805923.973918915 9380032.045317173 0 9380032.045317173 75902.085776329041 0 0 0 0 -20993660.585708618 -15861850.762596607 0 -15861850.762596607 -4088568.0292582512 0 0 0 0 34608090.939283371 -16808214.869050294 0 -16808214.869050294 -25565438.165036201 0 0 0 0 16146380.981620789 -34111516.14421761 0 -34111516.14421761 -36328476.559127331 0 0 0 0 2218922375.6828079 114048975.29581076 0 114048975.29581076 8354025.9359140573 0 0 0 0 12588978.126655579 -9919445.7965006828 0 -9919445.7965006828 5237182.671790123 0 0 0 0 8168109.6851806641 2624971.9884052277 0 2624971.9884052277 -27360216.977815479 0 0 0 0 -1513071.8397979736 -1449410.7923154831 0 -1449410.7923154831 10903092.177937508 0 0 0 0 1434728.0576324463 4875349.0917286873 0 4875349.0917286873 18416148.43847847 0 0 0 0 10716730.600189209 7678496.0442171097 0 7678496.0442171097 14159369.010945797 0 0 0 0 -1749785.6624603271 5235606.9040732384 0 5235606.9040732384 14918415.760107279 0 0 0 0 7545194.7754516602 -1198688.7841253281 0 -1198688.7841253281 15766799.99745908 0 0 0 0 2839567.2615127563 1917587.0637178421 0 1917587.0637178421 15763377.744980812 0 0 0 0 2213088901.2355671 135550516.53286409 0 135550516.53286409 45907326.875268288 0 0 0 0 15318829.676727295 2299063.6301503181 0 2299063.6301503181 7783501.0518436432 0 0 0 0 3585319.2672804929 -2770300.4625975471 0 -2770300.4625975471 3217738.3302001627 0 0 0 0 2205070931.882431 117996647.76473252 0 117996647.76473252 7519169.2759115603 0 0 0 0 13404849.359481812 -3646959.118937254 0 -3646959.118937254 2786136.6457672119 0 0 0 0 13211772.956634521 -8188815.4175567627 0 -8188815.4175567627 -4088792.7238702774 0 0 0 0 11321150.380727462 -3975402.8386196285 0 -3975402.8386196285 857894.05473401153 0 0 0 0 4541977.673324585 -5585523.6915694475 0 -5585523.6915694475 10348741.801750183 0 0 0 0 3604172.1656188965 -9037202.1661539078 0 -9037202.1661539078 7510905.8890810013 0 0 0 0 12647185.158599854 -1892456.2047195435 0 -1892456.2047195435 7714714.390712738 0 0 0 0 10843730.095550537 -3988179.6889724731 0 -3988179.6889724731 5905463.658908844 0 0 0 0 11107155.240142822 -4956825.0051698685 0 -4956825.0051698685 2734918.6960506439 0 0 0 0 13091295.094686031 -5016901.4268107414 0 -5016901.4268107414 1782298.5394744873 0 0 0 0 13111878.908081055 -5783386.2643814087 0 -5783386.2643814087 -2674527.9740486145 0 0 0 0 11815639.581443787 -8940482.0091409683 0 -8940482.0091409683 -3021230.2967205048 0 0 0 0 8192554.2690658569 -9580431.7841258049 0 -9580431.7841258049 1448170.9476933479 0 0 0 0 -25915609.709320068 6673016.4125430584 0 6673016.4125430584 -19751073.837126732 0 0 0 0 2194358.1485748291 -2879988.2691111565 0 -2879988.2691111565 -20001626.587775111 0 0 0 0 25087056.389610291 -15255950.648129314 0 -15255950.648129314 -43282987.375996113 0 0 0 0 27340799.556304932 -11236646.487125039 0 -11236646.487125039 -36125064.120054126 0 0 0 0 18250402.391601562 3254784.5128335953 0 3254784.5128335953 -45080323.152292609 0 0 0 0 -46758535.069511414 11717711.985073566 0 11717711.985073566 -17996388.655221343 0 0 0 0 -25398889.036270142 12176220.834981441 0 12176220.834981441 -27603126.089240551 0 0 0 0 -33370087.861782074 28306006.110623688 0 28306006.110623688 -31392722.183068514 0 0 0 0 -15366079.94442749 43873345.164298296 0 43873345.164298296 -49094085.340957403 0 0 0 0 14664376.130332947 84630684.645624995 0 84630684.645624995 -121584577.00238848 0 0 0 0 8692146.268157959 37309041.610013366 0 37309041.610013366 -49294619.931377411 0 0 0 0 119109.87192153931 17945331.333258718 0 17945331.333258718 -56594349.766154051 0 0 0 0 87364570.116485596 7802440.2483259439 0 7802440.2483259439 -72302657.879172564 0 0 0 0 48966853.552963257 -34586686.160589308 0 -34586686.160589308 -74818007.777638316 0 0 0 0 44621936.784332275 -40701201.61632067 0 -40701201.61632067 -32435585.552782565 0 0 0 0 2525066.7482059887 -859275.68573753349 0 -859275.68573753349 -363885.6723405752 0 0 0 0 2422733513.2365685 282157904.53445923 0 282157904.53445923 -5649127.4413612876 0 0 0 0 -92711893.690376282 65890096.964354247 0 65890096.964354247 -27448942.28209731 0 0 0 0 2205065119.5483627 128856484.52290942 0 128856484.52290942 56579911.195891187 0 0 0 0 1760849494.6954956 551213521.77581978 0 551213521.77581978 -87605258.70793274 0 0 0 0 626153138.56124878 -354101211.99446493 0 -354101211.99446493 -7878855.6551181227 0 0 0 0 -45679627.130317688 135858220.41179487 0 135858220.41179487 -98063464.445414305 0 0 0 0 224851087.4523468 9458579.3279653788 0 9458579.3279653788 -140975749.1988883 0 0 0 0 97260234.52066803 184775325.07349336 0 184775325.07349336 -302379630.18176067 0 0 0 0 198979991.89946747 -112873420.19727656 0 -112873420.19727656 -55600131.708992429 0 0 0 0 29604339.895049691 -146214061.04073304 0 -146214061.04073304 26885796.62191397 0 0 0 0 -30264662.444793701 -133287596.61962019 0 -133287596.61962019 29950989.538744297 0 0 0 0 1762697336.3137741 274018412.18667787 0 274018412.18667787 -328412709.46811295 0 0 0 0 1041137903.5309448 287866381.62545061 0 287866381.62545061 193892420.06287146 0 0 0 0 47815623.635559082 -191553658.85460517 0 -191553658.85460517 146994049.88679874 0 0 0 0 373373619.30530548 301695428.54900724 0 301695428.54900724 278008229.09604108 0 0 0 0 1519612410.9257011 93795568.998696148 0 93795568.998696148 -65255816.357324839 0 0 0 0 1338887.3059944548 70662.68423281546 0 70662.68423281546 -87826.510026626303 0 0 0 0 220189572.34365845 234419910.02494514 0 234419910.02494514 274651952.46992719 0 0 0 0 1563950110.8290939 -211413903.88044223 0 -211413903.88044223 -222617337.37971562 0 0 0 0 2205649249.5129204 201350850.99476022 0 201350850.99476022 42851991.343768857 0 0 0 0 -117579171.02428436 -32097417.103042781 0 -32097417.103042781 -5136926.9884139299 0 0 0 0 92219834.68850708 4036504.1309911758 0 4036504.1309911758 -248830598.28736976 0 0 0 0 2249362.0995028652 -3533518.5285501275 0 -3533518.5285501275 -48195.939178453031 0 0 0 0 -18536444.461898804 -39299504.322485186 0 -39299504.322485186 40153702.804193385 0 0 0 0 517118.12890375406 -1024473.7142439112 0 -1024473.7142439112 40964.625085130494 0 0 0 0 -48355015.067871094 9422902.4315496385 0 9422902.4315496385 -66281836.436516285 0 0 0 0 7854562.0429458618 -16704977.107503265 0 -16704977.107503265 33276400.551192641 0 0 0 0 26018843.3489151 -46570349.037635535 0 -46570349.037635535 -3700676.8256621361 0 0 0 0 27806106.556873322 -68292517.766733721 0 -68292517.766733721 15437327.338433027 0 0 0 0 -49205854.06678772 -74730243.832428887 0 -74730243.832428887 33108624.359769493 0 0 0 0 -183201900.05329895 134261020.25374156 0 134261020.25374156 387172384.9157638 0 0 0 0 -147383781.63137817 1338295.7571652234 0 1338295.7571652234 -37235566.650092632 0 0 0 0 13080874.107837677 16944083.758951932 0 16944083.758951932 -41235111.234965071 0 0 0 0 3484841.2625871822 72534.82712627732 0 72534.82712627732 -406056.11873634334 0 0 0 0 13375861.993125916 15229508.195489526 0 15229508.195489526 -129667712.20790663 0 0 0 0 71092301.50966835 40943903.764256746 0 40943903.764256746 -119370507.93965304 0 0 0 0 163766961.43162155 154563043.21035528 0 154563043.21035528 35007672.970032364 0 0 0 0 217396661.83819485 -26551782.769738328 0 -26551782.769738328 -37045854.282597482 0 0 0 0 -56508724.412250519 73000270.355913222 0 73000270.355913222 14785562.574237853 0 0 0 0 -18208403.842151642 347522846.80598462 0 347522846.80598462 160183501.90643823 0 0 0 0 150625757.09162903 125938409.73017645 0 125938409.73017645 169991326.91606656 0 0 0 0 83961319.301359177 318721360.27961332 0 318721360.27961332 -224861227.4671739 0 0 0 0 -16557032.577033997 -249412573.060992 0 -249412573.060992 64043531.953324154 0 0 0 0 1189163.8128048852 -157623.58859227737 0 -157623.58859227737 -120318.16105204925 0 0 0 0 2200289840.9732361 -175366418.29042101 0 -175366418.29042101 -440451987.34907997 0 0 0 0 1065120289.0935898 -99887433.104460835 0 -99887433.104460835 122920599.47124285 0 0 0 0 67879549.334972382 -84862959.65173991 0 -84862959.65173991 173894958.50547817 0 0 0 0 1250134.4005613066 -556912.85506316926 0 -556912.85506316926 -310355.00255639519 0 0 0 0 1215239887.7387352 -711582245.86929274 0 -711582245.86929274 -147584121.14048851 0 0 0 0 905378291.48334503 166158205.70265552 0 166158205.70265552 -389132560.26774955 0 0 0 0 2193743492.8212833 -381869359.48808867 0 -381869359.48808867 -406137152.81267565 0 0 0 0 1627773.1077100579 -463705.95270762529 0 -463705.95270762529 64256.069031673731 0 0 0 0 1059340051.5680752 428833021.98578435 0 428833021.98578435 105153763.53715298 0 0 0 0 702513958.65999222 -548295466.08638346 0 -548295466.08638346 373393014.83031899 0 0 0 0 2193559815.2565765 104747715.45611416 0 104747715.45611416 -328946347.8944189 0 0 0 0 34174247.503398895 275402557.76402491 0 275402557.76402491 343961452.43172938 0 0 0 0 -256403546.17153931 -139971207.95770893 0 -139971207.95770893 231881572.39222556 0 0 0 0 -128469651.35463142 101574172.8355903 0 101574172.8355903 161450972.43273789 0 0 0 0 -194611906.16061211 -197665602.40689901 0 -197665602.40689901 69802553.252276659 0 0 0 0 -40276928.777435303 -123756545.99056065 0 -123756545.99056065 -42766822.655068569 0 0 0 0 14775236.397941589 -145291292.50806716 0 -145291292.50806716 -42967179.769644096 0 0 0 0 351876446.07038498 -6936385.6494511962 0 -6936385.6494511962 -144787853.66481474 0 0 0 0 174313389.26654816 -238528133.11175513 0 -238528133.11175513 -34459015.669405527 0 0 0 0 3295136.4933166504 -26250828.958334826 0 -26250828.958334826 -138663208.92663074 0 0 0 0 1501574.5714313127 -1790020.4738500782 0 -1790020.4738500782 -26123.20404672897 0 0 0 0 124405097.38205719 -41130858.520423949 0 -41130858.520423949 -308781176.0705682 0 0 0 0 1283617.6242218018 -2137830.3202372193 0 -2137830.3202372193 -911356.14880210161 0 0 0 0 -21511539.626701355 -134310385.3887822 0 -134310385.3887822 -356274440.0566678 0 0 0 0 166230.25258210022 -24480.66218163725 0 -24480.66218163725 -96433.675744161272 0 0 0 0 3605974.6782003194 -536046.75189209916 0 -536046.75189209916 -108017.94022854214 0 0 0 0 -57640499.389900208 -28259399.327771023 0 -28259399.327771023 -178585190.58871254 0 0 0 0 4187420.6470031738 6072432.1885535717 0 6072432.1885535717 -175955203.35556653 0 0 0 0 -10383331.622718811 -49890344.422634304 0 -49890344.422634304 -89614416.807145968 0 0 0 0 -40867505.436061859 75514363.197274819 0 75514363.197274819 60478282.003955334 0 0 0 0 2773554.4436991122 -271327.41341540404 0 -271327.41341540404 273652.12089757499 0 0 0 0 -32255101.431642532 -31404318.096517913 0 -31404318.096517913 303459.69210115075 0 0 0 0 7611120.9933204651 -8802094.7395059168 0 -8802094.7395059168 -18431494.68613641 0 0 0 0 -10588789.55430603 12807564.960989684 0 12807564.960989684 8505323.83039698 0 0 0 0 167145566.6649437 100655249.8591747 0 100655249.8591747 -31353115.830016553 0 0 0 0 116116803.81973648 119465501.28297766 0 119465501.28297766 1487107.9740041643 0 0 0 0 79611998.304512024 208275888.38289624 0 208275888.38289624 52605882.085404813 0 0 0 0 87328096.58628273 165236996.11260676 0 165236996.11260676 -39444321.084479153 0 0 0 0 188809.43972580507 -272616.79478534032 0 -272616.79478534032 286808.43596984784 0 0 0 0 2163347534.0339737 -587251662.45756209 0 -587251662.45756209 -38673275.741887659 0 0 0 0 50056906.271156311 -1947294.9364626408 0 -1947294.9364626408 -178208653.63038632 0 0 0 0 2172416.5084212571 111468.88074273523 0 111468.88074273523 -2092.1097925426893 0 0 0 0 1288744108.7946625 -233923211.76167864 0 -233923211.76167864 -44977231.992957227 0 0 0 0 205992094.43444824 -245484537.81998 0 -245484537.81998 -19690160.312598564 0 0 0 0 7198996.2356510162 152521660.18768805 0 152521660.18768805 178887623.23084569 0 0 0 0 -185623633.20154381 -61173141.74406413 0 -61173141.74406413 138865201.99647155 0 0 0 0 22617181.998680115 15143334.588824093 0 15143334.588824093 -43596996.433801621 0 0 0 0 42746184.401138306 -63931106.088231325 0 -63931106.088231325 -34551970.88103056 0 0 0 0 11219825.667518616 -19066914.527097583 0 -19066914.527097583 40487573.743695579 0 0 0 0 29760104.903694153 -56119040.520685665 0 -56119040.520685665 31270423.348619938 0 0 0 0 205055043.65462494 -72810489.476530954 0 -72810489.476530954 -15943342.590881996 0 0 0 0 180140085.40946198 80918224.00550285 0 80918224.00550285 -43880293.980032444 0 0 0 0 -6742237.642539978 3024593.0361480713 0 3024593.0361480713 -15771654.99908042 0 0 0 0 101402754.59113312 33281056.579694271 0 33281056.579694271 -114290645.88914877 0 0 0 0 -401384.99197097123 928139.78315693885 0 928139.78315693885 -46365.988336176335 0 0 0 0 -46576516.234405518 41472900.987027168 0 41472900.987027168 -47571002.679087937 0 0 0 0 6136795.4621097036 -2076760.6232626978 0 -2076760.6232626978 -2051923.9275344098 0 0 0 0 -5321719.4787521362 3573111.9726791382 0 3573111.9726791382 7570619.3164832592 0 0 0 0 8131794.6064370219 100040.84662995581 0 100040.84662995581 -959299.17700947449 0 0 0 0 -2558430.8364601135 18671798.70537135 0 18671798.70537135 -1840230.332547605 0 0 0 0 -13470366.450180054 -6262439.4146168232 0 -6262439.4146168232 -5871068.0474746227 0 0 0 0 -5917196.2448883057 15762187.032965183 0 15762187.032965183 10230609.623133302 0 0 0 0 -212733.31379510835 1257493.778374169 0 1257493.778374169 -75895.817005902223 0 0 0 0 16968505.172210693 5599728.0564112663 0 5599728.0564112663 -15634890.289359689 0 0 0 0 49478818.870315552 -47655988.695498943 0 -47655988.695498943 -53945112.869432569 0 0 0 0 7546351.6305550374 -67922.471789347939 0 -67922.471789347939 -898865.88426593295 0 0 0 0 10483465.051841736 49239771.344267368 0 49239771.344267368 -16602897.670236528 0 0 0 0 2160266.6441802979 13486450.62961328 0 13486450.62961328 -13222679.127534151 0 0 0 0 1975846.4314140119 -680607.07825330552 0 -680607.07825330552 -762315.73914477392 0 0 0 0 -17574552.22454071 33608662.005665779 0 33608662.005665779 -502070.53953588009 0 0 0 0 18629739.376478195 -8456866.5730702877 0 -8456866.5730702877 -7028135.3577024937 0 0 0 0 53140598.475090027 -10187746.452881455 0 -10187746.452881455 14888039.477940559 0 0 0 0 61108142.952255249 31255036.854859352 0 31255036.854859352 -9009870.265810132 0 0 0 0 24175963.779457092 -32766392.520180225 0 -32766392.520180225 -17175145.12005353 0 0 0 0 65237592.549194336 -23918744.092340469 0 -23918744.092340469 -15764077.827849627 0 0 0 0 66908095.637130737 -43298576.764698982 0 -43298576.764698982 -72900.889930486679 0 0 0 0 61023875.282356262 -27572056.750135303 0 -27572056.750135303 -15249068.328053951 0 0 0 0 26271878.153411865 -77204681.94634819 0 -77204681.94634819 -91437063.532565117 0 0 0 0 51595036.792327881 32963384.288411617 0 32963384.288411617 169205077.20566559 0 0 0 0 1691290.579797931 -118621.68245436531 0 -118621.68245436531 -188869.9274970371 0 0 0 0 3708554.3808008861 -661751.86174786277 0 -661751.86174786277 341723.86261796393 0 0 0 0 10294570.171230316 -2223769.7722055912 0 -2223769.7722055912 -2149245.8352515697 0 0 0 0 -41290834.215942383 -34474938.161199555 0 -34474938.161199555 19004582.445347667 0 0 0 0 10371823.985595703 -2986749.2960618734 0 -2986749.2960618734 -2731141.5952525139 0 0 0 0 597803.34268188477 -2297521.0480397642 0 -2297521.0480397642 1748514.6133573949 0 0 0 0 9461520.0214157104 -3405261.3767028153 0 -3405261.3767028153 -221597.80471169949 0 0 0 0 8881824.7032804489 -5623155.8794797808 0 -5623155.8794797808 -6220037.7636061907 0 0 0 0 2972494.598613739 -7706198.62055251 0 -7706198.62055251 7826598.2061589658 0 0 0 0 25250340.945457458 -41044245.25701353 0 -41044245.25701353 -14820801.317298084 0 0 0 0 43854561.411003113 -26915645.397627831 0 -26915645.397627831 -27907169.471961617 0 0 0 0 41828872.292510033 -18112798.381437778 0 -18112798.381437778 -6726927.5677113533 0 0 0 0 15170472.35105896 -15174761.717737749 0 -15174761.717737749 -5445642.4934000373 0 0 0 0 15586318.262825012 -13349735.087778658 0 -13349735.087778658 -1167898.901060462 0 0 0 0 24369397.328887939 -30587149.876798004 0 -30587149.876798004 17801893.581635475 0 0 0 0 8563285.5016479492 -9416145.3453279138 0 -9416145.3453279138 12103942.184603944 0 0 0 0 71797186.853450775 85705609.794190735 0 85705609.794190735 -167885829.65033105 0 0 0 0 1084416.8103776425 -831719.41565983905 0 -831719.41565983905 -37140.85802081092 0 0 0 0 8712580.6641998291 -10625166.017457932 0 -10625166.017457932 8716962.1084045768 0 0 0 0 -2392350.9420681 45623018.89197477 0 45623018.89197477 -56293312.945897162 0 0 0 0 121775527.68665314 120160119.38604522 0 120160119.38604522 -23851724.733291358 0 0 0 0 14857307.131374359 -18318171.561563075 0 -18318171.561563075 -140340444.17906514 0 0 0 0 1141022.5453662872 118481646.44168672 0 118481646.44168672 51652715.76422739 0 0 0 0 58982.241304222494 -1877.2604527897201 0 -1877.2604527897201 -9017.8385946141352 0 0 0 0 4221.5481157302856 -26031803.690823361 0 -26031803.690823361 -74901618.763291359 0 0 0 0 4801280.1822738647 -5006142.0342145264 0 -5006142.0342145264 -50235795.281626582 0 0 0 0 -31696716.062393188 83768167.978813648 0 83768167.978813648 18249600.620196968 0 0 0 0 382347.94436886534 -286131.77777464769 0 -286131.77777464769 -2036.4322479874936 0 0 0 0 30050119.798347473 -76024072.841307893 0 -76024072.841307893 130046848.78273198 0 0 0 0 200670544.78632355 -104521470.08400244 0 -104521470.08400244 22573795.513808578 0 0 0 0 -31441.299910111353 -29393.991205142811 0 -29393.991205142811 47601.01307253007 0 0 0 0 -5408193.4553985596 132982746.48304221 0 132982746.48304221 6682044.0623526573 0 0 0 0 64569144.703609467 49213246.527420193 0 49213246.527420193 -34110668.994918972 0 0 0 0 37305687.87012291 -51720695.006733924 0 -51720695.006733924 -119012950.7982595 0 0 0 0 19960661.634399414 2802938.3124598265 0 2802938.3124598265 -51146934.109978497 0 0 0 0 17923259.74471283 -23397210.145671546 0 -23397210.145671546 -71545539.525017977 0 0 0 0 57763364.085914612 -8794489.2401217222 0 -8794489.2401217222 -66262608.516629934 0 0 0 0 12029468.261562347 -24940803.436128482 0 -24940803.436128482 -55027717.290544748 0 0 0 0 8608739.8170166016 -5356015.6273364425 0 -5356015.6273364425 -35157973.023123503 0 0 0 0 8937686.5003967285 -5554551.8629258275 0 -5554551.8629258275 -57052735.059563212 0 0 0 0 21796207.087310791 -15864281.497861266 0 -15864281.497861266 -59335477.869552374 0 0 0 0 4034465.2251052856 1032798.4176630676 0 1032798.4176630676 -29477874.546465099 0 0 0 0 6866053.0672874451 17374731.39823702 0 17374731.39823702 -76371410.313797772 0 0 0 0 18522715.829073906 -28129368.920147032 0 -28129368.920147032 -19843792.565526195 0 0 0 0 -490037.80166649446 -221313.32648951164 0 -221313.32648951164 -298150.26518475136 0 0 0 0 18575572.712623596 -22350767.137189563 0 -22350767.137189563 2312708.965770714 0 0 0 0 7927640.530090332 -12329827.49017787 0 -12329827.49017787 21091453.019673616 0 0 0 0 4606433.4143714905 2928083.188619554 0 2928083.188619554 -12454858.206363201 0 0 0 0 305350.01435470581 -435661.36391595006 0 -435661.36391595006 -6408376.6176252365 0 0 0 0 198084217.89506149 220137754.26334959 0 220137754.26334959 85251603.548705339 0 0 0 0 -58451897.215263367 19190370.225233406 0 19190370.225233406 106852882.24041647 0 0 0 0 6901251.0796089172 133979559.42682895 0 133979559.42682895 257196466.78435767 0 0 0 0 -12566919.834754944 -6622792.484901011 0 -6622792.484901011 -39507682.373103082 0 0 0 0 -24713546.89981842 19117074.158544824 0 19117074.158544824 -61421620.176865578 0 0 0 0 -25063865.777565002 -29509071.936318263 0 -29509071.936318263 56771994.910430364 0 0 0 0 -204487.25376401842 -35174.828535743523 0 -35174.828535743523 -71832.917817548994 0 0 0 0 2390716.5354614258 1034353.4351143576 0 1034353.4351143576 -2890591.2367202444 0 0 0 0 95913387.291683197 -130762907.87094277 0 -130762907.87094277 67896630.78151083 0 0 0 0 -19410077.092191696 -26160781.979515508 0 -26160781.979515508 11876034.695972443 0 0 0 0 21379542.267990112 -12451925.14216274 0 -12451925.14216274 -102090129.5555968 0 0 0 0 4740185.05810038 -78533.164616926108 0 -78533.164616926108 -820867.25797465269 0 0 0 0 23489544.503383636 -54281598.252445027 0 -54281598.252445027 -25303926.456201255 0 0 0 0 -29869869.933563232 -7732424.1166376472 0 -7732424.1166376472 -4468784.6098383926 0 0 0 0 1932365.6405426264 1635229.0767030069 0 1635229.0767030069 -1514667.6035811969 0 0 0 0 -108434732.90875244 35732639.675793648 0 35732639.675793648 138052479.19691646 0 0 0 0 -79073639.314346313 178499826.57604444 0 178499826.57604444 -91049307.686360359 0 0 0 0 -225440225.24596977 -106978145.60159892 0 -106978145.60159892 20099853.296583652 0 0 0 0 -14471.869529724121 -147712272.47222283 0 -147712272.47222283 26618609.449363708 0 0 0 0 44297554.201896667 -53621712.345120549 0 -53621712.345120549 -342347976.15577984 0 0 0 0 26713498.533981323 -96301073.394013643 0 -96301073.394013643 6898591.5620462894 0 0 0 0 1484523.4873046875 97820618.657128692 0 97820618.657128692 -113843238.85308814 0 0 0 0 84028704.882240295 53264152.980437636 0 53264152.980437636 -117618855.54041278 0 0 0 0 -6620761.4944839478 3054590.5055642128 0 3054590.5055642128 26593285.139862061 0 0 0 0 22453320.07611084 -23514218.347462177 0 -23514218.347462177 -38851865.457427144 0 0 0 0 38036131.644119263 -18258045.816879436 0 -18258045.816879436 -32050239.162420742 0 0 0 0 -118454719.89754486 -5401481.4375683144 0 -5401481.4375683144 20800459.116896749 0 0 0 0 -2510.6296564321965 -229967.50732925348 0 -229967.50732925348 -185665.9420229386 0 0 0 0 19484046.119720459 -11811917.581027403 0 -11811917.581027403 -17270473.852143377 0 0 0 0 4500988.3335291408 655620.25126724876 0 655620.25126724876 -708618.7103410447 0 0 0 0 53650249.263015747 20049259.033339024 0 20049259.033339024 -30953533.162051439 0 0 0 0 -14146283.598252296 -39430342.476758853 0 -39430342.476758853 -23562484.615887083 0 0 0 0 5228455.9419574924 786985.32352955407 0 786985.32352955407 -716911.53161209845 0 0 0 0 269627834.48529053 17160460.424087524 0 17160460.424087524 -406132829.1292963 0 0 0 0 -3834.3377354182303 -1302704.3961003835 0 -1302704.3961003835 -479703.45071114547 0 0 0 0 -16618044.656784058 -13937218.29972887 0 -13937218.29972887 1165037.9650249481 0 0 0 0 115692564.2845459 -19547909.156490624 0 -19547909.156490624 -87822101.353720888 0 0 0 0 7729967.354309082 -55656347.908562183 0 -55656347.908562183 -53323994.565065145 0 0 0 0 845911393.42590332 -428152711.5225296 0 -428152711.5225296 22726208.392063141 0 0 0 0 12073892.999782939 -2704078.4337195186 0 -2704078.4337195186 -101647.69275737181 0 0 0 0 28832751.249382019 -22188282.281164169 0 -22188282.281164169 -157021105.91322273 0 0 0 0 141259912.21073914 144956862.55291307 0 144956862.55291307 -382030705.60864174 0 0 0 0 -14716258.480560303 123210866.37268543 0 123210866.37268543 325164165.7882266 0 0 0 0 256852125.62663651 202263824.84131974 0 202263824.84131974 -103263491.68640566 0 0 0 0 10924471.898193359 119624187.21825588 0 119624187.21825588 101605575.78653336 0 0 0 0 10202705.700340271 51228122.689201951 0 51228122.689201951 -133545503.4117732 0 0 0 0 -19030974.611495972 -203819116.30641517 0 -203819116.30641517 325397514.0028739 0 0 0 0 28717425.761749268 -164374938.34402657 0 -164374938.34402657 67537897.492105007 0 0 0 0 -6833216.6033096313 7661422.5343225598 0 7661422.5343225598 -49077752.233353615 0 0 0 0 -239237957.46619415 -2242911.25908041 0 -2242911.25908041 -398072574.65601653 0 0 0 0 5531465.964635849 -28183784.414009333 0 -28183784.414009333 5695917.6516512632 0 0 0 0 13183587.046279982 -1001158.8476044964 0 -1001158.8476044964 -1222485.6925770757 0 0 0 0 1152723.3225506693 -1695049.0282155923 0 -1695049.0282155923 -251872.1100436959 0 0 0 0 15979391.836479187 -30769730.407024026 0 -30769730.407024026 -90117805.026011705 0 0 0 0 39824618.843132019 -41338941.411351204 0 -41338941.411351204 -135486826.6761055 0 0 0 0 92946229.464004517 48940235.771440268 0 48940235.771440268 -431095458.5845902 0 0 0 0 -29955.364123675972 31523.041783711873 0 31523.041783711873 -141731.7118345479 0 0 0 0 -29174270.038742065 -31536277.014977455 0 -31536277.014977455 46586790.657813549 0 0 0 0 -29803522.305290222 -34567853.654157639 0 -34567853.654157639 17405448.903985381 0 0 0 0 40403867.25213623 -54073852.478113174 0 -54073852.478113174 -7886960.4108655453 0 0 0 0 -17884278.323401451 2174757.8108918667 0 2174757.8108918667 -51557989.624934196 0 0 0 0 21737563.878814697 -15589869.067816257 0 -15589869.067816257 -66564607.229464769 0 0 0 0 3555578.2589778192 641766.06024025637 0 641766.06024025637 -723274.81208536879 0 0 0 0 -1544756.4838104248 -15934475.135050774 0 -15934475.135050774 -50853598.075253725 0 0 0 0 -13413272.305160522 -3170140.2950530052 0 -3170140.2950530052 -41079914.467922211 0 0 0 0 11696402.285675049 -1086965.3455648422 0 -1086965.3455648422 -46595898.389011383 0 0 0 0 5758229.3999938965 8972038.934237957 0 8972038.934237957 -38374164.443284988 0 0 0 0 -10112938.073226929 14466920.968083858 0 14466920.968083858 -46022359.846070766 0 0 0 0 16745363.718292236 -12039007.877722263 0 -12039007.877722263 -51128160.475292444 0 0 0 0 43477050.747108459 -8668080.3510138988 0 -8668080.3510138988 -79693218.954628944 0 0 0 0 35833269.46131134 8802467.4737472534 0 8802467.4737472534 -109279795.11936617 0 0 0 0 13444288.229873657 16550124.255025387 0 16550124.255025387 -64706514.417145967 0 0 0 0 9304780.4216690063 -4067229.3038363457 0 -4067229.3038363457 -50052369.942785263 0 0 0 0 13812586.389469147 13198004.210417867 0 13198004.210417867 -39575367.484368324 0 0 0 0 -80978125.838562012 -56975557.571516037 0 -56975557.571516037 -20883902.978370428 0 0 0 0 28502557.054000854 68479484.210717678 0 68479484.210717678 -24479732.651982307 0 0 0 0 74048217.400939941 33832515.527691841 0 33832515.527691841 -92261904.794395924 0 0 0 0 512029.51300032437 2193268.6900387974 0 2193268.6900387974 -1005801.5419995325 0 0 0 0 -78052828.786315918 -21813173.331307411 0 -21813173.331307411 -182283762.10074413 0 0 0 0 86141618.595851898 38129359.011274576 0 38129359.011274576 -90794056.018465996 0 0 0 0 12445729.096775178 -1337337.1475018892 0 -1337337.1475018892 -1063281.1450101915 0 0 0 0 36926349.121536255 -75356264.042387962 0 -75356264.042387962 -213258319.76364326 0 0 0 0 299603648.98272705 43809075.511926174 0 43809075.511926174 -430313235.4596777 0 0 0 0 253412811.48664474 165476593.77807474 0 165476593.77807474 -214950421.34568787 0 0 0 0 -43541429.034297943 40303006.486806989 0 40303006.486806989 -112883811.15248299 0 0 0 0 3865276.7797241211 96387027.256993294 0 96387027.256993294 95448853.585307121 0 0 0 0 29693492.954780579 37638896.023864806 0 37638896.023864806 -153222125.32585573 0 0 0 0 16988413.862350464 20933708.301829338 0 20933708.301829338 -159040139.25128341 0 0 0 0 650929.74184955284 215802.70318498882 0 215802.70318498882 -220874.10989599663 0 0 0 0 18123071.115890503 63170986.316299438 0 63170986.316299438 49780325.61777401 0 0 0 0 108389655.67211151 164652325.47820687 0 164652325.47820687 -18181907.138183594 0 0 0 0 131053.8667861633 282878.14027258428 0 282878.14027258428 -281574.23810033116 0 0 0 0 -26064177.480266571 11339062.138339877 0 11339062.138339877 552701.94556236267 0 0 0 0 62874314.826309204 -69918806.3417027 0 -69918806.3417027 -299179634.47584748 0 0 0 0 -17242424.448783875 -1267663.7820129395 0 -1267663.7820129395 -20769648.964809418 0 0 0 0 -10141232.624744415 20424060.448031545 0 20424060.448031545 55046588.635782719 0 0 0 0 -19066790.733921051 -2648709.3239029646 0 -2648709.3239029646 -2933393.9555339813 0 0 0 0 3961628.2982025146 17011067.498086452 0 17011067.498086452 -15748187.142203331 0 0 0 0 4169989.2626037598 10173940.010438442 0 10173940.010438442 -13217532.296526909 0 0 0 0 -20836925.875297546 15042727.152396679 0 15042727.152396679 4200910.067658782 0 0 0 0 31713735.969146729 26404058.404993534 0 26404058.404993534 -20426732.534830093 0 0 0 0 29113374.020278931 30851676.143738747 0 30851676.143738747 -25354962.986509323 0 0 0 0 36271747.993362427 8480829.1864533424 0 8480829.1864533424 -49226670.015239716 0 0 0 0 59486137.765089035 78427274.262385309 0 78427274.262385309 -163907.57169723511 0 0 0 0 18165821.562545776 30699106.534921646 0 30699106.534921646 14336338.425727844 0 0 0 0 17913430.543746948 27505819.057130814 0 27505819.057130814 -6814147.0378322601 0 0 0 0 23330883.094528198 29511479.652776718 0 29511479.652776718 -9750595.7750606537 0 0 0 0 34495943.598493576 38930488.708565474 0 38930488.708565474 -12566288.632556915 0 0 0 0 23462945.701858521 24294475.064105034 0 24294475.064105034 -22028016.104700089 0 0 0 0 30420105.328613281 23783273.347148895 0 23783273.347148895 -23895735.154680252 0 0 0 0 24930935.505767822 12886717.812556982 0 12886717.812556982 -35383114.77208519 0 0 0 0 19376080.11151123 18141113.528122902 0 18141113.528122902 -12688386.820893526 0 0 0 0 34394309.469573975 1987480.0699310303 0 1987480.0699310303 -27726694.903388977 0 0 0 0 33271328.3931427 7663089.3313808441 0 7663089.3313808441 -55111374.50086689 0 0 0 0 20067219.416900635 20698067.421668053 0 20698067.421668053 -40408283.275717735 0 0 0 0 31543421.009784698 18236229.453547657 0 18236229.453547657 -40923967.008958817 0 0 0 0 19549463.668212891 5730221.0202083588 0 5730221.0202083588 -45334243.726539612 0 0 0 0 145022.20865062252 -365033.11038086424 0 -365033.11038086424 -320079.36402104521 0 0 0 0 -29107848.995407104 10796701.505532742 0 10796701.505532742 8000725.1223506927 0 0 0 0 18144289.704956055 19477127.924497604 0 19477127.924497604 -63400745.389239311 0 0 0 0 -107955.83320109546 -280127.50350843417 0 -280127.50350843417 -162256.40636013832 0 0 0 0 33578771.561202049 -6540522.3439999223 0 -6540522.3439999223 -5935062.8323888779 0 0 0 0 15256953.066619873 241953.26546573639 0 241953.26546573639 -21805319.27836895 0 0 0 0 34114403.423294067 -10322896.438764572 0 -10322896.438764572 -16050018.366210938 0 0 0 0 15271167.259991914 5114316.0292995377 0 5114316.0292995377 -12405828.547201157 0 0 0 0 -5089153.1850585938 9769354.5010561943 0 9769354.5010561943 -11849312.827058792 0 0 0 0 9378730.5981216431 -9069232.917678833 0 -9069232.917678833 -3261751.1757164001 0 0 0 0 -11189022.103652954 -1088215.73416996 0 -1088215.73416996 -4677792.4788259268 0 0 0 0 2021384.3755767718 235888.16382415034 0 235888.16382415034 -1391998.315025673 0 0 0 0 39694954.040138245 -13184670.691105843 0 -13184670.691105843 -31009794.461133957 0 0 0 0 6543402.6750030518 -2839388.7400527 0 -2839388.7400527 -1692415.2751718163 0 0 0 0 33759729.774856567 19356914.603759527 0 19356914.603759527 8699838.885122776 0 0 0 0 462986.96451146156 303366.10601084493 0 303366.10601084493 -361846.21825710149 0 0 0 0 -13193651.489624023 24425186.132767677 0 24425186.132767677 -12735404.169153094 0 0 0 0 -18236385.930915833 9096108.6611757278 0 9096108.6611757278 -3516500.1013460159 0 0 0 0 -91136599.740047455 -71679364.054620504 0 -71679364.054620504 -27886938.631135464 0 0 0 0 162212.46790567786 69857.657289976953 0 69857.657289976953 -497332.83948720689 0 0 0 0 45052177.130157471 52734380.807056308 0 52734380.807056308 -18646672.910068512 0 0 0 0 429692719.83273315 122866518.416049 0 122866518.416049 -1409730668.0010185 0 0 0 0 4725250.7628936768 73762794.771341622 0 73762794.771341622 -45090323.7714113 0 0 0 0 94140761.253961563 -341776795.06675386 0 -341776795.06675386 -922748697.67478323 0 0 0 0 10882976.805526733 -4654896.0913575888 0 -4654896.0913575888 -3266656.573631376 0 0 0 0 1387852.475415284 44135.202811021358 0 44135.202811021358 -1147060.5458294852 0 0 0 0 160002.97962837666 -1008084.57242586 0 -1008084.57242586 -1830308.6179061998 0 0 0 0 -27550021.418769836 3467434.6296720877 0 3467434.6296720877 4601916.2748982906 0 0 0 0 13116987.807155609 706587.65998500586 0 706587.65998500586 -5823081.853427127 0 0 0 0 -17851855.791381836 263056.60106146336 0 263056.60106146336 -2506163.343473196 0 0 0 0 5314760.8342285156 8231644.5965965688 0 8231644.5965965688 -7198321.5608454943 0 0 0 0 -39748895.032051086 -41083027.371981382 0 -41083027.371981382 -27604101.920341969 0 0 0 0 -9510884.5945281982 -18064932.822471321 0 -18064932.822471321 -11823577.635937214 0 0 0 0 10243712.299371719 -28884744.96506466 0 -28884744.96506466 -43993230.763767719 0 0 0 0 -10099925.42250061 -24706035.454207122 0 -24706035.454207122 -29777259.533494234 0 0 0 0 -5368440.432220459 -10989610.65820384 0 -10989610.65820384 -23076177.197054207 0 0 0 0 -10745611.623550415 -14031776.402614594 0 -14031776.402614594 -15426305.802085876 0 0 0 0 -6011465.1938934326 -4176597.450189352 0 -4176597.450189352 -6135240.6158406734 0 0 0 0 -7267152.6139450073 -5614533.4589069337 0 -5614533.4589069337 -1079722.2969313115 0 0 0 0 -8038730.0202713013 -7453229.2425962687 0 -7453229.2425962687 398189.16743946075 0 0 0 0 -27426471.128166199 3410209.076476194 0 3410209.076476194 -11600292.752175674 0 0 0 0 -3375167.8224182129 -8162139.654404819 0 -8162139.654404819 -3916202.1351875663 0 0 0 0 -146767.4912885949 -969830.6722273815 0 -969830.6722273815 -480675.48560096498 0 0 0 0 -497186.6529055126 -862052.83765972196 0 -862052.83765972196 -807169.7968607744 0 0 0 0 -2548967.7120597214 -3359659.2914831918 0 -3359659.2914831918 -1068319.0765171931 0 0 0 0 6037236.0226974487 -7483573.2738731652 0 -7483573.2738731652 -16584541.631404161 0 0 0 0 2368875.316457808 -231248.19968118705 0 -231248.19968118705 -1364786.8944147774 0 0 0 0 3650586.6167907715 -15152004.681137085 0 -15152004.681137085 -15541222.858175278 0 0 0 0 1198604.9285316467 6916651.5289530158 0 6916651.5289530158 2374439.41234833 0 0 0 0 4910101.3767356873 3898566.0168999285 0 3898566.0168999285 -6063152.7737814188 0 0 0 0 4586097.9247589111 4987314.9350327253 0 4987314.9350327253 -4391382.8264298439 0 0 0 0 389955.31989860535 1997677.7763698101 0 1997677.7763698101 -2853893.8392148018 0 0 0 0 1225449.9094238281 -587574.94362831116 0 -587574.94362831116 -1994596.3874070644 0 0 0 0 620248.1428559497 81989.14962037839 0 81989.14962037839 -1189900.0678164263 0 0 0 0 69591718.010631561 28137493.496887445 0 28137493.496887445 -105811190.709795 0 0 0 0 962000.85211880878 582910.50833844184 0 582910.50833844184 -720157.63548626227 0 0 0 0 34697749.336930275 -33709831.550521076 0 -33709831.550521076 -61280232.173358917 0 0 0 0 304887.45723156631 -49083.691357110627 0 -49083.691357110627 -521136.19860177534 0 0 0 0 -71289325.830764771 55650383.2520082 0 55650383.2520082 -36479667.639904976 0 0 0 0 -4508104.7320747375 -207604.45614147186 0 -207604.45614147186 -2861238.122854948 0 0 0 0 -15762983.038150787 36636073.945822775 0 36636073.945822775 -57124817.052152157 0 0 0 0 397484.36239433289 433690.37043845654 0 433690.37043845654 -2916557.9250545502 0 0 0 0 1590523.1665497907 742806.13132979861 0 742806.13132979861 -1083167.619862421 0 0 0 0 -27896148.221946716 -30991596.688984871 0 -30991596.688984871 -35941323.236374378 0 0 0 0 -2641450.8314819336 15101229.727052212 0 15101229.727052212 -28262505.277227879 0 0 0 0 881792.44549624622 388343.85018631909 0 388343.85018631909 -640404.86079979828 0 0 0 0 30512021.266998291 27458796.658801556 0 27458796.658801556 -81615334.896954536 0 0 0 0 38551754.549570084 8597528.9319727421 0 8597528.9319727421 -92104173.121654987 0 0 0 0 6037029.2524986267 -6947859.9832828045 0 -6947859.9832828045 -79124442.114360332 0 0 0 0 19758579.348867416 -17262102.500376701 0 -17262102.500376701 -122674266.8568778 0 0 0 0 1763066.6118733957 310068.64543207642 0 310068.64543207642 -580410.53909459955 0 0 0 0 394410.5177914314 920806.8875282309 0 920806.8875282309 -856348.26333340141 0 0 0 0 7711086.3103027344 -1742507.519490242 0 -1742507.519490242 -5540612.0438818932 0 0 0 0 -11956600.501693726 17369436.472131729 0 17369436.472131729 -92982015.475265026 0 0 0 0 -21230111.803955078 -60689034.48943758 0 -60689034.48943758 -157698336.45650029 0 0 0 0 137765888.76266479 -8470319.7707719803 0 -8470319.7707719803 -45693588.594819069 0 0 0 0 -1692100.9752616882 84568862.01321125 0 84568862.01321125 -9353695.1283398867 0 0 0 0 123009896.80968475 -19459954.438455701 0 -19459954.438455701 -19284630.555950165 0 0 0 0 -20463964.944965839 13438692.395716727 0 13438692.395716727 -15179983.5022645 0 0 0 0 -30078.004845226184 89355.953197550029 0 89355.953197550029 80354.540228418075 0 0 0 0 49286671.251773834 17086741.26508224 0 17086741.26508224 -27588713.527944565 0 0 0 0 63008777.951702118 -18777137.781638622 0 -18777137.781638622 -116616266.24810076 0 0 0 0 20184718.190441132 10585303.589166403 0 10585303.589166403 -30752686.234870493 0 0 0 0 27939025.965339661 -3419292.8626039028 0 -3419292.8626039028 -34048277.337705612 0 0 0 0 2658560.2881164551 281614.29177117348 0 281614.29177117348 -24595321.20834744 0 0 0 0 -12475675.382364273 -17658656.386951923 0 -17658656.386951923 -39167217.731375694 0 0 0 0 15157115.314098358 -750099.06609654427 0 -750099.06609654427 -54625871.738862991 0 0 0 0 2876844.4241600037 -8615316.4259531498 0 -8615316.4259531498 -36974354.410039425 0 0 0 0 -13038755.912063599 -39843966.720916748 0 -39843966.720916748 -77251969.479525089 0 0 0 0 2895529.2556604147 -21734943.587508004 0 -21734943.587508004 -60924374.228475571 0 0 0 0 1346463.2717840523 387283.53487515682 0 387283.53487515682 -1144294.8243445356 0 0 0 0 687168.13084793091 60435.597306251526 0 60435.597306251526 -1759504.0551378727 0 0 0 0 -22531637.786186218 -31048198.189044476 0 -31048198.189044476 -38731707.116835833 0 0 0 0 -10227348.770799637 -21156825.411277294 0 -21156825.411277294 -34332303.162239552 0 0 0 0 22327857.74887085 15412697.688948274 0 15412697.688948274 -55774256.216974258 0 0 0 0 23072800.862866402 9673047.7245088816 0 9673047.7245088816 -64553668.755879402 0 0 0 0 36010818.457847595 -1353670.5140500069 0 -1353670.5140500069 -86801167.715197682 0 0 0 0 17093640.698384285 -1430146.1579297483 0 -1430146.1579297483 -67825490.17449379 0 0 0 0 16295890.708767891 4435526.555785358 0 4435526.555785358 -57770625.001753807 0 0 0 0 13135686.802902222 8990261.3134670258 0 8990261.3134670258 -50023324.039824009 0 0 0 0 17964021.263683319 8157359.5700573921 0 8157359.5700573921 -50519767.879621983 0 0 0 0 -19542941.333774567 8089127.2333569527 0 8089127.2333569527 -3850810.5230825543 0 0 0 0 3929680.663649898 1520818.6028698112 0 1520818.6028698112 359039.13798518316 0 0 0 0 15819423.542419434 13501007.924542665 0 13501007.924542665 -43550175.264229298 0 0 0 0 11502770.492506742 -3520069.2570644915 0 -3520069.2570644915 -56331445.184260368 0 0 0 0 30425034.283546448 -11587427.673923492 0 -11587427.673923492 -44634547.187029123 0 0 0 0 55765791.00245285 10297929.183920383 0 10297929.183920383 -53023809.74929142 0 0 0 0 1277189.4969531074 2042109.5510021711 0 2042109.5510021711 -5734.1753802548628 0 0 0 0 25544633.098436356 -16295580.672534227 0 -16295580.672534227 -48053382.297073841 0 0 0 0 8520570.8594284058 29036429.481739998 0 29036429.481739998 9513692.113266468 0 0 0 0 9176847.948474884 -502689.52683663368 0 -502689.52683663368 289846.99747347832 0 0 0 0 8148563.0303058624 -447107.88395607471 0 -447107.88395607471 2180819.6881124973 0 0 0 0 8950021.2957877293 1519546.7881908487 0 1519546.7881908487 -141600.72662575415 0 0 0 0 9306618.0526943207 1277486.5917098522 0 1277486.5917098522 -3221595.1436401606 0 0 0 0 8600337.5272674561 944825.20256078243 0 944825.20256078243 682470.99569055438 0 0 0 0 9232518.1880148649 2692716.8689851463 0 2692716.8689851463 -2179799.681129694 0 0 0 0 8866057.450761795 -992020.29210269451 0 -992020.29210269451 76828.070368289948 0 0 0 0 6214233.5281295776 2384634.976025939 0 2384634.976025939 4543305.8634991646 0 0 0 0 5901810.1493960302 2011126.997418069 0 2011126.997418069 436847.10125015862 0 0 0 0 5872294.068655014 200881.3509619236 0 200881.3509619236 -3310983.424939096 0 0 0 0 2832237.7057514191 4782704.5632382631 0 4782704.5632382631 -3612039.9053213298 0 0 0 0 6437147.3368453979 6252012.0380938649 0 6252012.0380938649 -11307417.066034794 0 0 0 0 4174088.2956446335 1241801.245708717 0 1241801.245708717 291716.16761983832 0 0 0 0 35436446.749488831 -55612933.999193907 0 -55612933.999193907 -45216267.972818017 0 0 0 0 3575400.4542760849 5614991.0667618513 0 5614991.0667618513 2719668.8143341541 0 0 0 0 8236476.6353130341 1781189.6002602577 0 1781189.6002602577 -3054278.5783520341 0 0 0 0 2662741.4445114136 31377943.463549733 0 31377943.463549733 -18323492.236404896 0 0 0 0 -43228382.738746643 -82480015.138638616 0 -82480015.138638616 -147070877.34969354 0 0 0 0 -129828076.89988708 96525729.440098897 0 96525729.440098897 114266222.53689395 0 0 0 0 34466953.442828655 17372291.856304392 0 17372291.856304392 -54918781.094137669 0 0 0 0 96583258.942977905 -80108955.42322588 0 -80108955.42322588 -235047728.35820055 0 0 0 0 -324771731.61630249 14393839.347034693 0 14393839.347034693 116658470.25535443 0 0 0 0 123315158.43914413 14401425.253056228 0 14401425.253056228 -105507081.98260045 0 0 0 0 -78807333.332149506 -106618160.20164418 0 -106618160.20164418 -70683523.555858493 0 0 0 0 -2410093.0319137573 -52111169.565925479 0 -52111169.565925479 -60641626.74641645 0 0 0 0 -2559929.270983696 -51201814.161425658 0 -51201814.161425658 -30686548.957616806 0 0 0 0 -76610872.677029371 -26093868.066386521 0 -26093868.066386521 -4748945.1894825697 0 0 0 0 -32385800.067882538 141151163.51766336 0 141151163.51766336 -216666845.71963054 0 0 0 0 92370.735499186441 -317989.60178639647 0 -317989.60178639647 -687862.92265002523 0 0 0 0 -37513915.359793186 35113242.484482035 0 35113242.484482035 41546810.724974155 0 0 0 0 -105934.06615447998 -46758093.817107677 0 -46758093.817107677 -60094859.98840332 0 0 0 0 -1540901.18384552 -15259332.061899662 0 -15259332.061899662 -15786078.324895859 0 0 0 0 6727330.6305999756 1644209.3418798447 0 1644209.3418798447 -15856189.333268978 0 0 0 0 7263490.2791423798 -3663060.161413908 0 -3663060.161413908 -3727991.5979123116 0 0 0 0 19331734.627437592 -4420444.9089603424 0 -4420444.9089603424 -22907060.780109406 0 0 0 0 5105261.6471176147 -166567.61080121994 0 -166567.61080121994 4774285.1756477356 0 0 0 0 37993159.928581238 -24342278.849732161 0 -24342278.849732161 -1958624.9867191315 0 0 0 0 5056656.6029440947 433186.00203743018 0 433186.00203743018 -3320001.8956837044 0 0 0 0 127751397.23425674 -9177230.8427174687 0 -9177230.8427174687 -94999807.889432713 0 0 0 0 32666733.898394585 7687956.3598453235 0 7687956.3598453235 33643210.902650118 0 0 0 0 9682499.1496505737 -29979193.782101572 0 -29979193.782101572 77141286.323673606 0 0 0 0 301261.86588096619 4728704.7676975541 0 4728704.7676975541 -22836657.518642187 0 0 0 0 -8635164.7290019989 543051.30717211962 0 543051.30717211962 -15626.059991836548 0 0 0 0 -266432.30910446495 763240.69812033838 0 763240.69812033838 169158.79048186052 0 0 0 0 11778371.350478088 1793483.4990463154 0 1793483.4990463154 -945963.26984809944 0 0 0 0 14776317.195098877 -302976.85078430176 0 -302976.85078430176 -219939.0169043541 0 0 0 0 11803229.315681458 1858579.6102640629 0 1858579.6102640629 1140533.2889105082 0 0 0 0 9719052.6316678785 1503283.5644863839 0 1503283.5644863839 -1008290.969340653 0 0 0 0 18796229.350345612 -2195273.5734138489 0 -2195273.5734138489 754174.44188845158 0 0 0 0 14224624.218954086 -1709028.981356144 0 -1709028.981356144 -2182995.2648580074 0 0 0 0 17539134.217416763 401688.72993689775 0 401688.72993689775 -2033038.6896709204 0 0 0 0 6572842.526559039 -138985.76652024779 0 -138985.76652024779 -954658.00745919393 0 0 0 0 -67507700.938438416 -85200191.042866737 0 -85200191.042866737 147041556.36804748 0 0 0 0 41230722.131755829 19270015.993651897 0 19270015.993651897 -55305835.138700217 0 0 0 0 -13828137.859417915 17187133.267487526 0 17187133.267487526 42424406.35240078 0 0 0 0 253480275.13729095 -2062963.6199493706 0 -2062963.6199493706 -39219658.639799476 0 0 0 0 -654188.53305053711 5161203.740334034 0 5161203.740334034 -22752969.877871752 0 0 0 0 4376660.5481534246 240447.72990216524 0 240447.72990216524 -1197710.3000637575 0 0 0 0 4049549.2503428459 2184773.4512898726 0 2184773.4512898726 -942638.79296867643 0 0 0 0 -238243099.32559204 3286441.2240128517 0 3286441.2240128517 82289493.194792271 0 0 0 0 20721601.175582886 -42223415.661824435 0 -42223415.661824435 -2557963.913113147 0 0 0 0 32167165.95905304 -60526273.288969785 0 -60526273.288969785 -31214390.626431555 0 0 0 0 -160638.9043402411 -78369.495871090796 0 -78369.495871090796 130613.54257985209 0 0 0 0 3194498.1826286688 187615.88640081557 0 187615.88640081557 -908555.69260364969 0 0 0 0 4120477.5349313505 2735686.9109300347 0 2735686.9109300347 -499852.53656831424 0 0 0 0 11008773.198440552 -3290553.6209437847 0 -3290553.6209437847 -11142722.571642935 0 0 0 0 237491.71044921875 5845402.3749552965 0 5845402.3749552965 -25643806.371849179 0 0 0 0 2811335.7165222168 5532744.2697005272 0 5532744.2697005272 -25703381.131585658 0 0 0 0 -53392926.533821106 58964482.993882895 0 58964482.993882895 26624706.304485798 0 0 0 0 -138470450.6342392 59964558.572122514 0 59964558.572122514 29840159.215796649 0 0 0 0 816435.51884926669 -456034.12183626182 0 -456034.12183626182 -340120.49770117365 0 0 0 0 14291090.829406738 18162814.739959478 0 18162814.739959478 -31223365.750190482 0 0 0 0 184755.30231572129 -124894.62910033739 0 -124894.62910033739 -131355.527483318 0 0 0 0 -14984453.06452179 -7068353.0597904325 0 -7068353.0597904325 42668886.616901368 0 0 0 0 25420490.976890564 -49266818.068213046 0 -49266818.068213046 42803616.648599088 0 0 0 0 15882558.256897926 -15524102.644253671 0 -15524102.644253671 27904243.470917583 0 0 0 0 6119405.8056735992 -836218.29403752089 0 -836218.29403752089 -3587885.8380976245 0 0 0 0 27688226.973005295 -11237791.206828907 0 -11237791.206828907 -5968923.4417945296 0 0 0 0 1368245.9535989761 2892540.2320400029 0 2892540.2320400029 -10773217.193495631 0 0 0 0 26698391.994098663 11307697.699530542 0 11307697.699530542 -27340269.461548805 0 0 0 0 23339774.829677582 -16809760.194881678 0 -16809760.194881678 10996580.574574351 0 0 0 0 72104439.982017517 -26381173.996027112 0 -26381173.996027112 -33094061.401021451 0 0 0 0 47567466.894287109 -54733194.235022306 0 -54733194.235022306 49156281.576655209 0 0 0 0 427844.91640353948 67783.900912215584 0 67783.900912215584 -118523.99550195374 0 0 0 0 58767569.778713226 -49954073.491025925 0 -49954073.491025925 -5091888.1032032967 0 0 0 0 80133285.112680435 -55080694.293111116 0 -55080694.293111116 47767707.444131374 0 0 0 0 159273751.20447159 27215817.359883428 0 27215817.359883428 -159555324.67527986 0 0 0 0 8268414.5913209915 1507277.8282313943 0 1507277.8282313943 -836337.26946043968 0 0 0 0 8800221.5850110333 2131887.4773010593 0 2131887.4773010593 -483601.78717082331 0 0 0 0 -43627665.509103775 60431202.24362728 0 60431202.24362728 -16720655.621928826 0 0 0 0 6963061.8363482691 76496.17966820579 0 76496.17966820579 -1238970.0420348395 0 0 0 0 14418437.721959114 986544.01457685232 0 986544.01457685232 -5017191.3240789175 0 0 0 0 43547752.15527153 -47858842.94957453 0 -47858842.94957453 19220494.260489523 0 0 0 0 -62988100.497495651 -28667772.292974353 0 -28667772.292974353 47543637.791273773 0 0 0 0 -10617285.449985981 15113209.67513147 0 15113209.67513147 -6869175.6718800366 0 0 0 0 26209195.780183613 -34613468.494775414 0 -34613468.494775414 10065639.323658645 0 0 0 0 -2132281.3645602316 -14818255.279553792 0 -14818255.279553792 -6232336.8234869689 0 0 0 0 5376103.2473838469 469837.89367274102 0 469837.89367274102 -58942.028837353311 0 0 0 0 24352688.871686399 -8717449.7843675017 0 -8717449.7843675017 2448644.9933289289 0 0 0 0 18245394.413465172 -7532063.4672802389 0 -7532063.4672802389 10451233.617630959 0 0 0 0 33575863.829559088 -30622128.855500683 0 -30622128.855500683 -3062708.8456111848 0 0 0 0 116293.082269907 2923454.2273925543 0 2923454.2273925543 -12216336.15272519 0 0 0 0 64147523.099882722 15500992.453024149 0 15500992.453024149 -9787445.1658046693 0 0 0 0 7758731.1875274591 1397147.5228285515 0 1397147.5228285515 -259494.28038480936 0 0 0 0 29237709.460177898 28293591.570714384 0 28293591.570714384 -31771353.82603614 0 0 0 0 283254.41125893593 -5378496.3837845027 0 -5378496.3837845027 -2819340.0451544076 0 0 0 0 17053292.979952812 -10294371.989442252 0 -10294371.989442252 -2329322.3642344177 0 0 0 0 10468976.929098129 6567070.4686139822 0 6567070.4686139822 -15484221.694288135 0 0 0 0 9538626.1189174652 12810666.855372578 0 12810666.855372578 -25749657.234718263 0 0 0 0 8689559.4779683854 1448519.130041596 0 1448519.130041596 -572133.74516029237 0 0 0 0 17311408.467301011 -7198552.9298114777 0 -7198552.9298114777 -21453491.891927063 0 0 0 0 88527269.486413002 -22908444.7755301 0 -22908444.7755301 -104139119.76297963 0 0 0 0 549575.56773130875 -1596591.4388225053 0 -1596591.4388225053 -550407.77498815965 0 0 0 0 56729061.135627747 29501746.976918936 0 29501746.976918936 15206464.62090412 0 0 0 0 -105403043.22930527 -29848207.422031641 0 -29848207.422031641 -1202655.5366592407 0 0 0 0 -17293733.108607292 -102639316.12144601 0 -102639316.12144601 217521293.3931489 0 0 0 0 5495303.8273087926 228087.39641937055 0 228087.39641937055 -495310.8370395659 0 0 0 0 49811354.967964172 12806753.791626453 0 12806753.791626453 15407983.794815063 0 0 0 0 6972987.2080345154 4837045.4982991219 0 4837045.4982991219 -9741642.8713178635 0 0 0 0 6903090.9854973406 754988.64012497989 0 754988.64012497989 -505782.61750230426 0 0 0 0 56433320.296785355 -93669053.389744043 0 -93669053.389744043 106576542.49879098 0 0 0 0 111847697.21054554 -66401049.84927249 0 -66401049.84927249 21124683.698658466 0 0 0 0 26396842.478308678 -115433858.58476901 0 -115433858.58476901 90863361.62589407 0 0 0 0 -780788.57594823837 -67064669.685255677 0 -67064669.685255677 183778579.73620993 0 0 0 0 -108624863.79138851 -91510287.446727872 0 -91510287.446727872 48633500.484045506 0 0 0 0 91418857.541110992 -19528633.364098549 0 -19528633.364098549 -7937076.2781466246 0 0 0 0 18762.789920567069 -20035.047500994755 0 -20035.047500994755 -14488.016402429086 0 0 0 0 -34439717.730427742 -142881256.2414754 0 -142881256.2414754 130595185.75410497 0 0 0 0 749214.02470733831 -675076.20679658279 0 -675076.20679658279 -260354.59870298073 0 0 0 0 40538742.661489487 28791516.930672884 0 28791516.930672884 12513101.693781272 0 0 0 0 -61036874.240205765 -159437190.09896231 0 -159437190.09896231 120430128.3594346 0 0 0 0 6423689.6607787609 1386385.3740395829 0 1386385.3740395829 -2534557.6093430519 0 0 0 0 9900386.6563091278 3578414.9211602211 0 3578414.9211602211 -8923895.9458372593 0 0 0 0 246934278.205513 104671767.0488354 0 104671767.0488354 -19043365.309222221 0 0 0 0 8119274.8016016688 1440821.1005169433 0 1440821.1005169433 -454270.71026814682 0 0 0 0 14179783.635870695 -114917372.0931872 0 -114917372.0931872 71132026.115749329 0 0 0 0 164678615.61150694 -82938942.138922915 0 -82938942.138922915 -7824943.8334193081 0 0 0 0 43670650.484429419 -49128004.334154718 0 -49128004.334154718 -13304751.945580244 0 0 0 0 66809045.1054461 -36208572.65983206 0 -36208572.65983206 -6232718.4628266096 0 0 0 0 44163841.370470405 -28480569.077737272 0 -28480569.077737272 -2787109.4578213692 0 0 0 0 68942280.939913034 -5732791.0537584424 0 -5732791.0537584424 -19159569.233872235 0 0 0 0 133277437.48293984 24540450.23975455 0 24540450.23975455 -4029622.5053989291 0 0 0 0 31942700.867153645 -14445096.960271478 0 -14445096.960271478 -7367497.3017657697 0 0 0 0 4196490.5259423256 23437449.35230875 0 23437449.35230875 28288079.577516288 0 0 0 0 596617.06609746604 -89222.990125103854 0 -89222.990125103854 -1198691.3573338909 0 0 0 0 94951053.584523678 -64255548.96612516 0 -64255548.96612516 29179883.180826962 0 0 0 0 50582880.622799873 -68603201.004129469 0 -68603201.004129469 75471615.78192997 0 0 0 0 55866339.858020067 -54934668.124331683 0 -54934668.124331683 33634515.357778907 0 0 0 0 83811658.513315201 -63122823.095801234 0 -63122823.095801234 27124870.46177578 0 0 0 0 85427097.001280665 -44098120.304160677 0 -44098120.304160677 -11465992.903843403 0 0 0 0 135734018.87763524 -82827416.233938783 0 -82827416.233938783 10203683.184534013 0 0 0 0 540138.74434975267 170127.91659164464 0 170127.91659164464 -1071441.5298438915 0 0 0 0 133742883.97194195 -43703219.014217496 0 -43703219.014217496 17863854.932870984 0 0 0 0 215367038.49092436 -70603311.824356556 0 -70603311.824356556 -4036265.4825148582 0 0 0 0 523695.63110356347 352992.86860932049 0 352992.86860932049 -858720.50073864544 0 0 0 0 38506479.224693179 -6929407.0232761502 0 -6929407.0232761502 -7514274.6133284569 0 0 0 0 48738763.393821239 -17219787.104251802 0 -17219787.104251802 1611389.3178269863 0 0 0 0 42818214.991905391 -22164318.355289698 0 -22164318.355289698 -649428.65542733669 0 0 0 0 38745853.846871853 -18199620.238289595 0 -18199620.238289595 1520046.0924794674 0 0 0 0 25029039.665962875 -10913324.740658745 0 -10913324.740658745 -4212354.7480564117 0 0 0 0 29446270.270442143 -40120651.344546229 0 -40120651.344546229 -3868030.5615348816 0 0 0 0 -32470064.518181324 -16066469.148148537 0 -16066469.148148537 22124267.216137409 0 0 0 0 308251.57601421897 290158.71313677612 0 290158.71313677612 -400213.34307656344 0 0 0 0 252248349.80720043 -86417656.954162121 0 -86417656.954162121 79002757.959940434 0 0 0 0 253297409.81757784 -70292228.546032906 0 -70292228.546032906 15808013.894649506 0 0 0 0 30756871.740903854 -20992138.703262091 0 -20992138.703262091 2843991.3096427917 0 0 0 0 214303182.19643593 -64292918.885426998 0 -64292918.885426998 22294905.133435518 0 0 0 0 146703160.14148903 -79274929.091924906 0 -79274929.091924906 22147811.093269825 0 0 0 0 149202205.13059664 -55463887.687772773 0 -55463887.687772773 3956677.999625206 0 0 0 0 101103269.68160248 -91171567.655358791 0 -91171567.655358791 50864404.802062988 0 0 0 0 -21995521.84790802 -113861021.24501753 0 -113861021.24501753 237597828.46055776 0 0 0 0 238062138.38127553 -127039612.21588051 0 -127039612.21588051 58320251.637656212 0 0 0 0 196327.24605833599 1005760.4967579343 0 1005760.4967579343 -64242.898640379775 0 0 0 0 86319092.277200699 -53483835.753522158 0 -53483835.753522158 23604784.30380249 0 0 0 0 6072939.1484344732 -285759.0043908942 0 -285759.0043908942 -2358044.0749180899 0 0 0 0 98563268.697322726 -56691737.674990654 0 -56691737.674990654 26473697.73492527 0 0 0 0 5248033.1126029845 -4168237.9368134188 0 -4168237.9368134188 -5044784.7275745757 0 0 0 0 27211391.82025528 3157813.4069280624 0 3157813.4069280624 7218865.7406762242 0 0 0 0 20884484.893801689 -44424306.636222363 0 -44424306.636222363 60202722.037350655 0 0 0 0 69363202.555956364 -38763313.221270442 0 -38763313.221270442 -1160892.8193802834 0 0 0 0 56826150.521895409 -56879933.673196554 0 -56879933.673196554 33188186.726054072 0 0 0 0 36727416.032746792 -906321.62824559212 0 -906321.62824559212 -13855903.278458655 0 0 0 0 41104637.245127857 -10391383.349415466 0 -10391383.349415466 -7083532.4317245483 0 0 0 0 37018439.073883057 -3769583.0838753581 0 -3769583.0838753581 4282149.7921257615 0 0 0 0 30852993.39671731 -13046885.1974684 0 -13046885.1974684 181877.90033146739 0 0 0 0 25960027.418037415 -16482453.886586323 0 -16482453.886586323 2078009.8633526862 0 0 0 0 13825217.348531723 29713133.754799351 0 29713133.754799351 40210232.249548703 0 0 0 0 38935780.267524481 -15218799.010514826 0 -15218799.010514826 -1493794.0466442108 0 0 0 0 311943.47890295321 755968.91672801005 0 755968.91672801005 -58116.762940993853 0 0 0 0 -1761334.1774334908 148853.97879365087 0 148853.97879365087 3790994.0860283375 0 0 0 0 36163766.992398262 -3845138.4770509005 0 -3845138.4770509005 4176056.143280983 0 0 0 0 -9411146.2928310037 16396700.590215206 0 16396700.590215206 34695935.40336749 0 0 0 0 51276541.490342349 -14647722.194925308 0 -14647722.194925308 2726192.303773582 0 0 0 0 2577885.0882770233 443252.50489764364 0 443252.50489764364 1159883.1044927863 0 0 0 0 46353057.634183407 -24546818.950666428 0 -24546818.950666428 832638.42021942139 0 0 0 0 38509932.207619838 -26155872.709325358 0 -26155872.709325358 2756467.5559549332 0 0 0 0 47659002.783301651 -15582750.792887807 0 -15582750.792887807 4156555.7838528156 0 0 0 0 79722764.337742805 -9968706.2591668367 0 -9968706.2591668367 -3400196.2805147171 0 0 0 0 1369760.8788524496 658806.60766733962 0 658806.60766733962 2252766.7735796734 0 0 0 0 62914381.089452922 -18450715.901040733 0 -18450715.901040733 -3830838.3029727936 0 0 0 0 64206783.7842834 -20841609.129679203 0 -20841609.129679203 -3838913.8054220676 0 0 0 0 85195066.215261281 -36648544.196024179 0 -36648544.196024179 -12648787.398148298 0 0 0 0 86966906.473949194 -4518253.879755497 0 -4518253.879755497 -1956228.1751076281 0 0 0 0 105681345.77910483 -40656011.215850949 0 -40656011.215850949 -32170197.626947999 0 0 0 0 -21125222.878000259 -8939133.8312967084 0 -8939133.8312967084 -6883404.1899553537 0 0 0 0 42957776.509254098 -47550463.000930667 0 -47550463.000930667 -25476535.14578414 0 0 0 0 39775541.838590145 13416964.791386187 0 13416964.791386187 -27861641.047529697 0 0 0 0 76687897.122041464 18327740.163295329 0 18327740.163295329 -34081065.816850543 0 0 0 0 -9248343.5988320112 -3966958.2655897141 0 -3966958.2655897141 15096641.154902279 0 0 0 0 224580.97275846393 -57967.035398156906 0 -57967.035398156906 52315.623524067807 0 0 0 0 100393210.49395466 78887893.800818071 0 78887893.800818071 65420123.975362778 0 0 0 0 659168.88202947262 -188882.60845771237 0 -188882.60845771237 154493.01210420544 0 0 0 0 39687381.076496601 29793050.350704551 0 29793050.350704551 24657046.294112921 0 0 0 0 5257682.8960237056 -4922130.3536831141 0 -4922130.3536831141 -2388958.134606123 0 0 0 0 34136004.792986155 42924389.631093532 0 42924389.631093532 612282.85104763508 0 0 0 0 2502505.2205361128 3165300.2779297829 0 3165300.2779297829 -1897220.3771314621 0 0 0 0 -1146594.7599121779 605713.91935896873 0 605713.91935896873 2381085.2937674522 0 0 0 0 115863.66250328557 -90043.778197564068 0 -90043.778197564068 -5736.5616083487403 0 0 0 0 5890708.4154360294 5423152.3954353929 0 5423152.3954353929 13651649.6937356 0 0 0 0 9265445.8660697937 18789167.939630926 0 18789167.939630926 59196100.34371233 0 0 0 0 20086288.767507553 15424973.617354274 0 15424973.617354274 -7309621.1762763262 0 0 0 0 2639858.0400667191 13414285.423503637 0 13414285.423503637 13044746.58839111 0 0 0 0 2999552.3849916458 8271728.1552596092 0 8271728.1552596092 3234205.2432422638 0 0 0 0 2861520.4253816605 7168307.3432551622 0 7168307.3432551622 2487466.3726963401 0 0 0 0 3242989.2902010679 8805051.3596397042 0 8805051.3596397042 1642472.2836325169 0 0 0 0 3194332.7088701725 10809105.286568061 0 10809105.286568061 7281081.959113121 0 0 0 0 893233.13001741201 205472.6855829152 0 205472.6855829152 -200095.43254189679 0 0 0 0 44186973.694923878 -21297433.382157683 0 -21297433.382157683 -32282905.199483871 0 0 0 0 65489687.071834564 20820704.657337904 0 20820704.657337904 -3703811.5128998756 0 0 0 0 4146157.3050096035 -2689305.3660436273 0 -2689305.3660436273 -6654552.4178840294 0 0 0 0 25311670.999204636 -33563176.041763186 0 -33563176.041763186 -25658861.408554286 0 0 0 0 36883990.886264086 771190.70067780837 0 771190.70067780837 646990.88341581821 0 0 0 0 -18817805.219272137 -24866701.186365336 0 -24866701.186365336 -10434107.736278653 0 0 0 0 7770403.6799149513 12376072.64636749 0 12376072.64636749 11917145.632453166 0 0 0 0 185663.38539217541 876134.6408786712 0 876134.6408786712 8957.6133681349384 0 0 0 0 7416615.6019159555 5717442.1015160829 0 5717442.1015160829 -19792662.349720061 0 0 0 0 3470366.4091783096 1588613.7788329886 0 1588613.7788329886 -1026855.8519614158 0 0 0 0 9931079.6147150993 -407063.58192038909 0 -407063.58192038909 -24664937.349372763 0 0 0 0 10009425.909143448 1704134.4081549644 0 1704134.4081549644 -17055409.345301688 0 0 0 0 10605385.43512702 10240487.894084565 0 10240487.894084565 -4374763.1282584667 0 0 0 0 4842850.3347899914 8682698.1932234019 0 8682698.1932234019 -3784857.8012986183 0 0 0 0 3610123.2005329132 5818427.7851766348 0 5818427.7851766348 -228466.8419700861 0 0 0 0 5827397.1145420074 2982523.7497256398 0 2982523.7497256398 -13897414.568895102 0 0 0 0 553581.67153739929 -2237494.5760196 0 -2237494.5760196 -14137889.717326108 0 0 0 0 3642680.3768081665 3179904.6150374413 0 3179904.6150374413 -10065780.056233168 0 0 0 0 -2135489.5131366253 4789354.5095210224 0 4789354.5095210224 -10083748.226257563 0 0 0 0 94635.620380575769 31003.28210186353 0 31003.28210186353 -7291.9135378124265 0 0 0 0 183837.94160461426 5194411.3932046294 0 5194411.3932046294 -25650620.014053166 0 0 0 0 2270349.2379951477 518487.3963060379 0 518487.3963060379 -233104.83082580566 0 0 0 0 3494562.790502904 -52984.516928688623 0 -52984.516928688623 -360022.87877874554 0 0 0 0 2030997.5971565247 115375.12584242225 0 115375.12584242225 105503.41540575027 0 0 0 0 2869440.8885040283 1095632.8734359145 0 1095632.8734359145 -881020.57597060502 0 0 0 0 1950400.4840132017 1852561.1998379366 0 1852561.1998379366 -309779.69033533899 0 0 0 0 6224655.2738777399 10666745.456565373 0 10666745.456565373 -6728885.7618282884 0 0 0 0 1168145.2645364916 3158019.1219856264 0 3158019.1219856264 -371070.12867321837 0 0 0 0 3003744.7608811855 5406382.1424694993 0 5406382.1424694993 2298964.7236804068 0 0 0 0 3551999.5463526249 685251.03625117801 0 685251.03625117801 281189.0527536571 0 0 0 0 2944727.0293006897 1730320.2936384231 0 1730320.2936384231 -1744869.0453685522 0 0 0 0 7189694.4707164764 574789.17557790875 0 574789.17557790875 -1430736.60507074 0 0 0 0 3755303.2345016003 -231391.92515222356 0 -231391.92515222356 -1441225.7926574945 0 0 0 0 2189619.8235778809 120782.31203866005 0 120782.31203866005 455543.36233711243 0 0 0 0 2386001.2588362694 -514361.87089702394 0 -514361.87089702394 -781195.85289608687 0 0 0 0 2560298.9511847422 -1084718.5971572823 0 -1084718.5971572823 116026.1252153494 0 0 0 0 7108609.4840049744 2361911.7731271833 0 2361911.7731271833 -10583099.179616086 0 0 0 0 3336524.5561305787 -226318.11967422994 0 -226318.11967422994 -496309.19111344795 0 0 0 0 7038842.2604045868 2711921.533401709 0 2711921.533401709 -10821278.496569082 0 0 0 0 6776006.6473013163 -8621309.7478160039 0 -8621309.7478160039 -24896281.91538626 0 0 0 0 1632889.4789390564 7744789.9724733233 0 7744789.9724733233 -12125315.085061669 0 0 0 0 5815215.1475124359 7178841.0898075104 0 7178841.0898075104 -12317476.18687135 0 0 0 0 6300182.1609251499 4774221.5984865427 0 4774221.5984865427 -4811249.7611534595 0 0 0 0 7073754.5826013088 6154638.1885768473 0 6154638.1885768473 -6955357.7331826687 0 0 0 0 3645666.4687604904 8442815.428628087 0 8442815.428628087 -1843996.6980541945 0 0 0 0 9090809.9092540741 5156723.0025115013 0 5156723.0025115013 -9840275.5456936359 0 0 0 0 6708243.7368012667 5844090.0936562903 0 5844090.0936562903 -4966166.4458322525 0 0 0 0 7076164.8845386505 3842369.3916555643 0 3842369.3916555643 -7130908.3632583618 0 0 0 0 8318298.4556405544 5660931.1509700119 0 5660931.1509700119 -6040427.3385233879 0 0 0 0 7730082.6698112488 3849095.103503108 0 3849095.103503108 -2897159.1717748642 0 0 0 0 8764263.4253635406 3290999.8516793251 0 3290999.8516793251 -2856374.2775852829 0 0 0 0 9116628.9911231995 3374247.5374674797 0 3374247.5374674797 -3538315.6039628983 0 0 0 0 8986104.4782352448 6508327.7713817358 0 6508327.7713817358 -6312970.0649013519 0 0 0 0 -416453.85192680359 6640105.7415423989 0 6640105.7415423989 -152024.70107543096 0 0 0 0 -2073245.032286644 4433498.3491854966 0 4433498.3491854966 2662037.4468277991 0 0 0 0 3420501.9297962189 -575301.21331512928 0 -575301.21331512928 -1619097.1691412926 0 0 0 0 1451120.6492881775 10323792.944250107 0 10323792.944250107 -4841397.3703536987 0 0 0 0 156613.44256895594 647270.92387423525 0 647270.92387423525 -98454.229150880055 0 0 0 0 6491130.6604328156 6277456.6813934445 0 6277456.6813934445 -5261545.146505177 0 0 0 0 1867356.4516103268 2332568.142000787 0 2332568.142000787 -432996.18236345053 0 0 0 0 2304023.3004827499 2438913.3281036764 0 2438913.3281036764 -6743314.7076859176 0 0 0 0 4492201.914575994 -147809.2030239366 0 -147809.2030239366 662318.92781626119 0 0 0 0 494057.663797708 288036.96523707255 0 288036.96523707255 -284931.58858519339 0 0 0 0 2467407.2178241583 151729.20333503489 0 151729.20333503489 -455147.77350045019 0 0 0 0 1220752.2004656792 4986169.8611666262 0 4986169.8611666262 -1611915.3820661902 0 0 0 0 3122862.0784916878 -349101.16245079041 0 -349101.16245079041 662705.7655813694 0 0 0 0 15075327.960510254 3381326.4087438583 0 3381326.4087438583 -7472364.210632205 0 0 0 0 9493008.1953105927 9800295.3668835163 0 9800295.3668835163 -8778754.0965073109 0 0 0 0 3804317.0212650299 -1823794.2552752495 0 -1823794.2552752495 12999147.681089878 0 0 0 0 941569.692601435 -216431.45999010006 0 -216431.45999010006 32009.466840628185 0 0 0 0 1375865.6117725372 8408028.7623566985 0 8408028.7623566985 13581548.226388454 0 0 0 0 1866596.8346719742 4622346.6608737707 0 4622346.6608737707 12979736.164891362 0 0 0 0 1560882.8138332367 6626739.1355295181 0 6626739.1355295181 7245326.0483341217 0 0 0 0 4726247.4839794636 5300026.7617584467 0 5300026.7617584467 3187295.0333068371 0 0 0 0 4835587.49933815 5091996.1156036854 0 5091996.1156036854 1034089.7307239771 0 0 0 0 8477628.2318668365 1565845.4343113899 0 1565845.4343113899 8682953.4597601593 0 0 0 0 10673866.248996735 661945.0236852169 0 661945.0236852169 211627.16238379478 0 0 0 0 4900033.2237815857 1865579.7387746572 0 1865579.7387746572 8664507.6414532661 0 0 0 0 8140361.4756131172 4705615.3615779281 0 4705615.3615779281 -1688244.1192622185 0 0 0 0 9804477.5055332184 3164766.1711335182 0 3164766.1711335182 -2007645.428665638 0 0 0 0 11895520.6414814 2832903.7461955547 0 2832903.7461955547 -3523337.9624905586 0 0 0 0 13774921.131132126 8328803.9376823902 0 8328803.9376823902 16729092.498807192 0 0 0 0 13326923.451587677 -3967309.807466507 0 -3967309.807466507 5773850.9244377613 0 0 0 0 80779.076003965398 -51284.960095672519 0 -51284.960095672519 -18324.259671119216 0 0 0 0 479906.68018609285 -213942.93242049217 0 -213942.93242049217 -236464.63325446844 0 0 0 0 1190635.2385481822 -18806.279754468182 0 -18806.279754468182 496233.54072354594 0 0 0 0 689715.83817830076 -222679.87635528488 0 -222679.87635528488 250898.87146783632 0 0 0 0 2602506.8458282351 -146989.29585140944 0 -146989.29585140944 505576.63334584236 0 0 0 0 1562110.8140543513 -536467.81224477291 0 -536467.81224477291 1017548.4902198315 0 0 0 0 1979048.3061361909 -1569402.60374856 0 -1569402.60374856 1496399.745350942 0 0 0 0 67329553.182556391 52578095.050774232 0 52578095.050774232 39417314.674984515 0 0 0 0 67662255.635749578 7974923.6123220623 0 7974923.6123220623 -7566527.9346103668 0 0 0 0 4675332.6002035737 -2608737.0585114956 0 -2608737.0585114956 1352941.8398714364 0 0 0 0 3514558.0433566123 -557100.05310789077 0 -557100.05310789077 -678741.76511883223 0 0 0 0 42051486.800899506 -17193820.196200907 0 -17193820.196200907 7360721.8631837368 0 0 0 0 26152.980998936575 49133.364581597474 0 49133.364581597474 -15326.642001220025 0 0 0 0 948658109.62354755 -421322041.36168623 0 -421322041.36168623 -8641546.9425304234 0 0 0 0 2205645431.3471656 -325322123.35074937 0 -325322123.35074937 -365150443.0707559 0 0 0 0 809008765.32028747 -52013097.075535446 0 -52013097.075535446 8772198.4435061682 0 0 0 0 868315879.45344353 -268656687.25025773 0 -268656687.25025773 1219647.8848027717 0 0 0 0 3560961.5190573009 -174420.96705352742 0 -174420.96705352742 -769969.92926748237 0 0 0 0 1315742583.5150666 214098610.23376292 0 214098610.23376292 -361219499.81986558 0 0 0 0 2200648581.4051347 683570125.18236017 0 683570125.18236017 -322851043.14241707 0 0 0 0 1146265016.5467496 211864853.60733753 0 211864853.60733753 -353908844.95194882 0 0 0 0 744023986.95946193 130333593.00627559 0 130333593.00627559 -127671089.72966433 0 0 0 0 976877803.2003212 457660821.09945619 0 457660821.09945619 -33155385.109972954 0 0 0 0 475409442.61514378 319004437.33514768 0 319004437.33514768 292618749.30524439 0 0 0 0 226011847.15112758 -138192689.89735627 0 -138192689.89735627 -20510337.280448914 0 0 0 0 224990787.05818129 -66125312.654630184 0 -66125312.654630184 -31974221.15565151 0 0 0 0 186792278.67053175 -60938194.572422147 0 -60938194.572422147 126142518.30365014 0 0 0 0 1981621.0800552368 -605960.89135015011 0 -605960.89135015011 -1368625.364156127 0 0 0 0 429223740.4351902 833301513.9635601 0 833301513.9635601 826116632.20760119 0 0 0 0 1821790.1875221608 228520.37031474523 0 228520.37031474523 669310.98234522133 0 0 0 0 8579058.5932402611 -2154972.0641121864 0 -2154972.0641121864 -2760686.0258061886 0 0 0 0 16389477.987430573 -5669271.95052737 0 -5669271.95052737 2407621.2516059279 0 0 0 0 1287191.9868988991 -738194.40246516466 0 -738194.40246516466 -1669447.8183380365 0 0 0 0 4664511.6125137042 316148.42592016212 0 316148.42592016212 -881935.19126324856 0 0 0 0 4742430.6153272185 -1971356.4154155836 0 -1971356.4154155836 -429349.15217082703 0 0 0 0 5623136.353577137 3808679.4998351932 0 3808679.4998351932 -2142975.0457738638 0 0 0 0 -241770747.86462998 90455023.809739128 0 90455023.809739128 81319114.993255407 0 0 0 0 942278.09391540522 -158932.14808718686 0 -158932.14808718686 -423524.30266084278 0 0 0 0 5321223.0362501303 -671996.38356048474 0 -671996.38356048474 -472301.05666721577 0 0 0 0 3338875.1872388376 -583865.4373639219 0 -583865.4373639219 -300971.94943605963 0 0 0 0 1639276.5413041115 -327158.5146240592 0 -327158.5146240592 -1377072.6990478039 0 0 0 0 441348.07557279058 243469.43576501659 0 243469.43576501659 -321348.25202660001 0 0 0 0 -4218123.7732772827 -1170269.8511184454 0 -1170269.8511184454 3182257.8137888908 0 0 0 0 23483555.760392189 -13830561.934073195 0 -13830561.934073195 -13907782.048595905 0 0 0 0 -5333414.1640043259 13340675.799695544 0 13340675.799695544 -4238427.2172855139 0 0 0 0 7090336.9530277252 4705451.8877841681 0 4705451.8877841681 406974.61742460728 0 0 0 0 3022752.8731883606 793857.52365417976 0 793857.52365417976 -287976.31935217965 0 0 0 0 2068370.9497089386 1026595.6513251809 0 1026595.6513251809 -879740.5787943569 0 0 0 0 6301341.1848249435 1115584.192302376 0 1115584.192302376 -3601723.0673954189 0 0 0 0 1556366.1407051086 1019679.9506958425 0 1019679.9506958425 92891.582682013512 0 0 0 0 25642.244083173573 6340.7706492212601 0 6340.7706492212601 -9173.5931894556707 0 0 0 0 1807827.7280387878 292309.94403254986 0 292309.94403254986 -1696642.3187127113 0 0 0 0 7039167.9717844054 -993938.15614778455 0 -993938.15614778455 -780412.58010777819 0 0 0 0 2506658.2479438782 1016554.0912401602 0 1016554.0912401602 -1645716.1566749513 0 0 0 0 5234963.7036929317 -617144.00910155103 0 -617144.00910155103 -147350.50741149922 0 0 0 0 2151630.0589466095 1884372.9583896399 0 1884372.9583896399 -227777.09820948914 0 0 0 0 2573446.9658239195 -1369415.1489304695 0 -1369415.1489304695 -200143.02426762268 0 0 0 0 1132689.6334656887 -36547.638140086783 0 -36547.638140086783 75232.134103898454 0 0 0 0 1191083.6967544556 -41876.601542830467 0 -41876.601542830467 -989551.35318255424 0 0 0 0 1541782.124879837 -155802.7277905196 0 -155802.7277905196 -1159501.4958148003 0 0 0 0 2014346.3649720363 423808.10997759574 0 423808.10997759574 -310690.85021002882 0 0 0 0 1806387.6402320862 -445382.80903983116 0 -445382.80903983116 -1792258.3385643959 0 0 0 0 1854083.0206804071 -2005067.7437885732 0 -2005067.7437885732 222974.13958063591 0 0 0 0 3045807.3649396896 -246117.22328487039 0 -246117.22328487039 -2396991.8343294263 0 0 0 0 2852971.808883667 -387533.46973954886 0 -387533.46973954886 -1755135.3421697021 0 0 0 0 -142522484.97829056 109193609.26076221 0 109193609.26076221 32301341.520982385 0 0 0 0 2562944.8102150559 -1364664.1531801373 0 -1364664.1531801373 -17512.630869403889 0 0 0 0 1753214.0033416748 -698083.23974391073 0 -698083.23974391073 -723690.50487411022 0 0 0 0 2469144.7142954972 -871896.0256251879 0 -871896.0256251879 -314438.89835012669 0 0 0 0 4507110.2828235235 908446.55146670621 0 908446.55146670621 -209174.99638791475 0 0 0 0 3386790.0899143219 -666285.83647393063 0 -666285.83647393063 -601141.02190531045 0 0 0 0 1579537.9674663544 1075272.365996087 0 1075272.365996087 -809184.68061968684 0 0 0 0 4125987.5799406329 -828771.37354190834 0 -828771.37354190834 100969.92401269998 0 0 0 0 1331256.8659057617 -175921.24237036705 0 -175921.24237036705 -736154.22868609428 0 0 0 0 2955900.5775375366 -562812.92311406136 0 -562812.92311406136 -564267.94215393066 0 0 0 0 2005749.6042660642 -715891.42145394627 0 -715891.42145394627 -54282.345575212559 0 0 0 0 3160464.6452318402 855420.004739305 0 855420.004739305 -469113.29586010531 0 0 0 0 3967885.7154239574 826067.53760729823 0 826067.53760729823 -172020.2500712155 0 0 0 0 1206753109.5610495 -441039640.76466525 0 -441039640.76466525 162389055.51871151 0 0 0 0 2195943713.0060344 756007465.63105524 0 756007465.63105524 -635899336.88612831 0 0 0 0 692841.86824825965 -1075296.6003474633 0 -1075296.6003474633 585043.55109812855 0 0 0 0 241844207.63560867 376813394.37029856 0 376813394.37029856 252597641.31177336 0 0 0 0 688324.19322967529 44936403.403519392 0 44936403.403519392 187045408.42902321 0 0 0 0 -391149.38541271817 568511.734934835 0 568511.734934835 -256548.65429308149 0 0 0 0 -31581631.168815613 -88860843.469787359 0 -88860843.469787359 231180911.48344666 0 0 0 0 5406186.1696624756 3294272.0860258639 0 3294272.0860258639 -4757214.7501046062 0 0 0 0 316048.15395896323 -107305.89221852785 0 -107305.89221852785 -178485.27784068935 0 0 0 0 4672853.2409397829 2428545.9598607435 0 2428545.9598607435 -882352.8826528698 0 0 0 0 6862236.0831347704 -14938677.143524796 0 -14938677.143524796 -16456990.336805224 0 0 0 0 1020831.9049909739 -2644001.0349129657 0 -2644001.0349129657 111744.72352262857 0 0 0 0 3371627.7871284485 -10633755.892809629 0 -10633755.892809629 3678590.8699876964 0 0 0 0 2407992.3906860352 -582078.13887262344 0 -582078.13887262344 -2905760.9757838249 0 0 0 0 1623351.801858658 -289347.17541775375 0 -289347.17541775375 -331827.61260968767 0 0 0 0 4461802.7977480497 398618.59446563292 0 398618.59446563292 -351876.77704880841 0 0 0 0 2993847.3391904831 -364187.72503837943 0 -364187.72503837943 -3582045.4510525465 0 0 0 0 836884.27003860474 -584478.47133827209 0 -584478.47133827209 -3731365.4014579058 0 0 0 0 -120814663.18816376 175181002.2460801 0 175181002.2460801 74708731.759383932 0 0 0 0 87821598.655237198 160182807.51043427 0 160182807.51043427 -130799016.10142389 0 0 0 0 -69377390.10647583 69297462.190385818 0 69297462.190385818 -67389995.354814529 0 0 0 0 18387988.447971344 71253313.018880129 0 71253313.018880129 -165872472.8008709 0 0 0 0 5015465.6314321747 -2074864.6809796304 0 -2074864.6809796304 -325197.6980693026 0 0 0 0 -53725220.457672119 231131637.73064721 0 231131637.73064721 -222455381.3697058 0 0 0 0 -44573.206330341287 18315.011031484231 0 18315.011031484231 -10027.616213337751 0 0 0 0 73935243.946240038 -175207467.47686115 0 -175207467.47686115 295725003.46292126 0 0 0 0 1405069.0311175827 -346448.99155720277 0 -346448.99155720277 729513.41709350422 0 0 0 0 2183357910.2072353 -5633388.0589817092 0 -5633388.0589817092 -156254.40380090752 0 0 0 0 1119706603.528183 -569988475.09845221 0 -569988475.09845221 146595499.49166077 0 0 0 0 2200815964.9825773 -132769910.78335188 0 -132769910.78335188 -419855597.12367761 0 0 0 0 -147185077.74252319 -140902335.37789509 0 -140902335.37789509 115813952.25163692 0 0 0 0 49911794.823978424 112048261.78587499 0 112048261.78587499 39585918.415234208 0 0 0 0 189514.73221335001 -268909.04419607203 0 -268909.04419607203 282214.48196352512 0 0 0 0 770670140.64699554 -256824636.2918261 0 -256824636.2918261 -99537980.103541225 0 0 0 0 -170758643.3173151 -143890582.06260449 0 -143890582.06260449 -18986398.934307575 0 0 0 0 -70085664.88104248 -105523208.53705408 0 -105523208.53705408 -44713731.164960742 0 0 0 0 -260209887.40524483 -31426060.592886411 0 -31426060.592886411 77020024.721428692 0 0 0 0 -120225799.65122795 3868167.1758195981 0 3868167.1758195981 37051028.613512933 0 0 0 0 2637897.2165554073 -624731.83106751181 0 -624731.83106751181 799441.99829211249 0 0 0 0 843204846.66133308 208799349.59945235 0 208799349.59945235 -190197114.06564343 0 0 0 0 2203822649.967011 800817081.8014493 0 800817081.8014493 7927464.6780665126 0 0 0 0 4430067.4860930573 -1141338.6509753773 0 -1141338.6509753773 -48684.268978039036 0 0 0 0 4226693.9956013486 -502577.38389843702 0 -502577.38389843702 -473220.56970039348 0 0 0 0 3192829.6690406799 -1052440.4500172436 0 -1052440.4500172436 284133.86380243301 0 0 0 0 2492077.9226382487 -687014.07715141261 0 -687014.07715141261 -312287.52429051831 0 0 0 0 2543162.1873054504 -1432845.3354736418 0 -1432845.3354736418 274329.37972983718 0 0 0 0 46893549.996101379 -100816734.82895485 0 -100816734.82895485 -68711583.370845258 0 0 0 0 64355313.734996796 96379718.08083415 0 96379718.08083415 -64425597.225097418 0 0 0 0 3359746.3938548295 -829773.31440396141 0 -829773.31440396141 772172.30383820995 0 0 0 0 142444478.66337204 125975859.10459787 0 125975859.10459787 -36740454.767052233 0 0 0 0 145549153.23640037 -45505158.35826546 0 -45505158.35826546 -4209374.6983118057 0 0 0 0 -40791477.780742645 -41597481.178008974 0 -41597481.178008974 101308833.35437989 0 0 0 0 -56940724.347808599 49703062.118002817 0 49703062.118002817 -5955446.7292463779 0 0 0 0 2954266.32264328 -1437075.7692115903 0 -1437075.7692115903 347863.01273870468 0 0 0 0 3170870.1353175193 -423634.37881088955 0 -423634.37881088955 -354206.1095666617 0 0 0 0 67528815.357406616 -145497719.61726546 0 -145497719.61726546 -48048751.519418716 0 0 0 0 126969922.94628906 18949282.773504257 0 18949282.773504257 15852482.725511551 0 0 0 0 5922442.0639029611 -837326.13104350865 0 -837326.13104350865 1001343.271973479 0 0 0 0 3216722.5822320934 -846546.51452539815 0 -846546.51452539815 -248457.67400273925 0 0 0 0 2978071.2465744019 -431290.79759724438 0 -431290.79759724438 -557189.57062125206 0 0 0 0 4365755.0911660977 -988946.21771357674 0 -988946.21771357674 8755.4316128128994 0 0 0 0 3380594.236907959 -107771.55298599601 0 -107771.55298599601 -607004.82907766104 0 0 0 0 3972555.3316078186 -855892.8404314816 0 -855892.8404314816 114908.54526830837 0 0 0 0 3795009.8861694336 396523.96674287319 0 396523.96674287319 -1389498.6589637101 0 0 0 0 5992044.754336522 1498158.4996900479 0 1498158.4996900479 -320232.01764079166 0 0 0 0 3594596.7048244476 1062651.3302508295 0 1062651.3302508295 -1557742.5092330575 0 0 0 0 4139027.7469873428 -170308.67703254893 0 -170308.67703254893 -935001.8803294301 0 0 0 0 2020371.7246189993 988855.11757440749 0 988855.11757440749 -367465.7992156758 0 0 0 0 3199014.1611003876 497327.12303425744 0 497327.12303425744 400884.43045729399 0 0 0 0 45633672.950363159 -35916688.725699186 0 -35916688.725699186 -21156629.281752586 0 0 0 0 3963590.8474750519 26756683.371500641 0 26756683.371500641 299395.47699022293 0 0 0 0 31494.747469019145 1944298.0686656851 0 1944298.0686656851 -175913.91031777012 0 0 0 0 3198826.4137954712 2088093.3684016466 0 2088093.3684016466 -2044626.5616002679 0 0 0 0 6393243.4096316285 407394.75852536131 0 407394.75852536131 -970694.11391200125 0 0 0 0 -574206.04936253466 5440986.7110187542 0 5440986.7110187542 -329905.90500667656 0 0 0 0 3783419.6281358544 673632.20157780685 0 673632.20157780685 38656.986413960753 0 0 0 0 2687062.2272644043 1505760.0049577057 0 1505760.0049577057 -967735.98329389095 0 0 0 0 3144757.5845119953 1744934.5630607381 0 1744934.5630607381 -995068.3365316391 0 0 0 0 -684964.72814559937 567226.61444036663 0 567226.61444036663 1611471.4765426293 0 0 0 0 1269259.8648729101 687397.86312644533 0 687397.86312644533 -448457.93443143042 0 0 0 0 8932214.1497192383 5060802.7427410483 0 5060802.7427410483 -5412621.9281696063 0 0 0 0 14200995.87505722 -6487363.0957166925 0 -6487363.0957166925 2831933.0298476219 0 0 0 0 223033.83024716657 -40411.295137404464 0 -40411.295137404464 -64163.949413570532 0 0 0 0 14117876.038583755 -6526220.4582639039 0 -6526220.4582639039 3685683.0312668532 0 0 0 0 5274268.6749229431 -1861271.6451948583 0 -1861271.6451948583 1226870.8682343364 0 0 0 0 3640033.739361763 651387.64416160993 0 651387.64416160993 -283316.52599243261 0 0 0 0 3916923.5638044914 -276232.89770396706 0 -276232.89770396706 392090.37350638839 0 0 0 0 1441208.7337742364 -462507.13698320091 0 -462507.13698320091 -469803.82611441991 0 0 0 0 6291839.3050842285 -1660377.2947974205 0 -1660377.2947974205 808985.59006977081 0 0 0 0 16574719.171336174 -9654502.6365255564 0 -9654502.6365255564 -3152666.7827992439 0 0 0 0 3823086.7154865265 8338352.224572897 0 8338352.224572897 -11951062.061898649 0 0 0 0 6738148.1677371021 1330342.1496187805 0 1330342.1496187805 22516.620704273257 0 0 0 0 -5906133.786457777 17185655.985641979 0 17185655.985641979 1739405.9764149636 0 0 0 0 6822990.4512176514 433520.62395119667 0 433520.62395119667 -542345.05555534363 0 0 0 0 3909523.0940546989 925149.7744348906 0 925149.7744348906 -600003.41888651252 0 0 0 0 9395862.9484082051 280052.43765650364 0 280052.43765650364 348005.04281105794 0 0 0 0 6195150.929606081 2979853.3947627051 0 2979853.3947627051 -1820142.2167088666 0 0 0 0 1852174.4257278442 274848.29407519102 0 274848.29407519102 -699234.81315177679 0 0 0 0 1930245.309812502 1979468.2818626196 0 1979468.2818626196 -826888.40807898354 0 0 0 0 968636.50826072693 1418172.8312620521 0 1418172.8312620521 -2351316.4010374546 0 0 0 0 536225.60701444279 604191.59358102386 0 604191.59358102386 671467.46292665054 0 0 0 0 6173263.1989320796 948897.18075301708 0 948897.18075301708 723083.33753834292 0 0 0 0 1852174.4257278442 274848.29408097267 0 274848.29408097267 -699234.8131518364 0 0 0 0 5363135.6798413359 -438729.42058638809 0 -438729.42058638809 -527474.02387544687 0 0 0 0 1852174.4257316589 274848.2940852344 0 274848.2940852344 -699234.81315612793 0 0 0 0 998721.19264054298 334679.23324131966 0 334679.23324131966 -539042.56415748596 0 0 0 0 2877779.0200302843 -305072.50921026897 0 -305072.50921026897 507808.43370374321 0 0 0 0 1241598.7108078003 971394.98314192565 0 971394.98314192565 7591.0615196107392 0 0 0 0 63171.10939720273 -70799.070335623343 0 -70799.070335623343 -16380.2625597039 0 0 0 0 2688147.7805728912 -1211568.0400651395 0 -1211568.0400651395 -1986418.7204943448 0 0 0 0 3435309.8078460693 908043.19111516094 0 908043.19111516094 -673658.50925869169 0 0 0 0 3583775.0058670044 801944.48853978538 0 801944.48853978538 -747880.11953458749 0 0 0 0 2829125.5005400879 737612.39660938596 0 737612.39660938596 -218518.03670053103 0 0 0 0 1105330.8761062622 -3365735.5992338657 0 -3365735.5992338657 -1276387.9779543877 0 0 0 0 3601358.3598899841 735072.89071446657 0 735072.89071446657 -497466.66425091028 0 0 0 0 3639018.8421859741 805553.62130019069 0 805553.62130019069 -630633.45357812941 0 0 0 0 2799393.464099884 629433.95868334174 0 629433.95868334174 -678385.56965079904 0 0 0 0 2563464.1450538635 949854.67793470621 0 949854.67793470621 -920988.64359509945 0 0 0 0 2565911.2168922424 965139.03334110975 0 965139.03334110975 -696890.70054734685 0 0 0 0 3817751.3852834702 -884441.41107839346 0 -884441.41107839346 -395935.99699050188 0 0 0 0 2547608.0716667175 917803.0677344799 0 917803.0677344799 -818658.5316876173 0 0 0 0 2479008.9546520337 218358.92427706392 0 218358.92427706392 -250539.6026215906 0 0 0 0 4096346.3879156113 1161241.3892152831 0 1161241.3892152831 -819703.30462348461 0 0 0 0 3813758.2708525658 432296.93115377426 0 432296.93115377426 -792529.56600266695 0 0 0 0 2953256.2519923188 457571.04752740264 0 457571.04752740264 -368366.33899907209 0 0 0 0 4810604.3816025862 1301451.8752367261 0 1301451.8752367261 -219883.68101109215 0 0 0 0 65167298.289993286 14132313.435614288 0 14132313.435614288 56225242.282951355 0 0 0 0 119202558.47373772 1236847.1765674353 0 1236847.1765674353 -4129323.6236538887 0 0 0 0 64618005.602563858 6182926.8159316182 0 6182926.8159316182 -3377624.934461832 0 0 0 0 41932869.605525017 10859940.289112568 0 10859940.289112568 3283671.9963958263 0 0 0 0 69527871.770701408 8572930.9660917521 0 8572930.9660917521 -29183228.472808838 0 0 0 0 55328203.019598007 5560525.9279218912 0 5560525.9279218912 -4366658.0895549059 0 0 0 0 73463567.577039719 -32479161.754853547 0 -32479161.754853547 -18499647.101856947 0 0 0 0 42903426.944529533 -14048238.034567356 0 -14048238.034567356 -29614660.726148248 0 0 0 0 28517922.138214111 -30113988.280549288 0 -30113988.280549288 -8809535.1305807903 0 0 0 0 -1767138.6845407486 -12962025.659612119 0 -12962025.659612119 -14939555.745406389 0 0 0 0 23278363.430428028 -12235068.510912478 0 -12235068.510912478 -28874354.066420555 0 0 0 0 21064283.94392252 -18462826.88063854 0 -18462826.88063854 -26991035.224661827 0 0 0 0 5979526.5791568756 545063.06536757946 0 545063.06536757946 -18319503.071028054 0 0 0 0 19544030.84567976 -13817604.45109126 0 -13817604.45109126 10293855.439409733 0 0 0 0 72433.724788448773 -17938.807794485241 0 -17938.807794485241 -22477.104073576862 0 0 0 0 199373.58103417605 203653.48361411016 0 203653.48361411016 78551.00103184866 0 0 0 0 29618143.497360229 -25534049.980164528 0 -25534049.980164528 20580856.177297831 0 0 0 0 26819388.461351395 -15686454.18917799 0 -15686454.18917799 -8205338.6592131034 0 0 0 0 72037.300287204795 81181.472102347063 0 81181.472102347063 38932.653946842125 0 0 0 0 94491452.421894073 -68069147.209082365 0 -68069147.209082365 48304960.027563095 0 0 0 0 27295714.302560806 41045295.897888601 0 41045295.897888601 18096844.799764872 0 0 0 0 39767223.112483978 16987306.51079911 0 16987306.51079911 27288502.326465249 0 0 0 0 -5156385.6388339996 -2705884.1520978808 0 -2705884.1520978808 15656103.568999767 0 0 0 0 32750550.897613525 25580483.385188699 0 25580483.385188699 20921925.924829528 0 0 0 0 -5110380.7865381241 -4453766.9682743847 0 -4453766.9682743847 9528361.6001640558 0 0 0 0 324963.08904357092 -17692.114700085018 0 -17692.114700085018 44278.116407476133 0 0 0 0 -90814.608149264008 -35403.474804207217 0 -35403.474804207217 169555.4397713294 0 0 0 0 38616252.0596838 24552725.7900334 0 24552725.7900334 4750870.2946197763 0 0 0 0 10648666.293276787 -5852043.1283749938 0 -5852043.1283749938 2502076.374132514 0 0 0 0 38933746.896770477 25852398.969650984 0 25852398.969650984 24045960.499187961 0 0 0 0 49949749.544560432 5167054.9503658712 0 5167054.9503658712 52753489.808783889 0 0 0 0 103032152.98471642 26874319.50324285 0 26874319.50324285 5325084.518389225 0 0 0 0 90943194.123347044 -33633797.376463234 0 -33633797.376463234 42792524.702626228 0 0 0 0 62916625.536280632 -12777073.21103853 0 -12777073.21103853 30378731.795087337 0 0 0 0 52744428.410264969 -12276891.776670337 0 -12276891.776670337 32986860.177592158 0 0 0 0 57881922.709157705 -26071300.405922398 0 -26071300.405922398 21528062.02250433 0 0 0 0 44683594.980302811 -29330181.467640579 0 -29330181.467640579 31822345.591908574 0 0 0 0 44416893.117574692 -19687217.69451797 0 -19687217.69451797 49544329.046525061 0 0 0 0 40171698.169487 -9554385.9790973663 0 -9554385.9790973663 30801251.679924168 0 0 0 0 23193862.766689301 -47018703.37277624 0 -47018703.37277624 47184933.996438473 0 0 0 0 45746235.142030716 -34565793.460942626 0 -34565793.460942626 32319485.356054127 0 0 0 0 72913497.611710548 -81189523.020870611 0 -81189523.020870611 19781650.26898104 0 0 0 0 63986880.263577461 -16190826.803728998 0 -16190826.803728998 -57916983.080758691 0 0 0 0 60059659.242028952 -2943834.3837812841 0 -2943834.3837812841 -30714763.468169212 0 0 0 0 58162365.836629152 -4078585.1793304235 0 -4078585.1793304235 -31210283.467833996 0 0 0 0 66877770.831785202 -34858200.83147198 0 -34858200.83147198 9330796.9765700102 0 0 0 0 3065957.5198907852 -60956578.455514327 0 -60956578.455514327 -3783169.5438596308 0 0 0 0 37969145.145301819 -9715007.0588959455 0 -9715007.0588959455 -45874672.31589514 0 0 0 0 65327844.008167267 -40118054.845372781 0 -40118054.845372781 -26880061.571162403 0 0 0 0 51626781.2210989 32835650.226728678 0 32835650.226728678 -143755789.38581622 0 0 0 0 49347037.483007431 -63007501.519212425 0 -63007501.519212425 -59365552.983616114 0 0 0 0 -54157132.11376667 -113011187.37474889 0 -113011187.37474889 -158925390.00415754 0 0 0 0 -73552636.748232841 125411745.36755574 0 125411745.36755574 -156371083.39253169 0 0 0 0 4283801.5396484062 26368658.229620926 0 26368658.229620926 -30555021.560203314 0 0 0 0 4888696.8760185242 56428348.790664077 0 56428348.790664077 -55026053.999719381 0 0 0 0 23529660.269031525 40473670.745730758 0 40473670.745730758 -26191422.014152884 0 0 0 0 28231171.254704952 33444495.991893172 0 33444495.991893172 -33603110.861603975 0 0 0 0 5484664.1931829453 35424206.051669836 0 35424206.051669836 -27463837.264528513 0 0 0 0 41647584.12266922 22559818.423627257 0 22559818.423627257 -12064614.715336144 0 0 0 0 32553448.650749683 45366427.667115673 0 45366427.667115673 -56607082.636527777 0 0 0 0 43783107.057301521 27801888.302431643 0 27801888.302431643 -30283877.72665453 0 0 0 0 36126734.533769608 37581919.25906539 0 37581919.25906539 -32344219.337308913 0 0 0 0 48721858.992291689 23355663.820385367 0 23355663.820385367 -26927585.752850771 0 0 0 0 32703102.719944 25202177.402590871 0 25202177.402590871 -26288038.659805894 0 0 0 0 39651389.627521515 29598703.855031967 0 29598703.855031967 -41397919.176239014 0 0 0 0 25689856.508947372 33846025.298041344 0 33846025.298041344 -31875361.063685775 0 0 0 0 18550331.640493393 6095185.2938836813 0 6095185.2938836813 -33349156.079760432 0 0 0 0 26356623.371760368 23082113.406678796 0 23082113.406678796 -19305962.020345092 0 0 0 0 19686275.990508318 6088208.9430773854 0 6088208.9430773854 -48023606.899232626 0 0 0 0 17412204.70677352 21224750.87269941 0 21224750.87269941 -11415838.992516518 0 0 0 0 45987648.236473083 15043842.693378091 0 15043842.693378091 -11180812.939574003 0 0 0 0 27329013.52432546 21800744.106391728 0 21800744.106391728 -10269918.069540501 0 0 0 0 25293529.777783871 33546883.506583452 0 33546883.506583452 -14260104.146872282 0 0 0 0 28018631.01868248 35373382.441123247 0 35373382.441123247 -13132512.980397463 0 0 0 0 26703244.813049316 16033839.668147087 0 16033839.668147087 -12263633.350561678 0 0 0 0 26856817.102394104 19803102.495619535 0 19803102.495619535 20623095.618025541 0 0 0 0 56523935.450515747 33019035.00229001 0 33019035.00229001 -5998247.1666269302 0 0 0 0 53812467.761451244 -7326461.5301955491 0 -7326461.5301955491 -5972366.8649959564 0 0 0 0 717318.16634073108 2220439.5333324419 0 2220439.5333324419 -530717.0008354896 0 0 0 0 32286592.385429382 20259507.569755077 0 20259507.569755077 -1167037.1764230728 0 0 0 0 34085342.984558105 20323574.628201723 0 20323574.628201723 -2082280.6905398369 0 0 0 0 54802712.982395887 26585844.065822601 0 26585844.065822601 -856465.8239274025 0 0 0 0 50015338.984827757 2346647.8279622644 0 2346647.8279622644 1585035.5626149178 0 0 0 0 40027208.71049118 9113989.8614358902 0 9113989.8614358902 -9238440.2442064285 0 0 0 0 27145935.305810928 10811120.588137865 0 10811120.588137865 -438698.50690603256 0 0 0 0 28189317.14118278 3827569.48267252 0 3827569.48267252 -16251892.842962027 0 0 0 0 22570476.568170309 -3228997.9341674745 0 -3228997.9341674745 -14948661.046768188 0 0 0 0 25381501.892306089 5162294.5635991096 0 5162294.5635991096 -10380124.731266022 0 0 0 0 24624858.719554901 4518714.3193061352 0 4518714.3193061352 -8415050.2631106377 0 0 0 0 33025743.21644783 14144273.920890331 0 14144273.920890331 -6084608.3201112747 0 0 0 0 28673653.458242416 8713563.7052092552 0 8713563.7052092552 -10141665.28737092 0 0 0 0 33768556.710454941 21366204.181497812 0 21366204.181497812 -930721.80666780472 0 0 0 0 23753809.296113968 14697961.197436333 0 14697961.197436333 -554931.22768497467 0 0 0 0 6218926.3056740761 -15329874.986088961 0 -15329874.986088961 -48952010.631334305 0 0 0 0 7206077.3860359192 667565.43720138073 0 667565.43720138073 -14438025.653052807 0 0 0 0 21415413.237413883 15257283.276277184 0 15257283.276277184 -4054636.2815518379 0 0 0 0 14019025.216590881 -707724.11637067795 0 -707724.11637067795 -11263051.667587996 0 0 0 0 14482594.524209976 484953.86193829775 0 484953.86193829775 -19919736.242699862 0 0 0 0 11702481.25918293 -7773029.3109064102 0 -7773029.3109064102 -19241947.87108396 0 0 0 0 2621954.0947933197 2681060.8270043135 0 2681060.8270043135 13211380.783157885 0 0 0 0 38856879.141366005 49146490.177853346 0 49146490.177853346 17788142.880100384 0 0 0 0 11583978.045066833 15709276.884143591 0 15709276.884143591 -16626331.271424398 0 0 0 0 43061141.948560715 12911755.94139874 0 12911755.94139874 -16439755.334980711 0 0 0 0 52258528.623438835 64461470.386600018 0 64461470.386600018 35354098.457944393 0 0 0 0 17215217.5262146 20673702.914320111 0 20673702.914320111 29288602.663933516 0 0 0 0 1878968.8443782227 1237033.3693218967 0 1237033.3693218967 64506.271726034814 0 0 0 0 14422900.212575912 3333700.5691757202 0 3333700.5691757202 -36276905.634696484 0 0 0 0 467304.6023724759 349109.52611651458 0 349109.52611651458 49347.741879567388 0 0 0 0 -5649878.1200067997 -50172719.432302535 0 -50172719.432302535 -95022997.610817671 0 0 0 0 45973900.024580479 9642099.4113740325 0 9642099.4113740325 -68236623.914536476 0 0 0 0 24710546.548974991 3230176.6232327223 0 3230176.6232327223 -29349036.950036418 0 0 0 0 30793122.707397461 -13133396.341190547 0 -13133396.341190547 -28847269.354463577 0 0 0 0 28275950.369561195 -19217210.510629952 0 -19217210.510629952 -26976628.562457085 0 0 0 0 22329641.518157005 -16769472.932255387 0 -16769472.932255387 -28691007.646574497 0 0 0 0 32856285.175683022 -23413951.110784352 0 -23413951.110784352 -35987387.181778431 0 0 0 0 44276370.468887329 20246528.148236632 0 20246528.148236632 -4932150.2926999331 0 0 0 0 41542724.758071899 -9703756.2361879349 0 -9703756.2361879349 -44004133.778146625 0 0 0 0 36844424.272950888 -1051041.5043642521 0 -1051041.5043642521 -20576712.975589991 0 0 0 0 15876406.771389484 -1712330.837983489 0 -1712330.837983489 15993663.418476582 0 0 0 0 17221661.225172043 -2387201.418623507 0 -2387201.418623507 -1748651.6174521446 0 0 0 0 6460600.5422973633 7024984.9496067762 0 7024984.9496067762 8295657.6894037724 0 0 0 0 30537098.790103912 4702425.6470424533 0 4702425.6470424533 -19014149.282699585 0 0 0 0 10569663.271179199 16819973.185546637 0 16819973.185546637 -25578127.781652451 0 0 0 0 11904406.060367584 -17250106.13124454 0 -17250106.13124454 -55271099.531343222 0 0 0 0 12839307.971411705 -14741853.832095981 0 -14741853.832095981 -11776707.42018795 0 0 0 0 -6656296.3207740784 13317806.075491428 0 13317806.075491428 -5894175.1937948465 0 0 0 0 6083508.5360660553 25760846.636849165 0 25760846.636849165 -62791937.889067173 0 0 0 0 14447727.589201927 6473812.7231360674 0 6473812.7231360674 -55376384.432767391 0 0 0 0 -49101133.553119659 18024707.216803312 0 18024707.216803312 -26385778.43290484 0 0 0 0 264578.31436729431 -38574988.473615527 0 -38574988.473615527 -18670587.416173398 0 0 0 0 112293892.82570505 -618284.80396574736 0 -618284.80396574736 -42738348.822507858 0 0 0 0 74850553.418344498 -49142296.55186677 0 -49142296.55186677 -23363467.143295705 0 0 0 0 39964988.921935081 3633092.9212583303 0 3633092.9212583303 -6113790.9396722317 0 0 0 0 9345818.4026317596 32824474.140824914 0 32824474.140824914 -5360258.4100716114 0 0 0 0 109615.37097011786 58701.279384646448 0 58701.279384646448 -4886.3269563812064 0 0 0 0 40811101.750526428 -30833147.43037343 0 -30833147.43037343 -46186185.940497875 0 0 0 0 -131150059.38822937 -52092584.742628813 0 -52092584.742628813 60962902.932027936 0 0 0 0 -21992842.587320328 9840879.7904293537 0 9840879.7904293537 -10236306.826289229 0 0 0 0 834441.37890120316 -1255392.6466751578 0 -1255392.6466751578 -617760.16921170161 0 0 0 0 7854724.9739780426 -12001053.324697733 0 -12001053.324697733 -14124062.821989417 0 0 0 0 -6031251.7155399323 -1105339.0780922174 0 -1105339.0780922174 -5600940.3110147715 0 0 0 0 10816440.56901741 -8972091.1270539761 0 -8972091.1270539761 -11090331.758255482 0 0 0 0 7708596.2274513245 16055660.481940031 0 16055660.481940031 -32292213.903234959 0 0 0 0 -12533679.589887619 31284269.493413925 0 31284269.493413925 -27172033.165716708 0 0 0 0 -2147527.4679031372 18034314.251847267 0 18034314.251847267 -33849075.61142683 0 0 0 0 4961848.717010498 -1749104.7602411509 0 -1749104.7602411509 -36547352.551671028 0 0 0 0 1244756.4872825146 30124008.840689898 0 30124008.840689898 -29238368.200859308 0 0 0 0 12808099.688486099 18149937.001882017 0 18149937.001882017 -72700971.460446119 0 0 0 0 216199.1540975906 114697.22500838374 0 114697.22500838374 -13225.224133362412 0 0 0 0 14816113.097337723 26304373.407962799 0 26304373.407962799 -65183154.823910236 0 0 0 0 -13404282.268886566 10189232.321624041 0 10189232.321624041 991375.72177192569 0 0 0 0 -10031991.748991489 10399564.020274609 0 10399564.020274609 -31259048.827485085 0 0 0 0 2473962.4268398285 30706558.054441929 0 30706558.054441929 -5997068.2990319729 0 0 0 0 14330053.270532608 5623610.5340759754 0 5623610.5340759754 -11782141.269160748 0 0 0 0 57736186.880491734 -15492788.676060408 0 -15492788.676060408 -1733172.5940890312 0 0 0 0 74218668.964605331 16576390.150466204 0 16576390.150466204 -19251405.731189013 0 0 0 0 231046746.99016094 -75561033.654052734 0 -75561033.654052734 138135.53854799271 0 0 0 0 -1151689.1713438034 44554119.623365045 0 44554119.623365045 14322225.733651161 0 0 0 0 85632954.135734558 33568397.946899533 0 33568397.946899533 -44142678.556679726 0 0 0 0 104993853.08062744 58890592.605948091 0 58890592.605948091 -22376526.707517385 0 0 0 0 -8159317.2760229111 14739764.345799685 0 14739764.345799685 -26887343.206293583 0 0 0 0 -7642490.059196949 17340415.046434462 0 17340415.046434462 -14334562.211300373 0 0 0 0 -15382769.664546967 26876832.219096184 0 26876832.219096184 -29195561.950833142 0 0 0 0 -25140267.260694504 -14736998.318154454 0 -14736998.318154454 -8113095.7228891253 0 0 0 0 12687239.327140808 18453711.899971366 0 18453711.899971366 -21468036.179246902 0 0 0 0 -7689689.2803421021 13636050.358355403 0 13636050.358355403 -26276870.984103203 0 0 0 0 10398289.945173264 13765248.72690022 0 13765248.72690022 -28782002.144738555 0 0 0 0 34965602.649421215 2920494.6452729702 0 2920494.6452729702 -30161488.88509059 0 0 0 0 27433035.807652473 -10414609.940022945 0 -10414609.940022945 -27610267.307191133 0 0 0 0 59295933.060218573 27955139.848324224 0 27955139.848324224 -20877245.649019241 0 0 0 0 68067771.418275833 -25798759.237638116 0 -25798759.237638116 -1455488.2549219131 0 0 0 0 -15024423.016922474 17663082.656869501 0 17663082.656869501 -3569402.3941209316 0 0 0 0 11809804.802080154 15649026.962471485 0 15649026.962471485 -20200965.147310495 0 0 0 0 7078938.0009098053 24202593.808526278 0 24202593.808526278 -11151565.180258632 0 0 0 0 19426377.5132761 -34075273.690428376 0 -34075273.690428376 23663919.627066135 0 0 0 0 24501773.674481392 2504842.5832172632 0 2504842.5832172632 -28517101.224871874 0 0 0 0 20302838.898247719 -22427015.591732383 0 -22427015.591732383 -29549217.650312901 0 0 0 0 -5679981.5258636475 -10181097.016248107 0 -10181097.016248107 14623474.7837511 0 0 0 0 51878642.012550354 -20225775.615480661 0 -20225775.615480661 -91854754.289275289 0 0 0 0 17335208.236235619 9349060.0180820823 0 9349060.0180820823 -49578796.839795232 0 0 0 0 22878088.349275589 -38106040.643108487 0 -38106040.643108487 13585963.929781124 0 0 0 0 1603896.7292338684 -2309707.1871587839 0 -2309707.1871587839 -2178608.3053385895 0 0 0 0 33558721.649539948 -7019282.6462831497 0 -7019282.6462831497 6344939.1472558975 0 0 0 0 48005587.452396393 -18149295.322918296 0 -18149295.322918296 13665881.37069881 0 0 0 0 45698582.663676262 -49492093.736987114 0 -49492093.736987114 -45942231.634819984 0 0 0 0 13998567.992180824 -14997418.524433136 0 -14997418.524433136 8634048.136885643 0 0 0 0 28180760.103460312 49355550.737961888 0 49355550.737961888 -35756387.606231213 0 0 0 0 20335724.470713615 29579569.498688817 0 29579569.498688817 -60695769.732690096 0 0 0 0 1458950.6438865662 31476046.637666464 0 31476046.637666464 -11453814.168761671 0 0 0 0 106368.43537157029 56586.402498351643 0 56586.402498351643 -6810.3726568145212 0 0 0 0 58774432.096452713 -18590690.314700365 0 -18590690.314700365 -53819261.9968656 0 0 0 0 13432369.272618294 -25194300.850325525 0 -25194300.850325525 -11159122.541094065 0 0 0 0 58218597.529839993 -66028591.194377601 0 -66028591.194377601 65492969.305533409 0 0 0 0 90818746.655439377 -32697486.134402871 0 -32697486.134402871 -21505376.62756902 0 0 0 0 825298.59056415316 -502213.9552394636 0 -502213.9552394636 -873661.4969715859 0 0 0 0 85744625.746274948 -74341030.552958012 0 -74341030.552958012 61149028.014034688 0 0 0 0 -4280943.9533662796 112277096.96616179 0 112277096.96616179 -168015426.97246504 0 0 0 0 27359726.519802094 -78539209.028262854 0 -78539209.028262854 351175833.65955257 0 0 0 0 -24452075.70867157 13810330.422191203 0 13810330.422191203 -52086218.891286165 0 0 0 0 902090.34789655823 -1251945.059307812 0 -1251945.059307812 -1395852.2147434 0 0 0 0 54130087.785346508 -50264734.474553943 0 -50264734.474553943 12553258.684459925 0 0 0 0 24604145.822739601 23612425.295352347 0 23612425.295352347 -70840789.798477307 0 0 0 0 39052565.662284613 -40760458.31706135 0 -40760458.31706135 -8088091.6277811527 0 0 0 0 41052243.664189339 -35160232.839406252 0 -35160232.839406252 4419360.1920846105 0 0 0 0 93378212.106390476 -74421952.819124699 0 -74421952.819124699 -27838412.623685032 0 0 0 0 35433432.56302166 -88245720.005554318 0 -88245720.005554318 64301723.779074907 0 0 0 0 95846376.326041222 -109911851.07339001 0 -109911851.07339001 34527157.450815916 0 0 0 0 84906989.56487155 -46011432.864173099 0 -46011432.864173099 -31144702.637185693 0 0 0 0 234433999.46068573 -58738955.532947302 0 -58738955.532947302 -79571210.213568687 0 0 0 0 186498652.32480526 -225074451.95965976 0 -225074451.95965976 87116574.560058594 0 0 0 0 115085593.74627113 -51089383.220607772 0 -51089383.220607772 -94967022.393081397 0 0 0 0 26842066.08767128 43798488.091125488 0 43798488.091125488 -102241525.06952012 0 0 0 0 15960570.414680481 8372897.652436018 0 8372897.652436018 -174012304.5228042 0 0 0 0 -131889733.13074303 73613318.938989103 0 73613318.938989103 -111202328.47343326 0 0 0 0 98583878.428368568 56835346.785220996 0 56835346.785220996 -178501739.83475161 0 0 0 0 58744019.17747879 -76200401.851347089 0 -76200401.851347089 -42000470.991405964 0 0 0 0 119032877.89921379 -35251302.646204233 0 -35251302.646204233 68575075.132008791 0 0 0 0 318304087.10855865 -133690225.56803608 0 -133690225.56803608 80566827.458824158 0 0 0 0 199929167.9166851 -59615002.271333814 0 -59615002.271333814 107426011.89657354 0 0 0 0 396716066.63568878 -85685636.786371708 0 -85685636.786371708 106203992.65795368 0 0 0 0 453323535.67383003 -227105129.24680758 0 -227105129.24680758 142174619.74391758 0 0 0 0 216432745.18947101 -245502534.90327999 0 -245502534.90327999 32309856.344666004 0 0 0 0 186091911.97145462 -178654654.17162478 0 -178654654.17162478 134616009.20137495 0 0 0 0 355613.5901112752 -702514.47317103855 0 -702514.47317103855 -206548.16887537646 0 0 0 0 46186828.243810654 -159475433.32395113 0 -159475433.32395113 347968983.46725726 0 0 0 0 154021823.22685242 -9539599.7533174753 0 -9539599.7533174753 -280077977.33434522 0 0 0 0 12767807.935063362 -150192538.77496934 0 -150192538.77496934 17891886.999082685 0 0 0 0 -41250911.711780548 35043204.003153324 0 35043204.003153324 99966745.846730947 0 0 0 0 552851.37342844764 235803.2200180837 0 235803.2200180837 35161.740837734775 0 0 0 0 10262.280120372772 300651.38334599137 0 300651.38334599137 -130216.45076787472 0 0 0 0 95109.396064758301 147365.26499032974 0 147365.26499032974 -661.08151406049728 0 0 0 0 354234.66917683091 105061.84544097772 0 105061.84544097772 9138.7795848707901 0 0 0 0 -1897732.3654031754 5534907.4803138375 0 5534907.4803138375 -26991987.086486816 0 0 0 0 12015653.431334496 -1320432.9243549109 0 -1320432.9243549109 -26999312.523406625 0 0 0 0 5152920.8291361332 17121107.682231039 0 17121107.682231039 -32718581.30531168 0 0 0 0 220492.39855323173 205308.92303688498 0 205308.92303688498 68462.828726833686 0 0 0 0 109653.24274346605 -41334.710134716704 0 -41334.710134716704 -125006.71164001699 0 0 0 0 17670407.127410889 10436576.922783852 0 10436576.922783852 6139199.5726495981 0 0 0 0 268456367.73558807 -202736836.79851687 0 -202736836.79851687 54769587.409006715 0 0 0 0 454975.96155122202 131171.66580078378 0 131171.66580078378 2843.3137099117157 0 0 0 0 -67622810.006588221 263362032.72908667 0 263362032.72908667 -275393357.88173413 0 0 0 0 234756798.33143854 -215904651.21003109 0 -215904651.21003109 70259110.934339643 0 0 0 0 450153.53874804825 -92861.118647046387 0 -92861.118647046387 -340497.10063402011 0 0 0 0 -9066077.6316719055 65768640.069908381 0 65768640.069908381 -84780449.155490398 0 0 0 0 121357726.55948544 94728452.721465528 0 94728452.721465528 -291796058.26588273 0 0 0 0 -13841753.356591225 21226393.167660236 0 21226393.167660236 -14181812.261742115 0 0 0 0 -27561853.404441833 117600754.63171935 0 117600754.63171935 -83696013.199249506 0 0 0 0 45548985.658559799 53453924.746961594 0 53453924.746961594 -121726911.52887702 0 0 0 0 19867286.247678757 73616982.43871212 0 73616982.43871212 -1364095.7279353142 0 0 0 0 92393284.045907974 107672409.27857947 0 107672409.27857947 14550419.094566584 0 0 0 0 71732139.330601692 82635202.878067255 0 82635202.878067255 5692640.3822441101 0 0 0 0 182772647.20947742 7930037.0405976176 0 7930037.0405976176 -96002678.579797983 0 0 0 0 100445848.69309235 87860175.774414539 0 87860175.774414539 -111818465.60212255 0 0 0 0 106775082.97011948 14072018.615392208 0 14072018.615392208 38389726.292656541 0 0 0 0 72571368.801717758 50065956.733163834 0 50065956.733163834 152315961.55406165 0 0 0 0 254415682.32575035 74897633.700406313 0 74897633.700406313 60286516.943966866 0 0 0 0 7754699.6080627441 106399441.77219093 0 106399441.77219093 57771034.422307968 0 0 0 0 74301877.121452332 26781302.06105876 0 26781302.06105876 76407394.955356598 0 0 0 0 14473802.786848068 53148836.112010717 0 53148836.112010717 -77922835.472968861 0 0 0 0 -108613663.73678207 56838718.139729381 0 56838718.139729381 47138652.27984786 0 0 0 0 150935.97892458364 239512.1274648183 0 239512.1274648183 368639.91678340116 0 0 0 0 -114181464.91696143 94732637.252839595 0 94732637.252839595 -9301021.8258521557 0 0 0 0 96999.79709148407 114209.22914159298 0 114209.22914159298 14929.991516232491 0 0 0 0 141967.6513064336 -87194.305462629534 0 -87194.305462629534 319564.50397079252 0 0 0 0 -191143521.84017372 -6964069.3673090935 0 -6964069.3673090935 37786709.476369917 0 0 0 0 13987438.304379463 -48658419.835665256 0 -48658419.835665256 155457635.19064641 0 0 0 0 63986.195793155115 -88379.614959100261 0 -88379.614959100261 148058.30821546575 0 0 0 0 25458826.007236004 70344524.856445462 0 70344524.856445462 135003584.31573123 0 0 0 0 -106184775.17033005 -125780128.332219 0 -125780128.332219 217809471.13818666 0 0 0 0 -111198456.02731991 -69521203.878319263 0 -69521203.878319263 223817478.89229453 0 0 0 0 -96501075.224847794 45439223.756203353 0 45439223.756203353 39128126.714481115 0 0 0 0 -64122311.861465454 -15680325.543530107 0 -15680325.543530107 135534308.63155872 0 0 0 0 -180794080.7573328 -162881882.62713224 0 -162881882.62713224 101496672.48405075 0 0 0 0 42434524.494062424 50266174.936543107 0 50266174.936543107 171074612.07820344 0 0 0 0 48214997.956857443 20809642.515745938 0 20809642.515745938 314641120.25694394 0 0 0 0 311894699.23015785 71452877.605798244 0 71452877.605798244 146937128.77666497 0 0 0 0 296142544.16389704 -79352842.510911882 0 -79352842.510911882 272950456.47723484 0 0 0 0 454025068.27929497 277262488.05719024 0 277262488.05719024 598973097.32207394 0 0 0 0 201768235.05884171 -80346797.323644161 0 -80346797.323644161 256887567.17027622 0 0 0 0 113137366.04180908 -321465647.40527725 0 -321465647.40527725 338366046.98076159 0 0 0 0 612707152.24213409 -449674778.51593113 0 -449674778.51593113 319786850.1566844 0 0 0 0 -58071129.166324615 -103483514.46317971 0 -103483514.46317971 216000118.75437781 0 0 0 0 57453712.891159058 45233501.584865749 0 45233501.584865749 298854795.93901253 0 0 0 0 1044701.172023654 -184163682.8065694 0 -184163682.8065694 -4018956.7904388905 0 0 0 0 9967878.3807719946 -86027943.071286529 0 -86027943.071286529 -74344764.673805833 0 0 0 0 -89389099.333612442 -17310972.93420925 0 -17310972.93420925 -82217052.848066315 0 0 0 0 -104323528.88104641 -114206811.31930165 0 -114206811.31930165 -12018167.492953897 0 0 0 0 192625602.79655814 -240338.76014190912 0 -240338.76014190912 -148493599.8934198 0 0 0 0 -68032367.407560349 -102574465.11480156 0 -102574465.11480156 -161458975.55689389 0 0 0 0 180296317.19607067 -114528449.84758838 0 -114528449.84758838 -496783132.36446512 0 0 0 0 1645485.7473698137 3908277.4339846037 0 3908277.4339846037 309078.93066038907 0 0 0 0 9517665.5164501593 2226976.2304804572 0 2226976.2304804572 1232534.7942729071 0 0 0 0 -3854458.8333377838 21927080.165670186 0 21927080.165670186 -966767.11767827719 0 0 0 0 5433366.1236763 -9724424.9264957011 0 -9724424.9264957011 -6313579.9122515321 0 0 0 0 1106873.5382410176 1348146.1147385137 0 1348146.1147385137 157400.89186089503 0 0 0 0 -15340990.703489304 19284434.892434418 0 19284434.892434418 40696958.304805785 0 0 0 0 26874432.932807922 16151597.46322602 0 16151597.46322602 974976.34559944272 0 0 0 0 44731928.658360481 66323876.833171859 0 66323876.833171859 95494141.050654739 0 0 0 0 401903.50000908691 404010.00104515615 0 404010.00104515615 46280.684891374876 0 0 0 0 56163221.850928307 -91410918.479468852 0 -91410918.479468852 17124005.646572411 0 0 0 0 -23580184.731033146 -94890961.196285844 0 -94890961.196285844 104331451.62891173 0 0 0 0 13224891.058542252 -116956675.75202015 0 -116956675.75202015 -193045296.62837759 0 0 0 0 -22489875.679513216 -22869842.60268236 0 -22869842.60268236 -929319.10583984852 0 0 0 0 -176661124.51149368 -94674663.137266159 0 -94674663.137266159 60491646.051059961 0 0 0 0 2295888.7182617188 -443328.94015800953 0 -443328.94015800953 -3428175.9588768482 0 0 0 0 4586551.0914893001 -322335.64032613253 0 -322335.64032613253 -620960.29779030685 0 0 0 0 3043166.8255825043 5599121.1168040708 0 5599121.1168040708 -5581207.9450223446 0 0 0 0 -26288634.043585777 -77758391.901646137 0 -77758391.901646137 217075066.61385322 0 0 0 0 134396770.19879532 -155149786.54244971 0 -155149786.54244971 -324097938.6984272 0 0 0 0 3338665.6920048529 2455985.6279516947 0 2455985.6279516947 -345209.90721654199 0 0 0 0 17080475.139774323 -196538707.92391253 0 -196538707.92391253 -89038008.674850345 0 0 0 0 1163477523.8730774 -446943278.24861753 0 -446943278.24861753 -34491407.973033845 0 0 0 0 265510071.09794998 474530139.64901918 0 474530139.64901918 74245572.25744617 0 0 0 0 -147558633.91144562 234619526.63874602 0 234619526.63874602 -56870006.876176834 0 0 0 0 -193588393.00864029 215959218.91092813 0 215959218.91092813 381007756.80601692 0 0 0 0 152811329.99216843 395434549.99661922 0 395434549.99661922 -295974748.47137833 0 0 0 0 91636631.313952923 -156258576.59506804 0 -156258576.59506804 488594431.4661808 0 0 0 0 102464934.23342514 44258024.15425849 0 44258024.15425849 15972898.553113937 0 0 0 0 30025254.2976017 -15249639.183952093 0 -15249639.183952093 168262371.66390812 0 0 0 0 1001164.5367425932 668705.75811370567 0 668705.75811370567 -245953.24128099921 0 0 0 0 2650054.7620238969 1419091.8327844711 0 1419091.8327844711 592149.44402812293 0 0 0 0 408820676.80858135 -422165102.0954324 0 -422165102.0954324 254890081.4918046 0 0 0 0 391756057.87255049 -47120918.407872975 0 -47120918.407872975 216013340.97193432 0 0 0 0 420699988.95992661 -69552883.536233902 0 -69552883.536233902 144447683.87114334 0 0 0 0 503129256.94174576 -279996982.82774711 0 -279996982.82774711 456968372.06022453 0 0 0 0 831363990.50626564 -216889816.56722689 0 -216889816.56722689 193105351.43693328 0 0 0 0 659485746.85750008 -408690248.31957841 0 -408690248.31957841 188900769.88794804 0 0 0 0 912968.1911020074 658775.24344467185 0 658775.24344467185 366726.39676617295 0 0 0 0 -185287787.55440521 264744853.04004753 0 264744853.04004753 593075237.33640909 0 0 0 0 -75441683.987514496 400230878.84329247 0 400230878.84329247 131799182.19407654 0 0 0 0 -63867824.93970108 465345740.20912135 0 465345740.20912135 498102064.96783614 0 0 0 0 187420859.56079912 400214453.97012168 0 400214453.97012168 -651070092.80096626 0 0 0 0 553926554.88429987 428093099.76953882 0 428093099.76953882 -137144833.52856815 0 0 0 0 -3870847.655128479 36269445.135733843 0 36269445.135733843 -338998602.35477328 0 0 0 0 326996861.23543549 -176236343.85277188 0 -176236343.85277188 116676571.94421369 0 0 0 0 242558683.96773148 -806821683.98226547 0 -806821683.98226547 386855746.49731791 0 0 0 0 6473087.1098694615 2835403.7384310737 0 2835403.7384310737 955453.77312546235 0 0 0 0 -34227.366534573957 1683236.7398474636 0 1683236.7398474636 229953.67766027688 0 0 0 0 2340604.4705442041 330096.16262429394 0 330096.16262429394 -508017.29349197308 0 0 0 0 668637132.24294662 -723192933.59149694 0 -723192933.59149694 -660607067.79199791 0 0 0 0 311835009.89525414 90773283.565244019 0 90773283.565244019 247809203.98492908 0 0 0 0 259254829.25160027 -39568405.353126287 0 -39568405.353126287 14077233.109843969 0 0 0 0 488156528.99716949 -35371653.803996682 0 -35371653.803996682 154601498.39240015 0 0 0 0 -278285884.23571777 -861333665.05546105 0 -861333665.05546105 661045901.15374911 0 0 0 0 2239631.6754028276 901903.73122597346 0 901903.73122597346 296596.27209064784 0 0 0 0 -179510823.91147232 512623459.77592206 0 512623459.77592206 87991225.161346555 0 0 0 0 -351743156.77711105 265466243.0907681 0 265466243.0907681 66800601.649760544 0 0 0 0 1820396202.3568516 30657078.685810447 0 30657078.685810447 -741394298.71544826 0 0 0 0 -1334419.5230239611 794441.84653015574 0 794441.84653015574 468861.66557899059 0 0 0 0 -411817101.47381973 -184366115.86843508 0 -184366115.86843508 844916139.92517543 0 0 0 0 -130059301.11873245 -189018179.93811464 0 -189018179.93811464 -216101809.0053916 0 0 0 0 208814.69930512924 116415.33529606555 0 116415.33529606555 -507662.92418553308 0 0 0 0 -44755939.662784576 35492049.284044266 0 35492049.284044266 -19251522.625606537 0 0 0 0 -196716213.44644165 -148382347.56869507 0 -148382347.56869507 -257658337.68561745 0 0 0 0 5988646.9450142533 1723382.9577885391 0 1723382.9577885391 -592310.27533436939 0 0 0 0 -4825399.8684082031 95946526.703676224 0 95946526.703676224 -136139002.14585161 0 0 0 0 247889022.23145294 193190656.84446335 0 193190656.84446335 -239725518.51571274 0 0 0 0 9984161.1847686768 -83037934.800045967 0 -83037934.800045967 -335835577.42353606 0 0 0 0 -74759853.223999023 -71788652.651386738 0 -71788652.651386738 -80248314.1365242 0 0 0 0 15282747.668197632 -45867088.899085999 0 -45867088.899085999 -169103343.55615902 0 0 0 0 84941180.677415848 61251827.585167646 0 61251827.585167646 -115036878.93370819 0 0 0 0 27729648.149935722 -4254642.1024274677 0 -4254642.1024274677 -15736266.678162575 0 0 0 0 10149048.529823303 9063171.8526391983 0 9063171.8526391983 -34619665.593521118 0 0 0 0 -390921585.68694305 182430345.49142754 0 182430345.49142754 74572524.507966757 0 0 0 0 -45629963.523017883 53108813.013833046 0 53108813.013833046 31438924.213000774 0 0 0 0 776746.04229743592 -226920.98187768506 0 -226920.98187768506 -698909.6408689227 0 0 0 0 4022610.8363061473 3080776.9859824572 0 3080776.9859824572 963618.49074763211 0 0 0 0 44562040.146007538 130710978.10283136 0 130710978.10283136 123275348.0999341 0 0 0 0 1442489.4514017124 149195.20844069123 0 149195.20844069123 -887766.25840215106 0 0 0 0 125840026.29022217 12810721.74125433 0 12810721.74125433 -1281210.2210407257 0 0 0 0 1672828.9375848174 -3329.7683511115611 0 -3329.7683511115611 -1575461.1089744093 0 0 0 0 113989402.15065002 67846711.167499065 0 67846711.167499065 2207345.9825611115 0 0 0 0 11092380.757453918 -1530814.6226420403 0 -1530814.6226420403 -4206387.4488916397 0 0 0 0 -22852830.480804443 -34307201.26449585 0 -34307201.26449585 -52535994.654557228 0 0 0 0 740488.55590105243 348081.83981873002 0 348081.83981873002 -1497508.0550098266 0 0 0 0 -19236966.942786217 -30567298.189746261 0 -30567298.189746261 -55116609.673415184 0 0 0 0 -19616402.569095612 20514136.111246109 0 20514136.111246109 -29400689.454190254 0 0 0 0 406743.14069324359 51288.398762126919 0 51288.398762126919 -250263.0210426182 0 0 0 0 -1727200.3096885681 -7749206.2800803185 0 -7749206.2800803185 3097765.7269363403 0 0 0 0 55715968.363423347 -5554384.655426383 0 -5554384.655426383 10119817.865484238 0 0 0 0 100170300.91658783 117987192.49919891 0 117987192.49919891 -17674152.485176086 0 0 0 0 -51326400.654708862 109385768.52561784 0 109385768.52561784 -104780628.64247513 0 0 0 0 -203213736.10017776 -108809937.04427671 0 -108809937.04427671 -30240397.884739399 0 0 0 0 25599600.336380005 210203984.61752653 0 210203984.61752653 257075317.53943205 0 0 0 0 36040536.67681694 210663234.87971923 0 210663234.87971923 16680791.613811016 0 0 0 0 81987814.797363281 17126711.181528091 0 17126711.181528091 -67518305.500921249 0 0 0 0 138771856.74083519 42368465.543681145 0 42368465.543681145 -109140932.0329895 0 0 0 0 130068449.62329102 96202665.433604717 0 96202665.433604717 34667410.547550082 0 0 0 0 647349332.87747192 49544853.470459938 0 49544853.470459938 -362049274.68450642 0 0 0 0 72978699.653621674 -350208569.5150497 0 -350208569.5150497 -458923342.8163662 0 0 0 0 866136.29204174504 131806.77750589652 0 131806.77750589652 -463383.76973048411 0 0 0 0 147585545.69330406 52346884.867173433 0 52346884.867173433 112299896.24856472 0 0 0 0 458656498.05379486 424465247.46855998 0 424465247.46855998 309150224.66966581 0 0 0 0 46259279.557945251 96201067.113973618 0 96201067.113973618 104223807.36837244 0 0 0 0 130463464.96098709 168403113.08456302 0 168403113.08456302 23752473.327105522 0 0 0 0 247712734.01682472 122446399.35392237 0 122446399.35392237 34155709.471736908 0 0 0 0 -46426813.628303528 -194956410.81903434 0 -194956410.81903434 -224422944.14874607 0 0 0 0 2267890.7516111545 483514.91641225945 0 483514.91641225945 -1326934.6542248768 0 0 0 0 70865832.401790619 7870724.0844984055 0 7870724.0844984055 -253403779.08820057 0 0 0 0 -2684579.437171936 -32236335.827706337 0 -32236335.827706337 -49080001.124072313 0 0 0 0 153165069.99564981 120675504.92892337 0 120675504.92892337 49635107.469203949 0 0 0 0 199878172.05239487 252245673.06568241 0 252245673.06568241 183871349.54359293 0 0 0 0 72663804.593612671 -52752334.467621803 0 -52752334.467621803 -164433647.74999619 0 0 0 0 3240332.7823006026 1090707.4858240169 0 1090707.4858240169 -2060747.6424677577 0 0 0 0 76089789.019508362 71134764.532792568 0 71134764.532792568 71476411.872442245 0 0 0 0 112136479.81936646 -47101979.879937649 0 -47101979.879937649 -61949763.774321556 0 0 0 0 -52550738.590211332 25194214.009710558 0 25194214.009710558 -82221599.277460098 0 0 0 0 31610452.489456177 84360174.25203073 0 84360174.25203073 22410855.32505703 0 0 0 0 81817.162181146443 49630.486952492269 0 49630.486952492269 -119625.52823943377 0 0 0 0 -76801198.8542099 28197017.379795074 0 28197017.379795074 -1488451.1511812508 0 0 0 0 -57937304.800579071 -8900051.4816627502 0 -8900051.4816627502 38206466.467425346 0 0 0 0 -56084637.711158514 -17456843.711901695 0 -17456843.711901695 -1804124.4013795853 0 0 0 0 16433224.778554725 -957606.34919486614 0 -957606.34919486614 312006.56536824268 0 0 0 0 61293245.733845711 38186276.083011687 0 38186276.083011687 -53306349.316259384 0 0 0 0 -14088345.669147491 12555777.653210521 0 12555777.653210521 1502166.0017387867 0 0 0 0 12994101.209062576 38497599.808880374 0 38497599.808880374 -31128626.435794055 0 0 0 0 11037172.912006214 2454549.6297058468 0 2454549.6297058468 2360989.4469367675 0 0 0 0 -182329964.15351105 208635794.67976427 0 208635794.67976427 -10934087.988474846 0 0 0 0 -196237285.77015042 77210893.908060402 0 77210893.908060402 268530002.78870964 0 0 0 0 181701478.42718792 401087515.75239086 0 401087515.75239086 627802207.5387392 0 0 0 0 213149558.49246979 202109625.30831337 0 202109625.30831337 -343609196.53056002 0 0 0 0 589776655.05186462 -162320799.39474201 0 -162320799.39474201 -41106943.540422916 0 0 0 0 140110601.78971481 -141109219.18893719 0 -141109219.18893719 153207235.56532717 0 0 0 0 128164243.5852077 -53082724.4505153 0 -53082724.4505153 84050469.724430084 0 0 0 0 -128809868.54270172 -82442298.528630257 0 -82442298.528630257 238250315.32191277 0 0 0 0 20243070.932619214 -6650543.9114128444 0 -6650543.9114128444 2556329.9522579801 0 0 0 0 -46708360.728876114 -48004618.962979674 0 -48004618.962979674 -38554286.327798843 0 0 0 0 -52986173.398817539 -196217005.7569024 0 -196217005.7569024 -45900878.453335762 0 0 0 0 -67475747.235588074 -62483663.792487144 0 -62483663.792487144 124976127.38249254 0 0 0 0 436151798.64024734 -71986436.362185001 0 -71986436.362185001 -25566837.026975632 0 0 0 0 265835293.64223862 16767079.237008095 0 16767079.237008095 27369551.153519154 0 0 0 0 -86174179.119342804 7526524.6095414162 0 7526524.6095414162 57250420.632187605 0 0 0 0 171404623.46104622 -115548859.90952373 0 -115548859.90952373 -190709420.07847476 0 0 0 0 19891193.251864702 -7478706.3247223208 0 -7478706.3247223208 2270044.921981012 0 0 0 0 36655523.557556152 -50047621.357855961 0 -50047621.357855961 -171101972.79937977 0 0 0 0 39711305.149017334 -7268536.8477719426 0 -7268536.8477719426 -57513742.060623735 0 0 0 0 23116248.03416457 -3616077.2108486183 0 -3616077.2108486183 1057716.642612827 0 0 0 0 60496339.030136108 52344714.546507597 0 52344714.546507597 -111398119.13821101 0 0 0 0 29088125.960267544 1971774.2855095929 0 1971774.2855095929 -46955961.380611405 0 0 0 0 46687416.411636353 73571247.149164677 0 73571247.149164677 44254974.966919124 0 0 0 0 26935917.255508423 5900142.3623021245 0 5900142.3623021245 -21405742.827589363 0 0 0 0 35934839.90348053 8775264.6080152392 0 8775264.6080152392 -26462835.717924774 0 0 0 0 36615833.363700867 56172498.697805271 0 56172498.697805271 -202834654.10741794 0 0 0 0 2946283.800657656 -2030050.2212005574 0 -2030050.2212005574 -755965.0846768812 0 0 0 0 20016204.755645752 -58035700.697247446 0 -58035700.697247446 -186940041.18781683 0 0 0 0 3430121.8808849975 4152021.6294911471 0 4152021.6294911471 -2862319.3527927711 0 0 0 0 20899394.268940926 25066259.692554973 0 25066259.692554973 -5472775.8834637403 0 0 0 0 17795508.466335297 -2046237.2733957767 0 -2046237.2733957767 -4661323.0010106564 0 0 0 0 16746737.716833759 -223827.88462670706 0 -223827.88462670706 161329.75423887814 0 0 0 0 14648830.44933011 -692252.34021916799 0 -692252.34021916799 -1059747.7340865512 0 0 0 0 17130495.883482456 1126987.5597096384 0 1126987.5597096384 -2780612.4309234619 0 0 0 0 16938953.497261047 -781814.03841042519 0 -781814.03841042519 -6429999.2729179859 0 0 0 0 17026251.495610952 837871.60641627014 0 837871.60641627014 -7926432.506196022 0 0 0 0 15683262.455535889 -439998.70917844772 0 -439998.70917844772 -5533515.0238630772 0 0 0 0 16179137.006363869 -1371982.4406906366 0 -1371982.4406906366 -5022901.2576928139 0 0 0 0 10629907.519992214 -1452624.0923518725 0 -1452624.0923518725 -1499533.8889677029 0 0 0 0 6325578.6837234497 1598091.6547932625 0 1598091.6547932625 -17033052.511645913 0 0 0 0 13848490.183641529 5843557.5092056841 0 5843557.5092056841 -1642167.341422494 0 0 0 0 9365981.8085759878 2391680.6797621995 0 2391680.6797621995 -936015.18383162899 0 0 0 0 15325692.47428352 -1954066.1997534917 0 -1954066.1997534917 -1918523.2802653091 0 0 0 0 3821701.8602428436 503335.62046170235 0 503335.62046170235 -15872586.984658241 0 0 0 0 16653136.626758575 810066.41438508034 0 810066.41438508034 -7573214.3227987289 0 0 0 0 20873579.925107591 2845318.2625385392 0 2845318.2625385392 -2023231.1312858602 0 0 0 0 20956447.375092566 -2516597.7980237156 0 -2516597.7980237156 -1507074.2288154352 0 0 0 0 13136049.397918701 -2082890.161696434 0 -2082890.161696434 -9690638.6407463551 0 0 0 0 14868181.439811707 759142.94490981102 0 759142.94490981102 -7176517.4078831673 0 0 0 0 16255075.433115959 -1465399.3286634088 0 -1465399.3286634088 -8037722.346391201 0 0 0 0 18387625.902936935 -76632335.481426209 0 -76632335.481426209 -35724646.909267187 0 0 0 0 18090784.784580015 461783.98561014328 0 461783.98561014328 -283951.98161287012 0 0 0 0 27789710.208396912 1607994.3563702106 0 1607994.3563702106 -31946867.039796919 0 0 0 0 34867503.310834169 -20678133.106350422 0 -20678133.106350422 -59265799.633961797 0 0 0 0 174473784.26354027 -4081724.6346839219 0 -4081724.6346839219 -33778983.942043155 0 0 0 0 93071747.24998188 -45188779.763912588 0 -45188779.763912588 70065384.602976441 0 0 0 0 88121823.676501274 60072866.120436966 0 60072866.120436966 79770361.734318107 0 0 0 0 41653693.596502304 -87719456.741045982 0 -87719456.741045982 39749357.866258234 0 0 0 0 -38270634.401686668 -28707286.911071219 0 -28707286.911071219 -3555028.1926150322 0 0 0 0 -25104648.976867676 35208920.313813001 0 35208920.313813001 117081640.59705491 0 0 0 0 10700371.485778809 -7342924.4563436508 0 -7342924.4563436508 -17183836.367194928 0 0 0 0 4712474.5663747787 -4465473.9222460985 0 -4465473.9222460985 764725.42707258463 0 0 0 0 -22758632.595371723 -10599298.973050714 0 -10599298.973050714 -7271657.548207134 0 0 0 0 1354384.2085848358 -1608320.9716877313 0 -1608320.9716877313 -1467544.9655451316 0 0 0 0 -50332053.938608646 -43560023.685252987 0 -43560023.685252987 23941389.028833091 0 0 0 0 4518160.9105926752 -3563094.6186133018 0 -3563094.6186133018 34427140.756373391 0 0 0 0 -905159.30462046491 6102066.9048207924 0 6102066.9048207924 -1703578.9262706179 0 0 0 0 -121120197.58297527 65631043.504103184 0 65631043.504103184 -23232498.81220293 0 0 0 0 6106476.9485340118 10136064.616166892 0 10136064.616166892 42256693.592932045 0 0 0 0 7818107.4975757599 22093246.564155042 0 22093246.564155042 76726728.167726204 0 0 0 0 -27869010.656251907 -2297145.2954051346 0 -2297145.2954051346 76443866.723506093 0 0 0 0 17750692.988544464 18491070.679693967 0 18491070.679693967 71581940.983833194 0 0 0 0 -2574839.5457000732 18212411.776017208 0 18212411.776017208 79845880.739010811 0 0 0 0 19254342.944321632 564166.73451298475 0 564166.73451298475 74086157.86718449 0 0 0 0 -4724591.3459842205 4579218.0218443684 0 4579218.0218443684 79899854.645598352 0 0 0 0 8009090.4650287628 -13154773.308205523 0 -13154773.308205523 87598454.397587955 0 0 0 0 27568702.648786545 -37067140.332075626 0 -37067140.332075626 69169408.458095968 0 0 0 0 16856866.414554596 7926614.9440687895 0 7926614.9440687895 53213166.884026527 0 0 0 0 28803402.286211014 24596689.145851374 0 24596689.145851374 53792267.458869815 0 0 0 0 43344026.655787468 36831391.219404876 0 36831391.219404876 55992733.172517017 0 0 0 0 230213.33343935013 2303461.9299509227 0 2303461.9299509227 42369947.154902458 0 0 0 0 45653585.566636086 28552651.465090245 0 28552651.465090245 38934965.673726261 0 0 0 0 17486995.173583984 31983762.991108894 0 31983762.991108894 81836238.312654197 0 0 0 0 7239360.9724569321 23118942.868344665 0 23118942.868344665 80509437.65741092 0 0 0 0 -684380.17778786318 197900.70999541506 0 197900.70999541506 623927.46868569055 0 0 0 0 5752515.2885584831 -34400321.040561266 0 -34400321.040561266 365111684.74963868 0 0 0 0 138630214.35511684 30472930.311010942 0 30472930.311010942 -130643363.8528178 0 0 0 0 94620989.577014953 -29753778.862284642 0 -29753778.862284642 -9951030.4156243801 0 0 0 0 99948877.237831444 -130466693.8360399 0 -130466693.8360399 96908222.345619917 0 0 0 0 28801141.448890686 -68544903.450934902 0 -68544903.450934902 129652628.26155779 0 0 0 0 13058427.340644836 -7685627.7723363936 0 -7685627.7723363936 77457191.720428854 0 0 0 0 13880339.243466139 -12237625.319912594 0 -12237625.319912594 97311443.355766281 0 0 0 0 8967126.7417583466 -12762257.171951279 0 -12762257.171951279 109614171.75126106 0 0 0 0 -595509694.55167317 38516650.772983104 0 38516650.772983104 1227262012.2569361 0 0 0 0 -591527276.99870729 -290339228.73937106 0 -290339228.73937106 -9346746.4324827194 0 0 0 0 -1026854.6080980301 12726402.712247647 0 12726402.712247647 92511375.098371893 0 0 0 0 733064.77162837982 6571744.5291544832 0 6571744.5291544832 113614737.33943518 0 0 0 0 -2233644.4698087154 1759234.9322560935 0 1759234.9322560935 1082887.306162847 0 0 0 0 -113563826.25396919 105814419.75927591 0 105814419.75927591 190305344.82929134 0 0 0 0 1139353023.5513763 874297609.87914944 0 874297609.87914944 200274503.81890798 0 0 0 0 -187579273.55812168 99250122.809995651 0 99250122.809995651 -155763927.80808115 0 0 0 0 799052441.92557716 -880653282.7906301 0 -880653282.7906301 -693000327.24155056 0 0 0 0 18449273.171472549 169167307.58900905 0 169167307.58900905 785638513.34944677 0 0 0 0 440553743.997859 437837139.85173762 0 437837139.85173762 188609376.08684868 0 0 0 0 320947188.91417789 -844792432.41718948 0 -844792432.41718948 1092143419.0016098 0 0 0 0 4202093.252890666 -840068.77921936731 0 -840068.77921936731 -39259.534757181878 0 0 0 0 144471965.7986412 155580135.17360497 0 155580135.17360497 184132268.78620911 0 0 0 0 5722750.4708843231 195513.96792823076 0 195513.96792823076 -15766230.685961723 0 0 0 0 10143897.603333306 -8444441.6750435792 0 -8444441.6750435792 -919749.3366715468 0 0 0 0 435037720.76144409 -158286803.81405354 0 -158286803.81405354 -1184277353.7291393 0 0 0 0 -286166808.4888649 -591367124.64722919 0 -591367124.64722919 -264575996.39901543 0 0 0 0 6464485.351272583 4985581.9978427887 0 4985581.9978427887 -21886196.062037945 0 0 0 0 723273495.79431367 542397091.69279933 0 542397091.69279933 -1234609614.3867674 0 0 0 0 12620386.108269578 -4529658.3249647226 0 -4529658.3249647226 -1539771.6676047796 0 0 0 0 8708327.2581386566 -6801080.2536423802 0 -6801080.2536423802 -16976315.175382137 0 0 0 0 12689472.345892731 1727586.6948279794 0 1727586.6948279794 -2081942.5208008487 0 0 0 0 187749455.11407471 175160063.42201805 0 175160063.42201805 112934647.79476786 0 0 0 0 9440989.2507553101 -2465412.0862648487 0 -2465412.0862648487 -11790803.124948025 0 0 0 0 8528247.8156461157 -4794160.4050170947 0 -4794160.4050170947 -1240076.438164816 0 0 0 0 201018811.63825989 309287602.19651937 0 309287602.19651937 315263266.29519463 0 0 0 0 51592266.875762939 292952941.88541126 0 292952941.88541126 482542887.0808444 0 0 0 0 175268999.59512329 290867366.49469471 0 290867366.49469471 389734866.49146748 0 0 0 0 10772250.518351041 -269036.23313978594 0 -269036.23313978594 -1146401.1528835287 0 0 0 0 434311302.17468262 467904452.08469391 0 467904452.08469391 457344033.83429718 0 0 0 0 171295509.83761597 184364268.81766796 0 184364268.81766796 473989658.89813042 0 0 0 0 -12114379.210754395 283572670.83171844 0 283572670.83171844 424897258.77032614 0 0 0 0 37379057.203029633 186089486.27074361 0 186089486.27074361 283333291.30796909 0 0 0 0 -30160898.957748413 242423183.12721157 0 242423183.12721157 496824235.39234447 0 0 0 0 274142003.28991699 264335794.22532272 0 264335794.22532272 485857211.60445213 0 0 0 0 3671296.3294830322 219078731.15367126 0 219078731.15367126 512489868.35986614 0 0 0 0 584849.26373109221 -624709.52367384546 0 -624709.52367384546 -409988.78389025806 0 0 0 0 15956063.756950378 -658275.20564460754 0 -658275.20564460754 -10423849.061698675 0 0 0 0 16340527.534507751 1046579.2291662693 0 1046579.2291662693 -7722966.8241219521 0 0 0 0 10211820.651733398 -3472855.8133020401 0 -3472855.8133020401 -26490620.384306431 0 0 0 0 -41613812.414386749 354259175.20797396 0 354259175.20797396 -377787077.25246334 0 0 0 0 11355121.168197937 -5144488.5135038253 0 -5144488.5135038253 -1674263.310016216 0 0 0 0 13155556.515212126 230363.71015114291 0 230363.71015114291 -1921757.804714476 0 0 0 0 9439217.7771861926 -1386494.9046910249 0 -1386494.9046910249 -8265343.2824683189 0 0 0 0 16820565.806415558 1003962.8225798607 0 1003962.8225798607 -8008116.7091755867 0 0 0 0 15297289.369491577 -739101.12139129639 0 -739101.12139129639 -8981956.6123595238 0 0 0 0 15549503.924179077 -1972138.0807058811 0 -1972138.0807058811 -6466508.7699894905 0 0 0 0 2841366.2054748535 -63330264.613706589 0 -63330264.613706589 -42882293.940521002 0 0 0 0 12825789.094061159 -627714.49803577177 0 -627714.49803577177 -622659.40380374307 0 0 0 0 -289468078.83474731 238121890.19386148 0 238121890.19386148 532597309.78069973 0 0 0 0 389257154.96077728 331141620.28639901 0 331141620.28639901 -18964886.80895257 0 0 0 0 251196597.05556488 -36124541.623162597 0 -36124541.623162597 -15573034.803050995 0 0 0 0 272929118.0449295 185322418.81523865 0 185322418.81523865 -93429454.291772515 0 0 0 0 7689766.1176300049 -17005746.656801105 0 -17005746.656801105 -6950592.0137214661 0 0 0 0 539202.63525345176 -270474.46966053639 0 -270474.46966053639 205776.55461350575 0 0 0 0 -3725546.5381622314 28849890.906407773 0 28849890.906407773 32171449.629394531 0 0 0 0 -202030998.61819839 77291740.14878881 0 77291740.14878881 350219760.28699112 0 0 0 0 -97709316.73916626 280392314.16835582 0 280392314.16835582 316818562.25065517 0 0 0 0 366661089.31842041 137970750.45692825 0 137970750.45692825 -301473044.5545541 0 0 0 0 828048368.68572998 411857222.9265728 0 411857222.9265728 149954245.22907281 0 0 0 0 406113.85692249984 1367626.7279119892 0 1367626.7279119892 678183.68428081414 0 0 0 0 -836315.95561981201 302778724.06885648 0 302778724.06885648 288034947.84101534 0 0 0 0 323102850.3229599 152759374.51000148 0 152759374.51000148 -105770981.80480593 0 0 0 0 170727775.6155014 -4587251.16243577 0 -4587251.16243577 -239041979.37993169 0 0 0 0 -979651.3927154541 -27257622.796359241 0 -27257622.796359241 -92612462.593478546 0 0 0 0 -56847920.676389694 89186166.435191646 0 89186166.435191646 -79191091.68133086 0 0 0 0 34066718.520050049 11616771.329580188 0 11616771.329580188 -66516627.448567629 0 0 0 0 146635011.99261475 52680806.767836273 0 52680806.767836273 -71133609.478322625 0 0 0 0 144330395.45150661 59495332.910604119 0 59495332.910604119 -3136632.2764540315 0 0 0 0 45078750.257987976 20549156.583377123 0 20549156.583377123 25594740.471656799 0 0 0 0 87515301.156455994 50232331.367433786 0 50232331.367433786 45908703.615619659 0 0 0 0 69904240.083883286 99309426.945215434 0 99309426.945215434 75428876.067189693 0 0 0 0 14818725.469778061 27024396.606546998 0 27024396.606546998 31721158.918498516 0 0 0 0 21952330.232788086 3022841.0069909096 0 3022841.0069909096 55955262.428921461 0 0 0 0 37938560.326683044 36234475.150873303 0 36234475.150873303 6418155.0185103416 0 0 0 0 46892415.656639099 20748010.370463014 0 20748010.370463014 78339561.646812439 0 0 0 0 -38595780.061080933 -9538364.1963634491 0 -9538364.1963634491 88820758.302247167 0 0 0 0 16569670.23752594 -15784427.211002111 0 -15784427.211002111 87464804.953816414 0 0 0 0 -10887521.885726929 17269931.997665405 0 17269931.997665405 67124078.087716103 0 0 0 0 -2950072.2388763428 2423587.1156272888 0 2423587.1156272888 80645775.765351295 0 0 0 0 23218381.94683075 16416113.470243931 0 16416113.470243931 82752082.466127872 0 0 0 0 -9369122.0221405029 7037243.8833742142 0 7037243.8833742142 93599895.901974678 0 0 0 0 22865058.12424469 14593326.835911989 0 14593326.835911989 46914360.880943298 0 0 0 0 12291778.667642593 44275109.974812448 0 44275109.974812448 111708586.60045242 0 0 0 0 -7747077.3871307373 21026055.651439667 0 21026055.651439667 103829855.41589308 0 0 0 0 3555498.5670931786 -599088.10548603535 0 -599088.10548603535 -1006899.6124347621 0 0 0 0 1047114.0573120117 -4523548.9124641418 0 -4523548.9124641418 -1156214.7836954594 0 0 0 0 -10273240.46540451 39464164.917132139 0 39464164.917132139 32124163.58083868 0 0 0 0 -325352.63210561872 -562184.84384534322 0 -562184.84384534322 -534624.99860720476 0 0 0 0 -3492754.1244742423 -8912256.9157607071 0 -8912256.9157607071 -1712027.7057707899 0 0 0 0 139763739.19640636 -42011715.187868834 0 -42011715.187868834 -435430.91337776184 0 0 0 0 -95825521.421401978 -190376072.96797514 0 -190376072.96797514 -90393939.309335709 0 0 0 0 -100385667.23551941 -904194.16558647156 0 -904194.16558647156 63604530.624763489 0 0 0 0 177934483.02790833 -157219120.29914379 0 -157219120.29914379 137877365.67572331 0 0 0 0 390546263.26132202 -72004655.722894192 0 -72004655.722894192 12094706.221139908 0 0 0 0 1013126.0488158241 427313.10652013496 0 427313.10652013496 -2743.2498120254604 0 0 0 0 70282505.672744751 155581028.22285032 0 155581028.22285032 401406170.39047027 0 0 0 0 -10038223.189968109 27857480.426451206 0 27857480.426451206 202364264.69491148 0 0 0 0 154649180.37034607 173884743.72738934 0 173884743.72738934 129240560.05197763 0 0 0 0 332938452.87840271 270610029.1969378 0 270610029.1969378 190151575.63507032 0 0 0 0 176906394.99736023 134264975.55058026 0 134264975.55058026 85189349.040843248 0 0 0 0 171079288.61933136 201559191.59600231 0 201559191.59600231 61541337.699833795 0 0 0 0 196511930.70646095 165888903.68265522 0 165888903.68265522 -49694359.559174895 0 0 0 0 223290453.58557129 118775743.0333612 0 118775743.0333612 -18385106.729532003 0 0 0 0 243183051.41849518 92139033.504645467 0 92139033.504645467 -23292878.780137494 0 0 0 0 262080903.51784897 133763367.70858334 0 133763367.70858334 -58654464.420241952 0 0 0 0 92338864.781471252 245713029.22999012 0 245713029.22999012 -131243466.25978458 0 0 0 0 33767121.066311836 -8699400.3295640238 0 -8699400.3295640238 -134498366.73357567 0 0 0 0 43723245.597389221 72639641.852512121 0 72639641.852512121 -34276416.263038278 0 0 0 0 -8322695.0708618164 7309250.5941691995 0 7309250.5941691995 -29815361.686990976 0 0 0 0 96210820.34677887 -23403936.697859049 0 -23403936.697859049 -177979620.45456934 0 0 0 0 107935469.71858978 -7578268.553730011 0 -7578268.553730011 -27910001.67701906 0 0 0 0 244534446.70296383 9610907.0158421695 0 9610907.0158421695 -14580158.478457808 0 0 0 0 76098196.939491272 68624160.492585182 0 68624160.492585182 116961745.53401732 0 0 0 0 704491.6359282732 933048.98256163299 0 933048.98256163299 -598329.08365716552 0 0 0 0 6898512.9162311554 -110940164.5225652 0 -110940164.5225652 -276643700.8441028 0 0 0 0 34613982.970607758 82405004.155771255 0 82405004.155771255 -82924858.157005429 0 0 0 0 17637695.41319561 66611580.003527611 0 66611580.003527611 32991658.492828369 0 0 0 0 24007743.333511353 123543713.152282 0 123543713.152282 131033751.58569098 0 0 0 0 -30407475.127506256 32984591.592262506 0 32984591.592262506 18393695.554583788 0 0 0 0 -20904054.53482151 82920443.533472747 0 82920443.533472747 173670982.55893135 0 0 0 0 -24019903.459350586 139371263.9437952 0 139371263.9437952 126506210.36433506 0 0 0 0 409385908.00983429 -84046045.302697822 0 -84046045.302697822 184186904.04704118 0 0 0 0 -41771258.906822205 136264877.63422012 0 136264877.63422012 200772857.43934894 0 0 0 0 30812839.125396729 88617505.982900143 0 88617505.982900143 151845000.34028625 0 0 0 0 346244539.4988327 231996638.08639431 0 231996638.08639431 154175650.24829817 0 0 0 0 35296996.345474243 127039174.66214943 0 127039174.66214943 424915458.73162651 0 0 0 0 71626929.999508858 71239171.995661572 0 71239171.995661572 60361437.347830772 0 0 0 0 111653740.14956665 112839747.26544356 0 112839747.26544356 -10485784.737452984 0 0 0 0 83823719.266629219 185138548.62338156 0 185138548.62338156 91466469.464525223 0 0 0 0 -27891915.462776184 74330509.140443325 0 74330509.140443325 9763766.0479931831 0 0 0 0 34196192.915512085 149801077.18252659 0 149801077.18252659 -50848743.610277653 0 0 0 0 -27184002.376068115 23429394.386633396 0 23429394.386633396 -160742629.3406868 0 0 0 0 61746752.793571472 20369129.256414413 0 20369129.256414413 -183799731.2557888 0 0 0 0 -13923110.370635986 92000299.084933281 0 92000299.084933281 -139382562.17616272 0 0 0 0 16477320.102581024 29949184.174580306 0 29949184.174580306 -78107834.864051819 0 0 0 0 49738942.090309143 150101681.51390147 0 150101681.51390147 138440096.72656393 0 0 0 0 19671954.045291901 184327393.59267068 0 184327393.59267068 150650051.65641928 0 0 0 0 -27038808.970069885 141688624.75079715 0 141688624.75079715 132731588.91186714 0 0 0 0 -33643526.668198109 157723613.91734999 0 157723613.91734999 130154446.72310162 0 0 0 0 -62754504.005401611 69395218.55918932 0 69395218.55918932 2454047.0079612732 0 0 0 0 -10553817.488937378 123115152.62769747 0 123115152.62769747 -23413494.519030333 0 0 0 0 -41106226.355224609 66475493.657435417 0 66475493.657435417 -89033769.337192059 0 0 0 0 -52790045.898331165 165432839.25846323 0 165432839.25846323 182846749.52792549 0 0 0 0 8770051.6319580078 -6251111.5502552986 0 -6251111.5502552986 5387886.787071228 0 0 0 0 439048.87449397147 282348.46209916472 0 282348.46209916472 -211567.11392740975 0 0 0 0 -21637066.350452423 -17456060.000810266 0 -17456060.000810266 -103922115.8105545 0 0 0 0 47865493.981227875 -105500794.07201958 0 -105500794.07201958 -194056440.47420549 0 0 0 0 55518694.967163086 20191654.6590662 0 20191654.6590662 -191281514.73450375 0 0 0 0 3581029.1632889807 1927103.7984628864 0 1927103.7984628864 274025.97280341794 0 0 0 0 12363869.361633301 89508010.99626267 0 89508010.99626267 129818607.40702677 0 0 0 0 188645905.5963974 66810477.913250446 0 66810477.913250446 -129417066.80596918 0 0 0 0 -680158702.8335495 -88508961.942372561 0 -88508961.942372561 257226249.92882824 0 0 0 0 25912230.531318665 138385667.08306432 0 138385667.08306432 -240069604.00446892 0 0 0 0 -91719099.312820435 66490538.35852623 0 66490538.35852623 -147746988.65870667 0 0 0 0 -77851004.991359711 -3386662.3332420588 0 -3386662.3332420588 -185400387.77084351 0 0 0 0 3764116.3088354021 2176331.4110113 0 2176331.4110113 449724.45476684056 0 0 0 0 137766270.11016846 120462289.21663427 0 120462289.21663427 -182428264.14613438 0 0 0 0 -85833628.527297974 17001505.190637589 0 17001505.190637589 -30871040.184937954 0 0 0 0 5860408.3855857849 46329813.735515237 0 46329813.735515237 134657235.87770224 0 0 0 0 46903135.146514893 81148195.714104176 0 81148195.714104176 -29679228.061445184 0 0 0 0 -92501420.102714539 -35456768.377014875 0 -35456768.377014875 1328111.0453577042 0 0 0 0 636569.9681936726 -377070.44784662873 0 -377070.44784662873 34201.223680100404 0 0 0 0 238232460.93399048 259286183.40881371 0 259286183.40881371 44510126.503656745 0 0 0 0 -118771155.98165131 -40430873.658740938 0 -40430873.658740938 16360347.927418709 0 0 0 0 -55436891.494171143 165623.73587870598 0 165623.73587870598 -18151013.013921261 0 0 0 0 -47112436.678329468 -4206150.1286425591 0 -4206150.1286425591 6903144.5058088303 0 0 0 0 -65839099.14812851 14648352.737649679 0 14648352.737649679 69348657.507989883 0 0 0 0 -46728335.108840942 -27564407.885337353 0 -27564407.885337353 13072743.89281559 0 0 0 0 -112559434.49008751 -9017328.9184193015 0 -9017328.9184193015 16117186.240227699 0 0 0 0 454063834.84031677 206348392.59802294 0 206348392.59802294 26651988.556228638 0 0 0 0 2944351.8972862214 1939099.0103010032 0 1939099.0103010032 502987.47633432661 0 0 0 0 51688745.270477295 105872459.15022898 0 105872459.15022898 -355859476.21308637 0 0 0 0 -63925031.190048218 153776063.401793 0 153776063.401793 -208572909.98784518 0 0 0 0 13016233.030502319 -737918.26380157471 0 -737918.26380157471 -123849448.6980648 0 0 0 0 49353471.555236816 -23636156.676604271 0 -23636156.676604271 -140151050.38144302 0 0 0 0 -12874460.04776001 43903556.909700394 0 43903556.909700394 -154102417.35508871 0 0 0 0 24459684.95475769 -5609226.4558224678 0 -5609226.4558224678 -305303712.57542896 0 0 0 0 32603622.009429932 17306485.211332321 0 17306485.211332321 -164386459.75253677 0 0 0 0 207582409.23384094 -32846106.014857531 0 -32846106.014857531 -257180616.78294134 0 0 0 0 308176795.14769745 -34641438.249958992 0 -34641438.249958992 -115134148.88724899 0 0 0 0 237353720.9521637 -134064943.56383228 0 -134064943.56383228 -94872521.745336056 0 0 0 0 83477463.006561279 -133531728.55813026 0 -133531728.55813026 -73720373.113859177 0 0 0 0 -177874487.55859756 -76240752.826911449 0 -76240752.826911449 51897101.635845184 0 0 0 0 1076945.7612331137 838316.82053700788 0 838316.82053700788 260852.98259026092 0 0 0 0 -12043693.123306274 109606897.63161492 0 109606897.63161492 346637235.59752607 0 0 0 0 -50358188.250771523 2542202.0215077996 0 2542202.0215077996 161728181.26341629 0 0 0 0 64867933.000595093 157972336.66851711 0 157972336.66851711 129687079.90985107 0 0 0 0 274090814.19250488 296870849.2170105 0 296870849.2170105 156180974.19846296 0 0 0 0 462129518.82705688 -15698514.792070389 0 -15698514.792070389 -222500653.06701279 0 0 0 0 3243713.3614501953 -1801455.4271172583 0 -1801455.4271172583 -9042235.6267838478 0 0 0 0 1916748.5832301909 -2706178.1826843247 0 -2706178.1826843247 -3660314.0489006159 0 0 0 0 -611755259.94587708 -233948590.33808017 0 -233948590.33808017 469272025.306036 0 0 0 0 1902241.6176423319 -2694996.1489115432 0 -2694996.1489115432 -3783938.1971789482 0 0 0 0 -26487845.156620026 -5446152.8646805286 0 -5446152.8646805286 25908934.348250866 0 0 0 0 -3827945.1179733276 -56881705.597092211 0 -56881705.597092211 26682723.782645375 0 0 0 0 60285922.271835327 44111748.134613991 0 44111748.134613991 25795120.831507921 0 0 0 0 1166224.5545165464 -1619938.064225316 0 -1619938.064225316 -1357901.6065836104 0 0 0 0 442293395.03497314 47857698.713862896 0 47857698.713862896 -268264159.6724515 0 0 0 0 210415048.80183411 46649076.812992096 0 46649076.812992096 -19843228.486796379 0 0 0 0 55432171.356303215 -8867860.0279343128 0 -8867860.0279343128 -13531663.296653748 0 0 0 0 61639685.075071335 9837296.126329422 0 9837296.126329422 -28903136.281961441 0 0 0 0 152431098.76860046 -45369160.881347179 0 -45369160.881347179 -51059716.792695045 0 0 0 0 -3418940.9696960449 10210937.110361576 0 10210937.110361576 -5048523.9954000711 0 0 0 0 10701130.191705704 -132033.64218233526 0 -132033.64218233526 -8111171.0113899708 0 0 0 0 2114825.9748591799 -2519165.0568032302 0 -2519165.0568032302 -3364700.8350197626 0 0 0 0 -10977352.881908417 1060157.3811929226 0 1060157.3811929226 -2873402.448299408 0 0 0 0 -2535507.2287445068 -1957685.1311978102 0 -1957685.1311978102 -13212446.153020859 0 0 0 0 -2677715.8341827393 -2881427.3320713043 0 -2881427.3320713043 -6042580.4441006184 0 0 0 0 17806366.342163086 4890113.6976499557 0 4890113.6976499557 -11956318.533846378 0 0 0 0 29093207.097403526 -55472206.982785672 0 -55472206.982785672 32869092.596138954 0 0 0 0 22497171.905456543 1588154.326590538 0 1588154.326590538 -8109347.9912018776 0 0 0 0 -50390.670334815979 -142508.53959983774 0 -142508.53959983774 -206255.67643472785 0 0 0 0 40367388.84104538 -78455856.911278725 0 -78455856.911278725 97784238.484181404 0 0 0 0 141098499.49389648 -125082856.4122715 0 -125082856.4122715 14299800.686768055 0 0 0 0 146590970.87596607 -70243529.832382351 0 -70243529.832382351 -45755005.972975731 0 0 0 0 146308472.20498657 -35608527.10238409 0 -35608527.10238409 11477540.445005178 0 0 0 0 58533889.984436035 -11455058.100358009 0 -11455058.100358009 -77903601.949917793 0 0 0 0 22310131.310165405 -40763918.848234177 0 -40763918.848234177 -98160003.186452866 0 0 0 0 12977912.737533569 -27920192.964681625 0 -27920192.964681625 -91305238.262523651 0 0 0 0 131769424.97432709 -84162033.689902782 0 -84162033.689902782 -88143174.966709137 0 0 0 0 192946714.62672424 -95940164.613509655 0 -95940164.613509655 -102164933.72937012 0 0 0 0 167483968.25424194 -46891267.733296394 0 -46891267.733296394 -78556057.193733215 0 0 0 0 116397188.02590179 -62096319.814849854 0 -62096319.814849854 -35536981.873652458 0 0 0 0 120076076.93835831 -102325423.48246694 0 -102325423.48246694 -55802551.149194717 0 0 0 0 119353706.38636017 -84848080.074225903 0 -84848080.074225903 -36330229.494929314 0 0 0 0 392358.24731445312 -2205664.6784582138 0 -2205664.6784582138 758.82257723808289 0 0 0 0 221929.71197295189 -282937.20479079336 0 -282937.20479079336 -80562.625911334762 0 0 0 0 -66129488.760223389 -133488385.71328211 0 -133488385.71328211 -265876097.35735798 0 0 0 0 -45406.909013465047 17118.258772144094 0 17118.258772144094 -189930.97608130286 0 0 0 0 -21043952.142166138 -45468437.114263535 0 -45468437.114263535 -186736182.71270728 0 0 0 0 -34196782.834945679 -125360539.22494102 0 -125360539.22494102 -157102667.84098768 0 0 0 0 -52320216.087127686 -114841916.24781847 0 -114841916.24781847 -245549314.3832984 0 0 0 0 -44439074.002853394 -108534428.63965309 0 -108534428.63965309 -257307879.59796619 0 0 0 0 -48026284.955535889 -132464159.72121453 0 -132464159.72121453 -243789195.39651197 0 0 0 0 -49526333.107883453 -105474316.17127037 0 -105474316.17127037 -218787457.10659695 0 0 0 0 629020420.53306198 -776569776.92763793 0 -776569776.92763793 1228150080.1923556 0 0 0 0 -1350902240.349884 1511234279.2990856 0 1511234279.2990856 1966002863.6867619 0 0 0 0 -99565285.868972778 -131535248.36603785 0 -131535248.36603785 -249704535.70564508 0 0 0 0 307969045.30290222 -47348152.583651543 0 -47348152.583651543 -26059769.040899277 0 0 0 0 490415808.56574249 154317041.87561154 0 154317041.87561154 -26049297.880458832 0 0 0 0 348425971.56679392 86830913.744582266 0 86830913.744582266 -53599291.129771233 0 0 0 0 214345499.67098999 95722815.539390087 0 95722815.539390087 -4974159.0695123672 0 0 0 0 163849261.95232391 80174811.969137192 0 80174811.969137192 14869960.106482506 0 0 0 0 179011251.98463821 76327204.037549973 0 76327204.037549973 15262575.314753532 0 0 0 0 233752604.63722992 79429154.114945412 0 79429154.114945412 -15981645.82516861 0 0 0 0 155356399.5283165 147009872.88102961 0 147009872.88102961 37489535.163838863 0 0 0 0 80844069.717960358 161746726.30784655 0 161746726.30784655 85432031.032054901 0 0 0 0 212585871.70854092 154209939.04603928 0 154209939.04603928 28107255.210618019 0 0 0 0 212250293.32310486 169502996.98494434 0 169502996.98494434 14698479.60611248 0 0 0 0 19096138.011220343 -6853284.6585627487 0 -6853284.6585627487 1359874.2939210287 0 0 0 0 358927821.56108093 299545867.02839839 0 299545867.02839839 93747840.03771162 0 0 0 0 138707037.73776245 214050293.57238746 0 214050293.57238746 104648809.43535709 0 0 0 0 197770270.50791168 244302972.15274286 0 244302972.15274286 117869708.46382713 0 0 0 0 329418052.33631277 230656131.71081692 0 230656131.71081692 43650024.777324677 0 0 0 0 -51681464.406829834 -134732640.69388127 0 -134732640.69388127 -220424865.22707272 0 0 0 0 -54927094.886062622 -144464419.24362278 0 -144464419.24362278 -209520393.66600513 0 0 0 0 -84658324.099121094 -126473257.20134568 0 -126473257.20134568 -195546806.94081521 0 0 0 0 -86380382.667327881 -143445683.27652788 0 -143445683.27652788 -200835604.67408609 0 0 0 0 -74855441.13343811 -148813934.96468115 0 -148813934.96468115 -198644847.45790434 0 0 0 0 19497517.351089336 -7391632.5384435691 0 -7391632.5384435691 1862028.8489537074 0 0 0 0 115296866.87886524 39418424.315036803 0 39418424.315036803 -53135645.291409016 0 0 0 0 1203452.7798457965 -185252.45814404637 0 -185252.45814404637 -592356.4110787391 0 0 0 0 -82628799.117889404 -122563366.56017071 0 -122563366.56017071 -216991476.22560191 0 0 0 0 -81721461.01102829 -145484495.76293713 0 -145484495.76293713 -219699297.11776543 0 0 0 0 48166191.603439331 -109081693.63191772 0 -109081693.63191772 -300039607.54066336 0 0 0 0 -10779372.624191284 -20878246.515093803 0 -20878246.515093803 16294252.199112177 0 0 0 0 417926.69090270996 -20495835.92752862 0 -20495835.92752862 -8219853.7412689328 0 0 0 0 -7750405.2377624512 -222269.45777273178 0 -222269.45777273178 20478830.721071243 0 0 0 0 -119688.70320790261 134722.35001217853 0 134722.35001217853 -146735.62622164236 0 0 0 0 15838817.637817383 15540886.073847294 0 15540886.073847294 -20078017.514138937 0 0 0 0 1443325.9952039644 -428397.71236637607 0 -428397.71236637607 -542051.7122785449 0 0 0 0 -60372710.61907959 -131340858.54623747 0 -131340858.54623747 -221590969.45653218 0 0 0 0 -11127427.293060303 -9168250.0470581055 0 -9168250.0470581055 5646631.792681694 0 0 0 0 -77253906.796707153 -132635559.9449687 0 -132635559.9449687 -215533381.85838699 0 0 0 0 6205542.457244873 -49053615.378992558 0 -49053615.378992558 -129372259.05190969 0 0 0 0 -1601309.3375396729 -120490729.14227581 0 -120490729.14227581 -225688662.57789469 0 0 0 0 -799368.25921824574 -13213.874767130241 0 -13213.874767130241 -77227.836619898793 0 0 0 0 -86797532.472946882 -99753625.985785127 0 -99753625.985785127 -164429995.8628912 0 0 0 0 -40057730.72467041 -107100544.55709982 0 -107100544.55709982 -163756418.67424393 0 0 0 0 2036826.236328125 -17957726.534331322 0 -17957726.534331322 -251360121.87412596 0 0 0 0 -30330591.567749023 -37367427.102980137 0 -37367427.102980137 -113302231.26050234 0 0 0 0 62162930.069107056 -20778610.903966904 0 -20778610.903966904 -118267282.1973294 0 0 0 0 25395484.178480148 -87228698.377841353 0 -87228698.377841353 -194930438.2819128 0 0 0 0 -84996183.696583986 -24963427.272729062 0 -24963427.272729062 -184607196.92157078 0 0 0 0 7575166.6464233398 -33712103.213666916 0 -33712103.213666916 -183780637.12280846 0 0 0 0 43838507.146224976 -5411360.0462234616 0 -5411360.0462234616 -118688722.54238319 0 0 0 0 117633979.95037842 -31193651.514503956 0 -31193651.514503956 -111169317.94614267 0 0 0 0 98264026.161346436 44412356.059289932 0 44412356.059289932 -45408447.422001481 0 0 0 0 129680187.75700378 -45011187.113347769 0 -45011187.113347769 -87433622.670487165 0 0 0 0 174704833.22269058 -25127886.711095333 0 -25127886.711095333 -133482359.47207403 0 0 0 0 138007698.81563187 -37306175.757858694 0 -37306175.757858694 -104341823.73030376 0 0 0 0 141924444.58422852 -37287060.882105112 0 -37287060.882105112 -165123933.86557961 0 0 0 0 71892084.626113892 15632771.542115569 0 15632771.542115569 -135371500.40278912 0 0 0 0 -39457396.416687012 -105175020.14589906 0 -105175020.14589906 -149788190.23552418 0 0 0 0 -8787989.7881126404 -30942462.087567091 0 -30942462.087567091 -39237241.9587183 0 0 0 0 123708527.45785522 45444773.2526052 0 45444773.2526052 -12728681.398169279 0 0 0 0 528912.89620298147 -26242.065446780995 0 -26242.065446780995 -312787.10250332241 0 0 0 0 -95967230.575527191 -134391020.34275532 0 -134391020.34275532 -187200787.09466171 0 0 0 0 -37047961.591156006 -171588681.58326995 0 -171588681.58326995 -212938463.80948544 0 0 0 0 -71805888.141456604 -158921556.69281244 0 -158921556.69281244 -179468179.2985208 0 0 0 0 80354351.862861633 22088833.097156167 0 22088833.097156167 -130443572.59713835 0 0 0 0 -3385190.4901351929 -211703889.54518059 0 -211703889.54518059 -179097528.17579317 0 0 0 0 184325510.9048233 -27668662.760664284 0 -27668662.760664284 -102372874.18423152 0 0 0 0 148709956.82852173 -59624980.520173192 0 -59624980.520173192 -99189444.776936889 0 0 0 0 87877145.842445374 -10762481.686962366 0 -10762481.686962366 -78136927.541253805 0 0 0 0 73439565.633239746 -21035019.291296959 0 -21035019.291296959 -73545127.176783681 0 0 0 0 76491149.292993784 21250833.554367762 0 21250833.554367762 -157619319.36609423 0 0 0 0 -18834659.751178741 22683611.146638036 0 22683611.146638036 -47355528.83398056 0 0 0 0 59808894.075042725 -43407672.381958246 0 -43407672.381958246 -115549823.14684749 0 0 0 0 109333680.00624084 72152597.372264862 0 72152597.372264862 -28327024.938408732 0 0 0 0 104049936.67733002 -17409529.497251034 0 -17409529.497251034 -76239589.268527865 0 0 0 0 149856427.21430397 22813505.045922369 0 22813505.045922369 -40943858.44277668 0 0 0 0 249751157.93293762 40630429.241167545 0 40630429.241167545 -55597448.21531117 0 0 0 0 133978124.17726898 136637965.86863947 0 136637965.86863947 65825028.036656857 0 0 0 0 121579127.1044693 126333260.94957662 0 126333260.94957662 76868526.200354099 0 0 0 0 113674947.83089828 253452529.1635263 0 253452529.1635263 302139339.11670828 0 0 0 0 362770304.03939819 203814946.75586963 0 203814946.75586963 88170702.824472785 0 0 0 0 170191315.10860443 76258472.165981531 0 76258472.165981531 62469667.914295673 0 0 0 0 305596618.16862392 5709256.4927825034 0 5709256.4927825034 99188935.731566906 0 0 0 0 19514095.134502411 86889165.297872901 0 86889165.297872901 380289233.81932116 0 0 0 0 901464.60573516041 92065.284473618492 0 92065.284473618492 -46547.980918783345 0 0 0 0 2437219.2871466279 357816.15035879612 0 357816.15035879612 -341575.30693324422 0 0 0 0 134627098.97527313 -39719625.542018175 0 -39719625.542018175 10996977.923411012 0 0 0 0 -73929345.845954895 -40047069.24997735 0 -40047069.24997735 -126275816.94608879 0 0 0 0 119109161.67961121 -119574555.68453646 0 -119574555.68453646 -118640385.90866804 0 0 0 0 1658522.2703395858 -63211.846018735319 0 -63211.846018735319 -137220.42610094463 0 0 0 0 245112580.7954483 158113725.88666248 0 158113725.88666248 47511474.094958186 0 0 0 0 -75379356.574371517 -183419048.06046277 0 -183419048.06046277 -179982663.71718216 0 0 0 0 299198931.90805435 249408321.57390094 0 249408321.57390094 76636075.887432575 0 0 0 0 241782530.42873001 262386196.73779273 0 262386196.73779273 195162189.27203751 0 0 0 0 240407330.53369141 224403831.74773693 0 224403831.74773693 116230634.8486588 0 0 0 0 383189191.9950676 385951344.03986299 0 385951344.03986299 323242845.97304201 0 0 0 0 224312907.54720688 205542004.32946509 0 205542004.32946509 137194948.76368713 0 0 0 0 512895180.42444611 212035587.31068254 0 212035587.31068254 65669445.785920501 0 0 0 0 222729517.47533417 137388761.38158703 0 137388761.38158703 118706533.11862087 0 0 0 0 282602009.55712891 149297517.66014791 0 149297517.66014791 78111301.730485916 0 0 0 0 142435515.87977982 116207488.65990183 0 116207488.65990183 118267965.73938179 0 0 0 0 163726370.21743774 126024445.04032159 0 126024445.04032159 283930796.44347739 0 0 0 0 183118888.78731537 96379087.946771383 0 96379087.946771383 56998031.549594402 0 0 0 0 190780366.94492626 3338169.697709769 0 3338169.697709769 -30093550.699764252 0 0 0 0 80448372.959960938 52487169.051682949 0 52487169.051682949 80757167.354474187 0 0 0 0 16866153.100540161 5157108.0310456753 0 5157108.0310456753 -21083788.08768034 0 0 0 0 129147969.21196365 9809113.8554201126 0 9809113.8554201126 -33657596.38075161 0 0 0 0 80338699.705116272 -19752172.736937761 0 -19752172.736937761 -42569493.93996048 0 0 0 0 -26803504.331413269 -44728059.772639036 0 -44728059.772639036 -33489780.33744669 0 0 0 0 -19960148.278482437 -95572485.539454877 0 -95572485.539454877 -77957523.18853569 0 0 0 0 454292.12258148193 -44718059.501973271 0 -44718059.501973271 30104095.02244997 0 0 0 0 42985789.092903137 35366127.271621704 0 35366127.271621704 42019153.807372093 0 0 0 0 159518997.25030231 25923103.823232591 0 25923103.823232591 23013884.167060852 0 0 0 0 93195135.926925659 45564095.754904747 0 45564095.754904747 89564114.640697479 0 0 0 0 254478860.37688828 41918205.722664595 0 41918205.722664595 59822430.047978878 0 0 0 0 190220452.07221985 77716811.540886402 0 77716811.540886402 123993334.46242785 0 0 0 0 177739740.95622253 -9371329.6162962914 0 -9371329.6162962914 49044238.475271463 0 0 0 0 46977201.690834045 -7883986.1880199909 0 -7883986.1880199909 89610690.475759506 0 0 0 0 114962662.98352242 -25148975.884864807 0 -25148975.884864807 20117275.569525719 0 0 0 0 40153060.732978821 -58360946.265600443 0 -58360946.265600443 19404393.683065414 0 0 0 0 8354389.2206878662 42844.451782226562 0 42844.451782226562 76188351.293795586 0 0 0 0 2787418.2627716064 -11947452.549837351 0 -11947452.549837351 103771110.28355742 0 0 0 0 18514908.564399719 -94302590.493749619 0 -94302590.493749619 -66350090.13765192 0 0 0 0 28940227.903136253 -51511847.087649614 0 -51511847.087649614 16265862.306215286 0 0 0 0 -8992500.9595184326 -96870615.816244125 0 -96870615.816244125 -9619475.5161888599 0 0 0 0 24413137.324264526 -36308702.295503616 0 -36308702.295503616 -57607875.091920853 0 0 0 0 24837612.624481201 -68100794.60637188 0 -68100794.60637188 -84324236.092468262 0 0 0 0 -14422560.897659302 -57844642.71295166 0 -57844642.71295166 -86152932.695159435 0 0 0 0 9876524.2410736084 -166528592.01352119 0 -166528592.01352119 -35152751.467350125 0 0 0 0 -43310472.878814697 -112428049.96125698 0 -112428049.96125698 -78416181.581624985 0 0 0 0 52005655.024185181 -112613887.02947855 0 -112613887.02947855 -82031608.002356529 0 0 0 0 887816.17919281125 -59556.47273273021 0 -59556.47273273021 -68678.420944053592 0 0 0 0 23192012.082832336 -20970782.296782985 0 -20970782.296782985 -276928901.78697968 0 0 0 0 -13211793.713415146 -56950706.623274267 0 -56950706.623274267 -165601093.9210155 0 0 0 0 1401388.0171367377 1074758.8490919042 0 1074758.8490919042 382561.07451792108 0 0 0 0 -23810620.767303467 60083110.479529142 0 60083110.479529142 42929221.083270073 0 0 0 0 193023010.61239624 276648002.35612369 0 276648002.35612369 -230493164.62745309 0 0 0 0 -21933860.019081116 39626111.99643898 0 39626111.99643898 -201402885.9824543 0 0 0 0 102441851.64154053 -1856348.6097011566 0 -1856348.6097011566 -38867951.803454876 0 0 0 0 -51019.75104316324 62302.691818560474 0 62302.691818560474 237850.65020446607 0 0 0 0 -222110.24575805664 558934.10860991478 0 558934.10860991478 699005.67106485367 0 0 0 0 360372.83587367833 -307637.76743933093 0 -307637.76743933093 341529.45307902177 0 0 0 0 -47532678.290023804 15433638.343961 0 15433638.343961 -64517652.090418816 0 0 0 0 691752.33366157487 475505.45187748782 0 475505.45187748782 -73103.687814616133 0 0 0 0 14183652.834617615 -43938138.70687449 0 -43938138.70687449 60753430.676847935 0 0 0 0 -11649478.379501343 -26591669.373376846 0 -26591669.373376846 101738361.73291349 0 0 0 0 72481282.430709839 -14476761.272008657 0 -14476761.272008657 70760247.441700697 0 0 0 0 5928603.00548172 28401565.21910131 0 28401565.21910131 26900835.083123684 0 0 0 0 78538237.171947479 -56266918.11261034 0 -56266918.11261034 17874521.526799202 0 0 0 0 208175118.14524078 38956857.159106016 0 38956857.159106016 41168010.966113329 0 0 0 0 72493183.890875816 -15850547.244070143 0 -15850547.244070143 91583112.85561657 0 0 0 0 378082067.18917084 15845578.242966771 0 15845578.242966771 26613040.111926079 0 0 0 0 261106193.13696671 -36307937.409903646 0 -36307937.409903646 -5257034.8074903488 0 0 0 0 349032476.94387817 95907887.352782726 0 95907887.352782726 79189051.95275116 0 0 0 0 532579520.30020905 -84354931.895732641 0 -84354931.895732641 10101802.938180923 0 0 0 0 325067296.11579895 38557800.738802433 0 38557800.738802433 -14674165.939475417 0 0 0 0 237980583.24494171 -128913232.90087366 0 -128913232.90087366 36351288.912586689 0 0 0 0 304602163.79094696 -84996190.506460428 0 -84996190.506460428 -44578539.645152807 0 0 0 0 4835718.2198486328 -45223644.370004177 0 -45223644.370004177 90918297.796952605 0 0 0 0 522050643.69277954 151236915.74200082 0 151236915.74200082 49263826.754465103 0 0 0 0 409123862.11011124 137126323.18530256 0 137126323.18530256 170444959.5557251 0 0 0 0 35342307.135627747 -94500435.541829586 0 -94500435.541829586 68686232.255910754 0 0 0 0 468299629.68293762 5838195.6092061996 0 5838195.6092061996 88896480.745579004 0 0 0 0 221976335.42480469 192401459.81992233 0 192401459.81992233 139191922.03562129 0 0 0 0 -53334001.72170639 179458614.19248354 0 179458614.19248354 240062892.82989645 0 0 0 0 319566055.94664001 161519569.38042641 0 161519569.38042641 -92782571.739317 0 0 0 0 517519884.22984791 173549105.13946301 0 173549105.13946301 -23910220.035892963 0 0 0 0 372018.57152230293 -357417.59976316616 0 -357417.59976316616 347147.82734045875 0 0 0 0 336536991.83560181 140384013.46419287 0 140384013.46419287 -29944374.474933386 0 0 0 0 -41474536.874931335 -217471604.21030164 0 -217471604.21030164 -195878711.46311045 0 0 0 0 606074.03949498385 -49398.329636638984 0 -49398.329636638984 -24423.781376069644 0 0 0 0 27172577.634067535 2470941.5278019905 0 2470941.5278019905 -40080801.000168324 0 0 0 0 107926125.41250992 -122677568.74813342 0 -122677568.74813342 -159640865.6281786 0 0 0 0 910330.67677502334 -549408.44279851392 0 -549408.44279851392 365636.79755034996 0 0 0 0 118942755.66125488 -154406086.45016372 0 -154406086.45016372 248436082.05025959 0 0 0 0 -16544287.56817627 -45700601.831753016 0 -45700601.831753016 -166909618.39012539 0 0 0 0 -102735630.8467083 -84593585.326797724 0 -84593585.326797724 -70957735.820966721 0 0 0 0 -38844041.101968765 -30167103.984958827 0 -30167103.984958827 -26333400.5300951 0 0 0 0 546087.99872753769 -177002.36641380005 0 -177002.36641380005 46290.459855999798 0 0 0 0 37338846.01628828 346396971.40059513 0 346396971.40059513 410179251.85788536 0 0 0 0 138801875.92744446 204489720.78700018 0 204489720.78700018 172426396.90394974 0 0 0 0 606549.21785186231 278261.726801857 0 278261.726801857 201226.84626678206 0 0 0 0 -32279759.378761292 4925726.3784058094 0 4925726.3784058094 57850345.877542973 0 0 0 0 111985787.66986847 38503212.978948951 0 38503212.978948951 -107370735.51876307 0 0 0 0 234590055.45614624 -157685215.32289314 0 -157685215.32289314 -41958505.098406792 0 0 0 0 305798017.86304474 259715826.10127008 0 259715826.10127008 117908786.95325375 0 0 0 0 300697759.4997406 237342380.39581633 0 237342380.39581633 198666000.49363327 0 0 0 0 222175515.2093277 65786636.16931951 0 65786636.16931951 -14374452.471123695 0 0 0 0 551079.37978232279 325217.30698945746 0 325217.30698945746 -83335.599905423122 0 0 0 0 21110131.413986206 47132392.307698965 0 47132392.307698965 133769836.91515324 0 0 0 0 13209916.135007858 -37368702.961871341 0 -37368702.961871341 22034871.752937317 0 0 0 0 339058.05387878418 -34992990.631827831 0 -34992990.631827831 9816328.6903905123 0 0 0 0 138631995.54484749 46875914.201691732 0 46875914.201691732 21091401.765541553 0 0 0 0 -22031054.98916626 -15865582.976372659 0 -15865582.976372659 22657611.934618745 0 0 0 0 -4593700.6887435913 -6952828.434252739 0 -6952828.434252739 6827174.6273466442 0 0 0 0 -27621992.556196213 28233560.98781994 0 28233560.98781994 4249624.1881307364 0 0 0 0 -901767.74884033203 -14445548.850854941 0 -14445548.850854941 -15338727.841937721 0 0 0 0 -261896.63875579834 44746936.680555299 0 44746936.680555299 -70414247.951287866 0 0 0 0 -472817.91838070005 -131549.63082311238 0 -131549.63082311238 80077.123867257949 0 0 0 0 -27535299.990898132 50526548.99725619 0 50526548.99725619 118096.3398561739 0 0 0 0 -25179795.811317444 31249689.240349315 0 31249689.240349315 -29038012.909156896 0 0 0 0 -2848651.5674324036 -59217842.313474491 0 -59217842.313474491 73686219.114854246 0 0 0 0 -1471587.3231887817 64636971.47072053 0 64636971.47072053 -38410421.807172716 0 0 0 0 287495907.6893034 68970590.436535224 0 68970590.436535224 109840094.47036666 0 0 0 0 75720988.248806 147525063.22092843 0 147525063.22092843 5439297.1428427696 0 0 0 0 284170091.11860657 39496700.84278895 0 39496700.84278895 -126191350.36883157 0 0 0 0 290097513.28930664 34721700.436334647 0 34721700.436334647 -75660.67669052539 0 0 0 0 618500882.52287602 149732999.8150287 0 149732999.8150287 -29824670.203309581 0 0 0 0 611314215.88324738 -121285947.54601975 0 -121285947.54601975 -331769.81222163141 0 0 0 0 564259667.5157547 32117013.288988054 0 32117013.288988054 -50840011.536005497 0 0 0 0 520406663.91541672 -125657883.02575025 0 -125657883.02575025 -139622048.64234459 0 0 0 0 263639079.05387878 29433864.444790244 0 29433864.444790244 2108691.7884376049 0 0 0 0 329742717.05963135 -28691131.26714623 0 -28691131.26714623 52752075.174496531 0 0 0 0 275146823.45611572 76223741.942148268 0 76223741.942148268 -5816195.8853385448 0 0 0 0 183997114.45282745 95621454.054211378 0 95621454.054211378 39432663.259604216 0 0 0 0 123746441.49217033 84059834.86040172 0 84059834.86040172 63447837.448006868 0 0 0 0 182874483.88609731 55983416.219985768 0 55983416.219985768 139860667.29754281 0 0 0 0 501040695.16085052 190769521.59293765 0 190769521.59293765 106694152.66828251 0 0 0 0 534338510.68153381 83862059.572708189 0 83862059.572708189 8440091.4989496469 0 0 0 0 673737.26773090661 572949.41374674439 0 572949.41374674439 336107.9747492139 0 0 0 0 -174677103.77420044 53236156.579899639 0 53236156.579899639 315266218.40159893 0 0 0 0 -63707425.913780212 132571247.63594356 0 132571247.63594356 359910949.53584933 0 0 0 0 188073374.16304374 271710638.8244881 0 271710638.8244881 54460711.547908902 0 0 0 0 358570271.18811417 66082085.015803114 0 66082085.015803114 310827361.2213217 0 0 0 0 257708022.88491821 -180763888.59697634 0 -180763888.59697634 123299625.6534642 0 0 0 0 211247709.25925446 -258692781.93936825 0 -258692781.93936825 -6208931.053845644 0 0 0 0 691954.05065947771 10234.881939943298 0 10234.881939943298 -43017.192155808254 0 0 0 0 424793313.47369385 -247576844.19887787 0 -247576844.19887787 -284349762.14423633 0 0 0 0 264300961.17449951 58400047.197725177 0 58400047.197725177 15088.520019248768 0 0 0 0 273099308.80982971 172486576.52980998 0 172486576.52980998 99979291.628469124 0 0 0 0 -8368539.6399383545 -19351249.843270905 0 -19351249.843270905 -41111837.127069257 0 0 0 0 -73927332.032455444 37888504.505898893 0 37888504.505898893 114731928.74846587 0 0 0 0 1314093.969248645 209036.64254824107 0 209036.64254824107 -89974.318067962115 0 0 0 0 96778318.738883972 64643552.551657796 0 64643552.551657796 -271704696.88112158 0 0 0 0 -30342938.35824585 141025535.0730933 0 141025535.0730933 120677871.89077032 0 0 0 0 -13300084.308555603 -563457.79108761018 0 -563457.79108761018 41193.690022718889 0 0 0 0 -20647087.435470581 24277229.918768924 0 24277229.918768924 -50543120.190711953 0 0 0 0 24778772.055633545 138190755.41862762 0 138190755.41862762 8888829.1371379718 0 0 0 0 986464.87229359895 341831.99901634071 0 341831.99901634071 -54700.45522973848 0 0 0 0 21169231.450942993 86496776.74112606 0 86496776.74112606 97568478.76817894 0 0 0 0 11073234.590482712 135388940.96731421 0 135388940.96731421 161872284.68548739 0 0 0 0 -10260221.211547852 157785026.68372154 0 157785026.68372154 139048258.67601264 0 0 0 0 2418882.1201934814 117341590.10712323 0 117341590.10712323 133388938.82114151 0 0 0 0 -63267398.737556458 129681303.08170912 0 129681303.08170912 188460956.7997309 0 0 0 0 57218631.147994995 68433186.436203122 0 68433186.436203122 219012098.33556902 0 0 0 0 -8720920.2301330566 122488446.88965712 0 122488446.88965712 242934417.14691639 0 0 0 0 119642581.0841217 84978356.263238549 0 84978356.263238549 216760291.15386975 0 0 0 0 -71516313.681228638 -374549923.94234693 0 -374549923.94234693 54264855.640147239 0 0 0 0 87194091.30316925 117408553.24295126 0 117408553.24295126 243105938.94720787 0 0 0 0 14427248.99519825 90147759.621961191 0 90147759.621961191 236489249.23578224 0 0 0 0 13115939.061035156 138469154.31417263 0 138469154.31417263 162262563.43436736 0 0 0 0 1548707.3996124268 124899789.27502173 0 124899789.27502173 276250015.0314256 0 0 0 0 3750502.9815979004 -18780528.604270935 0 -18780528.604270935 -46191890.821177483 0 0 0 0 9024691.1579284668 -4192271.781747818 0 -4192271.781747818 -55549242.804723978 0 0 0 0 3711879.3107524291 2123019.7768759653 0 2123019.7768759653 -2098954.8134419587 0 0 0 0 1257983.5471115112 790934.26550686359 0 790934.26550686359 -2473177.1409444809 0 0 0 0 -58105374.517162323 -7779474.7253494263 0 -7779474.7253494263 22563520.381654739 0 0 0 0 1584308.179486528 1374904.6132634114 0 1374904.6132634114 94085.830683979206 0 0 0 0 65614138.324737549 26122569.401350021 0 26122569.401350021 -83830983.658565521 0 0 0 0 2539078.7964486629 3587475.5584208025 0 3587475.5584208025 -582934.80930394062 0 0 0 0 174182605.35275269 112185306.65066338 0 112185306.65066338 -26389048.05373764 0 0 0 0 1352934.8992042542 1200055.2504581213 0 1200055.2504581213 -1875982.6488080025 0 0 0 0 -27728269.05279541 -5061721.0505657196 0 -5061721.0505657196 7375342.9387321472 0 0 0 0 1238763.8319854736 1809618.4545228481 0 1809618.4545228481 977622.35100197792 0 0 0 0 809471.49377595633 594619.2618623767 0 594619.2618623767 -926299.08578359196 0 0 0 0 1502583.4657802582 901497.92397483066 0 901497.92397483066 -452271.86964340706 0 0 0 0 1114184.7236404419 1227650.9744369984 0 1227650.9744369984 -773267.35086345673 0 0 0 0 842249.87346997857 572017.09494678956 0 572017.09494678956 -980942.34717957966 0 0 0 0 1912465.4840063751 574292.57008513343 0 574292.57008513343 -1291758.9048248231 0 0 0 0 3912459.447265625 2315328.5834752023 0 2315328.5834752023 -3102230.2071962599 0 0 0 0 2668148.9429016113 -694837.90340602398 0 -694837.90340602398 -2742227.5999982357 0 0 0 0 2901917.2364349365 -829266.15358830988 0 -829266.15358830988 -2940334.7156399041 0 0 0 0 6239256.6543579102 -649509.10027518868 0 -649509.10027518868 -3169476.0120827854 0 0 0 0 1280803.6687164307 1060142.5888554901 0 1060142.5888554901 -3660684.1274810433 0 0 0 0 -33373.443634033203 -4276549.3927052617 0 -4276549.3927052617 -6171413.996974498 0 0 0 0 193412.1847127378 277479.2649863027 0 277479.2649863027 70828.541837131925 0 0 0 0 7811352.5731773376 9775172.9704006538 0 9775172.9704006538 5237886.0500638485 0 0 0 0 4772843.3883666992 4414012.8044403493 0 4414012.8044403493 -1843293.9763855338 0 0 0 0 3313115.5789489746 320767.86580821872 0 320767.86580821872 -1633305.6129448079 0 0 0 0 5342363.4177856445 -712514.24552923441 0 -712514.24552923441 -8553386.6682542861 0 0 0 0 6340633.9638366699 277094.08473984897 0 277094.08473984897 -5013217.3075782061 0 0 0 0 3637359.0223846436 1437765.4500232711 0 1437765.4500232711 2013503.9803192914 0 0 0 0 6000826.6959838867 756517.80750122666 0 756517.80750122666 -6415272.7031947374 0 0 0 0 3051092.5273590088 -1030353.482209444 0 -1030353.482209444 -12629189.055093288 0 0 0 0 2037490.0418894514 -964081.66809530335 0 -964081.66809530335 -1701149.3961487424 0 0 0 0 167808.79047064483 138330.08013969287 0 138330.08013969287 -413422.08946731233 0 0 0 0 1886841.972442627 -48651.28084680438 0 -48651.28084680438 -4873489.5532148704 0 0 0 0 2281708.7324409485 -2701253.2835232206 0 -2701253.2835232206 -5120121.6179452538 0 0 0 0 457799.38078866154 -1441737.433173812 0 -1441737.433173812 -1956966.1292582238 0 0 0 0 1362163.9299416691 -240677.75287306681 0 -240677.75287306681 -1081678.7296540341 0 0 0 0 2003850.9934577942 -1706339.1839372814 0 -1706339.1839372814 -7890112.5147843361 0 0 0 0 1444908.7405967712 -74025.559416115284 0 -74025.559416115284 -3223651.2384529114 0 0 0 0 3019289.0612335205 -203026.52423369884 0 -203026.52423369884 -6009862.6557272673 0 0 0 0 3016240.1530504227 -792496.91138382582 0 -792496.91138382582 -8642412.4375314713 0 0 0 0 552952.04840087891 73934.937992811203 0 73934.937992811203 -969276.27816867828 0 0 0 0 113029.49731523171 157376.97927273251 0 157376.97927273251 210909.659053009 0 0 0 0 22056.882690429688 -348060.58723497391 0 -348060.58723497391 -437106.01589107513 0 0 0 0 2014390.6235798383 946947.09139022604 0 946947.09139022604 17447.586498014396 0 0 0 0 4398770.3195282966 2096249.3381158153 0 2096249.3381158153 -2984877.978158976 0 0 0 0 443287.14270019531 -96161.371007442474 0 -96161.371007442474 -1102959.7746858597 0 0 0 0 9440598.3832397461 9865029.9256668091 0 9865029.9256668091 -4807097.9157757759 0 0 0 0 2316700.5290985107 -7769819.3424959183 0 -7769819.3424959183 -22221960.572221756 0 0 0 0 7290822.1528320312 -412372.20421600342 0 -412372.20421600342 -11851010.509437561 0 0 0 0 -2235634.9496307373 1573191.7763690948 0 1573191.7763690948 -26780958.443180084 0 0 0 0 6991236.7957611084 -3517450.8124022484 0 -3517450.8124022484 -35701389.911739349 0 0 0 0 -1357988.1018295288 -7355603.7785916328 0 -7355603.7785916328 67544.305135726929 0 0 0 0 -126816.04560852051 -12240099.933961868 0 -12240099.933961868 -2672140.6458473206 0 0 0 0 2035738.6307220459 -19775521.61285305 0 -19775521.61285305 -22209925.006070137 0 0 0 0 62738443.327423096 -36949327.987113953 0 -36949327.987113953 -101226109.56277895 0 0 0 0 -166139.94914820045 -1623271.4206390101 0 -1623271.4206390101 -2620436.9533912903 0 0 0 0 4051665.6636926075 -841109.97423316538 0 -841109.97423316538 -6268063.4266375219 0 0 0 0 1828379.0616950989 -7370898.7793824673 0 -7370898.7793824673 -9540733.9982261658 0 0 0 0 2682236.0508270264 -313301.58850246668 0 -313301.58850246668 -5355033.9984941483 0 0 0 0 2933101.65234375 141595.06192445755 0 141595.06192445755 -5592013.697026372 0 0 0 0 -1774122.7302360535 -5628270.2908384278 0 -5628270.2908384278 -3583050.0985341072 0 0 0 0 -589524.81642912328 -1317348.8037125356 0 -1317348.8037125356 -1714768.8463139697 0 0 0 0 2357416.5870471671 -2606232.8710482344 0 -2606232.8710482344 -4713456.6618455378 0 0 0 0 2269560.9387588501 1342330.6858221889 0 1342330.6858221889 -2293607.2203546166 0 0 0 0 -134007799.08021355 -182199872.92544401 0 -182199872.92544401 -115968759.37739468 0 0 0 0 128327284.4624176 6332177.4861011505 0 6332177.4861011505 -87777122.709238052 0 0 0 0 60245843.539772034 55969547.574573517 0 55969547.574573517 -25840701.579942703 0 0 0 0 115416712.6451416 100251978.80430889 0 100251978.80430889 -36004358.267142296 0 0 0 0 74201412.41355896 64100760.541435242 0 64100760.541435242 -28132406.456562996 0 0 0 0 -10114017.709457397 69071177.465511799 0 69071177.465511799 32541008.844236374 0 0 0 0 27314737.642211914 79846452.589066029 0 79846452.589066029 23539079.877479553 0 0 0 0 329560.36994305253 -194207.92437524721 0 -194207.92437524721 -1125123.7299203235 0 0 0 0 8025594.9629859924 39704276.820193052 0 39704276.820193052 -6533739.5929527283 0 0 0 0 51820489.466842651 64108765.651234627 0 64108765.651234627 6410722.3767538071 0 0 0 0 -7469852.1439933777 2845832.9556059837 0 2845832.9556059837 8375135.4262619019 0 0 0 0 -11466904.585693359 -19467869.819137573 0 -19467869.819137573 20751326.621241093 0 0 0 0 90511615.812393188 7832980.3042087555 0 7832980.3042087555 -5771367.7489843369 0 0 0 0 6821574.9120635986 29326471.799609184 0 29326471.799609184 3407658.2870731354 0 0 0 0 -46991660.743610382 34588853.691510439 0 34588853.691510439 32443266.431978226 0 0 0 0 13703472.207138062 34976112.303751945 0 34976112.303751945 4886890.4153506756 0 0 0 0 -2388019.274307251 56710059.059114456 0 56710059.059114456 39892089.738740921 0 0 0 0 -27441426.492713928 7042269.3496127129 0 7042269.3496127129 -1514251.4915075302 0 0 0 0 -41464074.369132996 6220251.8657031059 0 6220251.8657031059 17161620.16169548 0 0 0 0 67370052.768684387 117101032.58317077 0 117101032.58317077 115862357.2343688 0 0 0 0 -42329639.114013672 -10643473.271155357 0 -10643473.271155357 2419245.3342227936 0 0 0 0 1275564.9099505916 -838720.71115438268 0 -838720.71115438268 857385.41698368872 0 0 0 0 -5468710.4267120361 1574749.4278020859 0 1574749.4278020859 4770311.6916751862 0 0 0 0 1280820.0543686971 -894433.62324634567 0 -894433.62324634567 2515829.0848616324 0 0 0 0 -17865942.006004333 16333278.107441902 0 16333278.107441902 8985307.0558309555 0 0 0 0 -28073095.152313232 11325583.090393066 0 11325583.090393066 21033146.210143089 0 0 0 0 -45602089.167755127 6140663.064622879 0 6140663.064622879 21190203.443265915 0 0 0 0 -13613578.890964508 -3888179.7292790413 0 -3888179.7292790413 26058996.132570267 0 0 0 0 -25230927.512573242 12654145.991034985 0 12654145.991034985 10008003.296527863 0 0 0 0 27568473.571365356 68342435.799020052 0 68342435.799020052 72084644.215559006 0 0 0 0 49230324.580833435 28474092.485242605 0 28474092.485242605 144779069.16969365 0 0 0 0 9921704.0694198608 -1164333.5527162552 0 -1164333.5527162552 81228467.59720403 0 0 0 0 63467429.773040771 74119177.346158266 0 74119177.346158266 71938642.493294239 0 0 0 0 161859801.01681519 34610073.105158091 0 34610073.105158091 58124255.710483074 0 0 0 0 1641018.9065575451 798137.24857714912 0 798137.24857714912 617408.71687025914 0 0 0 0 -14932816.095092773 21300939.349271536 0 21300939.349271536 -19073248.341162175 0 0 0 0 4097070.7185592651 -624340.4781434536 0 -624340.4781434536 -6575890.6274852753 0 0 0 0 308549.42994268611 267477.65860153362 0 267477.65860153362 186078.08244420355 0 0 0 0 -9060279.261177063 10664291.458901405 0 10664291.458901405 -5747276.761888504 0 0 0 0 2927039.52784729 5614895.3312387466 0 5614895.3312387466 -10754883.543255091 0 0 0 0 -19884818.740112305 3175561.6614575386 0 3175561.6614575386 1959891.2316746712 0 0 0 0 -8685103.2792358398 -10267802.261829138 0 -10267802.261829138 14701965.176971197 0 0 0 0 -34299966.321655273 24239182.118207693 0 24239182.118207693 4038090.6921806335 0 0 0 0 -5738248.9278488159 -13614459.228183508 0 -13614459.228183508 -7199876.5724539757 0 0 0 0 -30222514.34670639 28385194.21541357 0 28385194.21541357 -2157204.7754364014 0 0 0 0 4195586.0848426819 6219257.9832531214 0 6219257.9832531214 4647181.4143714905 0 0 0 0 4092856.7433624268 2143013.7282524109 0 2143013.7282524109 845887.51675754786 0 0 0 0 -124619876.4520874 42536622.078327179 0 42536622.078327179 -9849931.6463699341 0 0 0 0 36203.139884623699 468673.7387550883 0 468673.7387550883 115581.99226054084 0 0 0 0 2889234.2885807827 2543220.2841466116 0 2543220.2841466116 -879209.11330168054 0 0 0 0 -6704732.0024642944 -713212.67010068893 0 -713212.67010068893 7899157.1866436005 0 0 0 0 1554993.8340760916 1967356.1791490638 0 1967356.1791490638 -125835.60769219087 0 0 0 0 996518.95529174805 1074734.0373306274 0 1074734.0373306274 768100.80416870117 0 0 0 0 4192196.190322876 1810280.9332578182 0 1810280.9332578182 -3161925.5695648193 0 0 0 0 2548910.3676776886 2059624.8956127763 0 2059624.8956127763 -2432576.242600441 0 0 0 0 1407467.7415924072 6213290.0992031097 0 6213290.0992031097 -3858432.9658193588 0 0 0 0 915610.25674438477 5767112.0175271034 0 5767112.0175271034 -1337538.6868677139 0 0 0 0 4686618.1596832275 3504768.6762866974 0 3504768.6762866974 -4053261.3664932251 0 0 0 0 1136844.7612268571 1936077.6818197146 0 1936077.6818197146 68531.152835090179 0 0 0 0 4616573.5908355713 3332784.585731864 0 3332784.585731864 174509.5993938446 0 0 0 0 4799541.4643249512 2856747.5139381886 0 2856747.5139381886 -1480958.590004921 0 0 0 0 947601.52214050293 1430057.3808734417 0 1430057.3808734417 -206760.60245418549 0 0 0 0 -87937.934242248535 3020767.3417099193 0 3020767.3417099193 332600.81079372019 0 0 0 0 1187644.3609580994 1729616.6826488674 0 1729616.6826488674 646521.34218454361 0 0 0 0 1107836.4765650928 757476.88044008426 0 757476.88044008426 -974756.33086098416 0 0 0 0 3813500.4032592773 2556145.7567203045 0 2556145.7567203045 -1980489.7942869663 0 0 0 0 987392.57635493949 1694209.3896736391 0 1694209.3896736391 -333512.99379537418 0 0 0 0 4529654.5176086426 4419827.0933663845 0 4419827.0933663845 -107438.41194868088 0 0 0 0 6989023.0520629883 7589875.0348863602 0 7589875.0348863602 2465013.4806456566 0 0 0 0 186512.49967324734 207705.95869228058 0 207705.95869228058 -172470.44993404683 0 0 0 0 991435.05389404297 6551987.3246490955 0 6551987.3246490955 -151414.22371152043 0 0 0 0 3157515.5220336914 4210322.1404480934 0 4210322.1404480934 -258414.44204902649 0 0 0 0 779421.56841278076 5634017.1782187819 0 5634017.1782187819 584681.0735616684 0 0 0 0 -2437254.2693481445 5650449.717069149 0 5650449.717069149 1514678.1175234318 0 0 0 0 1446689.2400426865 4477207.5207327902 0 4477207.5207327902 128864.61235904694 0 0 0 0 1273487.0920257568 3681374.7734885216 0 3681374.7734885216 1636741.5832357407 0 0 0 0 -623531.45330810547 4970482.1604781151 0 4970482.1604781151 1747421.2165052891 0 0 0 0 -429444.26071166992 3069356.4145002365 0 3069356.4145002365 1591215.6550254822 0 0 0 0 727184.89725733735 883058.40075514466 0 883058.40075514466 -529977.30184152513 0 0 0 0 333671.39883128554 1277955.9874808658 0 1277955.9874808658 -471053.61207180843 0 0 0 0 628490.61245727539 1265574.7965883613 0 1265574.7965883613 808008.95383262634 0 0 0 0 2921192.3738327026 -1086047.7291940227 0 -1086047.7291940227 -3894666.2297431231 0 0 0 0 -2515.5723342895508 2235789.0151333809 0 2235789.0151333809 2428306.4864420891 0 0 0 0 1066899.9794480391 923628.21502944827 0 923628.21502944827 8234.5869208166841 0 0 0 0 562465.07942199707 -4388255.5333964825 0 -4388255.5333964825 -7642367.9041477814 0 0 0 0 -962383.51960754395 1487198.27546978 0 1487198.27546978 2198267.9098272324 0 0 0 0 -9057426.8246307373 533615.74864959717 0 533615.74864959717 2319597.4049732685 0 0 0 0 -4449873.4650421143 8701825.4080443382 0 8701825.4080443382 -1215073.3772699833 0 0 0 0 -5055350.5732116699 2431504.5497211218 0 2431504.5497211218 3143560.1079931259 0 0 0 0 -1083551.5965423584 1335343.527794838 0 1335343.527794838 3693061.3721458316 0 0 0 0 987446.71898136288 1540011.4227110613 0 1540011.4227110613 200964.14193249727 0 0 0 0 -1023867.9046478271 2134853.5290665627 0 2134853.5290665627 2988281.4366292953 0 0 0 0 -2306642.6408233643 2686583.2675027847 0 2686583.2675027847 2939957.5904874802 0 0 0 0 4537.1717529296875 2352862.000617981 0 2352862.000617981 2766272.9119794369 0 0 0 0 -1909495.677734375 1925743.0421891212 0 1925743.0421891212 3731241.1328949928 0 0 0 0 -12586278.064945221 2219794.1885622144 0 2219794.1885622144 2760757.1744399667 0 0 0 0 -1402300.9692011923 252214.96549902184 0 252214.96549902184 328482.03417040827 0 0 0 0 227207.8440246582 975606.32314062119 0 975606.32314062119 2985598.7040486336 0 0 0 0 -3732200.1753540039 4192117.9812280461 0 4192117.9812280461 -2942578.1667406107 0 0 0 0 -263223.34500983357 205976.040688131 0 205976.040688131 613890.69316474325 0 0 0 0 -177604.51182556152 268622.49497110117 0 268622.49497110117 -84.934039476682557 0 0 0 0 -359265.7407412529 445704.21178421238 0 445704.21178421238 166083.29259903065 0 0 0 0 -307418.22766113281 337704.8441825686 0 337704.8441825686 168354.66833786262 0 0 0 0 -32579727.696296692 -816724.38064635242 0 -816724.38064635242 5926638.6584693827 0 0 0 0 -82828.533934406936 157832.26927739196 0 157832.26927739196 398184.69126810203 0 0 0 0 690734.2744140625 -423100.01889127493 0 -423100.01889127493 -748115.60623776913 0 0 0 0 191174.86730766296 219353.37240524869 0 219353.37240524869 -246491.04243941046 0 0 0 0 -3357.1075943429023 121731.75082239881 0 121731.75082239881 27776.599224393547 0 0 0 0 -30476.617810823023 -239665.94306465588 0 -239665.94306465588 -694576.51699575456 0 0 0 0 -299831.40971374512 -646347.90576317906 0 -646347.90576317906 -81714.788374170079 0 0 0 0 700937.17581176758 1133720.4785863161 0 1133720.4785863161 401027.72982788086 0 0 0 0 594489.44845581055 1147781.9263852797 0 1147781.9263852797 -1206804.7298751047 0 0 0 0 174248.45001421869 605167.56427943485 0 605167.56427943485 -440462.04234438384 0 0 0 0 172340.89154052734 2198191.2641015053 0 2198191.2641015053 1944926.966145277 0 0 0 0 58478.357631392777 1200481.6005545575 0 1200481.6005545575 201630.19148265547 0 0 0 0 48090.972981058061 158917.49167529121 0 158917.49167529121 -350693.06523531443 0 0 0 0 -2875109.7975006104 2094614.1980055794 0 2094614.1980055794 825266.43413036317 0 0 0 0 -433293.16661071777 430198.25009625644 0 430198.25009625644 245882.02700959303 0 0 0 0 -352123.19511699677 518049.28371318511 0 518049.28371318511 33389.652682319866 0 0 0 0 -276128.38194274902 398766.94345159124 0 398766.94345159124 42198.608770805164 0 0 0 0 5929.704953905195 49766.442250080407 0 49766.442250080407 -100416.07585171796 0 0 0 0 4618837.1655273438 2499920.1989837959 0 2499920.1989837959 3862.2357117809333 0 0 0 0 -1698128.747467041 -4561584.9094738346 0 -4561584.9094738346 -4098146.4050422907 0 0 0 0 -1682982.9928665161 2057207.1383723905 0 2057207.1383723905 -1992842.9238631409 0 0 0 0 8395702.6659469604 8221549.3494203985 0 8221549.3494203985 1502873.002480916 0 0 0 0 -155986.79531097412 18227.323264024752 0 18227.323264024752 -85025.791946580372 0 0 0 0 -61455.0832360778 78688.396044883877 0 78688.396044883877 35756.522346022015 0 0 0 0 -230095.59086608887 -19069.529556943533 0 -19069.529556943533 -414.28298170570338 0 0 0 0 -247303.88333129883 -62072.682097347628 0 -62072.682097347628 -79463.485738612508 0 0 0 0 -225023.44916626066 -70501.316683971469 0 -70501.316683971469 -102790.13148264427 0 0 0 0 -180474.4571685791 -35627.351260849791 0 -35627.351260849791 -149023.43881038041 0 0 0 0 -109284.46340179443 -1595738.2171081007 0 -1595738.2171081007 -964322.10611768067 0 0 0 0 -444056.6646270752 -293189.05260017514 0 -293189.05260017514 111823.39068066666 0 0 0 0 -262757.17647171021 -236558.17796056345 0 -236558.17796056345 313810.01549434662 0 0 0 0 -48045.087643140927 -307312.40173758566 0 -307312.40173758566 -30597.678481641691 0 0 0 0 -3845391.9002227783 -2848192.2767009884 0 -2848192.2767009884 -1071676.990435183 0 0 0 0 -85861.643375396729 802686.55167855509 0 802686.55167855509 -5213686.711146161 0 0 0 0 20052.466928496957 -44085.202543560416 0 -44085.202543560416 -27713.480483160703 0 0 0 0 -926110.98098754883 -2917506.8722936213 0 -2917506.8722936213 -2178986.4465789795 0 0 0 0 -1326513.0782165527 -391809.96229094267 0 -391809.96229094267 -882499.05462531745 0 0 0 0 -1630.8725922852755 -3066.4643195262179 0 -3066.4643195262179 7906.0362205436613 0 0 0 0 -2464215.8351898193 -3487400.5757603198 0 -3487400.5757603198 -1823303.1543171406 0 0 0 0 159645.57024911791 -96761.564898871817 0 -96761.564898871817 -88672.011992479034 0 0 0 0 2454319.3742828369 -915235.45927292109 0 -915235.45927292109 -6040172.6355033368 0 0 0 0 1575745.4381990433 528590.01123909093 0 528590.01123909093 -162554.86803415418 0 0 0 0 1957975.754404068 -1236382.0571478233 0 -1236382.0571478233 -2737293.9987084866 0 0 0 0 1076994.6607666016 3508645.9383877665 0 3508645.9383877665 -7910203.0254791826 0 0 0 0 1550882.0812683105 703794.83064723015 0 703794.83064723015 227326.87679958344 0 0 0 0 881415.17539978027 -2874439.3658333123 0 -2874439.3658333123 -3123936.3074353635 0 0 0 0 142777.85362999886 91491.8390165288 0 91491.8390165288 -18277.73551281706 0 0 0 0 -3361171.4111480713 -7030368.4675902724 0 -7030368.4675902724 -2032017.4401662201 0 0 0 0 12338503.572433472 3275552.7123409808 0 3275552.7123409808 -5081639.7378624082 0 0 0 0 1798992.4683685303 -17996893.953874402 0 -17996893.953874402 -24906287.172968224 0 0 0 0 3892628.8903656006 -443940.97202886641 0 -443940.97202886641 -3122294.0570554137 0 0 0 0 7305086.2772674561 -3375054.895536378 0 -3375054.895536378 -5986557.9389763772 0 0 0 0 3044618.0568695068 -1080158.6204363704 0 -1080158.6204363704 -3231112.9921544641 0 0 0 0 2720210.3988800049 -715157.13001403213 0 -715157.13001403213 -2789027.1606512219 0 0 0 0 52989.796062469482 -3055174.4084779322 0 -3055174.4084779322 -202655.05044546723 0 0 0 0 -477729.04235839844 -1638820.8338778317 0 -1638820.8338778317 -3319232.0264447927 0 0 0 0 831521.48489379883 -2552510.5796891972 0 -2552510.5796891972 -2550305.9758770894 0 0 0 0 101285.63593692333 -24476.671295914799 0 -24476.671295914799 -44755.892315363089 0 0 0 0 -378718.35041809082 -474726.79949814104 0 -474726.79949814104 -822056.1035086622 0 0 0 0 -1080416.4382286072 231514.9282093076 0 231514.9282093076 1977923.1093805805 0 0 0 0 -168540.01704110205 -6094.9919796276372 0 -6094.9919796276372 -46216.743371320939 0 0 0 0 -672869.72828674316 -347640.68293270032 0 -347640.68293270032 -54.125473456392683 0 0 0 0 -204701.45524787903 -191872.94381344714 0 -191872.94381344714 -457548.14655405062 0 0 0 0 -839568.06482696533 -620014.91907513165 0 -620014.91907513165 -331500.09568102233 0 0 0 0 -781967.58496379852 -1427274.8478589505 0 -1427274.8478589505 -2907858.1382051189 0 0 0 0 -3176078.6699371338 -2412073.9042512872 0 -2412073.9042512872 -8143.5620090111515 0 0 0 0 -3394392.9249372482 -3491761.8745126473 0 -3491761.8745126473 -9171425.1557796672 0 0 0 0 -3490832.3410415649 -3933581.4211862599 0 -3933581.4211862599 -2095819.4183266461 0 0 0 0 -102277.96824842691 10703.015149867628 0 10703.015149867628 -20462.509081602755 0 0 0 0 -1175575.1500015259 -3007357.0536417142 0 -3007357.0536417142 -5205403.9756315276 0 0 0 0 -894191.73910522461 -1894617.322143808 0 -1894617.322143808 4479875.0136679281 0 0 0 0 10468261.655799866 -3115100.3128543268 0 -3115100.3128543268 -6381014.5945502929 0 0 0 0 6779921.2705078125 -14013965.873219272 0 -14013965.873219272 -10223344.069972444 0 0 0 0 -2042880.0994262695 -9604716.3704184517 0 -9604716.3704184517 4749.6381908051853 0 0 0 0 5189208.5619354248 -7740738.4509022199 0 -7740738.4509022199 -20227894.51205647 0 0 0 0 3378356.7062911987 -3606971.5279359147 0 -3606971.5279359147 7795704.6702970508 0 0 0 0 -32877.569925494492 11281.472539198963 0 11281.472539198963 -6673.1948597698847 0 0 0 0 33868699.515022278 -16614576.896542879 0 -16614576.896542879 -10925057.621993363 0 0 0 0 14705363.989868164 -3073124.6548901498 0 -3073124.6548901498 5068493.901072681 0 0 0 0 3846691.8628845215 -3837661.0268043019 0 -3837661.0268043019 5088177.8795913756 0 0 0 0 -2369050.1080703735 -5196602.1941188425 0 -5196602.1941188425 10414485.552093431 0 0 0 0 -1867613.6623306274 2772244.8074370474 0 2772244.8074370474 6889734.5492533147 0 0 0 0 11891910.123771667 -747688.83175712824 0 -747688.83175712824 -6452739.3921557367 0 0 0 0 30941211.29901123 18155287.37764962 0 18155287.37764962 7470829.1882444918 0 0 0 0 4420898.7721672058 5188406.5958304554 0 5188406.5958304554 8305928.4755107164 0 0 0 0 3036575.7543334961 -3967751.9694609493 0 -3967751.9694609493 -6765743.370595336 0 0 0 0 34002.224918462336 4201.3689659498632 0 4201.3689659498632 -16974.472435835916 0 0 0 0 -1341767.2461090088 2225779.0281198639 0 2225779.0281198639 -800108.51541565359 0 0 0 0 1022350.7472915649 222229.12779465318 0 222229.12779465318 2421682.6551933438 0 0 0 0 397297.40992736816 -7671429.5003021508 0 -7671429.5003021508 4998131.8918991014 0 0 0 0 4442222.9081268311 -13289125.764852881 0 -13289125.764852881 -18783745.972114325 0 0 0 0 8001727.65143013 -3492469.4105691947 0 -3492469.4105691947 -14333179.18015945 0 0 0 0 -11501211.680831909 -4930083.723221302 0 -4930083.723221302 8959985.9168697745 0 0 0 0 3327083.555752337 3363250.4259848748 0 3363250.4259848748 -1193972.2462422252 0 0 0 0 3352228.9567871094 -1572782.1356290728 0 -1572782.1356290728 -3095582.1775541306 0 0 0 0 683904.05049133301 -1812467.7634571791 0 -1812467.7634571791 -9322237.3324277401 0 0 0 0 2215025.9024810791 1105223.6719700098 0 1105223.6719700098 -10905131.275281429 0 0 0 0 2672162.3812561035 -2193974.6343804002 0 -2193974.6343804002 -11736751.88803494 0 0 0 0 -193954.59323883057 -6341394.646468997 0 -6341394.646468997 -9237745.3902404308 0 0 0 0 1992662.55519104 -1372920.5179386139 0 -1372920.5179386139 -9960921.6682521105 0 0 0 0 1854023.9331020489 -643607.02864670684 0 -643607.02864670684 -1086376.1815832795 0 0 0 0 654048.6958225891 371211.65300584212 0 371211.65300584212 -225691.74015789753 0 0 0 0 -5008783.4661769867 -8881024.3727006502 0 -8881024.3727006502 -15265656.62599954 0 0 0 0 -2606187.1359558105 -17564051.767331004 0 -17564051.767331004 -19283328.733487546 0 0 0 0 4022654.5472564697 -10483993.361627758 0 -10483993.361627758 -37071372.458283901 0 0 0 0 -21604495.337921143 -4466700.2902585566 0 -4466700.2902585566 -4017528.1509555131 0 0 0 0 32950360.409767151 -22361174.946317047 0 -22361174.946317047 -104716658.75338712 0 0 0 0 -2764569.0472221375 3794437.3936254755 0 3794437.3936254755 -5124212.3731603026 0 0 0 0 973595.39313706011 50152.871750890277 0 50152.871750890277 -110637.63140932345 0 0 0 0 -10831633.569206238 23630821.007059932 0 23630821.007059932 -29550073.378376842 0 0 0 0 906584.38604635 -214243.04722198471 0 -214243.04722198471 -194457.80024328607 0 0 0 0 1661433.8012237549 -8386112.5643505156 0 -8386112.5643505156 -9339198.6077268124 0 0 0 0 -3288819.2777709961 1114679.3002475202 0 1114679.3002475202 -1368554.415204566 0 0 0 0 1071516.5009348243 -151350.06015058374 0 -151350.06015058374 -209479.69273857927 0 0 0 0 -326515.76180267334 -7908340.8585433364 0 -7908340.8585433364 -9258643.1908950806 0 0 0 0 4209210.2984619141 -10278270.052332044 0 -10278270.052332044 -10552746.925713539 0 0 0 0 -6486361.7818145752 -12170266.121536851 0 -12170266.121536851 -8586278.5958422422 0 0 0 0 -15526055.773742676 -17935522.865489721 0 -17935522.865489721 -12954.540951758623 0 0 0 0 319076.48976454884 -211682.02198411897 0 -211682.02198411897 137270.50603496144 0 0 0 0 -16618198.46824646 -203736.8224747777 0 -203736.8224747777 -5184483.4743655324 0 0 0 0 -18822728.677650452 4505901.7748218775 0 4505901.7748218775 -15376608.046550255 0 0 0 0 -28748095.134613037 -9036281.2406830192 0 -9036281.2406830192 -5325858.7310374975 0 0 0 0 -10781137.088485718 -4018842.0012472868 0 -4018842.0012472868 -14866219.590178132 0 0 0 0 9382794.5622406006 -9675031.2243204117 0 -9675031.2243204117 -14088563.247363016 0 0 0 0 2281525.7059326172 -7916604.7342385352 0 -7916604.7342385352 -9885858.3523359299 0 0 0 0 1548473.4212036133 -11671370.772030056 0 -11671370.772030056 -11516791.840993166 0 0 0 0 39766821.158432007 3987656.6949549317 0 3987656.6949549317 -16328714.199192829 0 0 0 0 16774118.658355713 16402033.238110483 0 16402033.238110483 7214327.8404853046 0 0 0 0 5718133.1739654541 3558570.598272562 0 3558570.598272562 3983782.3219361305 0 0 0 0 19075136.625915527 1500737.9664080739 0 1500737.9664080739 -8771382.4003021717 0 0 0 0 3897474.3490524292 -317250.80700415373 0 -317250.80700415373 -2612391.797324419 0 0 0 0 3853947.1026382446 996295.02482289076 0 996295.02482289076 -5007994.9508197308 0 0 0 0 1938480.0778045654 657427.94751775265 0 657427.94751775265 -4903037.1349232197 0 0 0 0 4126898.6030273438 -430370.61992430687 0 -430370.61992430687 -9085921.5574771166 0 0 0 0 2460137.9650421143 -2298216.3163977861 0 -2298216.3163977861 -8680256.1209390163 0 0 0 0 5685413.55809021 -4390748.29098773 0 -4390748.29098773 -9037162.4232207872 0 0 0 0 7281178.6529045105 -5303145.422891736 0 -5303145.422891736 -9394155.2275443077 0 0 0 0 8404360.86277771 491423.21437716484 0 491423.21437716484 -7722899.0476251841 0 0 0 0 29841301.532310486 67549517.787042826 0 67549517.787042826 -18806058.021339953 0 0 0 0 117170810.09249878 43690122.647412777 0 43690122.647412777 -21166068.607308209 0 0 0 0 -13970346.570114136 -37359296.799502671 0 -37359296.799502671 -25021428.818328768 0 0 0 0 98530509.657897949 2109176.5512918234 0 2109176.5512918234 -11668370.274866879 0 0 0 0 94291829.810958862 -4310912.8452193141 0 -4310912.8452193141 2047609.3247912526 0 0 0 0 171650580.0813446 53531547.495497942 0 53531547.495497942 45138046.566161603 0 0 0 0 170224764.91065979 -57689020.597286522 0 -57689020.597286522 -980535.29396845028 0 0 0 0 115946465.63603973 54700376.139015213 0 54700376.139015213 -13622197.116819263 0 0 0 0 101153276.1157074 45622129.349573612 0 45622129.349573612 25540814.999138951 0 0 0 0 87355565.438812256 -5019929.2115468979 0 -5019929.2115468979 50638653.533729464 0 0 0 0 63049518.089706421 32930815.919790089 0 32930815.919790089 -6437097.6796384007 0 0 0 0 83128356.075119019 10045132.915540278 0 10045132.915540278 -3001185.6222483963 0 0 0 0 112049.83667567372 -75643.629636850208 0 -75643.629636850208 58161.525319204433 0 0 0 0 -42816327.950500488 20106937.929847896 0 20106937.929847896 39907459.634109974 0 0 0 0 93327445.211578369 24203262.911088467 0 24203262.911088467 -23989251.086541533 0 0 0 0 28035271.269332886 -7694709.8913463354 0 -7694709.8913463354 -55626396.397407234 0 0 0 0 -16309094.014596939 9258985.7318367492 0 9258985.7318367492 11681083.950126171 0 0 0 0 -18457963.219116211 -20214229.035800099 0 -20214229.035800099 14310063.560388327 0 0 0 0 18225595.670028687 10167599.440679148 0 10167599.440679148 9161959.6461526155 0 0 0 0 24959105.449356079 -21228555.895918012 0 -21228555.895918012 -1859443.8590258062 0 0 0 0 -19777419.950256348 -3752981.6783865094 0 -3752981.6783865094 17663725.731836528 0 0 0 0 5529484.8500823975 -21041943.997247815 0 -21041943.997247815 9264183.0529696345 0 0 0 0 121384838.65257263 30574878.704434335 0 30574878.704434335 -24541350.628866106 0 0 0 0 71300000.663711548 -19839790.6425713 0 -19839790.6425713 -2013289.9026881456 0 0 0 0 118565344.93390656 42867091.21959056 0 42867091.21959056 -50999863.026750922 0 0 0 0 454107.32810283452 62749.067050230689 0 62749.067050230689 -33539.20002410555 0 0 0 0 219093496.39263916 26682102.382685483 0 26682102.382685483 -52660789.390324414 0 0 0 0 183044396.79553223 -35550648.95053345 0 -35550648.95053345 -12365464.465808272 0 0 0 0 180792639.77584457 -98716533.770553663 0 -98716533.770553663 13859681.697987437 0 0 0 0 -18621802.415542603 -77076175.446834385 0 -77076175.446834385 69956007.569808722 0 0 0 0 -68644269.609634399 25533283.973045886 0 25533283.973045886 34532242.705183342 0 0 0 0 13541035.062072754 -25487683.724597514 0 -25487683.724597514 30194243.468697608 0 0 0 0 73347807.182739258 73463267.347194731 0 73463267.347194731 53045132.105910577 0 0 0 0 -36004719.934417725 -80854528.204669654 0 -80854528.204669654 45485088.31013608 0 0 0 0 201834601.78866577 153878962.32334542 0 153878962.32334542 -75837089.36111024 0 0 0 0 87676671.138889313 124866435.75961193 0 124866435.75961193 -19797403.277160883 0 0 0 0 286248.28268048167 122859.05714007653 0 122859.05714007653 9322.2959330136255 0 0 0 0 -33448159.196372986 -138713377.75751132 0 -138713377.75751132 50385949.496386588 0 0 0 0 123996972.65418243 75810567.914031088 0 75810567.914031088 -47854315.300065935 0 0 0 0 -91030327.455352783 -23665713.30077973 0 -23665713.30077973 132175558.65334004 0 0 0 0 271682558.38061523 -3161074.0565848053 0 -3161074.0565848053 -6203581.9207103252 0 0 0 0 243214.67032590508 -31686.727774881525 0 -31686.727774881525 -6385.9081854448086 0 0 0 0 50892652.241096497 -57324975.511991888 0 -57324975.511991888 -64777445.613406718 0 0 0 0 417404.56946431845 -72978.29314035445 0 -72978.29314035445 -6628.0209925442177 0 0 0 0 -57333790.422142029 -7263384.7700584829 0 -7263384.7700584829 11624887.75297004 0 0 0 0 -19699176.647491455 -51966251.140743405 0 -51966251.140743405 -58806452.51973103 0 0 0 0 39566269.231018066 -7636891.4449014664 0 -7636891.4449014664 -49610816.955941096 0 0 0 0 31474813.803020477 33086129.799708262 0 33086129.799708262 -90973492.812066257 0 0 0 0 513049.62535332143 160200.87637372874 0 160200.87637372874 -1070.8360588774376 0 0 0 0 -5972168.8708343506 -23779751.581757907 0 -23779751.581757907 -19917373.519614071 0 0 0 0 60046768.992874146 -31525739.942215852 0 -31525739.942215852 -25382562.94742626 0 0 0 0 35015859.275817871 -31360580.291197576 0 -31360580.291197576 -10431460.055893287 0 0 0 0 43727541.540864944 17217004.602454245 0 17217004.602454245 -29112702.77105552 0 0 0 0 75587491.060119629 -1962378.5630999207 0 -1962378.5630999207 -17777346.909348071 0 0 0 0 142194738.28794479 1048585.1889540106 0 1048585.1889540106 -34415825.515979767 0 0 0 0 81704690.044960022 -50908652.240241587 0 -50908652.240241587 -35586338.631133839 0 0 0 0 63269785.235458374 -26606025.500432249 0 -26606025.500432249 -18612187.010727987 0 0 0 0 65349810.373832703 -21250016.054676063 0 -21250016.054676063 -40019525.681350425 0 0 0 0 72778832.481163025 -7165314.371216014 0 -7165314.371216014 -15787259.36751771 0 0 0 0 40137094.842956543 -11048582.897479247 0 -11048582.897479247 -16169964.839907559 0 0 0 0 52535275.235084534 -25427131.211692501 0 -25427131.211692501 -5278979.4552302808 0 0 0 0 61947762.985473633 -26720403.466839012 0 -26720403.466839012 -18606654.910289302 0 0 0 0 52819854.862182617 -20218594.051421121 0 -20218594.051421121 12888079.199212864 0 0 0 0 48749827.447387695 -11098018.881126909 0 -11098018.881126909 -7246595.6758784615 0 0 0 0 33901648.608402252 -19450822.315270394 0 -19450822.315270394 -26280.929403111357 0 0 0 0 91230989.802474976 17121731.177770525 0 17121731.177770525 -714293.34914410114 0 0 0 0 95875136.016494751 10298379.451459862 0 10298379.451459862 8988738.4024584778 0 0 0 0 141293733.9749527 55567028.216402411 0 55567028.216402411 5990284.925312981 0 0 0 0 43248686.304164886 40350976.263521463 0 40350976.263521463 5890918.1962498873 0 0 0 0 59199889.2397995 -17530180.497046322 0 -17530180.497046322 -4286719.1160999909 0 0 0 0 66201681.815765381 -26556733.966912542 0 -26556733.966912542 4749853.9140470698 0 0 0 0 75475592.332550049 -1978543.1106123365 0 -1978543.1106123365 14789038.951339085 0 0 0 0 114871269.21234131 719933.01514525467 0 719933.01514525467 1666330.5884504088 0 0 0 0 78962042.156936646 -14554565.096456209 0 -14554565.096456209 78655.207192763846 0 0 0 0 115094200.05460548 -3503755.7258411627 0 -3503755.7258411627 54849135.900905676 0 0 0 0 203189636.31265259 34767732.050310522 0 34767732.050310522 12482827.843636094 0 0 0 0 236901.43835382909 13716.40192571003 0 13716.40192571003 -37570.441839432402 0 0 0 0 13205157.722290039 -9333984.1385671347 0 -9333984.1385671347 -27959039.484391678 0 0 0 0 110820758.22144318 133156809.35188562 0 133156809.35188562 85860459.378558844 0 0 0 0 211409503.69851685 80394976.285155386 0 80394976.285155386 -31204.065087096711 0 0 0 0 193757005.26550865 106890337.76339428 0 106890337.76339428 28244170.364348322 0 0 0 0 97969301.75730896 78093196.818150908 0 78093196.818150908 5258009.9070688337 0 0 0 0 97677961.035919189 86559137.617896795 0 86559137.617896795 38418644.782190099 0 0 0 0 47347510.33807373 17059159.459446542 0 17059159.459446542 -68924215.468311518 0 0 0 0 53648485.317871094 88614496.80382973 0 88614496.80382973 60302897.378235295 0 0 0 0 -8168181.1277046204 2995863.6867551436 0 2995863.6867551436 -26261.77246392173 0 0 0 0 -4330727.2803115845 -3374717.5794565873 0 -3374717.5794565873 -8028588.3159869872 0 0 0 0 7527893.2721176147 -5125438.9540491421 0 -5125438.9540491421 21207.606748429331 0 0 0 0 -4705514.3695864677 226296.20389391307 0 226296.20389391307 -907403.84475572407 0 0 0 0 12587890.04750061 -9550761.3573338222 0 -9550761.3573338222 -13709735.879670668 0 0 0 0 573456.33764902502 -167849.39437679201 0 -167849.39437679201 7226.9334391004377 0 0 0 0 24477339.12857914 -94177045.243398324 0 -94177045.243398324 -91830031.075526446 0 0 0 0 42649774.709243774 67198358.324079812 0 67198358.324079812 -19866485.919294462 0 0 0 0 551321.80544853956 -61585.96902115643 0 -61585.96902115643 -52648.460349134257 0 0 0 0 140800390.03587341 28271342.746516682 0 28271342.746516682 -6947785.1390450001 0 0 0 0 142613737.74086761 4794005.4505701587 0 4794005.4505701587 -37392191.38904494 0 0 0 0 124687910.2310257 2631459.1980632693 0 2631459.1980632693 102350428.50920647 0 0 0 0 31560395.172409058 32220760.111418664 0 32220760.111418664 96120573.301498875 0 0 0 0 62268771.698196411 109865219.59533256 0 109865219.59533256 18390296.393051989 0 0 0 0 104210419.85861206 -30958323.952082098 0 -30958323.952082098 13356451.099908374 0 0 0 0 206447.96884009987 85420.031491949223 0 85420.031491949223 10251.315154027136 0 0 0 0 83888488.307491302 83178987.93692793 0 83178987.93692793 3504933.5299881548 0 0 0 0 -1229232.0182800293 56014557.504824795 0 56014557.504824795 -5085707.2622890621 0 0 0 0 -8705088.4479560852 1301897.9273909794 0 1301897.9273909794 6101873.0074544735 0 0 0 0 -37068120.481796265 -33024987.558541618 0 -33024987.558541618 24227534.201529514 0 0 0 0 12018776.312744141 -11316148.414318576 0 -11316148.414318576 24839.072225452182 0 0 0 0 54776362.900283813 -38738254.548421651 0 -38738254.548421651 9330622.8870463483 0 0 0 0 57592245.197357655 -19907018.880460516 0 -19907018.880460516 -19057648.132834956 0 0 0 0 99804949.624534607 49309141.810141802 0 49309141.810141802 11954793.630867541 0 0 0 0 176437055.45609283 -25166059.769987918 0 -25166059.769987918 -20920922.975408092 0 0 0 0 64849242.442085266 -6170675.8465083754 0 -6170675.8465083754 -42278.749277209965 0 0 0 0 43293661.584487915 14522939.895364631 0 14522939.895364631 -1432516.0949077993 0 0 0 0 -2082498.6945343018 2355847.4978715926 0 2355847.4978715926 5649933.0830802927 0 0 0 0 -25356055.878189087 -139774818.97228652 0 -139774818.97228652 144354902.31658912 0 0 0 0 57865502.471481323 22166257.559789926 0 22166257.559789926 -19500672.505821601 0 0 0 0 305963.0426543504 -5503.6890776772052 0 -5503.6890776772052 -11972.487478776053 0 0 0 0 -9711441.0814704895 -15661702.008823484 0 -15661702.008823484 27174579.652708441 0 0 0 0 -1847041.167339325 -24334402.149545815 0 -24334402.149545815 -273042.4281924367 0 0 0 0 243244.79461754113 -110690.53431448713 0 -110690.53431448713 38789.615079125499 0 0 0 0 -57782062.098999023 -94060764.41738078 0 -94060764.41738078 85096137.007294148 0 0 0 0 -11347936.831634521 8060246.0213826001 0 8060246.0213826001 2078111.8338024616 0 0 0 0 2264624.4543151855 6596382.2772709057 0 6596382.2772709057 -16140116.166145124 0 0 0 0 77014333.833023071 -113569734.3389063 0 -113569734.3389063 34469836.905113503 0 0 0 0 248414736.60598755 20453098.598058753 0 20453098.598058753 96923974.441390887 0 0 0 0 745784.55263933539 33290.872881378978 0 33290.872881378978 -28463.158127218281 0 0 0 0 -11383839.721229553 -19685515.793760367 0 -19685515.793760367 39461776.948143899 0 0 0 0 -15634893.885818481 -27387072.085540637 0 -27387072.085540637 64314141.684534609 0 0 0 0 -13271813.660675049 -22739295.768567502 0 -22739295.768567502 36760830.444074512 0 0 0 0 653750.24290466309 -1755746.2211177498 0 -1755746.2211177498 35446788.911947548 0 0 0 0 1655790.4893317223 -17776647.32251757 0 -17776647.32251757 64607939.604218453 0 0 0 0 -22456471.364051819 -2067020.0998863429 0 -2067020.0998863429 39523628.62544208 0 0 0 0 2218278.451171875 -19820307.083232321 0 -19820307.083232321 4974748.6605010033 0 0 0 0 -9408690.8767242432 -69400041.295585126 0 -69400041.295585126 7881997.5856547356 0 0 0 0 -12789926.295036316 -40736372.466500558 0 -40736372.466500558 39311919.991085678 0 0 0 0 -16559967.241600037 -36448832.303659745 0 -36448832.303659745 57151114.391604722 0 0 0 0 -13871230.137733459 -62476499.797392815 0 -62476499.797392815 92819116.40874064 0 0 0 0 -6089843.7474517822 -14033351.565542569 0 -14033351.565542569 104286358.7003983 0 0 0 0 -5772053.8440361023 -37724094.737371609 0 -37724094.737371609 46778822.870155156 0 0 0 0 -14006520.751052856 -40109246.9535698 0 -40109246.9535698 61349329.600581355 0 0 0 0 -21851640.963981628 -51403447.794167265 0 -51403447.794167265 56435704.413268581 0 0 0 0 5902385.2732620239 -63353482.793531433 0 -63353482.793531433 26447389.39533034 0 0 0 0 44052996.170021057 -34572236.867163748 0 -34572236.867163748 36600754.91081582 0 0 0 0 30990575.734710693 -10387900.468633577 0 -10387900.468633577 26756709.938045859 0 0 0 0 -3360430.2012252808 -39394961.515562363 0 -39394961.515562363 37112313.957637906 0 0 0 0 84936567.648841858 -33630192.639869481 0 -33630192.639869481 18076578.276325613 0 0 0 0 45409400.756993294 -39085163.002762057 0 -39085163.002762057 23710488.42138052 0 0 0 0 216338473.08595276 -33884505.601459354 0 -33884505.601459354 3216246.5514574647 0 0 0 0 -132421519.72128296 165667690.19159615 0 165667690.19159615 60894214.83753939 0 0 0 0 454282567.55421448 113890587.64494479 0 113890587.64494479 -427033680.41634035 0 0 0 0 972976.35298043489 209559.02451560134 0 209559.02451560134 -67845.514726914102 0 0 0 0 -246423283.36736298 92174933.880603254 0 92174933.880603254 29202785.726462007 0 0 0 0 50147667.277626038 -90948520.085352808 0 -90948520.085352808 39664873.754241981 0 0 0 0 -6160120.6624317169 -4631724.3094137013 0 -4631724.3094137013 27480896.83874616 0 0 0 0 10218158.161952972 -40795812.372508705 0 -40795812.372508705 -82215360.300252169 0 0 0 0 818621040.02239227 101959935.83400762 0 101959935.83400762 -523382338.63792109 0 0 0 0 2344059.2680731639 70127.962878147053 0 70127.962878147053 -192384.44308213683 0 0 0 0 -236860461.16012573 93241574.11045289 0 93241574.11045289 216008593.30997038 0 0 0 0 -18964236.127685547 -31400647.901806772 0 -31400647.901806772 -12984927.859660268 0 0 0 0 106573139.8658371 21878021.578322023 0 21878021.578322023 -34223685.658676058 0 0 0 0 174140.50480818003 -41800.177952273167 0 -41800.177952273167 2404.3069095002247 0 0 0 0 -7309777.766784668 -8216542.9033528939 0 -8216542.9033528939 29298727.567638457 0 0 0 0 616174.85303115845 -18682858.829111814 0 -18682858.829111814 -8144992.637976855 0 0 0 0 131054338.63455391 39354821.667863563 0 39354821.667863563 13624147.008399308 0 0 0 0 122393072.92613983 12351385.182263285 0 12351385.182263285 23315801.279507667 0 0 0 0 127625743.36316681 -19932321.201561034 0 -19932321.201561034 2652587.090107888 0 0 0 0 95370854.203712463 45701122.53046602 0 45701122.53046602 60245168.567069709 0 0 0 0 136450535.97016907 -9830113.3596238196 0 -9830113.3596238196 54611740.162324637 0 0 0 0 139088414.74677277 -21406938.150038779 0 -21406938.150038779 21605770.519520625 0 0 0 0 83095654.526306152 38357661.224606976 0 38357661.224606976 102358146.11622363 0 0 0 0 209038536.86633325 107422538.36608012 0 107422538.36608012 46013136.237230539 0 0 0 0 -68831994.895957947 77015447.700304985 0 77015447.700304985 189680227.67988619 0 0 0 0 45134825.192882538 -74456830.16623348 0 -74456830.16623348 -208218081.02959394 0 0 0 0 -64985859.390449524 -105120138.42891733 0 -105120138.42891733 -5714846.195125103 0 0 0 0 -10942881.919204712 -52988929.294332564 0 -52988929.294332564 20986669.999993101 0 0 0 0 18025869.960388184 -75187621.657473832 0 -75187621.657473832 18738131.615599215 0 0 0 0 27910836.494537354 -113206223.60295115 0 -113206223.60295115 93314558.29101418 0 0 0 0 43489755.94493866 -72687862.36132063 0 -72687862.36132063 2085905.5576494336 0 0 0 0 20995644.983070374 -46534534.770431787 0 -46534534.770431787 -28097927.03974998 0 0 0 0 -93766805.675453186 19331972.807969529 0 19331972.807969529 189095935.48552296 0 0 0 0 52452551.691635132 -116101285.24796227 0 -116101285.24796227 35200194.597933888 0 0 0 0 680570.52189474553 321651.48644675291 0 321651.48644675291 9500.109449435191 0 0 0 0 -165704248.14817047 199895251.05274677 0 199895251.05274677 -81431532.504064441 0 0 0 0 141520013.48248291 160277149.36304784 0 160277149.36304784 -93311850.162649393 0 0 0 0 -17479260.743881226 143857732.38045585 0 143857732.38045585 -94699874.648832917 0 0 0 0 14116068.426879883 53333293.130506992 0 53333293.130506992 -127762890.27070785 0 0 0 0 2129329.9315480888 792613.47307034093 0 792613.47307034093 -85868.040566359181 0 0 0 0 -20399157.373519897 154107186.95938355 0 154107186.95938355 -113901281.02806628 0 0 0 0 -33191980.978845596 -22150133.44204843 0 -22150133.44204843 -147781108.06428248 0 0 0 0 -21948507.642044067 34158562.187248707 0 34158562.187248707 18409822.734855741 0 0 0 0 -112922246.58164978 148017523.29648012 0 148017523.29648012 8659302.9641388655 0 0 0 0 -36853820.739578247 50120515.570834041 0 50120515.570834041 15296852.161729813 0 0 0 0 -30585306.404457092 -7862981.6527562141 0 -7862981.6527562141 14036415.372048378 0 0 0 0 -16809941.549194336 -823812.3546987772 0 -823812.3546987772 13435408.409612894 0 0 0 0 -6603253.9565868378 -56236340.092171967 0 -56236340.092171967 345320621.3798542 0 0 0 0 -32348095.778335571 44811885.391233087 0 44811885.391233087 56008261.775643349 0 0 0 0 -23513826.102478027 -36021350.53995204 0 -36021350.53995204 124337038.7825067 0 0 0 0 58976693.205842763 13190756.430699235 0 13190756.430699235 -44750364.384014606 0 0 0 0 59340409.943645269 -89420875.91491504 0 -89420875.91491504 9244531.4156870842 0 0 0 0 17145752.32901001 -16376425.647197723 0 -16376425.647197723 -70520690.458769798 0 0 0 0 -11748117.151283264 -10642890.553601027 0 -10642890.553601027 13625938.946175098 0 0 0 0 13598443.166787114 -3585099.6247119578 0 -3585099.6247119578 -368997.49782640114 0 0 0 0 23341681.479118347 -41569241.86475563 0 -41569241.86475563 -25748970.300477982 0 0 0 0 17344271.087612171 -2115775.8195027499 0 -2115775.8195027499 -2941435.4485254129 0 0 0 0 3944620.8666954041 -3229348.1489267349 0 -3229348.1489267349 -4873733.4356989861 0 0 0 0 -1923862.0897293091 87077.712262272835 0 87077.712262272835 6593199.154522419 0 0 0 0 33107819.467208862 -7332604.2460813522 0 -7332604.2460813522 -9451576.3635783195 0 0 0 0 3902828.6207565442 -98534.490654237568 0 -98534.490654237568 -1268622.9598010508 0 0 0 0 29235511.908874512 2224763.4198169708 0 2224763.4198169708 -6014760.1251072884 0 0 0 0 -32701058.395580292 72509939.078458607 0 72509939.078458607 -107029883.8889854 0 0 0 0 73835628.133583069 91868722.395840406 0 91868722.395840406 -106580440.76830482 0 0 0 0 1080441.4992827717 -191938.67703214288 0 -191938.67703214288 -281143.8968387309 0 0 0 0 52702487.240642548 -15333428.217973709 0 -15333428.217973709 -20301329.965367794 0 0 0 0 -17515797.94670105 1599891.3533055782 0 1599891.3533055782 7113321.652164042 0 0 0 0 -2365119.7354507446 13305581.904546022 0 13305581.904546022 -2842149.1256153584 0 0 0 0 130221002.14235687 188560510.5417937 0 188560510.5417937 -681869322.91446745 0 0 0 0 -22915982.071411133 -51801719.045660987 0 -51801719.045660987 192760128.39801955 0 0 0 0 3902910.205112569 -138708.17283978965 0 -138708.17283978965 -472802.50070477865 0 0 0 0 180258699.71906853 -185679425.98258761 0 -185679425.98258761 588778.21762657166 0 0 0 0 254825745.70587158 85756943.829105213 0 85756943.829105213 136525688.98900032 0 0 0 0 1433997.0920949504 132679.67690103129 0 132679.67690103129 -88040.542268522462 0 0 0 0 81523333.465267181 -270297403.21160924 0 -270297403.21160924 553850883.60592341 0 0 0 0 352301755.88313293 -188856524.30084887 0 -188856524.30084887 -152082259.05126762 0 0 0 0 -288034724.48671722 -139561697.05823284 0 -139561697.05823284 27134828.82020992 0 0 0 0 1221140.3621343598 399148.78355296329 0 399148.78355296329 -56757.043821349165 0 0 0 0 382955553.11642456 142242059.11068034 0 142242059.11068034 -475052957.40613949 0 0 0 0 2666019.6771216616 890202.20626442833 0 890202.20626442833 -161172.30858272151 0 0 0 0 604830217.92036438 -297480247.11909604 0 -297480247.11909604 -50659589.089438736 0 0 0 0 196861906.49701691 250904406.34430265 0 250904406.34430265 84156944.928995669 0 0 0 0 305176462.4078064 -143330110.73886561 0 -143330110.73886561 51476224.207167387 0 0 0 0 376504111.40542221 90692461.565216422 0 90692461.565216422 -167229096.86078262 0 0 0 0 90759353.10697937 -31062621.729641914 0 -31062621.729641914 -90788298.600054264 0 0 0 0 132980078.98912048 100640247.12567973 0 100640247.12567973 19750359.406582832 0 0 0 0 129637923.44333649 184987978.6789372 0 184987978.6789372 -115260945.35674286 0 0 0 0 104868529.08631897 197074365.12167084 0 197074365.12167084 47720390.841006279 0 0 0 0 203610746.74038696 305420508.64147091 0 305420508.64147091 -432336181.63813031 0 0 0 0 -49720965.366584778 208029063.18872273 0 208029063.18872273 -91378319.171105385 0 0 0 0 166130675.26141357 170989015.11730051 0 170989015.11730051 -85816786.083440781 0 0 0 0 21110750.480644226 212148573.33950377 0 212148573.33950377 12253000.167243719 0 0 0 0 30110492.421340942 -21473497.810923964 0 -21473497.810923964 -330574294.9499526 0 0 0 0 132098587.64205265 -186126372.13061297 0 -186126372.13061297 109309912.28209257 0 0 0 0 1163206.4916456565 -157798.97582932189 0 -157798.97582932189 110720.28520203289 0 0 0 0 467827272.48447418 430765432.15893245 0 430765432.15893245 500658269.98525715 0 0 0 0 183256344.40921593 69053256.19075498 0 69053256.19075498 80446729.51502943 0 0 0 0 3336025.6087134816 -523191.90259837825 0 -523191.90259837825 211180.99311300553 0 0 0 0 28312906.060089111 191415102.72970724 0 191415102.72970724 452275373.0169611 0 0 0 0 107112258.41030884 283024230.95422333 0 283024230.95422333 176558819.4333353 0 0 0 0 -1080689.9797363281 27105222.735285997 0 27105222.735285997 -65740609.783667564 0 0 0 0 33500851.072944641 91541722.709605217 0 91541722.709605217 15717214.33921957 0 0 0 0 -1219151.715385437 581635.30587530136 0 581635.30587530136 6215468.2830363512 0 0 0 0 73186760.844615936 139673635.22500896 0 139673635.22500896 83733746.615695477 0 0 0 0 4414041.8590373993 6815821.9232305288 0 6815821.9232305288 -6802017.0021219254 0 0 0 0 79950690.191421509 138543552.20794964 0 138543552.20794964 67278156.828067303 0 0 0 0 5120952.5972837582 -1571678.4489615569 0 -1571678.4489615569 529667.75479002786 0 0 0 0 7293851.4125976562 -220204.0651884079 0 -220204.0651884079 -14148490.148782492 0 0 0 0 3890618.7075709961 -1123845.4572621956 0 -1123845.4572621956 1238014.0481388038 0 0 0 0 12426542.468513489 5909687.9821863174 0 5909687.9821863174 -14873682.305725098 0 0 0 0 1080898.1695327759 -51384827.064557076 0 -51384827.064557076 -21113175.790943623 0 0 0 0 -669998.96564413235 -1524633.9113691112 0 -1524633.9113691112 828587.51843241882 0 0 0 0 14372620.786205292 -3591048.7406301498 0 -3591048.7406301498 -36742848.836486816 0 0 0 0 7601700.1966285706 5002506.3702077866 0 5002506.3702077866 -30062299.8763237 0 0 0 0 -22521627.339630127 -21424898.415716171 0 -21424898.415716171 16548043.029068947 0 0 0 0 -21135768.824691772 -89675450.355374336 0 -89675450.355374336 68072854.931127071 0 0 0 0 -32113653.27192688 -17653080.824008465 0 -17653080.824008465 117251180.18971062 0 0 0 0 -4573213.9162940979 -29936854.11341095 0 -29936854.11341095 92445236.049022198 0 0 0 0 -24888281.878128052 -46610394.611272335 0 -46610394.611272335 96332980.991711617 0 0 0 0 -24877563.676174521 -53658460.660273813 0 -53658460.660273813 170897977.69692326 0 0 0 0 867390.29851087928 -917811.69910959527 0 -917811.69910959527 2396411.6655316455 0 0 0 0 -399214.64428078011 -821515.98317035194 0 -821515.98317035194 462317.93665824179 0 0 0 0 3382111.5973625183 -37184392.54404366 0 -37184392.54404366 -29331092.136514664 0 0 0 0 12972567.893424988 -7114635.7790966034 0 -7114635.7790966034 -25409089.289503574 0 0 0 0 -59360118.524299622 -7381483.7349545956 0 -7381483.7349545956 8131315.9957410097 0 0 0 0 -69472762.3521595 20577674.083651721 0 20577674.083651721 102286341.02070808 0 0 0 0 -35604195.4559021 177586729.41168308 0 177586729.41168308 -42563294.853252649 0 0 0 0 224670859.21751404 82506327.217607975 0 82506327.217607975 -31669060.007392645 0 0 0 0 8224354.1970882416 -11345860.675549567 0 -11345860.675549567 349173648.98073673 0 0 0 0 -8740712.2688140869 -78846153.261507511 0 -78846153.261507511 388708944.26887345 0 0 0 0 24239642.400939941 5092702.7572927475 0 5092702.7572927475 109725203.0401082 0 0 0 0 -3027960.985458374 36915406.264409542 0 36915406.264409542 206332374.15408564 0 0 0 0 56650908.776023865 -25575706.545683861 0 -25575706.545683861 339194191.90562439 0 0 0 0 -5178858.5028686523 -40861414.593669415 0 -40861414.593669415 179194252.01714849 0 0 0 0 34867414.31477356 -94838832.049619198 0 -94838832.049619198 246022439.92560661 0 0 0 0 447663821.60035706 -37960316.156848907 0 -37960316.156848907 -4390004.6030445099 0 0 0 0 527813437.98937988 -180454399.88204968 0 -180454399.88204968 5300869.7289438248 0 0 0 0 14709.705232031643 -380890.9086236693 0 -380890.9086236693 1240484.3511700616 0 0 0 0 534153261.79249954 -196304487.67960525 0 -196304487.67960525 -15092918.848564625 0 0 0 0 262303209.65090179 -119576845.74491692 0 -119576845.74491692 69939168.650977373 0 0 0 0 -355820.13139715046 -799934.01673063426 0 -799934.01673063426 432424.97425782122 0 0 0 0 10225653.797386169 -31516592.36371851 0 -31516592.36371851 -18041716.598945618 0 0 0 0 28519027.404651642 -418997.64189720154 0 -418997.64189720154 11014239.532533646 0 0 0 0 42687483.662151337 5922971.3559907079 0 5922971.3559907079 -7309696.2796840668 0 0 0 0 10485432.752835834 5551785.5439166985 0 5551785.5439166985 -4918413.5210853275 0 0 0 0 26697839.311527252 -1145944.8173127174 0 -1145944.8173127174 -10384135.968994141 0 0 0 0 15029660.82188797 -14944444.296546459 0 -14944444.296546459 -10308578.740590096 0 0 0 0 46234178.719164371 -15832497.409152269 0 -15832497.409152269 -14167644.566004753 0 0 0 0 12540954.741847992 -14843452.958201885 0 -14843452.958201885 -5257459.3447761536 0 0 0 0 9725996.6536712646 -9726928.0301246643 0 -9726928.0301246643 4597472.3585090637 0 0 0 0 23440959.482460022 11918588.52903533 0 11918588.52903533 -37728844.713932514 0 0 0 0 -712318.69794464111 606682.63469600677 0 606682.63469600677 15144944.92991972 0 0 0 0 10669517.985234894 -3511087.4660869744 0 -3511087.4660869744 930899.0486909193 0 0 0 0 2475369.1586447693 393446.4466104582 0 393446.4466104582 -1658610.3982826588 0 0 0 0 7679195.3778152466 -15786944.364467621 0 -15786944.364467621 -43131040.671247482 0 0 0 0 -7067059.7563476562 -1783013.2938008308 0 -1783013.2938008308 -15447669.933974981 0 0 0 0 13790327.038910389 -9125160.3166056871 0 -9125160.3166056871 -12872386.440790176 0 0 0 0 -8824572.0378570557 -1795125.5905213356 0 -1795125.5905213356 -10898448.909446001 0 0 0 0 3032542.5780258179 -534362.43090462685 0 -534362.43090462685 -67943797.979119301 0 0 0 0 32671684.262649536 -25351764.834904671 0 -25351764.834904671 -82672813.928129196 0 0 0 0 -632158.60672974214 -1512332.9154395969 0 -1512332.9154395969 807590.10258161905 0 0 0 0 -16765437.091884613 -16312760.649501681 0 -16312760.649501681 -44328856.076292992 0 0 0 0 46790684.468864441 -75548364.105627775 0 -75548364.105627775 -15586783.390434384 0 0 0 0 -21683425.941795349 -83500697.716246605 0 -83500697.716246605 16054150.792301655 0 0 0 0 72599295.274936676 -4968950.4603967667 0 -4968950.4603967667 -68919153.235015869 0 0 0 0 28543991.73639679 -35774914.665812731 0 -35774914.665812731 -88005703.886401176 0 0 0 0 125274698.73421478 16197958.968616962 0 16197958.968616962 -136046615.95076925 0 0 0 0 13040744.107727051 41905891.922387838 0 41905891.922387838 -50414253.517796516 0 0 0 0 46461822.033493042 38429748.550915241 0 38429748.550915241 -140039982.28151143 0 0 0 0 28617913.70967865 32012733.896443844 0 32012733.896443844 -26545769.892377853 0 0 0 0 58819276.317630768 19628016.773912668 0 19628016.773912668 -55364334.193809509 0 0 0 0 49653971.387939453 -11628897.104990005 0 -11628897.104990005 -9737574.0843353271 0 0 0 0 41228675.280342102 2258219.4704091549 0 2258219.4704091549 -31755482.02793026 0 0 0 0 32384489.771110535 30562613.241965771 0 30562613.241965771 -24182888.305232048 0 0 0 0 35107708.533966064 16484201.104595661 0 16484201.104595661 -3184086.749777317 0 0 0 0 39414082.805839539 29449737.66168499 0 29449737.66168499 -68239664.787554741 0 0 0 0 -25096723.276832581 158471087.15068126 0 158471087.15068126 -78475300.326586306 0 0 0 0 -8787736.17628479 104689613.27393866 0 104689613.27393866 90627291.763270855 0 0 0 0 -37641741.832351685 258300767.41393185 0 258300767.41393185 -187483664.90326953 0 0 0 0 -176361522.30415344 137737239.75000548 0 137737239.75000548 34750510.622877717 0 0 0 0 2929541.8579572812 6241775.1340020252 0 6241775.1340020252 -1925502.9973692191 0 0 0 0 12623398.269805908 -8912059.4797062874 0 -8912059.4797062874 -79363070.804840922 0 0 0 0 35610974.724951029 29058585.702035017 0 29058585.702035017 7038213.6883211136 0 0 0 0 158360569.32627869 -122008778.73283768 0 -122008778.73283768 -138373409.49812055 0 0 0 0 16881867.19834457 -2029070.4488762319 0 -2029070.4488762319 -3808025.0025656172 0 0 0 0 -378878254.28120422 -72770893.596175015 0 -72770893.596175015 -193861832.55557227 0 0 0 0 -99869851.450683594 63499327.393627644 0 63499327.393627644 -302793527.35777742 0 0 0 0 -490683199.40707397 18921552.350292206 0 18921552.350292206 36525348.94543618 0 0 0 0 681834.91404375061 326977.59888107888 0 326977.59888107888 -336015.79294274014 0 0 0 0 23653496.599163055 -1338597.4251191616 0 -1338597.4251191616 -8372456.9385050535 0 0 0 0 22014961.238353729 707543.88863441348 0 707543.88863441348 -10128200.075148821 0 0 0 0 25462436.626556396 4395612.3769509196 0 4395612.3769509196 -15156424.955397606 0 0 0 0 19203422.535541534 13548533.321244717 0 13548533.321244717 -3696532.3898935318 0 0 0 0 8962984.0578201916 7600182.2299026959 0 7600182.2299026959 -2241442.3602592554 0 0 0 0 35675613.278427124 -1789682.2734189034 0 -1789682.2734189034 -4491750.0327339172 0 0 0 0 16970938.09337616 11026857.823258281 0 11026857.823258281 -7165039.5093188286 0 0 0 0 9590317.5547974911 7364510.0178894121 0 7364510.0178894121 -4112621.2668056404 0 0 0 0 27016137.980060577 4544294.6034226418 0 4544294.6034226418 -4008072.93568331 0 0 0 0 22183574.71055603 6991829.405284524 0 6991829.405284524 -4893500.5385089219 0 0 0 0 24236407.414932251 10933411.362801433 0 10933411.362801433 -11269159.153864801 0 0 0 0 23185550.582801819 5796392.5698199868 0 5796392.5698199868 -13497086.789579153 0 0 0 0 24645057.807495117 10098985.123143613 0 10098985.123143613 -15338553.314498425 0 0 0 0 43790459.006851196 19743415.849517703 0 19743415.849517703 -11906553.035277814 0 0 0 0 5969330.8782653809 8237337.0851200819 0 8237337.0851200819 -2124103.9492017031 0 0 0 0 495196.02919006348 12662405.179395407 0 12662405.179395407 3104865.6949608326 0 0 0 0 22512238.442205429 13914204.888582468 0 13914204.888582468 -5698569.4400407076 0 0 0 0 28180637.321327209 -11937441.280356884 0 -11937441.280356884 -18966135.571433961 0 0 0 0 35974884.561981201 6183517.9707012177 0 6183517.9707012177 -19669609.676276535 0 0 0 0 33214465.373039246 6345490.2245661616 0 6345490.2245661616 -15493386.759026527 0 0 0 0 24171735.609176636 -2553608.3930897415 0 -2553608.3930897415 -22953710.120235324 0 0 0 0 31480069.994758606 6224465.8440974355 0 6224465.8440974355 -20100697.657710671 0 0 0 0 19942339.385009766 -2188345.9672905207 0 -2188345.9672905207 -22639863.033876896 0 0 0 0 13831079.336761475 -3247017.1915035248 0 -3247017.1915035248 -25672479.340327799 0 0 0 0 25501798.408050537 -2199692.7659657001 0 -2199692.7659657001 -27822466.970190763 0 0 0 0 16224057.822174072 -12375299.932872653 0 -12375299.932872653 -25212191.922879815 0 0 0 0 -42315428.054679871 -93890441.598521233 0 -93890441.598521233 -155873224.94811293 0 0 0 0 21739654.910552979 -83385693.593527317 0 -83385693.593527317 -216583799.85707474 0 0 0 0 14650632.303958744 -2121341.4212282933 0 -2121341.4212282933 -2247176.3482849114 0 0 0 0 3031031.6745607741 659645.82750960533 0 659645.82750960533 -1687904.3311288429 0 0 0 0 20390853.327735901 -9722371.1098344624 0 -9722371.1098344624 -30658775.882860541 0 0 0 0 15991944.733963013 -1984050.0738313198 0 -1984050.0738313198 -11322501.293733478 0 0 0 0 14020736.427124023 -6370748.1463173628 0 -6370748.1463173628 -16691287.614425778 0 0 0 0 96394467.07484436 -336787915.09272194 0 -336787915.09272194 -430699569.98289096 0 0 0 0 2574225.6071977839 220803.47353674192 0 220803.47353674192 -1216712.9147333307 0 0 0 0 -41996255.664138794 -31141201.57422322 0 -31141201.57422322 -147401266.70320845 0 0 0 0 -18819158.823524475 -471856499.2419734 0 -471856499.2419734 100658513.15134442 0 0 0 0 189376884.7264328 83420420.616775632 0 83420420.616775632 -55812400.479709923 0 0 0 0 -3952830.0449676514 232928800.3461588 0 232928800.3461588 135020778.01639271 0 0 0 0 180266636.21346283 328429774.38068867 0 328429774.38068867 -178795415.06751847 0 0 0 0 115151821.09729004 320545396.77635574 0 320545396.77635574 -157271756.45401925 0 0 0 0 -33962340.413406372 96412410.540849447 0 96412410.540849447 -67035363.988651045 0 0 0 0 548827.34239239618 1055391.110193118 0 1055391.110193118 466688.92925326579 0 0 0 0 -29445820.698364258 104121731.16445076 0 104121731.16445076 -54706783.159593403 0 0 0 0 13117299.721748352 57810032.126872718 0 57810032.126872718 -162912417.4525218 0 0 0 0 -43043734.031352997 73500535.429305077 0 73500535.429305077 -30187042.371164441 0 0 0 0 25333799.026191711 59284608.644627273 0 59284608.644627273 -28766456.361860275 0 0 0 0 -25361762.85187912 43058061.753476977 0 43058061.753476977 88236142.987863541 0 0 0 0 75681648.423538208 76492930.739537001 0 76492930.739537001 -259696586.29863101 0 0 0 0 50029905.407752991 60978526.192700863 0 60978526.192700863 -64732537.777612671 0 0 0 0 -26583366.806694031 73232106.610861421 0 73232106.610861421 -19259396.419933558 0 0 0 0 -13537972.294670105 -3025799.2455877066 0 -3025799.2455877066 9029699.1271140575 0 0 0 0 26328065.034233093 48545588.984104872 0 48545588.984104872 -97009532.882989183 0 0 0 0 -11775263.020324707 71709156.306554914 0 71709156.306554914 56078474.407013983 0 0 0 0 29428414.47190094 19436944.642454505 0 19436944.642454505 17982225.567175388 0 0 0 0 6688623.8727264404 50218891.694826603 0 50218891.694826603 66296869.740741253 0 0 0 0 23245179.195922852 -1781028.0874986649 0 -1781028.0874986649 72364788.346679688 0 0 0 0 54118227.056694031 106260496.72340178 0 106260496.72340178 166449164.77964401 0 0 0 0 33533204.135818481 23481247.269359589 0 23481247.269359589 87687920.803523064 0 0 0 0 39544328.401260376 17516150.793553352 0 17516150.793553352 90582832.938632011 0 0 0 0 57897994.695526123 64843552.308988571 0 64843552.308988571 114196287.41874409 0 0 0 0 11804214.324002314 -903154.4117044881 0 -903154.4117044881 -2190306.2721675183 0 0 0 0 14796795.728424072 -23739224.354218245 0 -23739224.354218245 -43572016.454483926 0 0 0 0 -84611470.847946167 -136137243.62634802 0 -136137243.62634802 -270309295.34542942 0 0 0 0 14560773.164985657 50658117.434710026 0 50658117.434710026 170449588.45699215 0 0 0 0 17847162.339851379 24976143.52275753 0 24976143.52275753 147651840.36273098 0 0 0 0 61928589.762718201 49483890.51881361 0 49483890.51881361 61956745.270614266 0 0 0 0 30549258.372711182 1841613.2996733189 0 1841613.2996733189 -34642939.893000811 0 0 0 0 -2100703.018913269 -30970643.039995313 0 -30970643.039995313 1143584.553140223 0 0 0 0 1017250.3941092938 559975.29805635754 0 559975.29805635754 -847130.15419579181 0 0 0 0 8659142.9708251953 -11149082.54204154 0 -11149082.54204154 -25963453.85640794 0 0 0 0 10391845.299442381 -274466.80844067223 0 -274466.80844067223 -2549581.8492976809 0 0 0 0 188331812.84191895 -55960118.952372551 0 -55960118.952372551 -363720247.02542114 0 0 0 0 1060848.3516254872 -2324472.2712117014 0 -2324472.2712117014 -1599467.587381718 0 0 0 0 -74581749.236694336 -136390594.53746033 0 -136390594.53746033 -275108218.82963371 0 0 0 0 154037352.89441299 82692918.118746251 0 82692918.118746251 73521848.103779793 0 0 0 0 -121669411.72511292 -111573390.69545698 0 -111573390.69545698 -207928743.28642774 0 0 0 0 11470537.95344162 -19647296.579104736 0 -19647296.579104736 -39469379.328428268 0 0 0 0 13163389.527081225 -1549183.4178866744 0 -1549183.4178866744 -2015866.6134620805 0 0 0 0 7573916.4360809326 -4822915.0159484148 0 -4822915.0159484148 -33107215.960129738 0 0 0 0 3428998.4051589966 -12357087.939858884 0 -12357087.939858884 -22651528.290847063 0 0 0 0 1760358.2244262695 101971122.70830584 0 101971122.70830584 107236425.32956207 0 0 0 0 17659528.233673096 -115092764.10947609 0 -115092764.10947609 -287292210.67638588 0 0 0 0 2269737.2744263299 927075.39979033079 0 927075.39979033079 -1627492.7815734041 0 0 0 0 -4180765.051071167 -11286383.602896005 0 -11286383.602896005 -19351182.763672709 0 0 0 0 4884367.104133606 1564699.3059282303 0 1564699.3059282303 4812009.4543027878 0 0 0 0 5703691.8257598877 -10814137.188405871 0 -10814137.188405871 -19942767.721841931 0 0 0 0 4118741.5161590576 -14857599.440629363 0 -14857599.440629363 -7519302.6530969739 0 0 0 0 1120424.7091064453 -9212562.6310647428 0 -9212562.6310647428 -9159882.7796096802 0 0 0 0 15536083.700424194 -15512664.889906287 0 -15512664.889906287 -23680439.147353411 0 0 0 0 14208442.788726807 -5638588.5848855376 0 -5638588.5848855376 -21073186.659325838 0 0 0 0 -10246898.089790344 -18521774.117866337 0 -18521774.117866337 7441944.8175114691 0 0 0 0 16919533.854450226 -27037693.312949434 0 -27037693.312949434 1156044.0660045147 0 0 0 0 -3133263.562915802 -15185905.97023505 0 -15185905.97023505 15642419.917007208 0 0 0 0 -2527590.2828216553 -14298313.803311944 0 -14298313.803311944 4908348.8641588688 0 0 0 0 -10835506.664894104 -8756885.9052750468 0 -8756885.9052750468 2289285.8403044641 0 0 0 0 5054231.7641906738 -5225060.9282811582 0 -5225060.9282811582 -20743200.257395029 0 0 0 0 10867863.768486023 -33884813.168997586 0 -33884813.168997586 8841020.0807694197 0 0 0 0 74737.427129596472 -64267.540790569969 0 -64267.540790569969 18679.969219413033 0 0 0 0 9541824.0300521851 2271486.4421562552 0 2271486.4421562552 940532.39452242851 0 0 0 0 20091382.538467407 5827021.0669811368 0 5827021.0669811368 -9992441.8639132977 0 0 0 0 19857196.821258545 -23455046.210195541 0 -23455046.210195541 -3521169.6429134607 0 0 0 0 735259.43865966797 -21198375.505540133 0 -21198375.505540133 -31033756.903959274 0 0 0 0 2010625.4228668213 5355085.0742067099 0 5355085.0742067099 -18894777.134925246 0 0 0 0 18473092.000255585 -4467508.2133977562 0 -4467508.2133977562 -21417719.779357553 0 0 0 0 12059713.438568115 -1222755.4514167309 0 -1222755.4514167309 -14657195.656073153 0 0 0 0 12861289.867950439 4570848.2839217186 0 4570848.2839217186 -14793491.91201067 0 0 0 0 50787.779965803027 -67916.747698100284 0 -67916.747698100284 29128.892227203323 0 0 0 0 17043867.006401062 129797.31822738051 0 129797.31822738051 -32528960.828050733 0 0 0 0 62153254.265945435 -30119932.304926157 0 -30119932.304926157 12402428.438656986 0 0 0 0 -3195601.4133300781 -14410101.808317959 0 -14410101.808317959 29685439.442295671 0 0 0 0 -13447538.413013458 10318045.208382115 0 10318045.208382115 17216736.131922364 0 0 0 0 -17160720.608818054 6548933.3180934787 0 6548933.3180934787 -14334752.349787831 0 0 0 0 -184341.83428262919 -387816.02818569727 0 -387816.02818569727 -438857.03883354436 0 0 0 0 266473.16851262748 -2212135.1622530934 0 -2212135.1622530934 -1901264.3638438603 0 0 0 0 716779.95574188232 -9932910.1361992061 0 -9932910.1361992061 -11966706.911352158 0 0 0 0 169826.80853271484 -7133872.0530887246 0 -7133872.0530887246 -4307637.5958104134 0 0 0 0 4167263.410446167 -4894058.8271784782 0 -4894058.8271784782 -15382627.88987267 0 0 0 0 26423555.77432251 -2725851.8404843807 0 -2725851.8404843807 -39085090.229570866 0 0 0 0 -8326385.225769043 7521238.4134641886 0 7521238.4134641886 5075473.6022851467 0 0 0 0 7857901.282409668 -15561345.481473207 0 -15561345.481473207 18044079.957912922 0 0 0 0 129474.64090016484 -127076.94055709336 0 -127076.94055709336 43624.699427691288 0 0 0 0 -23228671.488834381 -25498914.117840648 0 -25498914.117840648 13810239.699563861 0 0 0 0 1380051.7721252441 -32980853.067617774 0 -32980853.067617774 -24228500.991087914 0 0 0 0 50806624.668029785 6051790.2950768471 0 6051790.2950768471 -19369046.678052306 0 0 0 0 -152808.84618708491 -524445.83095128834 0 -524445.83095128834 -605923.8815642806 0 0 0 0 18324419.551818848 -16352153.221829951 0 -16352153.221829951 14909367.502681434 0 0 0 0 -17319706.115951538 -25730876.855119765 0 -25730876.855119765 51630378.135374367 0 0 0 0 9894273.5770339966 -31823874.755501986 0 -31823874.755501986 -25378829.124047756 0 0 0 0 -66656.765884846449 -135262.44263001252 0 -135262.44263001252 -154249.28688244679 0 0 0 0 -9409460.9204711914 -13574885.8202402 0 -13574885.8202402 71829656.987771392 0 0 0 0 7187004.5550003052 10602063.136886939 0 10602063.136886939 44887421.514555097 0 0 0 0 -4625861.5381011963 -26288838.764422536 0 -26288838.764422536 47443394.969873071 0 0 0 0 8714800.7347869873 -10516908.974926874 0 -10516908.974926874 37899344.136577368 0 0 0 0 36851001.228904724 -49463973.73164016 0 -49463973.73164016 -8194437.5853931904 0 0 0 0 41658341.412948608 -37079486.056052446 0 -37079486.056052446 7674316.8650252819 0 0 0 0 65334587.449981689 -94599640.421464294 0 -94599640.421464294 41855001.774918735 0 0 0 0 -13910114.859314919 -58632635.991626576 0 -58632635.991626576 100384561.75539875 0 0 0 0 89271085.299949646 49096999.144078016 0 49096999.144078016 149130439.893473 0 0 0 0 263103180.71154022 -24441247.676301762 0 -24441247.676301762 -113440551.9260428 0 0 0 0 72206387.290847778 -81304088.530167639 0 -81304088.530167639 174602757.65405267 0 0 0 0 100529843.8098011 -45595046.688085824 0 -45595046.688085824 -29715489.972530365 0 0 0 0 85222064.675519943 -79611035.53490226 0 -79611035.53490226 -204814465.98233831 0 0 0 0 49844220.249343872 27639181.990198731 0 27639181.990198731 -95987336.965474844 0 0 0 0 29758187.993041992 49354868.619441509 0 49354868.619441509 -116162210.6697247 0 0 0 0 1817607.9964221418 4364916.0399073213 0 4364916.0399073213 -1324167.6935964592 0 0 0 0 12230201.244987488 10952800.052401483 0 10952800.052401483 -1209424.2480459809 0 0 0 0 40281100.751831055 33008867.121019542 0 33008867.121019542 -148538768.59883404 0 0 0 0 5685752.7124328613 14488134.002511382 0 14488134.002511382 3570569.5677606463 0 0 0 0 15747889.023899078 19413287.343927696 0 19413287.343927696 9672823.5329099894 0 0 0 0 38012126.526229858 47443445.812564313 0 47443445.812564313 35271382.034677923 0 0 0 0 373035.35709370673 923049.95251649059 0 923049.95251649059 -218613.13766250468 0 0 0 0 54451198.660270691 23021542.172332764 0 23021542.172332764 -13987378.616160117 0 0 0 0 59176636.830833435 14567405.628988907 0 14567405.628988907 -43385599.5519104 0 0 0 0 73481670.854370117 -25431948.134318411 0 -25431948.134318411 -14897159.864558876 0 0 0 0 24511620.008745193 -10298085.836927354 0 -10298085.836927354 -17118235.876859426 0 0 0 0 60366934.285491943 -29821572.204595447 0 -29821572.204595447 -48512811.917760789 0 0 0 0 59681126.784710169 -57258806.69893989 0 -57258806.69893989 -36262444.927551985 0 0 0 0 39076276.730293274 -60848100.449651301 0 -60848100.449651301 -17096983.779872417 0 0 0 0 35678446.61076355 -3869772.8436146379 0 -3869772.8436146379 -45704457.352927655 0 0 0 0 2203602414.6377716 367342045.26478434 0 367342045.26478434 -460456162.30241549 0 0 0 0 1219152219.9640732 -5434608.5460450873 0 -5434608.5460450873 -536382597.85732633 0 0 0 0 1159875435.6042786 516043588.01197982 0 516043588.01197982 -280861398.17518216 0 0 0 0 1055981969.7523422 609370721.0607115 0 609370721.0607115 54752487.077324882 0 0 0 0 580958140.22425079 145464629.4875263 0 145464629.4875263 3825088.8173282146 0 0 0 0 545070544.68495178 224240801.45411652 0 224240801.45411652 26129734.701410502 0 0 0 0 163095480.03124237 -36354745.14932698 0 -36354745.14932698 -24296424.685196996 0 0 0 0 148595749.34261703 147448884.06155425 0 147448884.06155425 -647570392.26746035 0 0 0 0 155564486.86241913 266205042.02261275 0 266205042.02261275 -158275479.21864054 0 0 0 0 403641761.70101166 -249320190.04193527 0 -249320190.04193527 -201837025.66323727 0 0 0 0 864712559.81801224 22728118.013351083 0 22728118.013351083 -296223150.26909131 0 0 0 0 1153467126.3920746 -110257076.6104369 0 -110257076.6104369 -306648833.85039437 0 0 0 0 2205770715.4437332 -157575676.13268295 0 -157575676.13268295 -586940632.91760266 0 0 0 0 1351939109.3332386 -542925287.93407691 0 -542925287.93407691 -322338152.85693622 0 0 0 0 773988853.66118622 -357571290.13656163 0 -357571290.13656163 -247449504.09783641 0 0 0 0 -137409480.78684235 -69904644.678684592 0 -69904644.678684592 99808694.140756309 0 0 0 0 2200666827.2164955 -1270416921.5570571 0 -1270416921.5570571 300469240.60239136 0 0 0 0 2801760.8007269204 -148540.26509903185 0 -148540.26509903185 -283083.79083468078 0 0 0 0 224922428.36407471 378210853.81431675 0 378210853.81431675 37171785.348393679 0 0 0 0 471544081.7298584 -72253780.986921474 0 -72253780.986921474 -194435413.08067876 0 0 0 0 -11809219.58782959 -3724617.8585839486 0 -3724617.8585839486 173673.28182597726 0 0 0 0 2202192275.0582399 426150916.06424767 0 426150916.06424767 -226302222.7806485 0 0 0 0 -65147191.532974243 214923540.72979069 0 214923540.72979069 165964054.5342977 0 0 0 0 1158421.4953241497 -136617.76795244962 0 -136617.76795244962 -119573.36508302382 0 0 0 0 2198245390.231926 -226975661.62344959 0 -226975661.62344959 -187325256.50813586 0 0 0 0 225233279.81887054 -99092359.72316137 0 -99092359.72316137 -18666238.089600198 0 0 0 0 207402.13252880424 -34366.773652689066 0 -34366.773652689066 -4952.0758020309768 0 0 0 0 70901243.942558289 -162576602.89485857 0 -162576602.89485857 117053744.32762478 0 0 0 0 61607235.161941528 -211350206.49522114 0 -211350206.49522114 65566404.998122461 0 0 0 0 133372401.92458344 -5172404.7018834651 0 -5172404.7018834651 27577085.007684022 0 0 0 0 60814773.081314087 -77206477.915114596 0 -77206477.915114596 73486992.156763494 0 0 0 0 -110293498.33369446 119518764.82614881 0 119518764.82614881 -34286968.25118503 0 0 0 0 -77709334.544052124 74371307.47800763 0 74371307.47800763 -14298887.023825131 0 0 0 0 1186477.5700565353 269432.07309720106 0 269432.07309720106 157679.30547844872 0 0 0 0 -1359677.4151763916 9530738.6509408429 0 9530738.6509408429 -90674961.886153877 0 0 0 0 -90150688.032371521 31134008.531987965 0 31134008.531987965 -53224298.959908962 0 0 0 0 -72716590.021743774 -12908163.424260065 0 -12908163.424260065 -153204112.53411427 0 0 0 0 -84144740.428375244 134525831.13696352 0 134525831.13696352 -222272499.15542048 0 0 0 0 5295007.0201550275 1180470.623573442 0 1180470.623573442 -98861.394805898657 0 0 0 0 816283115.445508 -176063163.28393561 0 -176063163.28393561 -424079534.9941113 0 0 0 0 5916765.7027886622 1880187.763904701 0 1880187.763904701 3962.8015865319176 0 0 0 0 -13711828.801750183 211301913.74044961 0 211301913.74044961 -302538020.23394227 0 0 0 0 -151386640.40824127 108744028.62352368 0 108744028.62352368 6783664.0779698491 0 0 0 0 114429003.3368988 -141902501.58148938 0 -141902501.58148938 -103103702.74909613 0 0 0 0 371610854.0086174 -130208470.49564488 0 -130208470.49564488 -194755597.59516472 0 0 0 0 444280453.23371887 -73888332.344896346 0 -73888332.344896346 -91746051.861337587 0 0 0 0 343097334.7744751 -190426920.99450064 0 -190426920.99450064 87237427.317175359 0 0 0 0 737043187.68608856 -56263439.52305603 0 -56263439.52305603 130754685.88673401 0 0 0 0 -41419984.646965027 9844496.4269658923 0 9844496.4269658923 101062858.43733342 0 0 0 0 262138534.47592926 108965430.62889506 0 108965430.62889506 -72650627.893846706 0 0 0 0 403600.61118859053 89357.549124952406 0 89357.549124952406 83331.21215307439 0 0 0 0 240432059.3476944 -169453947.78100419 0 -169453947.78100419 181613026.04922974 0 0 0 0 19369281.888893127 -160563356.33401147 0 -160563356.33401147 196365895.40332252 0 0 0 0 33757597.493041992 -22813419.017469816 0 -22813419.017469816 -104197.21765429522 0 0 0 0 325033193.96350098 50065098.915149257 0 50065098.915149257 190162517.4848935 0 0 0 0 268437618.70722961 149355690.2899816 0 149355690.2899816 -106061207.23156787 0 0 0 0 558634571.69141388 -66143446.341681413 0 -66143446.341681413 11929020.496184602 0 0 0 0 243870.99220918119 71025.41002637893 0 71025.41002637893 -52779.858641517108 0 0 0 0 5007041.6058807373 -218118363.70348877 0 -218118363.70348877 159083363.92146042 0 0 0 0 154762150.50172043 4976108.6309866784 0 4976108.6309866784 -32463102.806115687 0 0 0 0 172073930.0631485 -56150362.992317185 0 -56150362.992317185 78794.286634338627 0 0 0 0 569431770.83670998 71429146.338002935 0 71429146.338002935 -145838979.67957485 0 0 0 0 15715933.158233643 205711550.93537408 0 205711550.93537408 -165769018.76553887 0 0 0 0 31338454.577400208 11692991.612401314 0 11692991.612401314 -28547033.045984358 0 0 0 0 1867499.9276833087 579306.2102715224 0 579306.2102715224 -179831.36241460225 0 0 0 0 34195479.99245739 -29096888.517959069 0 -29096888.517959069 -119334824.57879806 0 0 0 0 17987116.665969849 72480883.424886495 0 72480883.424886495 -169871226.61843163 0 0 0 0 767649409.79389596 -514068943.2892347 0 -514068943.2892347 204838509.83372211 0 0 0 0 784567.31346477568 191576.58011575229 0 191576.58011575229 -89753.131348843162 0 0 0 0 430216609.25416565 -305274776.95541757 0 -305274776.95541757 151152084.95209634 0 0 0 0 581551913.42869568 -318940298.75548768 0 -318940298.75548768 -49429245.914045319 0 0 0 0 197222782.77067566 -188970399.67611802 0 -188970399.67611802 -58573509.122108437 0 0 0 0 319768710.35274506 -34787373.286857277 0 -34787373.286857277 -19745896.506792296 0 0 0 0 276359595.71269226 -95203193.755728766 0 -95203193.755728766 -40250034.293911517 0 0 0 0 916708177.41407776 -98219315.375907898 0 -98219315.375907898 -95722611.09131971 0 0 0 0 1065817946.5628738 -447473337.6363638 0 -447473337.6363638 -371890925.0958584 0 0 0 0 19564653.963310242 -68152248.878577515 0 -68152248.878577515 24758332.394028723 0 0 0 0 225362929.32654572 170668869.69237339 0 170668869.69237339 33557155.392308235 0 0 0 0 632077.40287531167 21827.600388989784 0 21827.600388989784 177771.17380649352 0 0 0 0 563294689.66542053 484764951.76356632 0 484764951.76356632 -248425964.67889974 0 0 0 0 40154302.496803284 532168935.79330993 0 532168935.79330993 -245174751.7440778 0 0 0 0 2017554.8699283302 758730.46850620024 0 758730.46850620024 106038.1741609103 0 0 0 0 -335733162.48517609 236496171.51764965 0 236496171.51764965 -87502797.306582093 0 0 0 0 913507615.43203354 -504766582.16377848 0 -504766582.16377848 185525099.55755162 0 0 0 0 596397671.62062073 -483453101.03456962 0 -483453101.03456962 62724259.594586968 0 0 0 0 187066449.33183289 -300064512.05122685 0 -300064512.05122685 181106311.90241736 0 0 0 0 39410145.349901199 148965939.7116276 0 148965939.7116276 -212610218.22928852 0 0 0 0 17974488.785217285 402109875.99381006 0 402109875.99381006 -641689542.50173235 0 0 0 0 207805778.58731079 205634184.8147949 0 205634184.8147949 -43154571.888223648 0 0 0 0 4960186.7541651726 1785580.657204018 0 1785580.657204018 98936.315348304866 0 0 0 0 -146770616.21494293 119012507.93959457 0 119012507.93959457 -62613537.279105067 0 0 0 0 -187153377.06626892 9494754.9198085666 0 9494754.9198085666 -187320090.7463128 0 0 0 0 159113424.5063324 115839187.97369549 0 115839187.97369549 -13128956.39939161 0 0 0 0 -54130773.34412384 113455413.88163829 0 113455413.88163829 -127104197.40673937 0 0 0 0 -121177854.32395172 145302880.87660602 0 145302880.87660602 -10893452.850788064 0 0 0 0 -140453014.01195526 19949583.192898437 0 19949583.192898437 25838518.883747339 0 0 0 0 429126.9763113074 -347178.99172502011 0 -347178.99172502011 20249.932607753086 0 0 0 0 5185304.8480834961 28514365.28970921 0 28514365.28970921 -2241898.8673430085 0 0 0 0 16444996.646583557 154240370.43145049 0 154240370.43145049 130491167.78552556 0 0 0 0 86055326.077047348 162234114.84382385 0 162234114.84382385 72633638.479842901 0 0 0 0 498330432.87766266 -19503839.231738329 0 -19503839.231738329 76061824.57148385 0 0 0 0 65648018.750930786 109299082.12503839 0 109299082.12503839 430524938.82810569 0 0 0 0 -125514822.52280045 52734747.94351691 0 52734747.94351691 -93235321.485667229 0 0 0 0 1049805.2816400118 -715465.6387873888 0 -715465.6387873888 741742.92291692784 0 0 0 0 534866321.00576019 163500312.38916123 0 163500312.38916123 -223561665.33511281 0 0 0 0 -131720182.20870399 25066923.801909849 0 25066923.801909849 -43759773.222604752 0 0 0 0 520358471.51741028 269917518.45867282 0 269917518.45867282 -311768480.04852766 0 0 0 0 875693076.10309601 276527322.6943711 0 276527322.6943711 -338608783.05330503 0 0 0 0 53114242.382125854 372515438.58861548 0 372515438.58861548 -145284158.01203027 0 0 0 0 131422414.96691895 247925434.65526485 0 247925434.65526485 -90881711.898794457 0 0 0 0 131130645.52022362 210410752.3346529 0 210410752.3346529 -67405619.755464554 0 0 0 0 505396123.94885254 287854429.78518838 0 287854429.78518838 -136289373.49587491 0 0 0 0 161641846.03295898 146099929.86243701 0 146099929.86243701 49306705.004079819 0 0 0 0 272638527.43323517 -78631187.939813137 0 -78631187.939813137 -45719996.961579323 0 0 0 0 -17871415.750976562 53095507.440126419 0 53095507.440126419 248309915.93155813 0 0 0 0 77009271.898330688 45636539.671104908 0 45636539.671104908 -64251050.949230194 0 0 0 0 -44543408.512420654 -59684225.482202053 0 -59684225.482202053 -41203820.85413909 0 0 0 0 -122400161.90076637 -31252078.93711099 0 -31252078.93711099 65646189.833558083 0 0 0 0 67053950.828742981 -191452687.02423549 0 -191452687.02423549 85694734.188575268 0 0 0 0 -111227681.09342957 -48976320.341869116 0 -48976320.341869116 75333148.833971933 0 0 0 0 308009027.90609741 104963959.44751835 0 104963959.44751835 -95137850.301258087 0 0 0 0 579486.09464919567 -384104.34378657863 0 -384104.34378657863 217240.6329740712 0 0 0 0 -160262337.78044128 37257102.700166464 0 37257102.700166464 -13290078.001320839 0 0 0 0 348380637.25509644 41152706.439193726 0 41152706.439193726 -77041153.410112143 0 0 0 0 322872835.1006012 84035098.712805271 0 84035098.712805271 -146864863.67119038 0 0 0 0 290882679.85396194 133515101.44442046 0 133515101.44442046 -134297027.6137557 0 0 0 0 -77219560.120429993 -162423682.7448082 0 -162423682.7448082 184276429.65507412 0 0 0 0 383368.95528297126 523351.39473728649 0 523351.39473728649 -651184.34337699017 0 0 0 0 -27831437.334968567 -163414874.77737045 0 -163414874.77737045 -11229704.077046871 0 0 0 0 713454.02086029202 2463493.9037047718 0 2463493.9037047718 -2679183.180354727 0 0 0 0 -7965444.3347930908 -9555116.3416438103 0 -9555116.3416438103 1769356.4034912586 0 0 0 0 24917040.615623474 12897709.345770836 0 12897709.345770836 -16516449.077537537 0 0 0 0 -54687291.854572296 20609626.728622973 0 20609626.728622973 -12704805.25495553 0 0 0 0 -57313783.942489624 27551510.171993732 0 27551510.171993732 71483069.133663952 0 0 0 0 -57155065.538925171 26104942.338209867 0 26104942.338209867 10025314.335232675 0 0 0 0 -46426712.899688721 -102261604.40059388 0 -102261604.40059388 1593209.1078580618 0 0 0 0 -53680207.22303772 -54441410.395190626 0 -54441410.395190626 120193039.48408461 0 0 0 0 -53030922.584564209 -34410042.610694408 0 -34410042.610694408 -33163417.188188791 0 0 0 0 23296285.303127289 5993363.7966096401 0 5993363.7966096401 -10080291.541599274 0 0 0 0 247382.39982418716 1849634.6950305961 0 1849634.6950305961 -1425972.839318102 0 0 0 0 -56342903.061489105 18507819.353276014 0 18507819.353276014 -14689162.392947674 0 0 0 0 -57682953.776855469 -90988302.043185711 0 -90988302.043185711 -9563637.3632543087 0 0 0 0 1885450.4371087216 1907575.6695469804 0 1907575.6695469804 -2649526.7488889582 0 0 0 0 -52065734.652938843 -96344317.486632764 0 -96344317.486632764 42855241.492973328 0 0 0 0 -55544803.789611816 25270746.50825119 0 25270746.50825119 -8633680.4263162613 0 0 0 0 -52506697.673439026 24546371.684079885 0 24546371.684079885 -18764140.874424934 0 0 0 0 -41357882.820129395 -21461330.268283844 0 -21461330.268283844 21283988.702409744 0 0 0 0 -61021918.83480835 21043734.221310139 0 21043734.221310139 -2645321.4107217789 0 0 0 0 -23948082.519378662 1910887.7599592209 0 1910887.7599592209 -51041571.987612724 0 0 0 0 -54295151.472625732 28798906.535158157 0 28798906.535158157 -7743040.6455984116 0 0 0 0 -55022767.652801514 30799410.402532816 0 30799410.402532816 13279294.956357956 0 0 0 0 -48483689.139343262 21449033.064540386 0 21449033.064540386 -910883.15006256104 0 0 0 0 -51303294.302246094 27355022.863919258 0 27355022.863919258 -7615398.4836359024 0 0 0 0 -33150619.550415039 49427983.55401516 0 49427983.55401516 -3293744.238047123 0 0 0 0 -29566974.855926514 41056264.173160553 0 41056264.173160553 -19070270.242897034 0 0 0 0 -47965102.469146729 41174270.886981964 0 41174270.886981964 67698964.785167217 0 0 0 0 14504247.142486572 85340706.666962147 0 85340706.666962147 25308257.094187737 0 0 0 0 25142867.712265015 8117289.8151013851 0 8117289.8151013851 -78809294.739012241 0 0 0 0 -38670118.477386475 31782907.316051006 0 31782907.316051006 -17897304.979530156 0 0 0 0 -43279118.106231689 35243939.351989508 0 35243939.351989508 -13963726.061593056 0 0 0 0 -39616054.281890869 39680868.326408863 0 39680868.326408863 -10620465.546141624 0 0 0 0 86779868.905151367 -37444728.270520568 0 -37444728.270520568 -7530182.850912571 0 0 0 0 5476447.9361456931 227717.86207106989 0 227717.86207106989 -847459.75596485531 0 0 0 0 -48883295.914611816 29701084.064053535 0 29701084.064053535 -18631564.417948723 0 0 0 0 44063175.931427002 -676509.09078335762 0 -676509.09078335762 -29555175.787629306 0 0 0 0 19558685.533340454 16456127.553038359 0 16456127.553038359 -30628784.092761062 0 0 0 0 -11831515.4581604 14608593.04579246 0 14608593.04579246 -6745408.9257235825 0 0 0 0 12564667.352828979 11877820.134071887 0 11877820.134071887 -4174661.0737617016 0 0 0 0 14797603.71182251 12072142.836481929 0 12072142.836481929 -9132120.7870405316 0 0 0 0 15465051.87588501 7832932.1701039076 0 7832932.1701039076 -2629103.6699749231 0 0 0 0 4563356.5908813477 10738046.866424084 0 10738046.866424084 -3357120.8313076496 0 0 0 0 4697785.8995037079 4738429.4373443052 0 4738429.4373443052 48611.860970258713 0 0 0 0 4567947.1569824219 5508192.3414856195 0 5508192.3414856195 432511.66943395138 0 0 0 0 -3352543.9353027344 12459316.289269447 0 12459316.289269447 -7306633.365036726 0 0 0 0 22286636.434326172 -2127066.5591218472 0 -2127066.5591218472 2257486.2886069119 0 0 0 0 11874374.561706543 -5111924.9221083224 0 -5111924.9221083224 5424800.9042420983 0 0 0 0 5708973.2191772461 4819465.9168295264 0 4819465.9168295264 708368.61665892601 0 0 0 0 13589981.563415527 9558475.0679600835 0 9558475.0679600835 -2712534.7854531407 0 0 0 0 14884619.872505188 8810978.3010112643 0 8810978.3010112643 -3945734.7590751052 0 0 0 0 23864222.031921387 325344.90049569309 0 325344.90049569309 -9303000.4128329754 0 0 0 0 23234286.283187866 4152702.4371998608 0 4152702.4371998608 -2612412.1418863982 0 0 0 0 41422363.929748535 -18195152.851212248 0 -18195152.851212248 5240366.5768190622 0 0 0 0 -4802309.9682617188 1997403.5210749507 0 1997403.5210749507 1074307.1280812025 0 0 0 0 -33376175.550193787 -4089.3461532890797 0 -4089.3461532890797 17965144.577526778 0 0 0 0 -665098.71645314246 421889.27927719988 0 421889.27927719988 386607.01185010863 0 0 0 0 13731019.492635727 450007.30068570189 0 450007.30068570189 -687438.12473118305 0 0 0 0 15474581.846313477 10204804.838369042 0 10204804.838369042 -5425434.9922739267 0 0 0 0 19184866.726997375 11711677.950794838 0 11711677.950794838 -14355924.460827827 0 0 0 0 1185655.1356735229 7063066.7475485504 0 7063066.7475485504 -8585082.365739882 0 0 0 0 3569363.5403997712 1667596.9361706115 0 1667596.9361706115 -1193640.8685118975 0 0 0 0 5766237.0448154062 -174945.44010554627 0 -174945.44010554627 -615526.86075955664 0 0 0 0 62101731.424835205 57915387.570491791 0 57915387.570491791 -116048477.26296449 0 0 0 0 -45796836.179756165 12801038.631963968 0 12801038.631963968 -46136273.17146039 0 0 0 0 -33003576.56603241 -143207556.88113999 0 -143207556.88113999 10975155.598496914 0 0 0 0 2871965.2426186688 -1613019.5642307792 0 -1613019.5642307792 1685291.56251255 0 0 0 0 177967152.85311508 423216572.83013272 0 423216572.83013272 -152579348.070333 0 0 0 0 -34136853.536300659 -332864768.68924713 0 -332864768.68924713 552652332.8298384 0 0 0 0 -12691456.87953186 -21327451.776835382 0 -21327451.776835382 -29921499.871530712 0 0 0 0 989668.06211327016 157872.61677476019 0 157872.61677476019 744746.03025925043 0 0 0 0 111766.36032104492 -2070767.5687714368 0 -2070767.5687714368 -1370561.6293737292 0 0 0 0 -39048724.410568237 15210442.413035983 0 15210442.413035983 -2556089.9372991389 0 0 0 0 4742263.2412567139 -4838327.4552301317 0 -4838327.4552301317 -61883928.861379564 0 0 0 0 2327685.6560657471 843062.95300834253 0 843062.95300834253 -190612.84423200192 0 0 0 0 -63942703.97088623 -15985746.980737153 0 -15985746.980737153 94790288.964559674 0 0 0 0 -14551023.843635559 8379828.6310224235 0 8379828.6310224235 -1816381.9677962661 0 0 0 0 588820.70556040108 156903.17731827497 0 156903.17731827497 -229568.2919606808 0 0 0 0 -747304.48164367676 -16782858.377569847 0 -16782858.377569847 -77731333.467807978 0 0 0 0 14434374.669258118 -3742954.5642825887 0 -3742954.5642825887 -39947265.716102146 0 0 0 0 26571069.442125201 -12954382.039812613 0 -12954382.039812613 -78441742.34851785 0 0 0 0 993220.87349700928 11866271.305676624 0 11866271.305676624 -72313576.504060775 0 0 0 0 27021723.305351257 8939461.3759906292 0 8939461.3759906292 -94579806.823473632 0 0 0 0 32076710.247827232 -42140820.24229268 0 -42140820.24229268 -42726522.539810836 0 0 0 0 25608219.246423721 -49428970.477458805 0 -49428970.477458805 9143496.9416307062 0 0 0 0 46867352.294281006 -43732876.02217412 0 -43732876.02217412 -137320.63087152489 0 0 0 0 35794865.36882019 -18163739.739416614 0 -18163739.739416614 -6821770.2238809271 0 0 0 0 64742042.326538086 -42795739.850034967 0 -42795739.850034967 30303.517243123955 0 0 0 0 201230366.70540619 -150116786.19253841 0 -150116786.19253841 35746058.205453455 0 0 0 0 118509864.22749329 -54999351.888484642 0 -54999351.888484642 645377.70519984479 0 0 0 0 57794873.12351799 -80557735.743294343 0 -80557735.743294343 21638736.504529506 0 0 0 0 65336831.388824463 -29476082.711637665 0 -29476082.711637665 6964952.4613930061 0 0 0 0 91004688.366004944 -89326824.74658677 0 -89326824.74658677 12812092.529858336 0 0 0 0 97869292.292503357 -71819976.831564337 0 -71819976.831564337 46336733.114936456 0 0 0 0 99752134.160610199 -83431730.113992333 0 -83431730.113992333 3388333.6591112465 0 0 0 0 80655387.605316162 -49163554.390656278 0 -49163554.390656278 -3580407.1268523932 0 0 0 0 68902647.732757568 -27310359.497333303 0 -27310359.497333303 -47662677.733555026 0 0 0 0 59606396.952713013 -63984895.48018527 0 -63984895.48018527 -13779637.323881514 0 0 0 0 10559994.47480011 -57957658.263275817 0 -57957658.263275817 3135772.8975934386 0 0 0 0 59536217.337916076 -50252294.81919264 0 -50252294.81919264 -70880272.383017108 0 0 0 0 40667312.118896484 14850994.100648656 0 14850994.100648656 -80620511.449914008 0 0 0 0 -8376057.512878418 20645576.99935858 0 20645576.99935858 -13493887.059648991 0 0 0 0 45003777.269187927 -25099184.209705003 0 -25099184.209705003 -10327892.269087456 0 0 0 0 76033526.916679382 -53327549.704237059 0 -53327549.704237059 -650631.10008460283 0 0 0 0 39046444.97815609 -9462676.675915001 0 -9462676.675915001 -15546548.343332998 0 0 0 0 49589369.192443848 -19732403.932107195 0 -19732403.932107195 -5950283.1111863256 0 0 0 0 63241231.339309692 -51246587.745795473 0 -51246587.745795473 19034280.688539468 0 0 0 0 34938630.513916016 -53661655.456722647 0 -53661655.456722647 43548194.428085536 0 0 0 0 81857281.639465332 -90500883.704453498 0 -90500883.704453498 42092548.210038304 0 0 0 0 59367858.502838135 -57677577.284242436 0 -57677577.284242436 8570402.2719895281 0 0 0 0 138728239.3195343 -134923623.6274763 0 -134923623.6274763 45205963.060208768 0 0 0 0 92705729.07409668 -87834953.539465353 0 -87834953.539465353 19662316.486225285 0 0 0 0 99803189.38444519 -97236147.344914213 0 -97236147.344914213 23236530.784013014 0 0 0 0 105711264.51277161 -97746544.200829655 0 -97746544.200829655 20688988.916886985 0 0 0 0 116088216.63487244 -84642723.916483968 0 -84642723.916483968 19941711.782510042 0 0 0 0 92460667.376159668 -80551744.28303802 0 -80551744.28303802 14224479.572206704 0 0 0 0 78991339.934661865 -54819988.946398377 0 -54819988.946398377 -6406676.044500798 0 0 0 0 93174492.905212402 -80983740.963018075 0 -80983740.963018075 12225421.412185445 0 0 0 0 114171599.66459656 -95961849.696736678 0 -95961849.696736678 14224160.298258055 0 0 0 0 101567800.92575073 -99038845.408221647 0 -99038845.408221647 33693176.160399467 0 0 0 0 96903569.71244812 -77877037.033753708 0 -77877037.033753708 20226955.673973471 0 0 0 0 140429316.48583221 -101593571.91026887 0 -101593571.91026887 18770929.758423418 0 0 0 0 67720737.824005127 -77368709.985771745 0 -77368709.985771745 124897419.16912612 0 0 0 0 109289922.44525146 -125080712.01939087 0 -125080712.01939087 85329347.294721216 0 0 0 0 96573171.484924316 -96182981.208515644 0 -96182981.208515644 33679687.066701367 0 0 0 0 92983100.683990479 -93586661.025986344 0 -93586661.025986344 55273235.211627722 0 0 0 0 72554102.74571228 -68756932.019123107 0 -68756932.019123107 26369012.779081702 0 0 0 0 57619373.873046875 -52024166.159894228 0 -52024166.159894228 63699880.642687373 0 0 0 0 1884506.3664970398 -1548511.1803635051 0 -1548511.1803635051 3070075.010226469 0 0 0 0 104811688.31383514 -197333697.50914037 0 -197333697.50914037 211632981.66820294 0 0 0 0 1599043.5872039795 -575269.98771452135 0 -575269.98771452135 1716.1178976590713 0 0 0 0 346661.91220944375 -199537.10026131198 0 -199537.10026131198 4003.9658218849922 0 0 0 0 5230827.3059387207 -9401206.932503866 0 -9401206.932503866 11757520.4556389 0 0 0 0 3518023.4138031006 -4509634.1974576004 0 -4509634.1974576004 1584370.5070161708 0 0 0 0 3804029.218536377 -3273349.1359645659 0 -3273349.1359645659 3717.348930450727 0 0 0 0 2389721.1918945312 -4417557.4842973901 0 -4417557.4842973901 3785789.3530107019 0 0 0 0 73605092.382797241 -68256174.873832345 0 -68256174.873832345 25044360.380755533 0 0 0 0 70796969.732967377 -50064699.829899982 0 -50064699.829899982 23435390.157619715 0 0 0 0 651066.31747532636 -91884.562492700294 0 -91884.562492700294 -44843.894589003605 0 0 0 0 837900.25583235919 29712.551215242594 0 29712.551215242594 -39126.831710498518 0 0 0 0 30911329.878051758 17181330.141415745 0 17181330.141415745 -23445643.464598119 0 0 0 0 6663546.8248977661 10893235.447229397 0 10893235.447229397 22908890.407056987 0 0 0 0 49918399.557052612 -25682812.084231608 0 -25682812.084231608 30066659.619408809 0 0 0 0 27700138.596618652 10733129.963942602 0 10733129.963942602 37567628.497096732 0 0 0 0 89673107.350746155 -57146138.875733912 0 -57146138.875733912 11085104.422358781 0 0 0 0 45488737.459396362 -63389612.04100363 0 -63389612.04100363 31287491.36289417 0 0 0 0 96255670.181941986 11874074.827443529 0 11874074.827443529 56271934.023793153 0 0 0 0 135816122.48464966 -67801897.713396639 0 -67801897.713396639 13453281.759562708 0 0 0 0 164506840.10450363 -51521581.346784696 0 -51521581.346784696 19921343.924595214 0 0 0 0 53545488.563644409 -30934157.586121164 0 -30934157.586121164 82437540.26641044 0 0 0 0 49322440.007583618 -7504863.2454833835 0 -7504863.2454833835 63594671.174913317 0 0 0 0 44887086.053627014 -52241149.795293376 0 -52241149.795293376 34432239.07007423 0 0 0 0 38164240.083610535 -30135825.447849691 0 -30135825.447849691 100986792.00292808 0 0 0 0 -16789403.093975067 -23579131.558637146 0 -23579131.558637146 21538135.956058502 0 0 0 0 144161643.55245972 -304341.41842922568 0 -304341.41842922568 -699631.39048154652 0 0 0 0 185914235.41884613 -44879031.63320519 0 -44879031.63320519 -25388544.906855136 0 0 0 0 346012059.17012787 -36027774.47356987 0 -36027774.47356987 5608571.3342074156 0 0 0 0 149191874.91283417 -120429966.67350951 0 -120429966.67350951 173560306.67858505 0 0 0 0 152956490.06921387 61475085.076713465 0 61475085.076713465 165947728.09454513 0 0 0 0 299876586.56954956 -59887781.907482117 0 -59887781.907482117 5280869.1690807492 0 0 0 0 188905694.26344299 -182200550.08118856 0 -182200550.08118856 115227913.6444245 0 0 0 0 38643310.093002319 -89478555.02968204 0 -89478555.02968204 75604363.949747398 0 0 0 0 36400315.905869961 -46617779.933178715 0 -46617779.933178715 26936173.360114634 0 0 0 0 15361392.143829346 -29071161.922891796 0 -29071161.922891796 123499685.23737493 0 0 0 0 671304.44294127822 -72623.3444691021 0 -72623.3444691021 -79415.998516795124 0 0 0 0 30007684.062973022 -23811072.354867905 0 -23811072.354867905 10047699.792896837 0 0 0 0 46751830.845321655 -43615716.654284909 0 -43615716.654284909 21105330.069956124 0 0 0 0 13026231.691253662 -35973607.252169967 0 -35973607.252169967 18093515.35193038 0 0 0 0 32060109.843017578 -49057908.001015365 0 -49057908.001015365 25625117.089854181 0 0 0 0 18668978.911346436 -26551853.550909281 0 -26551853.550909281 13966467.490299582 0 0 0 0 17833398.358215332 -8828026.048476398 0 -8828026.048476398 5912538.7129762173 0 0 0 0 20512745.643417358 -25223204.466438591 0 -25223204.466438591 14449378.629349828 0 0 0 0 3952780.1264038086 -16240627.692593455 0 -16240627.692593455 11465260.158591211 0 0 0 0 6037591.8434677124 -7549107.9996746406 0 -7549107.9996746406 10027334.05922842 0 0 0 0 1341648.9790806435 -8206.0405938662589 0 -8206.0405938662589 -919212.59900499485 0 0 0 0 -8136785.7607574463 -23029853.14901793 0 -23029853.14901793 11066208.984229803 0 0 0 0 9906524.6511230469 12384706.055381775 0 12384706.055381775 -6855266.3494753838 0 0 0 0 -8966817.2634353638 -1918957.9454531074 0 -1918957.9454531074 5354597.031938076 0 0 0 0 1449082.772857666 -9398801.2745556831 0 -9398801.2745556831 7711246.0802130699 0 0 0 0 1856136.105255127 -2674149.0816187859 0 -2674149.0816187859 4665815.545422554 0 0 0 0 -8113619.2991943359 -8514945.8827910423 0 -8514945.8827910423 7699711.613389492 0 0 0 0 14953018.861312866 7301504.6881390214 0 7301504.6881390214 1438658.8898502588 0 0 0 0 2341943.792888321 -44626.582878496498 0 -44626.582878496498 -646744.98661956715 0 0 0 0 -23714907.3543396 2277754.7430188656 0 2277754.7430188656 2644242.5479351282 0 0 0 0 275745698.53354836 137919808.77010229 0 137919808.77010229 52614520.559239738 0 0 0 0 50448334.185089111 -18149487.160801679 0 -18149487.160801679 -77039198.64624393 0 0 0 0 117282122.15882874 71159765.198998749 0 71159765.198998749 37839529.277264982 0 0 0 0 226642415.25736237 60293456.547938049 0 60293456.547938049 -94379484.243839025 0 0 0 0 172158252.78430104 63431690.954693943 0 63431690.954693943 -91662895.167268038 0 0 0 0 172036613.06316614 59022730.817958795 0 59022730.817958795 -145731847.64182127 0 0 0 0 108313497.1373291 51842667.023906827 0 51842667.023906827 -134764652.2881403 0 0 0 0 324736609.13442993 -19217395.764986634 0 -19217395.764986634 -112304816.56108242 0 0 0 0 -81372734.250030518 -46708017.118292093 0 -46708017.118292093 -70707078.142911434 0 0 0 0 -5955092.9209442139 31144274.254660487 0 31144274.254660487 -260540195.48517609 0 0 0 0 -269977.76336952299 217819.40249613393 0 217819.40249613393 95625.871742745148 0 0 0 0 -71006641.049606323 -1299581.781908989 0 -1299581.781908989 -191280435.00611687 0 0 0 0 -57177627.845504761 -44087400.751095116 0 -44087400.751095116 -58922422.861593723 0 0 0 0 44468357.374160767 -36979016.051897764 0 -36979016.051897764 -261276968.31868529 0 0 0 0 83277779.041625977 -132298740.02858502 0 -132298740.02858502 -113558870.41380572 0 0 0 0 -35570607.706726074 -104590329.63172472 0 -104590329.63172472 41521329.420432806 0 0 0 0 -16584761.313766479 -102326074.14511836 0 -102326074.14511836 31492566.534457326 0 0 0 0 -26613951.38180542 -60382415.459995151 0 -60382415.459995151 48188550.044956952 0 0 0 0 -37127329.982269287 -67148670.6474154 0 -67148670.6474154 -71277809.161352634 0 0 0 0 -36222326.877319336 -80145057.532862902 0 -80145057.532862902 11418477.822155237 0 0 0 0 -58882658.416137695 -99214606.991754174 0 -99214606.991754174 1001167.020771265 0 0 0 0 -38740576.447463989 -115213909.15939796 0 -115213909.15939796 65905533.564514399 0 0 0 0 79807158.813858032 -199407427.04126275 0 -199407427.04126275 207753380.77109432 0 0 0 0 27087451.959671021 106777824.46408874 0 106777824.46408874 246701736.39360428 0 0 0 0 -16967966.523139954 11499342.713603079 0 11499342.713603079 40643435.140096903 0 0 0 0 822038.74092703313 -166220.59892652908 0 -166220.59892652908 -46991.149009164044 0 0 0 0 14273182.670074463 -134911101.61029333 0 -134911101.61029333 167027548.67558292 0 0 0 0 191892560.64939499 100306289.76818737 0 100306289.76818737 -154084399.22498947 0 0 0 0 2193641.9485256076 -289702.10351327021 0 -289702.10351327021 -153698.94613733768 0 0 0 0 -138516055.74429893 -230307160.37944832 0 -230307160.37944832 -92330013.746801972 0 0 0 0 35928855.067192078 -86529245.923033953 0 -86529245.923033953 -76624274.733980805 0 0 0 0 36832982.184776306 -11579410.032892734 0 -11579410.032892734 -192878529.52849051 0 0 0 0 -12329017.599788666 -9449679.9185392931 0 -9449679.9185392931 -30907101.427979529 0 0 0 0 96106156.134490967 107249514.29382661 0 107249514.29382661 -114295506.48430336 0 0 0 0 -14322197.275051117 -82954641.193308622 0 -82954641.193308622 73606665.129137859 0 0 0 0 16048993.239631653 -48285804.802417755 0 -48285804.802417755 76874990.638078943 0 0 0 0 5494264.894397527 -602504.14768659137 0 -602504.14768659137 -826644.90508414479 0 0 0 0 147391182.85123444 26746259.76812315 0 26746259.76812315 -635505765.94214654 0 0 0 0 237539067.94264984 40246609.759921588 0 40246609.759921588 -79791955.576181859 0 0 0 0 6208092.9135302007 -730173.17761822417 0 -730173.17761822417 -1027080.9855789971 0 0 0 0 149377149.99655151 -27611337.507614672 0 -27611337.507614672 -131990204.60091461 0 0 0 0 -68752471.504974365 57538933.108879179 0 57538933.108879179 50985375.138199449 0 0 0 0 -3889306.4771690369 -42421138.86569953 0 -42421138.86569953 -180609666.80527878 0 0 0 0 -47352858.044193268 -6880266.4319961071 0 -6880266.4319961071 -277664473.88416195 0 0 0 0 58762990.643424988 -63750562.448510885 0 -63750562.448510885 -359893423.00971907 0 0 0 0 144531705.82651901 -136247970.33258855 0 -136247970.33258855 -283529206.41204786 0 0 0 0 35573056.39333725 -142700052.00707531 0 -142700052.00707531 -180510591.29610538 0 0 0 0 83046697.073501587 -152517254.07849121 0 -152517254.07849121 -47631220.800306737 0 0 0 0 2729193.1854896545 -153704099.17026818 0 -153704099.17026818 -47381416.570268154 0 0 0 0 61834028.322360992 -120245132.34215105 0 -120245132.34215105 -42053708.26800108 0 0 0 0 289139791.78424835 13328059.383345127 0 13328059.383345127 -329023332.69301617 0 0 0 0 -74199416.727396011 -40640102.102116406 0 -40640102.102116406 -334392326.03509021 0 0 0 0 468023677.27222443 -225539060.45396948 0 -225539060.45396948 115417937.21494174 0 0 0 0 226941186.03340912 -46759323.891697407 0 -46759323.891697407 -15876073.317667723 0 0 0 0 108787118.75812149 -130115451.55216753 0 -130115451.55216753 468120646.71663666 0 0 0 0 94823097.634140015 -6818591.4503496885 0 -6818591.4503496885 210973373.10449553 0 0 0 0 637470709.13917923 -73851958.409191728 0 -73851958.409191728 16073032.213730335 0 0 0 0 412160857.07323837 181059118.62505937 0 181059118.62505937 287987463.85956049 0 0 0 0 281873069.67761993 34630204.313929677 0 34630204.313929677 83396770.444834352 0 0 0 0 513663944.06487656 -201442013.47326696 0 -201442013.47326696 101366892.90087128 0 0 0 0 280529144.33509827 -122259654.44501865 0 -122259654.44501865 302344292.26865983 0 0 0 0 79367705.961334229 74456441.965299845 0 74456441.965299845 107613358.69701576 0 0 0 0 -32607799.515274048 7026841.8484070897 0 7026841.8484070897 88291274.18610239 0 0 0 0 -41527514.249214709 -13365098.466127455 0 -13365098.466127455 60385465.881194115 0 0 0 0 -41449808.419555157 -21191998.304872461 0 -21191998.304872461 240833124.81761408 0 0 0 0 92053992.385520935 -43524454.225543976 0 -43524454.225543976 195870473.56308222 0 0 0 0 51402565.397377014 -125930364.13183188 0 -125930364.13183188 110358281.80981493 0 0 0 0 83044066.833499908 -222476485.2283591 0 -222476485.2283591 130420726.07218742 0 0 0 0 -14334035.569591582 -101801821.72777246 0 -101801821.72777246 114617664.52683353 0 0 0 0 -13974360.922959536 -129751888.66929625 0 -129751888.66929625 -9211610.8511719704 0 0 0 0 -48434014.902336121 -24474849.187583566 0 -24474849.187583566 33107509.508160591 0 0 0 0 -47437072.015888214 19541298.857692599 0 19541298.857692599 -149638650.96463013 0 0 0 0 -57529606.187988281 -27479001.924906731 0 -27479001.924906731 86305347.835073948 0 0 0 0 -69850652.109336853 6409373.2407981157 0 6409373.2407981157 108901814.12397861 0 0 0 0 -111002841.63179016 57276113.735737562 0 57276113.735737562 53165767.184233665 0 0 0 0 -91132946.750663757 53307714.640128851 0 53307714.640128851 17163361.689095497 0 0 0 0 -111308170.07235718 78104711.348195672 0 78104711.348195672 46209107.09392637 0 0 0 0 -70043074.324653625 94746308.626731515 0 94746308.626731515 72410974.701647073 0 0 0 0 -82834884.235134125 60444743.706745982 0 60444743.706745982 7874731.3036055565 0 0 0 0 -45804614.801643372 43679552.110883236 0 43679552.110883236 12970416.380150795 0 0 0 0 -11848860.101531982 34322760.056009054 0 34322760.056009054 -15850572.947524548 0 0 0 0 -16480490.82850647 22425509.187723398 0 22425509.187723398 -5123708.1083717346 0 0 0 0 -81508710.695941925 87190600.905113161 0 87190600.905113161 -22630259.834884882 0 0 0 0 -70807123.207427979 64632811.315238953 0 64632811.315238953 3075321.1212210655 0 0 0 0 -48764336.146110535 36137045.441701412 0 36137045.441701412 26460145.825595379 0 0 0 0 -100927874.54862595 41961705.31894511 0 41961705.31894511 58002281.127188683 0 0 0 0 -30824764.501914978 21012019.10679853 0 21012019.10679853 46915189.722148418 0 0 0 0 34443870.606895447 23177979.133946419 0 23177979.133946419 44093493.286889791 0 0 0 0 -270017.51966737956 220059.39361024182 0 220059.39361024182 78851.463928229176 0 0 0 0 -78793332.075403214 41531085.844749391 0 41531085.844749391 132326964.63612604 0 0 0 0 24212495.806266785 -46527116.742677212 0 -46527116.742677212 -349996673.61504984 0 0 0 0 -96600117.231918335 87658562.817723513 0 87658562.817723513 25528585.362892866 0 0 0 0 -93648740.888877869 -696958.38908743858 0 -696958.38908743858 -130318151.6373806 0 0 0 0 -40306826.164161682 -115440532.71494579 0 -115440532.71494579 -69605106.78247416 0 0 0 0 14896570.495456696 47160358.375214815 0 47160358.375214815 -287115926.49048948 0 0 0 0 39460136.195821762 -87027013.709769607 0 -87027013.709769607 -93451210.839664459 0 0 0 0 -4966391.8574848175 23467602.98994875 0 23467602.98994875 -42051013.848579884 0 0 0 0 55357579.071556091 -6805465.5379776955 0 -6805465.5379776955 -44621665.3400774 0 0 0 0 33236792.31268692 -12808617.823462963 0 -12808617.823462963 32082262.291081429 0 0 0 0 21188896.024726868 -167011536.5279361 0 -167011536.5279361 -13032063.156155586 0 0 0 0 136351039.65842819 -39921106.669271827 0 -39921106.669271827 -70805777.863832951 0 0 0 0 -22918652.843009949 -109568023.41602874 0 -109568023.41602874 -74686863.993401051 0 0 0 0 -21794684.026992798 -118799700.69665074 0 -118799700.69665074 -20350341.046685219 0 0 0 0 9644798.1281967163 -154778664.64732075 0 -154778664.64732075 -60144067.894676447 0 0 0 0 -7675156.6590576172 -102180509.42722392 0 -102180509.42722392 -135194640.95404243 0 0 0 0 -5754681.0270233154 -125043674.38868523 0 -125043674.38868523 -67082737.643981457 0 0 0 0 -9566866.338470459 -109569502.36496472 0 -109569502.36496472 -39889075.234309196 0 0 0 0 -12200065.654510498 -37261410.685457468 0 -37261410.685457468 -63713616.957948685 0 0 0 0 -22277099.929931641 -74699443.49955225 0 -74699443.49955225 -85894012.751544476 0 0 0 0 -1558248.4362411499 -46660691.89530611 0 -46660691.89530611 -139082481.67106318 0 0 0 0 3610468.021604538 -72502619.151004195 0 -72502619.151004195 -103677650.46250868 0 0 0 0 5975068.7084416822 -58012.22203245759 0 -58012.22203245759 -1099969.6769908266 0 0 0 0 -40742233.224216461 60412037.161645591 0 60412037.161645591 -42872992.426900744 0 0 0 0 1759416.3501539752 -336104.22112374939 0 -336104.22112374939 -605607.50915375957 0 0 0 0 176151570.90800476 -65961375.171438217 0 -65961375.171438217 25229114.298413992 0 0 0 0 -35116818.153514862 -13275513.027434349 0 -13275513.027434349 15739138.135885715 0 0 0 0 26131367.73828125 -10185895.511227608 0 -10185895.511227608 4626963.610432148 0 0 0 0 357981.26821489632 676159.12360200007 0 676159.12360200007 -59852.902341528737 0 0 0 0 -103400021.13757324 -5855345.0080461502 0 -5855345.0080461502 186305864.74713373 0 0 0 0 39157465.920379639 42572787.800055027 0 42572787.800055027 51098343.289710045 0 0 0 0 150800774.09580231 69518941.372882605 0 69518941.372882605 54488333.550088882 0 0 0 0 222237875.38606262 16331321.363202333 0 16331321.363202333 -2633801.3642663956 0 0 0 0 202940168.13336945 -100590234.63151336 0 -100590234.63151336 24104885.23948583 0 0 0 0 138095078.44488525 -6147377.0123882294 0 -6147377.0123882294 -2329781.1069526672 0 0 0 0 76623174.491546631 8383471.6774959564 0 8383471.6774959564 -5751073.8880767822 0 0 0 0 492558.15085692331 -101042.27730724588 0 -101042.27730724588 -94689.907652638387 0 0 0 0 -57601404.468948364 -91759399.41936779 0 -91759399.41936779 12205756.623481274 0 0 0 0 245688725.66713333 -15703028.473876357 0 -15703028.473876357 -14747449.115674019 0 0 0 0 1429052.2470972911 -582258.1669339072 0 -582258.1669339072 47709.460520531982 0 0 0 0 -40049720.308074951 -6667390.7764210701 0 -6667390.7764210701 43704369.527578428 0 0 0 0 -40173325.65325737 4275575.7222557664 0 4275575.7222557664 43337470.14174366 0 0 0 0 65325843.853115082 -8520427.0627911091 0 -8520427.0627911091 14891458.436992645 0 0 0 0 -22178678.735275269 2059265.0673618317 0 2059265.0673618317 20630899.205214977 0 0 0 0 -31338856.887741089 15936426.663204908 0 15936426.663204908 2740140.5792617798 0 0 0 0 1389646.4325040914 -852734.01137051359 0 -852734.01137051359 396803.25661146152 0 0 0 0 -2366413.8519134521 3757409.3703947067 0 3757409.3703947067 -25869033.167052269 0 0 0 0 -30999400.883052826 -105767819.31905115 0 -105767819.31905115 -3334883.0786657333 0 0 0 0 151970740.25033569 -482365632.90431118 0 -482365632.90431118 105400279.62565207 0 0 0 0 18097249.926452637 -17444910.685451031 0 -17444910.685451031 -3908444.6897034645 0 0 0 0 30565836.145542145 439918925.25914365 0 439918925.25914365 183494641.85453463 0 0 0 0 172400222.25493622 174321008.96189547 0 174321008.96189547 -144914833.70214367 0 0 0 0 94440362.745422363 102966363.11262476 0 102966363.11262476 89700562.603610039 0 0 0 0 147820509.20503235 179076460.38096976 0 179076460.38096976 77189863.629649758 0 0 0 0 90462557.76133728 113140923.93916225 0 113140923.93916225 70239037.287318468 0 0 0 0 228078675.38486481 211565700.09267879 0 211565700.09267879 143617195.80477417 0 0 0 0 606766.25168431923 -120315.47929690219 0 -120315.47929690219 -129512.46637790673 0 0 0 0 -5243665.5111236572 51556738.346516132 0 51556738.346516132 48237762.56652832 0 0 0 0 153960352.69426537 16462228.258133948 0 16462228.258133948 138854835.15227175 0 0 0 0 136202919.84151793 199749594.61679241 0 199749594.61679241 69235055.187669754 0 0 0 0 95119356.35017395 -99681042.438886121 0 -99681042.438886121 -53385963.165034294 0 0 0 0 -19021788.248977661 51547608.450682402 0 51547608.450682402 -203814729.00633717 0 0 0 0 5870002.0132675171 -75001117.229215622 0 -75001117.229215622 -212510477.52082062 0 0 0 0 -27535851.616569519 5331157.0647227764 0 5331157.0647227764 -48778272.010345697 0 0 0 0 -10876099.764900208 -21651825.654652119 0 -21651825.654652119 -41381670.420582294 0 0 0 0 -32510406.91721344 -28065691.608729124 0 -28065691.608729124 7855132.530169487 0 0 0 0 -27460695.683509827 -9961115.0188975334 0 -9961115.0188975334 32721420.770582438 0 0 0 0 -17767643.150390625 3401874.7053883076 0 3401874.7053883076 -8370359.9323487282 0 0 0 0 14719455.754417419 -23138863.634938717 0 -23138863.634938717 -160531807.79110956 0 0 0 0 25361208.277526855 10673879.478482008 0 10673879.478482008 -231819831.35397387 0 0 0 0 -5022204.3229904175 24251396.905642033 0 24251396.905642033 -169597815.60186833 0 0 0 0 -22484994.516330719 75777892.519342065 0 75777892.519342065 -287139794.0827179 0 0 0 0 8580969.0203475952 27546780.419170856 0 27546780.419170856 -134023455.22221684 0 0 0 0 -7724015.7777366638 38756626.78258425 0 38756626.78258425 67390220.268108368 0 0 0 0 20256932.633705139 -20587130.045658588 0 -20587130.045658588 -223470721.39362913 0 0 0 0 -491345.72479279339 821002.77250089496 0 821002.77250089496 218367.86513444455 0 0 0 0 14607307.706258774 84739529.569920391 0 84739529.569920391 104854190.70196223 0 0 0 0 3252902.0335388184 28057877.533723354 0 28057877.533723354 74040796.496918797 0 0 0 0 32836018.593194485 53966992.68789582 0 53966992.68789582 13867009.450701237 0 0 0 0 31768792.006462097 28796404.865695715 0 28796404.865695715 19555048.753606796 0 0 0 0 12113712.247329712 52770217.460751772 0 52770217.460751772 -2301785.4932184219 0 0 0 0 12270864.0286026 50457254.374347687 0 50457254.374347687 19818923.971493483 0 0 0 0 2339570.3491668701 17851014.739145517 0 17851014.739145517 -18053632.559472561 0 0 0 0 10622140.006324768 15652883.40067625 0 15652883.40067625 -480183.90904378891 0 0 0 0 13841755.179359436 16922635.278687716 0 16922635.278687716 -12206293.080457687 0 0 0 0 26622239.879463196 10269107.872270465 0 10269107.872270465 -21800241.10365963 0 0 0 0 2470540.6614392623 5181178.8707024502 0 5181178.8707024502 -917981.08328970592 0 0 0 0 27216759.524925232 34119868.424553633 0 34119868.424553633 11223249.856500626 0 0 0 0 27569719.065963745 34144439.656763554 0 34144439.656763554 5039622.5348945856 0 0 0 0 20250341.880966187 52948680.77417469 0 52948680.77417469 48109245.098322392 0 0 0 0 -68622.280700787902 1907303.6090385728 0 1907303.6090385728 271875.65964178252 0 0 0 0 8693002.7312698364 -2840682.182847023 0 -2840682.182847023 -28282316.4488132 0 0 0 0 6422687.9410095215 12975056.336439133 0 12975056.336439133 3768525.7504950166 0 0 0 0 13501663.501897812 15097477.935018599 0 15097477.935018599 -2619665.5871505737 0 0 0 0 -715980.11310195923 23979272.66734457 0 23979272.66734457 42489056.63826704 0 0 0 0 4491398.8483581543 13511227.037564993 0 13511227.037564993 3831138.1787652969 0 0 0 0 135044.10243442655 1932418.2198041333 0 1932418.2198041333 613306.61371598369 0 0 0 0 18230454.986709595 29817398.337962866 0 29817398.337962866 -15054454.070959687 0 0 0 0 -46022168.768772125 -98520565.915011406 0 -98520565.915011406 -274162411.56808281 0 0 0 0 63364695.330841064 -56864299.250206947 0 -56864299.250206947 -621707007.15851784 0 0 0 0 59635.299179747701 528956.14984137937 0 528956.14984137937 160510.99528446345 0 0 0 0 -9064362.541759491 28155545.826699972 0 28155545.826699972 -192847275.21058083 0 0 0 0 103463078.17986298 -6850179.2048418522 0 -6850179.2048418522 -483511704.69348907 0 0 0 0 65776442.438533783 83582582.296295643 0 83582582.296295643 -301982387.6215353 0 0 0 0 10452286.971717834 39870184.635797024 0 39870184.635797024 -138333145.97054863 0 0 0 0 137706343.10975647 227572073.4611907 0 227572073.4611907 -150587803.86836815 0 0 0 0 34653740.395935059 153028252.16718864 0 153028252.16718864 -197291940.71686363 0 0 0 0 127009937.01904297 98375072.719968796 0 98375072.719968796 -209966162.34233928 0 0 0 0 -62694068.663543701 53330907.568951607 0 53330907.568951607 -220661613.87732649 0 0 0 0 55260166.302883148 119087077.44385862 0 119087077.44385862 -332224039.03963852 0 0 0 0 18888066.916748047 103841810.1498661 0 103841810.1498661 -213150195.94261169 0 0 0 0 5844179.8153076172 73253910.129425049 0 73253910.129425049 -230756764.11767769 0 0 0 0 45106536.559020996 131837873.54052043 0 131837873.54052043 -187334851.24897385 0 0 0 0 12170194.655162334 2697044.5151229687 0 2697044.5151229687 -2047137.641468206 0 0 0 0 4462934.3250572309 6975068.6108133793 0 6975068.6108133793 2551114.9048470221 0 0 0 0 -64664879.892242432 1511141.4148082733 0 1511141.4148082733 -53623262.401765347 0 0 0 0 69903650.370773315 -32719644.613720953 0 -32719644.613720953 -55820097.124762297 0 0 0 0 -15087211.433959961 -99024067.370105743 0 -99024067.370105743 -90219080.575702667 0 0 0 0 -411869.53247070312 39334619.715228081 0 39334619.715228081 -205321139.1085701 0 0 0 0 -6851619.6050415039 40160957.567595482 0 40160957.567595482 -173948032.24120712 0 0 0 0 80556098.362091064 -50503995.320739746 0 -50503995.320739746 -371703134.64323425 0 0 0 0 19025014.463569641 -195022.9077205658 0 -195022.9077205658 -193483878.64853668 0 0 0 0 -3187767.6227722168 96302573.729776382 0 96302573.729776382 -414004837.3431015 0 0 0 0 63494029.798080444 -138019110.00601387 0 -138019110.00601387 -206537538.62207794 0 0 0 0 794252.61330150068 679819.44538409635 0 679819.44538409635 -491961.60440620221 0 0 0 0 94709759.11579895 -74993300.753156185 0 -74993300.753156185 -6699874.3069976866 0 0 0 0 -2420501.6070098877 9889738.7769303322 0 9889738.7769303322 7123335.8967661858 0 0 0 0 1551989.3503417969 14015811.471055508 0 14015811.471055508 10818590.148890615 0 0 0 0 29448463.491439819 24281767.339967728 0 24281767.339967728 -351259942.51261377 0 0 0 0 460118.7170842737 5007750.6911100959 0 5007750.6911100959 1116531.6319750941 0 0 0 0 9363386.6641387939 8081243.3617925644 0 8081243.3617925644 -483770.44535851479 0 0 0 0 4991771.53673172 10054821.833473444 0 10054821.833473444 49581.145009040833 0 0 0 0 320004333.1129303 -87445847.607846379 0 -87445847.607846379 -100098512.17897469 0 0 0 0 -10480153.539669037 48427927.769470476 0 48427927.769470476 107336194.22193253 0 0 0 0 318475583.8518182 -154961453.06881946 0 -154961453.06881946 105619399.73745 0 0 0 0 684695788.90765381 -216831432.40240079 0 -216831432.40240079 23309097.637888029 0 0 0 0 16595038.227233887 -93501329.651748389 0 -93501329.651748389 152912030.75427634 0 0 0 0 68474462.024772644 29141332.704475701 0 29141332.704475701 61411806.304842591 0 0 0 0 481320398.53044319 123054434.33625644 0 123054434.33625644 -77499312.203322172 0 0 0 0 88267018.814880371 -46766435.390669107 0 -46766435.390669107 1116362.488503933 0 0 0 0 404141064.18481064 -35042934.033723056 0 -35042934.033723056 -161850300.59955812 0 0 0 0 60603001.944732666 -48834159.914723873 0 -48834159.914723873 -38146032.849501133 0 0 0 0 10325091.721511841 8706636.0358188152 0 8706636.0358188152 -7108017.0713341236 0 0 0 0 3435015.6618109923 7009835.3354566433 0 7009835.3354566433 3198305.199093733 0 0 0 0 44303683.350387573 16842480.516132832 0 16842480.516132832 -191226364.27838564 0 0 0 0 917619.89321576059 1040838.1832089815 0 1040838.1832089815 -518576.11904665205 0 0 0 0 -48444352.14553833 6559992.9374771118 0 6559992.9374771118 -8075514.008105278 0 0 0 0 1510780519.2476082 30683735.31451425 0 30683735.31451425 -403889712.57099056 0 0 0 0 1633089223.3999863 44491654.63561511 0 44491654.63561511 -402740264.34472573 0 0 0 0 726231796.51840973 -76193075.366556704 0 -76193075.366556704 -147480109.59403962 0 0 0 0 959931373.60014343 -32035875.03954798 0 -32035875.03954798 -164398425.10986933 0 0 0 0 1209109481.1633453 -290616322.12337625 0 -290616322.12337625 -188708517.36236662 0 0 0 0 1453445843.8186188 -215895494.66692767 0 -215895494.66692767 -195041998.94033194 0 0 0 0 1397103738.366333 -569425773.11074317 0 -569425773.11074317 120743875.97266065 0 0 0 0 796726370.32640266 -526947325.04493392 0 -526947325.04493392 126196687.86636126 0 0 0 0 1626623783.4288864 -408580799.59410119 0 -408580799.59410119 -26518002.135530889 0 0 0 0 2204590079.7587204 -317408835.36554652 0 -317408835.36554652 -203496753.82135132 0 0 0 0 1976780126.3158722 -52978050.465694577 0 -52978050.465694577 -412132150.066935 0 0 0 0 1800498644.3850231 -350913378.26891237 0 -350913378.26891237 -56685646.280438051 0 0 0 0 -83295059.254341125 23818099.284500539 0 23818099.284500539 29934399.988926291 0 0 0 0 1611670.0303678252 560030.51389759406 0 560030.51389759406 -756382.93608405266 0 0 0 0 662836208.64897156 -440417553.39103925 0 -440417553.39103925 512775975.31704408 0 0 0 0 573914.29323378205 930102.50099172769 0 930102.50099172769 -78086.979272073804 0 0 0 0 1036956378.0345383 -1125416027.2268856 0 -1125416027.2268856 947733129.26350021 0 0 0 0 1760276193.888916 -207959319.15287387 0 -207959319.15287387 72094373.07625863 0 0 0 0 1814224715.8334541 -450170457.69932693 0 -450170457.69932693 323837971.16923213 0 0 0 0 1834295867.0851593 -835555725.21713686 0 -835555725.21713686 138237261.05195415 0 0 0 0 2111501641.9675903 -472842857.45711565 0 -472842857.45711565 -3537821.6412748694 0 0 0 0 -73713711.933288574 57493709.015683174 0 57493709.015683174 -110619709.98273945 0 0 0 0 -56394142.96182251 240244660.19189262 0 240244660.19189262 -87584237.276504517 0 0 0 0 1723483739.8579712 -453133494.435516 0 -453133494.435516 160973889.61650214 0 0 0 0 -113904766.84845734 137193440.17754507 0 137193440.17754507 -106828892.53085136 0 0 0 0 3098335.8983051907 4307079.3488979414 0 4307079.3488979414 4105491.3679183964 0 0 0 0 -33570697.129375458 196745244.63048863 0 196745244.63048863 -96028514.711206436 0 0 0 0 -8165191.6169128418 154311536.55990982 0 154311536.55990982 -140782742.15389538 0 0 0 0 60345830.354217529 203552860.51655388 0 203552860.51655388 -134535886.0359354 0 0 0 0 -59003065.434158325 113549619.4012742 0 113549619.4012742 -159835245.03942871 0 0 0 0 -240372.22283935547 85156969.686321259 0 85156969.686321259 -169324690.26001072 0 0 0 0 -11054114.234802246 227653772.52592564 0 227653772.52592564 -69050949.525419235 0 0 0 0 46584548.550292969 263516313.7935524 0 263516313.7935524 -73375186.531018972 0 0 0 0 2203875896.8138924 -560784394.28151 0 -560784394.28151 52480896.589717887 0 0 0 0 1946723218.2060299 -739697346.16479838 0 -739697346.16479838 220518029.63531911 0 0 0 0 2332950.1183687821 2703939.2018888388 0 2703939.2018888388 3079791.8819485484 0 0 0 0 2015492347.4383698 -723181093.80983186 0 -723181093.80983186 218366715.81702423 0 0 0 0 3419917542.0519867 316903312.94626331 0 316903312.94626331 630510506.35185099 0 0 0 0 2207819608.5168381 -880052811.92516661 0 -880052811.92516661 322538320.81948024 0 0 0 0 840986.42361682095 830146.09070878848 0 830146.09070878848 1350297.9347408728 0 0 0 0 184891207.65154266 25893134.899379551 0 25893134.899379551 -74990230.769670621 0 0 0 0 565190.76558287069 -366314.00396484137 0 -366314.00396484137 -391527.15479778871 0 0 0 0 -364650789.58086205 280576015.38658863 0 280576015.38658863 -128398759.06586862 0 0 0 0 225480151.38648987 256272104.26622891 0 256272104.26622891 -125982507.16109324 0 0 0 0 -154587421.7053566 143009542.16997552 0 143009542.16997552 -180567387.08183956 0 0 0 0 170051465.61782074 25485540.376906395 0 25485540.376906395 96414951.015379429 0 0 0 0 99924564.749855042 163471184.52292895 0 163471184.52292895 -89441772.640708804 0 0 0 0 103309807.6654892 34281984.568534851 0 34281984.568534851 -197762316.78900027 0 0 0 0 80763617.926189423 115185043.54897463 0 115185043.54897463 112171620.54667176 0 0 0 0 925243.00074427202 -701578.26918856241 0 -701578.26918856241 -155721.90857783449 0 0 0 0 24856620.066253662 -27739817.619027019 0 -27739817.619027019 223578968.48050392 0 0 0 0 74827284.535778046 100827906.39169103 0 100827906.39169103 91676702.726485729 0 0 0 0 38209302.19140625 2300072.374422729 0 2300072.374422729 55009365.601224184 0 0 0 0 823197.43970428593 -703491.27991675586 0 -703491.27991675586 226437.66267762636 0 0 0 0 44550500.694618225 128885665.42947772 0 128885665.42947772 167621671.51011759 0 0 0 0 526786442.50170135 257226329.65562713 0 257226329.65562713 -3540384.0599262118 0 0 0 0 369785606.55743408 362133320.01080203 0 362133320.01080203 161592678.86745787 0 0 0 0 2204566151.4157867 1671871400.5611534 0 1671871400.5611534 1039011330.7253982 0 0 0 0 2124849606.9284744 879975663.16717947 0 879975663.16717947 -158693599.54261687 0 0 0 0 970105359.64746475 1193103149.027061 0 1193103149.027061 716159756.33528817 0 0 0 0 -663953280.81288147 434666656.54061019 0 434666656.54061019 775016870.01481533 0 0 0 0 120810968.87285709 -13782347.48735889 0 -13782347.48735889 2382367.2827970386 0 0 0 0 2200342407.3295479 -201476822.71204603 0 -201476822.71204603 -330830080.12876296 0 0 0 0 1207748620.0272827 489418976.73540336 0 489418976.73540336 -1316057.0115888417 0 0 0 0 141519168.48873138 384866410.11669159 0 384866410.11669159 334954686.55141854 0 0 0 0 3966173.5534176836 -174354.86368043255 0 -174354.86368043255 -125920.37241932252 0 0 0 0 6546986.635099411 2289131.8966922909 0 2289131.8966922909 202246.48049941659 0 0 0 0 89919981.009563446 -183240266.17806616 0 -183240266.17806616 -5189876.7791175246 0 0 0 0 6387087.0179476077 -885011.09147961345 0 -885011.09147961345 -118226.38380591763 0 0 0 0 -4452795.9568424225 -10437770.807124972 0 -10437770.807124972 11624819.514300764 0 0 0 0 9880260.4360256195 -12446169.413998783 0 -12446169.413998783 -11891846.617125571 0 0 0 0 18525773.245571136 -16277314.235792339 0 -16277314.235792339 -13708562.154458206 0 0 0 0 9960218.9363483526 -2730722.3709431877 0 -2730722.3709431877 2952.9013950327353 0 0 0 0 4184147.2140274011 1558388.5805532215 0 1558388.5805532215 -809477.30334511865 0 0 0 0 -134755429.11418343 -9790885.3500238061 0 -9790885.3500238061 12323352.512420595 0 0 0 0 31889621.210269928 3861895.6333361268 0 3861895.6333361268 -23592844.874304175 0 0 0 0 35141895.20993042 -5452567.0216342807 0 -5452567.0216342807 3416717.6217480302 0 0 0 0 -308623.74818579294 288218.55971823074 0 288218.55971823074 284359.62064655946 0 0 0 0 123721672.1192627 93530103.515724897 0 93530103.515724897 59362559.5290308 0 0 0 0 -6544862.5124740601 128534914.00554958 0 128534914.00554958 35451756.584477991 0 0 0 0 -98983905.748210907 57059482.702391416 0 57059482.702391416 129857518.69963287 0 0 0 0 -35684552.605442047 77774181.786534905 0 77774181.786534905 -45761256.120492131 0 0 0 0 12409439.994171143 -5806005.7219898403 0 -5806005.7219898403 -20864545.904944718 0 0 0 0 3595028.9554817248 -62298.184423715342 0 -62298.184423715342 -581451.43605117907 0 0 0 0 1770192.7409744263 -12723155.724661484 0 -12723155.724661484 19631598.629292309 0 0 0 0 254027.00435143337 24167.427267589606 0 24167.427267589606 -36797.597049504198 0 0 0 0 9983495.6066970825 -21027123.220048882 0 -21027123.220048882 -17553840.696158364 0 0 0 0 25881767.058765411 -12849840.282786578 0 -12849840.282786578 -16610058.217051893 0 0 0 0 5541611.0843315125 -8293427.5867066346 0 -8293427.5867066346 7700389.3733558729 0 0 0 0 11721926.884643555 -14795525.067797676 0 -14795525.067797676 -6361663.9981435984 0 0 0 0 2964248.5913333893 -30712002.00199851 0 -30712002.00199851 14586496.393781863 0 0 0 0 8993316.9845714569 -177230479.85442919 0 -177230479.85442919 185079607.93156064 0 0 0 0 2906760.1095275879 -40302634.78526704 0 -40302634.78526704 -97182658.459267989 0 0 0 0 581978631.36684418 119894913.04832119 0 119894913.04832119 -142947855.12921441 0 0 0 0 3102031.6808886789 375674.29874006053 0 375674.29874006053 -53039.25794529311 0 0 0 0 2202536370.9297199 -861414721.41710329 0 -861414721.41710329 -120684251.32011306 0 0 0 0 639815010.26179028 -45814425.554850891 0 -45814425.554850891 -340103815.46290869 0 0 0 0 1866263.4318939615 -190451.90521289269 0 -190451.90521289269 -198500.88789051832 0 0 0 0 265481955.94879913 372347271.5055061 0 372347271.5055061 858776.98442290723 0 0 0 0 2192028969.1678724 83532793.137602434 0 83532793.137602434 -218140396.68119401 0 0 0 0 396819496.5748291 -401263820.60688257 0 -401263820.60688257 49027202.52297809 0 0 0 0 -15881613.568300247 162329536.17859015 0 162329536.17859015 223636060.27826774 0 0 0 0 5337126.0501773283 1463584.8870513584 0 1463584.8870513584 457804.26333389088 0 0 0 0 427050041.78618622 155153666.40821841 0 155153666.40821841 164049870.2302199 0 0 0 0 2672569.5384841599 1555719.4731006597 0 1555719.4731006597 576032.00680542353 0 0 0 0 881241216.93984604 1265898707.6735311 0 1265898707.6735311 1235978584.923305 0 0 0 0 2201531440.4882622 922955634.2726177 0 922955634.2726177 -53231388.318101324 0 0 0 0 1275851646.9757004 524509511.38053811 0 524509511.38053811 -223169495.80804574 0 0 0 0 1263437420.2706833 308599853.33430177 0 308599853.33430177 -122772889.42584866 0 0 0 0 549691184.97725677 419987956.57149971 0 419987956.57149971 184867291.36654145 0 0 0 0 1338437845.9249935 227122703.32191724 0 227122703.32191724 -225729411.85351384 0 0 0 0 714748576.77438354 187564029.85802597 0 187564029.85802597 -97281036.937121928 0 0 0 0 2205095601.3986168 367923655.61807799 0 367923655.61807799 -489122263.31125712 0 0 0 0 -53533068.354240417 116869919.42933282 0 116869919.42933282 50945449.650588274 0 0 0 0 -104351199.05257416 -21698296.180365801 0 -21698296.180365801 27734433.901382446 0 0 0 0 10655320.971358316 6650296.2077309228 0 6650296.2077309228 1703664.4367491934 0 0 0 0 70339601.166538239 113230212.93550441 0 113230212.93550441 -50199804.794236302 0 0 0 0 -79063347.260131836 -87179389.678303957 0 -87179389.678303957 8714922.2514324188 0 0 0 0 -321028783.59698486 -27750235.476798058 0 -27750235.476798058 -66795085.208784103 0 0 0 0 68500034.65411377 -160675317.7832737 0 -160675317.7832737 -28822288.898443222 0 0 0 0 282005525.09182739 -426051800.71587515 0 -426051800.71587515 -28096648.809869766 0 0 0 0 38345622.971923828 -19291049.926629066 0 -19291049.926629066 -15193093.99024868 0 0 0 0 -30478782.751895905 -1249216.5173659772 0 -1249216.5173659772 18795689.877200603 0 0 0 0 307171966.29052734 -20712243.326604843 0 -20712243.326604843 -51235750.687609792 0 0 0 0 84295320.828418732 123850908.17049533 0 123850908.17049533 56838660.567766428 0 0 0 0 311408600.6546936 6263024.1483839154 0 6263024.1483839154 -11438017.117358088 0 0 0 0 721521397.19947529 101924089.60065874 0 101924089.60065874 -67498145.720984459 0 0 0 0 281382896.70484924 120987609.33453739 0 120987609.33453739 81206987.569322944 0 0 0 0 292455886.3611908 107692511.3582778 0 107692511.3582778 8362084.2929142714 0 0 0 0 126474042.35811234 28539128.461579084 0 28539128.461579084 59127447.154733896 0 0 0 0 56186444.593460083 41299060.236697637 0 41299060.236697637 96332139.806796968 0 0 0 0 454745117.62391663 43105162.191627979 0 43105162.191627979 30522560.899629958 0 0 0 0 285666772.09169769 149738473.00377673 0 149738473.00377673 73068575.167659685 0 0 0 0 -36041635.576393127 10821167.882029653 0 10821167.882029653 148357361.02315426 0 0 0 0 -99719177.088241577 -4704164.1922453344 0 -4704164.1922453344 57879460.960338175 0 0 0 0 11757558.244295582 1610982.4813849982 0 1610982.4813849982 -596737.72602771921 0 0 0 0 64812459.975372314 -43372889.325443104 0 -43372889.325443104 -27039025.606748112 0 0 0 0 -120280693.1608429 43523364.680410206 0 43523364.680410206 2336503.8665316105 0 0 0 0 -514940604.57037354 -246054188.88014507 0 -246054188.88014507 214978397.60924959 0 0 0 0 -1072114063.2728882 124522354.88581991 0 124522354.88581991 207302044.31548977 0 0 0 0 11225287.740689259 5807725.1520967707 0 5807725.1520967707 1675827.1341236145 0 0 0 0 7275060.8412878625 3060970.4629533035 0 3060970.4629533035 -4800.7580916753686 0 0 0 0 45337425.222354889 -52357516.463392615 0 -52357516.463392615 -57303550.009508729 0 0 0 0 4807710.934223175 18384439.945946999 0 18384439.945946999 -20917361.573806532 0 0 0 0 355014969.41217041 237559847.0738228 0 237559847.0738228 72118310.933465838 0 0 0 0 -6106667.9602241516 -2462842.4759855866 0 -2462842.4759855866 48637706.806607187 0 0 0 0 -5132859.1980361938 52434928.108279094 0 52434928.108279094 -87333053.386707485 0 0 0 0 -343535.12415313721 25903177.441771626 0 25903177.441771626 24223623.205400795 0 0 0 0 2219227.4864006042 11907726.056212429 0 11907726.056212429 7214065.286100775 0 0 0 0 -5671564.7295753956 803834.7865793393 0 803834.7865793393 1035037.7859552801 0 0 0 0 9002877.4678283557 1671000.4560383577 0 1671000.4560383577 -300995.67055198568 0 0 0 0 15791501.607205391 1880560.944655179 0 1880560.944655179 -4361787.3408607915 0 0 0 0 8935917.5709915161 -242188.28187009692 0 -242188.28187009692 -2643864.0257420838 0 0 0 0 10465860.371395111 1970595.8254546076 0 1970595.8254546076 552995.64058235288 0 0 0 0 5079356.9727935791 3099418.1455430686 0 3099418.1455430686 -12011368.375565298 0 0 0 0 9931814.1238933802 -931320.75643252302 0 -931320.75643252302 -1568848.5266654964 0 0 0 0 12779730.189159393 3185903.8322821399 0 3185903.8322821399 -6421954.6974864751 0 0 0 0 12450231.381355286 1545070.105697453 0 1545070.105697453 -3171377.3657764196 0 0 0 0 7114019.2862874791 5382558.4958423413 0 5382558.4958423413 782819.1899152894 0 0 0 0 3229307.3531913757 4513981.3712409101 0 4513981.3712409101 -3623857.3753343225 0 0 0 0 -12555305.490600586 -4285067.6780708507 0 -4285067.6780708507 -7395724.9824730456 0 0 0 0 228153084.2518158 52059911.492308065 0 52059911.492308065 -70352744.360317647 0 0 0 0 9588554.4544314891 3664356.0528290924 0 3664356.0528290924 -1211417.1563430475 0 0 0 0 28702338.075073242 29713491.537768841 0 29713491.537768841 37989557.365948439 0 0 0 0 4066028.5791597739 -2399009.8849312179 0 -2399009.8849312179 -1749853.0706053616 0 0 0 0 11736990.018977687 7694003.6549484581 0 7694003.6549484581 -1488387.2166679329 0 0 0 0 -1203145.6712226868 -4731033.8142517805 0 -4731033.8142517805 965197.95595788956 0 0 0 0 28930609.216064453 31432126.492988586 0 31432126.492988586 -4722647.5081847906 0 0 0 0 25693681.762542725 35655617.217158794 0 35655617.217158794 -761254.76647830009 0 0 0 0 32756864.934810638 43236886.474788964 0 43236886.474788964 -10142080.284315586 0 0 0 0 32547276.665054321 37175572.02402389 0 37175572.02402389 -11663925.406503201 0 0 0 0 72505691.246231079 36676007.796952009 0 36676007.796952009 -22897220.984471321 0 0 0 0 84417760.071472168 73520787.640493393 0 73520787.640493393 40952965.620389879 0 0 0 0 34719383.345588684 -10683779.218925476 0 -10683779.218925476 -33789203.103644371 0 0 0 0 64640335.733215332 29491162.076140881 0 29491162.076140881 -13627833.58157444 0 0 0 0 82888633.529388428 48142929.161598682 0 48142929.161598682 -11730725.075726509 0 0 0 0 216954547.76916504 94030407.441177368 0 94030407.441177368 -1956156.1129608154 0 0 0 0 40929319.118263245 -59984072.520620108 0 -59984072.520620108 -52816472.649504662 0 0 0 0 145980793.57330322 5260678.845741272 0 5260678.845741272 -44394832.211671829 0 0 0 0 482925451.14796448 -105441609.2956779 0 -105441609.2956779 -115100333.41875076 0 0 0 0 21613383.300811768 32121774.640174627 0 32121774.640174627 14303974.641209126 0 0 0 0 48991428.614433289 56109959.544795036 0 56109959.544795036 10136853.8888731 0 0 0 0 7592237.470703125 9247345.0826699734 0 9247345.0826699734 -112924420.41444874 0 0 0 0 -7543823.0159606934 62714681.111596584 0 62714681.111596584 -113225125.75060342 0 0 0 0 -3748183.5828361511 17372030.52324307 0 17372030.52324307 -91508990.5821805 0 0 0 0 4402284.2447814941 34630172.824848831 0 34630172.824848831 -46814771.655136108 0 0 0 0 -9008342.5199508667 32671494.190897256 0 32671494.190897256 -46952686.725214958 0 0 0 0 -6791401.6092224121 15633357.607601464 0 15633357.607601464 -30822947.48568964 0 0 0 0 17165537.777587891 27268354.546844006 0 27268354.546844006 -31331637.658514738 0 0 0 0 -9623954.0587158203 32706499.38091445 0 32706499.38091445 -31863973.96942234 0 0 0 0 20764073.104827881 48278800.547960043 0 48278800.547960043 -14402829.143768311 0 0 0 0 22105863.359840393 24442091.885324955 0 24442091.885324955 -56596657.940178871 0 0 0 0 15574069.067756653 18239692.843151927 0 18239692.843151927 -26254100.348931789 0 0 0 0 13266601.907146454 -10559281.158880353 0 -10559281.158880353 -39628321.709223032 0 0 0 0 5002822.1138381958 1510541.7885290533 0 1510541.7885290533 -10395774.581939645 0 0 0 0 8613521.7095947266 -13802439.983189106 0 -13802439.983189106 -41850040.256667197 0 0 0 0 8156144.8702542111 2683248.7851844737 0 2683248.7851844737 -749416.06203625607 0 0 0 0 4967764.7102966309 1220301.8168952167 0 1220301.8168952167 -7784854.7617344558 0 0 0 0 7132170.9075228646 925180.5242739385 0 925180.5242739385 -87727.672520387205 0 0 0 0 6417267.7768363953 -16359653.504362762 0 -16359653.504362762 -11604512.358675718 0 0 0 0 5095508.7879562378 2705856.2668017149 0 2705856.2668017149 -5573208.7788874358 0 0 0 0 1536351.9959092326 -1011106.8922073822 0 -1011106.8922073822 -1192680.7988493226 0 0 0 0 -12396905.360107422 43217645.908162951 0 43217645.908162951 -78305539.757051468 0 0 0 0 -11805117.204029083 34967946.954601765 0 34967946.954601765 -122506939.65320587 0 0 0 0 141209.16862720251 294536.77803680161 0 294536.77803680161 -87198.113560358965 0 0 0 0 6437322.2147607803 1770218.3154591173 0 1770218.3154591173 -7541455.6683787107 0 0 0 0 6525809.3621292114 2961682.9043101519 0 2961682.9043101519 -8204103.0753312707 0 0 0 0 6218966.0919265747 3218657.0129146874 0 3218657.0129146874 -10517031.181203425 0 0 0 0 4562621.9653499573 1777450.7623252664 0 1777450.7623252664 -690088.4066894335 0 0 0 0 4958073.7274017334 3884728.8913496137 0 3884728.8913496137 -14035740.242435694 0 0 0 0 6157619.4673919678 1763611.7351719737 0 1763611.7351719737 -8674857.0460014641 0 0 0 0 6378978.6015167236 384485.8477435112 0 384485.8477435112 -8598744.7609500885 0 0 0 0 6185995.3199920654 497504.56092453003 0 497504.56092453003 -9445350.414334774 0 0 0 0 7099632.3769373968 -4337929.3135115206 0 -4337929.3135115206 -2100242.4382108664 0 0 0 0 4706936.0469970703 813846.86323952675 0 813846.86323952675 -15975453.303616524 0 0 0 0 137694.35793151334 56525.178438896313 0 56525.178438896313 -53408.63496589147 0 0 0 0 6701543.5742096268 -1538031.7683637161 0 -1538031.7683637161 -1466575.5080541272 0 0 0 0 4341074.4958457947 48853.325088977814 0 48853.325088977814 -7391562.8885710239 0 0 0 0 6651089.864840325 -2593793.0476491782 0 -2593793.0476491782 -1944882.4612926394 0 0 0 0 5970885.1282272339 3723273.0574128628 0 3723273.0574128628 -11783220.699933767 0 0 0 0 5950347.3954086304 2400588.0611792728 0 2400588.0611792728 -10348666.804771364 0 0 0 0 8088653.1302200705 -1763093.2922088234 0 -1763093.2922088234 -1619294.0385481289 0 0 0 0 8512918.7923355103 2382965.8210463822 0 2382965.8210463822 -3565705.0958796889 0 0 0 0 8262667.3861840554 1660043.0079233609 0 1660043.0079233609 -1228921.8915045748 0 0 0 0 1726560.1658782959 1225711.2047554981 0 1225711.2047554981 -3597843.4231744111 0 0 0 0 1225334.5272521973 1399254.7679160833 0 1399254.7679160833 -3788284.5228266716 0 0 0 0 6277014.0848141946 3201219.2360763457 0 3201219.2360763457 -1216174.5183429662 0 0 0 0 5574709.9742126465 639246.78262042999 0 639246.78262042999 -5860734.8453216553 0 0 0 0 9237499.9280869961 2579743.2076294199 0 2579743.2076294199 -1162501.2169651592 0 0 0 0 11333461.814804077 2884781.561615169 0 2884781.561615169 -643991.34374833107 0 0 0 0 10912566.194009781 4163233.9197635651 0 4163233.9197635651 1411673.6888811588 0 0 0 0 9329315.648588324 636121.68449501693 0 636121.68449501693 -1089379.4252383425 0 0 0 0 16452956.53212738 573117.44639149308 0 573117.44639149308 -931763.2681479007 0 0 0 0 -1879456.815700531 1622422.2949237525 0 1622422.2949237525 -370687.70502701402 0 0 0 0 8901942.8250006977 1369184.9714875026 0 1369184.9714875026 -405990.91998568876 0 0 0 0 32790236.866321564 -9599222.5428914018 0 -9599222.5428914018 121738.61752614379 0 0 0 0 20356415.415993214 3215199.3876960576 0 3215199.3876960576 -5534202.9770060778 0 0 0 0 -50051524.254371643 -24940066.604695663 0 -24940066.604695663 50377849.306798801 0 0 0 0 12396922.548680663 -2193805.4681295548 0 -2193805.4681295548 -1160916.110915828 0 0 0 0 10798132.925370038 639073.44616750628 0 639073.44616750628 -1055470.9459301233 0 0 0 0 10136935.65029335 3699988.6391842961 0 3699988.6391842961 452483.18325865269 0 0 0 0 12214793.714838028 1870264.1721763909 0 1870264.1721763909 1803147.1910450459 0 0 0 0 20328387.164795399 -23286432.059989892 0 -23286432.059989892 -11530504.556675792 0 0 0 0 35391668.76366806 -15519920.113855742 0 -15519920.113855742 -46507721.385036796 0 0 0 0 21690629.228425026 7454515.3293102011 0 7454515.3293102011 -13577171.098635703 0 0 0 0 9265552.9085593596 3340420.8505841657 0 3340420.8505841657 13251.593833815285 0 0 0 0 21436049.357305527 -47754074.826038748 0 -47754074.826038748 23374611.799825191 0 0 0 0 47975986.700778961 -42954028.073158801 0 -42954028.073158801 -14489557.9588117 0 0 0 0 8995256.7782590389 -20972706.746483915 0 -20972706.746483915 -6948741.4105436802 0 0 0 0 17021569.386631012 5271543.1997327805 0 5271543.1997327805 1944005.245243229 0 0 0 0 -13057502.439730644 122935314.85979269 0 122935314.85979269 123475654.84673822 0 0 0 0 7816453.402880501 3784673.9299254939 0 3784673.9299254939 1541843.3355515536 0 0 0 0 8011071.7131623551 1082786.8027021862 0 1082786.8027021862 -945095.04794819094 0 0 0 0 18728507.054979324 11801440.846173525 0 11801440.846173525 4871913.1307046115 0 0 0 0 17016296.964490891 7373673.1289571524 0 7373673.1289571524 -510417.15955209732 0 0 0 0 17377096.442428589 10584421.8255245 0 10584421.8255245 5442453.6230775043 0 0 0 0 5784807.0152724795 428399.12636849564 0 428399.12636849564 -489845.69023543596 0 0 0 0 16122941.71245575 6083432.2252134085 0 6083432.2252134085 683297.75217686594 0 0 0 0 25804798.968605042 18300431.118371964 0 18300431.118371964 4975458.9569405913 0 0 0 0 13789322.725738525 10190210.123905063 0 10190210.123905063 17037014.124637246 0 0 0 0 19107286.846273422 8741742.2705897093 0 8741742.2705897093 -4373546.2145799398 0 0 0 0 24283946.12062645 8771342.6771618128 0 8771342.6771618128 -8321047.3582268953 0 0 0 0 20595547.602315903 -18338470.535095692 0 -18338470.535095692 -24232987.626145482 0 0 0 0 13074694.432086945 -2034597.8310904503 0 -2034597.8310904503 -3623227.6657659411 0 0 0 0 26891039.616040945 5661956.0764798308 0 5661956.0764798308 -5493683.5918489695 0 0 0 0 64615803.799854279 24995322.631006479 0 24995322.631006479 4374570.3925457001 0 0 0 0 45621516.265148163 -22813047.752328008 0 -22813047.752328008 9636743.9846724272 0 0 0 0 6748358.6679763794 3541725.4916157126 0 3541725.4916157126 44155935.43281287 0 0 0 0 7363169.961807251 -2676616.4230158329 0 -2676616.4230158329 -11294785.062442303 0 0 0 0 26225395.687153816 33150201.151396096 0 33150201.151396096 -17841119.526465416 0 0 0 0 56804490.313014984 -37635234.82909584 0 -37635234.82909584 14655246.89715457 0 0 0 0 76872158.421237946 33935589.120247364 0 33935589.120247364 6630984.208610177 0 0 0 0 778397.7020338662 -451223.63103939313 0 -451223.63103939313 -296657.12520206359 0 0 0 0 19268110.465110779 -3944160.5631567538 0 -3944160.5631567538 -14388549.15396595 0 0 0 0 13692752.901119232 5681614.1694972515 0 5681614.1694972515 7897954.7253456116 0 0 0 0 11432665.118346691 3242366.9641973376 0 3242366.9641973376 -181552.90333080292 0 0 0 0 3510087.1288554594 -2043345.6615781533 0 -2043345.6615781533 -2015573.061105181 0 0 0 0 16236976.807785034 -19108154.035164356 0 -19108154.035164356 295670.18630599976 0 0 0 0 9988662.1193466187 21965864.270457983 0 21965864.270457983 50290362.245064497 0 0 0 0 12652328.33432436 5179457.3926032633 0 5179457.3926032633 9185670.5965247154 0 0 0 0 16147612.858097076 9313874.687772572 0 9313874.687772572 5393863.2555158138 0 0 0 0 13776467.791507721 3774568.3744318485 0 3774568.3744318485 8567324.7212586403 0 0 0 0 7112596.2203196641 650187.15316193737 0 650187.15316193737 -734954.87511354755 0 0 0 0 1560851.2258791365 1228743.4987023696 0 1228743.4987023696 -213355.64506030324 0 0 0 0 6028674.2474235371 598485.27188870218 0 598485.27188870218 150622.28643025199 0 0 0 0 3259956.1483306885 752782.24518046156 0 752782.24518046156 -3580088.09567664 0 0 0 0 3635303.7251586914 1227661.9077235758 0 1227661.9077235758 -3937600.1120346785 0 0 0 0 3180400.1454090439 -635148.64319200628 0 -635148.64319200628 -363221.49386775179 0 0 0 0 2880815.8205031119 29359.121745686978 0 29359.121745686978 1071618.8751265227 0 0 0 0 2531381.6300430298 5580053.3509880453 0 5580053.3509880453 -5474667.9107260704 0 0 0 0 6143488.2310123444 2236735.0228997469 0 2236735.0228997469 -15472398.133740902 0 0 0 0 -5111958.5782928467 -18437319.309036255 0 -18437319.309036255 -10143455.434181213 0 0 0 0 4658460.402053833 -9545093.8653745651 0 -9545093.8653745651 -3078706.7739753723 0 0 0 0 14431781.522445343 2806233.4040046642 0 2806233.4040046642 -616433.97028310644 0 0 0 0 12190114.359451294 -6948269.8449363708 0 -6948269.8449363708 -12081775.300462723 0 0 0 0 -4636262.1376876831 -20149090.931488037 0 -20149090.931488037 -7003515.9003868103 0 0 0 0 657664.43734296598 -542881.58495642385 0 -542881.58495642385 -551088.57784940791 0 0 0 0 2749446.990160089 1739948.8468809975 0 1739948.8468809975 296315.47503902804 0 0 0 0 5049653.7748718262 2077836.7340310812 0 2077836.7340310812 -5265648.6550483257 0 0 0 0 1673910.9459381104 1221883.6329521388 0 1221883.6329521388 -3454751.5404782444 0 0 0 0 16349115.463911535 2963113.6851295922 0 2963113.6851295922 -766049.23934093735 0 0 0 0 6642797.2543716431 2623745.1230469346 0 2623745.1230469346 -8752038.7633516788 0 0 0 0 4454470.3482057117 1938898.0999445324 0 1938898.0999445324 -1120225.400225105 0 0 0 0 4388686.3565444946 2457245.1678639352 0 2457245.1678639352 -11528171.720241338 0 0 0 0 8551314.4626086242 -54802.644217252731 0 -54802.644217252731 -2076486.5729552424 0 0 0 0 7062372.0814743042 1539459.3985658288 0 1539459.3985658288 -7975961.8893740773 0 0 0 0 7826129.4660644531 2598616.1252288818 0 2598616.1252288818 -7635613.2511138916 0 0 0 0 15324639.026732806 7272592.3663466023 0 7272592.3663466023 -2283894.9452883839 0 0 0 0 3752422.5213317871 1418878.7642750144 0 1418878.7642750144 -12129874.486602247 0 0 0 0 4043328.5130386353 3687221.9665679336 0 3687221.9665679336 -6631852.2440218329 0 0 0 0 2220477.9920730591 2689096.4759711027 0 2689096.4759711027 -5743274.6997531652 0 0 0 0 3802203.0081787109 3874658.171701014 0 3874658.171701014 -8296312.1286928654 0 0 0 0 6804757.9561054483 1278671.6068612337 0 1278671.6068612337 -372600.43559358595 0 0 0 0 12690083.756912231 18355973.466983557 0 18355973.466983557 -77962235.985441953 0 0 0 0 4316120.7909698486 912355.76981519163 0 912355.76981519163 -5612742.0648812056 0 0 0 0 -12432713.640907288 33025721.672608852 0 33025721.672608852 -44401527.707489848 0 0 0 0 -2666175.1158752441 33806971.373986244 0 33806971.373986244 -77019025.841218352 0 0 0 0 2725812.3168487549 -7967586.8543344736 0 -7967586.8543344736 -29630401.071099997 0 0 0 0 -8496696.0403137207 62021384.336704373 0 62021384.336704373 -100715575.02888566 0 0 0 0 24869755.565803528 29392641.108338386 0 29392641.108338386 -103898211.94077969 0 0 0 0 -46534663.5883255 67009026.621709228 0 67009026.621709228 -46641008.277412891 0 0 0 0 -15663887.744342804 71612538.223049581 0 71612538.223049581 -51243197.105873108 0 0 0 0 -26398748.080230713 45690088.648389339 0 45690088.648389339 -28004418.475055814 0 0 0 0 -3456560.0699005127 30126585.202128887 0 30126585.202128887 -60478821.54606986 0 0 0 0 -26319626.983165741 45485672.434633583 0 45485672.434633583 -33029653.47061491 0 0 0 0 -3110787.5485839844 32746571.255849123 0 32746571.255849123 -51227808.782111406 0 0 0 0 -7120844.6680603027 22966543.60961318 0 22966543.60961318 -60348626.999675274 0 0 0 0 4788426.6693115234 33001872.531418681 0 33001872.531418681 -81920932.975455761 0 0 0 0 6432716.2999725342 38504628.359291911 0 38504628.359291911 -64090883.957353592 0 0 0 0 -162720129.12688828 83334146.214583725 0 83334146.214583725 7922045.5058531761 0 0 0 0 -66052129.194107056 143572907.75407472 0 143572907.75407472 -152359961.09824836 0 0 0 0 17243487.220710754 829963.4532430768 0 829963.4532430768 -166444127.44370943 0 0 0 0 -121232976.28166962 153158136.24149662 0 153158136.24149662 -130144984.8819786 0 0 0 0 -35493651.369743347 92399959.992645264 0 92399959.992645264 -160236076.46781814 0 0 0 0 -50990881.657653809 168027322.8290967 0 168027322.8290967 -154693613.56854588 0 0 0 0 -19594419.333078384 96968927.829875246 0 96968927.829875246 -248938799.73499256 0 0 0 0 -18650260.948913574 40492667.731212139 0 40492667.731212139 17178381.517681748 0 0 0 0 -16692394.76662302 48438904.574188955 0 48438904.574188955 -73873621.929189101 0 0 0 0 -118482429.20954895 61105352.134185418 0 61105352.134185418 -14002064.671638429 0 0 0 0 3048901.7754610926 971594.29085274972 0 971594.29085274972 -861080.58906925842 0 0 0 0 -116004854.08924341 82754033.894296646 0 82754033.894296646 -30344414.08080852 0 0 0 0 -409634.18719292432 4414491.6239950154 0 4414491.6239950154 506971.15731048275 0 0 0 0 75665414.953552246 -26338944.607100606 0 -26338944.607100606 23509772.160777926 0 0 0 0 -70388.119260240346 7588007.3430906842 0 7588007.3430906842 4494650.4629215514 0 0 0 0 12268691.343445683 4578067.6214330271 0 4578067.6214330271 -1337850.6053650668 0 0 0 0 3973531.9527778625 4229256.363791585 0 4229256.363791585 -7467330.8547210693 0 0 0 0 9203696.6647622585 621188.38616550714 0 621188.38616550714 -648403.9753583048 0 0 0 0 53750604.464046478 3668589.5979580879 0 3668589.5979580879 -32924774.439188957 0 0 0 0 -1262955.038232334 6185235.803369863 0 6185235.803369863 461297.22533267702 0 0 0 0 74118635.992752075 -6492029.8309175968 0 -6492029.8309175968 -74522870.439839125 0 0 0 0 -4234383.3792266846 54503280.835408688 0 54503280.835408688 -26469219.987882227 0 0 0 0 18641669.589990012 3621610.4641215513 0 3621610.4641215513 -101999.35923742282 0 0 0 0 -125553379.8145752 29351078.792244315 0 29351078.792244315 109563456.63171101 0 0 0 0 -45728361.868484497 124752225.99884295 0 124752225.99884295 -115387132.41193247 0 0 0 0 -306551.28806909919 1225042.439926757 0 1225042.439926757 57469.393431797958 0 0 0 0 -53097341.3412323 21277460.138098001 0 21277460.138098001 88212226.91141063 0 0 0 0 54870764.120285034 239593978.28265357 0 239593978.28265357 -325114593.95575076 0 0 0 0 -96906699.735031128 185361517.25902003 0 185361517.25902003 -205041838.41285956 0 0 0 0 -79934551.538611889 106870446.09125341 0 106870446.09125341 -166193351.6286025 0 0 0 0 88082723.990821838 139935990.78368729 0 139935990.78368729 -180713525.2510795 0 0 0 0 20120796.343902588 200624941.32331651 0 200624941.32331651 -413626262.97426707 0 0 0 0 -88634.720707841218 618452.6481539997 0 618452.6481539997 37653.968139515593 0 0 0 0 -81440316.927134395 265005174.68075037 0 265005174.68075037 -218950796.65166491 0 0 0 0 -41309564.323669434 192801557.94229802 0 192801557.94229802 -194634997.10950238 0 0 0 0 -31987141.351959229 132223851.43803048 0 132223851.43803048 -178418772.86242571 0 0 0 0 42268649.653190613 134227052.60639161 0 134227052.60639161 8303814.1127450466 0 0 0 0 -12424391.334014893 172308125.42412788 0 172308125.42412788 -117463889.87793112 0 0 0 0 5845798.1975326538 76244264.874694526 0 76244264.874694526 -81534143.464607596 0 0 0 0 69475166.543369293 34436196.255600408 0 34436196.255600408 4031364.8149363995 0 0 0 0 16016534.725831985 139944876.03742871 0 139944876.03742871 39558034.752479076 0 0 0 0 -65509061.807106018 90054520.2224859 0 90054520.2224859 9193257.7403488159 0 0 0 0 267207290.54562378 82182333.571525097 0 82182333.571525097 219851274.1613839 0 0 0 0 96123579.393539429 97132703.171216488 0 97132703.171216488 119511649.17731148 0 0 0 0 288461124.93469238 29696602.588515222 0 29696602.588515222 -6344206.033823967 0 0 0 0 169826562.78401566 68157218.662185296 0 68157218.662185296 -107551197.95868218 0 0 0 0 213763757.34126282 61613568.895657599 0 61613568.895657599 -113669875.71854228 0 0 0 0 282792110.17623138 -22762728.145044908 0 -22762728.145044908 -50130290.939814329 0 0 0 0 166919751.82896423 107461555.27261753 0 107461555.27261753 671187.46441175463 0 0 0 0 203095093.1696701 19670129.34065938 0 19670129.34065938 -182677498.68349981 0 0 0 0 147804215.28370667 48194516.102722168 0 48194516.102722168 -186867795.39004755 0 0 0 0 54582020.868644714 88474871.851813853 0 88474871.851813853 -99991138.44451651 0 0 0 0 182393636.98085213 91274740.577810645 0 91274740.577810645 -192012960.49984241 0 0 0 0 72963677.031021118 106665623.62494493 0 106665623.62494493 -189068112.40168205 0 0 0 0 34974629.701400757 66276931.742772937 0 66276931.742772937 -191106635.05670023 0 0 0 0 156441035.55631256 59206755.134431124 0 59206755.134431124 -199167856.38511658 0 0 0 0 66058355.156768799 80372543.352474928 0 80372543.352474928 -193827566.12385809 0 0 0 0 69533793.716545105 91811630.324210644 0 91811630.324210644 -205079292.45708477 0 0 0 0 130460383.40914917 39355621.966646433 0 39355621.966646433 -185927463.30370998 0 0 0 0 170112608.948349 45210853.836530685 0 45210853.836530685 -205995493.10704803 0 0 0 0 111971012.4074707 12274005.875955284 0 12274005.875955284 -182697705.68548965 0 0 0 0 64751918.074508667 43619331.914501667 0 43619331.914501667 -106189293.62507129 0 0 0 0 18586962.52090852 -2065534.0793823591 0 -2065534.0793823591 -3372933.7105014585 0 0 0 0 8463474.6453857422 30857542.396539927 0 30857542.396539927 -97719371.285387993 0 0 0 0 16351213.576915827 2334853.6427584109 0 2334853.6427584109 -150162.65710771247 0 0 0 0 -9791679.1210432053 80557103.442523897 0 80557103.442523897 -106148197.23278666 0 0 0 0 8366929.3413314819 -1932472.1357786059 0 -1932472.1357786059 8339633.8141105771 0 0 0 0 3235018.9568424225 4802215.6517505348 0 4802215.6517505348 4109215.6873551607 0 0 0 0 3767248.800868988 4060459.3445440531 0 4060459.3445440531 -4842407.5733976364 0 0 0 0 8736450.384054184 -10376193.021801636 0 -10376193.021801636 -21346285.91624099 0 0 0 0 6288288.1231842041 -13004734.909669161 0 -13004734.909669161 1424962.4539334103 0 0 0 0 17303037.805047136 -245150.99269785709 0 -245150.99269785709 -2214458.2204060745 0 0 0 0 44379328.591027498 -38282359.838018417 0 -38282359.838018417 -90205886.209794521 0 0 0 0 72941095.441921234 86590846.079558611 0 86590846.079558611 22548343.146588326 0 0 0 0 3928399.6279645739 2831454.9475032901 0 2831454.9475032901 -1366621.9743112321 0 0 0 0 20773772.718493856 2921993.3417131901 0 2921993.3417131901 -3957502.6908243713 0 0 0 0 56186417.944348991 -1202004.1851801872 0 -1202004.1851801872 -52977652.30724144 0 0 0 0 10113543.9127388 -296405.11173719913 0 -296405.11173719913 -1962598.1320876032 0 0 0 0 10625773.735019684 -4360419.6006263345 0 -4360419.6006263345 -13568815.754517712 0 0 0 0 255642297.74353456 79772164.163962364 0 79772164.163962364 -251101318.43560618 0 0 0 0 -46009838.951890528 -182749474.73401862 0 -182749474.73401862 -308717883.39285994 0 0 0 0 79071210.832433701 150569601.96046734 0 150569601.96046734 -61569129.935143381 0 0 0 0 74871758.145734191 175652889.34323967 0 175652889.34323967 40150482.423467636 0 0 0 0 49681645.857240438 63763372.687471569 0 63763372.687471569 43623385.71157074 0 0 0 0 58203514.070691109 42622168.174075603 0 42622168.174075603 -72080739.724389434 0 0 0 0 30939909.220413089 -54550024.554906666 0 -54550024.554906666 -157986861.11089802 0 0 0 0 48321861.480589628 20949211.743260622 0 20949211.743260622 -59574867.326334 0 0 0 0 88560680.572575569 46571398.659341812 0 46571398.659341812 -98406949.692620754 0 0 0 0 84272323.183295965 114607828.22757864 0 114607828.22757864 24517096.844349146 0 0 0 0 1246679.4709747112 864735.30643737735 0 864735.30643737735 -561102.04517535912 0 0 0 0 12989565.171084523 -6310042.5107319355 0 -6310042.5107319355 -160664110.85543871 0 0 0 0 169301228.24744654 -81153088.890757799 0 -81153088.890757799 -165522115.03884983 0 0 0 0 574044385.08496428 23841411.902070642 0 23841411.902070642 71254759.876839161 0 0 0 0 -158556.91272878647 43741589.003195226 0 43741589.003195226 72709987.65447855 0 0 0 0 45617259.091129765 -141908536.44433522 0 -141908536.44433522 92087415.616501331 0 0 0 0 9089536.4910645485 -22547668.855605841 0 -22547668.855605841 134893806.43869972 0 0 0 0 53101280.601238906 -38874114.713231221 0 -38874114.713231221 134124842.94734955 0 0 0 0 46597246.075544953 -11017082.799375653 0 -11017082.799375653 500194865.87742352 0 0 0 0 1487794.7820431017 545125.85575163038 0 545125.85575163038 -162517.3495028941 0 0 0 0 21700641.637164593 214291759.6931181 0 214291759.6931181 499443614.62436199 0 0 0 0 -21888670.774076939 -218401701.19905508 0 -218401701.19905508 109448688.22440726 0 0 0 0 74774901.073287964 192878832.49107289 0 192878832.49107289 43698725.498904228 0 0 0 0 81808218.978959084 -59236112.345656753 0 -59236112.345656753 137161034.57503021 0 0 0 0 -229811537.23784888 348057935.15350258 0 348057935.15350258 409273782.09137321 0 0 0 0 -384577066.02310503 -61745731.725338548 0 -61745731.725338548 279388756.69296908 0 0 0 0 88341613.436688304 71304465.20698446 0 71304465.20698446 5639914.9677550793 0 0 0 0 45374826.335552096 36228734.860283732 0 36228734.860283732 277726552.25148243 0 0 0 0 66030072.951859176 -13588945.891878963 0 -13588945.891878963 69916332.04771173 0 0 0 0 42837688.167592973 11517328.077761769 0 11517328.077761769 71137169.936265111 0 0 0 0 102036213.70859081 -1974945.9866366982 0 -1974945.9866366982 22647847.220159531 0 0 0 0 100419841.79369205 -20669841.983920395 0 -20669841.983920395 -28514412.764978886 0 0 0 0 51726651.270076081 -203018555.59840775 0 -203018555.59840775 -185239362.12868142 0 0 0 0 -83094053.624116063 -38060254.254640341 0 -38060254.254640341 -19539313.150795549 0 0 0 0 45994328.780184031 50274222.525095999 0 50274222.525095999 -81976685.531848431 0 0 0 0 281410302.86881685 -257894090.61590511 0 -257894090.61590511 -257361917.45544553 0 0 0 0 1199116.2267489 -497865.1289392761 0 -497865.1289392761 -39505.527642971836 0 0 0 0 37866215.406997979 -50363366.054680049 0 -50363366.054680049 -138348437.26221597 0 0 0 0 42373490.397031307 96640219.662807822 0 96640219.662807822 -45754254.798520207 0 0 0 0 132407843.05289921 17105093.849731565 0 17105093.849731565 -52252532.593122125 0 0 0 0 127832982.63344818 47102769.373642325 0 47102769.373642325 -51079317.912196159 0 0 0 0 101134103.648671 26538704.608083725 0 26538704.608083725 -46631616.309500456 0 0 0 0 52425527.160452902 42022495.206653774 0 42022495.206653774 -25749880.746467113 0 0 0 0 81669562.178903103 57580855.428791761 0 57580855.428791761 -29381821.860827208 0 0 0 0 84362869.171601713 24915779.315030813 0 24915779.315030813 -53508836.973344564 0 0 0 0 124744268.17128927 -7867884.0196496248 0 -7867884.0196496248 -40234926.126293302 0 0 0 0 113949052.58782214 37512025.171187997 0 37512025.171187997 -63526519.042934 0 0 0 0 117946145.06317855 50313401.302774042 0 50313401.302774042 -36261951.658501148 0 0 0 0 87507305.657550558 63424992.923898757 0 63424992.923898757 46609177.632885456 0 0 0 0 134679797.61458457 79790274.22395575 0 79790274.22395575 -19479901.755389214 0 0 0 0 315197736.59231234 -114870019.60872883 0 -114870019.60872883 61872529.104998589 0 0 0 0 286320780.79194385 204520072.41068035 0 204520072.41068035 176221673.84773827 0 0 0 0 182121686.2031731 90141598.371470273 0 90141598.371470273 51978167.445997715 0 0 0 0 11064665.851189598 62486274.248106122 0 62486274.248106122 247817708.2367208 0 0 0 0 6423134.8829604238 26535480.08665514 0 26535480.08665514 82916262.926719189 0 0 0 0 -13005138.337325096 29463516.68457377 0 29463516.68457377 91017557.908051848 0 0 0 0 12249075.450022161 32031769.559947878 0 32031769.559947878 19205955.329025269 0 0 0 0 14897685.709923804 42315392.382173181 0 42315392.382173181 30335164.48812151 0 0 0 0 62484510.64204859 82539201.469119668 0 82539201.469119668 63562940.227589846 0 0 0 0 89239182.956392869 51662704.858402312 0 51662704.858402312 4114888.2429447174 0 0 0 0 84035452.754583478 50011891.735588312 0 50011891.735588312 3826882.533392787 0 0 0 0 77666761.697368726 38898192.366960645 0 38898192.366960645 -12258386.753669262 0 0 0 0 49473193.648168296 57419146.784837246 0 57419146.784837246 18682934.75794661 0 0 0 0 8175743.2657190561 42437949.230552435 0 42437949.230552435 19082028.862766027 0 0 0 0 24367982.315569609 35720182.083686709 0 35720182.083686709 4531771.5504245758 0 0 0 0 20858676.488888979 38825026.096199751 0 38825026.096199751 4380411.2354465052 0 0 0 0 52315355.7038064 26226721.649455786 0 26226721.649455786 -8949620.5095176697 0 0 0 0 10113324.423691154 30525682.888666034 0 30525682.888666034 193345.17919921875 0 0 0 0 17424349.847133338 35868468.891860604 0 35868468.891860604 -5917704.5654526949 0 0 0 0 17213016.424704671 22390201.702426791 0 22390201.702426791 -9136695.0745338202 0 0 0 0 51006354.71382425 12886270.510054171 0 12886270.510054171 -16615530.178170681 0 0 0 0 50249775.401058435 6977515.4986433983 0 6977515.4986433983 -29713176.47106123 0 0 0 0 98166457.734737873 17707795.799106002 0 17707795.799106002 -27887072.612367868 0 0 0 0 57404109.820797116 32935282.000329614 0 32935282.000329614 -12744232.821438044 0 0 0 0 -14246156.893218517 33882836.362646848 0 33882836.362646848 2218242.0112953186 0 0 0 0 -17238371.612666368 24695182.232110262 0 24695182.232110262 4616724.5822477341 0 0 0 0 -13366122.149265051 26496788.232326388 0 26496788.232326388 -379368.37622356415 0 0 0 0 -4623018.150287278 27209228.274402652 0 27209228.274402652 -5319039.5131349564 0 0 0 0 -7336686.4639105797 25809076.49012959 0 25809076.49012959 -1212011.6636177301 0 0 0 0 -4566091.7662119865 32747634.098863244 0 32747634.098863244 -4380551.9908422828 0 0 0 0 -7210930.0745563507 35075918.032670736 0 35075918.032670736 -3117559.7116789818 0 0 0 0 -3020752.0832425356 40060121.731848717 0 40060121.731848717 -5071882.8033288121 0 0 0 0 6108839.7818933725 40125171.443441361 0 40125171.443441361 1648240.2143034935 0 0 0 0 -3056561.7898833752 34343455.851673245 0 34343455.851673245 -926212.69628822803 0 0 0 0 -4332165.3832175732 38090176.016010404 0 38090176.016010404 -567216.72345495224 0 0 0 0 -10582839.45672369 37083624.914134622 0 37083624.914134622 4772265.1570987701 0 0 0 0 -5696387.4326390028 38860710.496577978 0 38860710.496577978 9546356.3995642662 0 0 0 0 -14123195.413800716 30352156.120444059 0 30352156.120444059 3656584.366718322 0 0 0 0 -563600.04866313934 32038347.747773647 0 32038347.747773647 8688552.0452921391 0 0 0 0 -13874206.218584776 22875574.884660959 0 22875574.884660959 13913365.121591449 0 0 0 0 -24252056.084638357 17872111.233659744 0 17872111.233659744 2952714.3271818757 0 0 0 0 -16979194.602434397 35115010.457498252 0 35115010.457498252 -1733917.939303875 0 0 0 0 -32748697.769774675 24928727.809335589 0 24928727.809335589 4757697.0584354401 0 0 0 0 -40840206.388777256 -6492730.8088048697 0 -6492730.8088048697 1135910.178208828 0 0 0 0 -27144418.78059721 26958355.373286843 0 26958355.373286843 -19745896.867763519 0 0 0 0 -31347688.861708641 5773083.0355750322 0 5773083.0355750322 15970571.694659233 0 0 0 0 -25361178.51883626 17092840.285517454 0 17092840.285517454 48865182.292250156 0 0 0 0 -1836313.1137301922 38930206.178112864 0 38930206.178112864 32611192.104713917 0 0 0 0 -19049172.137336195 27700269.00303936 0 27700269.00303936 14479220.745701313 0 0 0 0 -31451816.345190048 4334493.2921187878 0 4334493.2921187878 24723283.505717397 0 0 0 0 -44617458.742246509 -5038948.2323079109 0 -5038948.2323079109 62075776.191283703 0 0 0 0 -37123102.379263937 -11272437.359420061 0 -11272437.359420061 27087711.995946407 0 0 0 0 -14676433.906181186 10152127.425804339 0 10152127.425804339 42396283.957101822 0 0 0 0 -43923491.483400106 -2402302.061548233 0 -2402302.061548233 30325559.579781532 0 0 0 0 -39092673.573300123 -12377139.599223614 0 -12377139.599223614 27537710.568683743 0 0 0 0 -39863086.152706146 -9591296.0998899937 0 -9591296.0998899937 22415244.760739803 0 0 0 0 -41663073.38139677 -22486506.827441603 0 -22486506.827441603 18791356.742393494 0 0 0 0 -41155529.939092264 -19440040.486225247 0 -19440040.486225247 35699415.897974491 0 0 0 0 -22003219.564151645 -29689964.934244752 0 -29689964.934244752 -25997261.511272192 0 0 0 0 -47400541.011253238 -22899933.818349943 0 -22899933.818349943 47964430.558233738 0 0 0 0 -49257940.983093262 -45192754.31091857 0 -45192754.31091857 12143486.304621935 0 0 0 0 -40248704.531699732 -8659774.6267746687 0 -8659774.6267746687 124561414.40228939 0 0 0 0 -28763819.888087571 -21475525.002300978 0 -21475525.002300978 41745212.775587797 0 0 0 0 5692709.7322874367 -60239556.391494274 0 -60239556.391494274 69845673.796313047 0 0 0 0 -37880306.278922886 -44936506.657727957 0 -44936506.657727957 66650260.572576523 0 0 0 0 -32129881.216110289 -80272342.653379202 0 -80272342.653379202 -1995877.5774447918 0 0 0 0 1243729.0312846005 -119516965.7305283 0 -119516965.7305283 -140458130.93105221 0 0 0 0 -34115922.060804889 -51645115.859556913 0 -51645115.859556913 -99388104.548654556 0 0 0 0 44285796.356429592 -110423755.72594786 0 -110423755.72594786 -64230836.26792717 0 0 0 0 16298165.845753912 -884671.6780591188 0 -884671.6780591188 -2279769.1522506699 0 0 0 0 62095094.330204397 -67313936.984577298 0 -67313936.984577298 -186148262.12032366 0 0 0 0 15518162.637835285 -900809.76340908464 0 -900809.76340908464 -2421130.0737928734 0 0 0 0 21294499.221763611 -3010730.7439171076 0 -3010730.7439171076 -22363324.426559925 0 0 0 0 18970757.502258301 6909260.721983552 0 6909260.721983552 -2576502.9263997078 0 0 0 0 14719380.818468083 -594202.27979288111 0 -594202.27979288111 -2539317.0609095865 0 0 0 0 18911680.074977875 4135493.5876536369 0 4135493.5876536369 -7592614.8840277195 0 0 0 0 -33302180.770343464 -71652603.813189909 0 -71652603.813189909 -53785526.958763599 0 0 0 0 -35726289.729960203 -34004502.176461935 0 -34004502.176461935 -49636017.604960918 0 0 0 0 16471432.94389534 5201985.5686889887 0 5201985.5686889887 2385820.9106998444 0 0 0 0 17602650.987354279 5637423.1657719612 0 5637423.1657719612 936948.55050230026 0 0 0 0 14462769.203540802 6217792.8344595432 0 6217792.8344595432 2069518.8037285209 0 0 0 0 17014025.108307838 7627033.2881486118 0 7627033.2881486118 2443800.5380039215 0 0 0 0 33852.018578087445 -217128.62920571421 0 -217128.62920571421 87303.335744058597 0 0 0 0 191452804.51693726 55133970.678613693 0 55133970.678613693 -58793216.1575225 0 0 0 0 -3921397.7420873642 -9340763.0585020781 0 -9340763.0585020781 39565768.419304848 0 0 0 0 40234158.459383011 -2446081.9030786008 0 -2446081.9030786008 938776.53627610207 0 0 0 0 7987251.8497766899 448477.84572067962 0 448477.84572067962 -845773.8326070247 0 0 0 0 7813569.4924034709 4965484.6403361447 0 4965484.6403361447 3033046.1950427904 0 0 0 0 20837908.637725592 4257224.2089636326 0 4257224.2089636326 -1998167.2948772907 0 0 0 0 21314606.592382431 7528105.1352310181 0 7528105.1352310181 -3601332.8583115339 0 0 0 0 7920398.1516301678 5243454.3785026921 0 5243454.3785026921 3549687.1045524506 0 0 0 0 8868244.2880312204 11467327.365091443 0 11467327.365091443 7825216.3424943686 0 0 0 0 19487166.139742255 19601624.749544859 0 19601624.749544859 13088258.492389917 0 0 0 0 19689038.919210523 -8553227.2986649349 0 -8553227.2986649349 2347749.7546106577 0 0 0 0 28747813.369642735 13881224.848268807 0 13881224.848268807 814327.29200780392 0 0 0 0 26368970.212981328 16424985.446614876 0 16424985.446614876 1791179.6707011461 0 0 0 0 14984703.345460415 -2327107.1518285871 0 -2327107.1518285871 2045084.8133150041 0 0 0 0 1684763.0928706336 1614581.3633627533 0 1614581.3633627533 -438961.31443445466 0 0 0 0 7984078.4664131403 5268702.0793175995 0 5268702.0793175995 1391456.5584577322 0 0 0 0 7139002.5742277 -752963.08112309582 0 -752963.08112309582 -1825493.5747967947 0 0 0 0 -90425.766577720642 -9604897.4501923323 0 -9604897.4501923323 -8670274.917732954 0 0 0 0 -6188103.2746272087 -1763331.5876889229 0 -1763331.5876889229 -1393166.2464342117 0 0 0 0 -7870495.6386203766 2299559.840511322 0 2299559.840511322 6836512.9372596741 0 0 0 0 -9628676.7841467857 -19408446.943927407 0 -19408446.943927407 -18718170.406150579 0 0 0 0 14282266.658195868 170344.19398625102 0 170344.19398625102 -2933854.9718578071 0 0 0 0 17526714.705640793 4365375.4757068753 0 4365375.4757068753 2039791.7930159569 0 0 0 0 -19741637.45962286 -17403725.291239977 0 -17403725.291239977 -5307990.8667526245 0 0 0 0 -18956770.414528489 -20098694.354823709 0 -20098694.354823709 -2091185.3423776627 0 0 0 0 -12599180.406860948 -9694368.449409008 0 -9694368.449409008 -5396737.3502631187 0 0 0 0 -24769730.571965694 -10617544.348740101 0 -10617544.348740101 2616807.0807652473 0 0 0 0 -24859483.110120535 -11969525.684736729 0 -11969525.684736729 10886615.035737991 0 0 0 0 -32364991.189562082 -21664075.501661301 0 -21664075.501661301 -1106675.0039618015 0 0 0 0 -33472733.011162758 -8597361.958884716 0 -8597361.958884716 9956923.3515728712 0 0 0 0 -37902368.462892294 -7522565.3164509535 0 -7522565.3164509535 15473339.96970129 0 0 0 0 -25873746.891280174 -2060336.036591053 0 -2060336.036591053 9663022.0662183762 0 0 0 0 -16316411.275919914 -4800280.2459926605 0 -4800280.2459926605 6539191.3685932159 0 0 0 0 -21154007.734324455 -4921577.8222517967 0 -4921577.8222517967 6723110.2861223221 0 0 0 0 -20021737.310585499 8763534.5600969195 0 8763534.5600969195 -3380564.3346323967 0 0 0 0 -37140876.346901417 2610782.5565514565 0 2610782.5565514565 9333357.0530630499 0 0 0 0 -40726572.15124917 1407826.2399039268 0 1407826.2399039268 15395281.038784504 0 0 0 0 -36747167.88508606 -1286170.6222212315 0 -1286170.6222212315 16923131.719519734 0 0 0 0 3135535.2729742229 -223327.64948897064 0 -223327.64948897064 -466317.69362306595 0 0 0 0 -12366789.96449852 -2378701.5178442001 0 -2378701.5178442001 -2606875.4573116302 0 0 0 0 -144691.15729546244 -47370.955073971651 0 -47370.955073971651 39227.47728437488 0 0 0 0 -16028834.607628822 -531406.70899963379 0 -531406.70899963379 6524973.5916481018 0 0 0 0 -20088125.438591003 -952117.36419773102 0 -952117.36419773102 6591545.0011835098 0 0 0 0 3444621.9613524103 -1051560.6849585059 0 -1051560.6849585059 -824802.06956076506 0 0 0 0 -13856442.485994816 180059.25014185905 0 180059.25014185905 224079.56741285324 0 0 0 0 1837196.6642871192 -52825.567392296507 0 -52825.567392296507 -727486.06428569485 0 0 0 0 1799292.209967494 -367877.88798010349 0 -367877.88798010349 -463889.73115944862 0 0 0 0 2845036.7571454495 -378835.62469578534 0 -378835.62469578534 -1096752.6784092784 0 0 0 0 3147609.8731819224 -1201083.5965782357 0 -1201083.5965782357 -673722.62299062056 0 0 0 0 -29301905.991892219 25916601.429422617 0 25916601.429422617 -17841099.497625113 0 0 0 0 -10852573.746473312 4127564.5812996626 0 4127564.5812996626 -2617973.5205085576 0 0 0 0 -57699889.799846411 2987829.9726088047 0 2987829.9726088047 15551230.612790912 0 0 0 0 -63668130.667866707 20300704.952959538 0 20300704.952959538 5585806.251778841 0 0 0 0 -13731646.991134405 -2833424.0172874928 0 -2833424.0172874928 -2861430.9866263866 0 0 0 0 -23014006.068953991 16282681.086252451 0 16282681.086252451 5178603.5176188946 0 0 0 0 -41540678.077616215 -9767833.401710391 0 -9767833.401710391 -1310928.0352597237 0 0 0 0 81286.159741855809 198167.78629715333 0 198167.78629715333 -205553.0950822439 0 0 0 0 2086296.1360473633 -791554.07690429688 0 -791554.07690429688 -1257274.0218685865 0 0 0 0 2261907.9340968132 -712074.15846443549 0 -712074.15846443549 -1421793.4430585578 0 0 0 0 1845770.0335853782 -659406.65679591219 0 -659406.65679591219 -603597.38255054737 0 0 0 0 2533808.3987469673 -919129.72054971755 0 -919129.72054971755 -1473143.8355053663 0 0 0 0 2407974.6264868751 -568556.96872446686 0 -568556.96872446686 -379959.80873880768 0 0 0 0 2171744.2830553055 -901471.88711127639 0 -901471.88711127639 -1257154.8450279534 0 0 0 0 4311062.8395455452 -275303.33194989967 0 -275303.33194989967 -647017.72800884838 0 0 0 0 -20633303.032456994 16053017.133159697 0 16053017.133159697 2394690.3769128323 0 0 0 0 -25814.394045880763 376643.94190017506 0 376643.94190017506 -15044.064651356504 0 0 0 0 -11090382.775558949 15705812.692028522 0 15705812.692028522 -1275277.1088654995 0 0 0 0 -8943630.8565654755 14325631.387757301 0 14325631.387757301 -452563.27782249451 0 0 0 0 -19412926.642969459 15605062.554377869 0 15605062.554377869 1088443.8424808979 0 0 0 0 2128090.6997485161 -1333771.3441634923 0 -1333771.3441634923 -3539459.3314218596 0 0 0 0 1919270.8597707748 -783663.87876434624 0 -783663.87876434624 -1989272.9002524614 0 0 0 0 3039168.1369066238 -194080.13197390735 0 -194080.13197390735 -2585779.0649997294 0 0 0 0 3000030.0059947968 -2022501.008980155 0 -2022501.008980155 -2401604.836448282 0 0 0 0 2511980.2913068598 -1182637.2963123983 0 -1182637.2963123983 -118991.67800385038 0 0 0 0 1610345.137556076 -687371.17252431065 0 -687371.17252431065 -1267295.8336091191 0 0 0 0 1454887.9180865288 -1489320.8627573103 0 -1489320.8627573103 -2649142.6178451106 0 0 0 0 1082964.4669867158 -191084.52518758178 0 -191084.52518758178 -685134.34465748072 0 0 0 0 2192436.0824203491 -601291.32359646261 0 -601291.32359646261 -4116386.1687320173 0 0 0 0 991087.50264441967 -568215.81149021722 0 -568215.81149021722 -1159473.8945030998 0 0 0 0 28542307.437551916 27155112.772204578 0 27155112.772204578 13528685.543107696 0 0 0 0 1175546.1634786373 -646580.8151033594 0 -646580.8151033594 -281575.27669816324 0 0 0 0 1788416.2218329285 124145.1701669388 0 124145.1701669388 -445330.41519737267 0 0 0 0 26112475.4696244 15808937.706106141 0 15808937.706106141 834201.8579005003 0 0 0 0 24495778.913972974 16540411.136705987 0 16540411.136705987 11812501.905242592 0 0 0 0 1940360.7401167154 -251877.28864312172 0 -251877.28864312172 -708640.25486254692 0 0 0 0 1584833.7191025806 -3522.140345169988 0 -3522.140345169988 -466655.75219905504 0 0 0 0 19469518.793401554 7846684.5960904807 0 7846684.5960904807 -2259466.1628496051 0 0 0 0 17063160.406121969 -21506.543797403574 0 -21506.543797403574 486961.30255961418 0 0 0 0 36057424.451651752 5720108.9783366621 0 5720108.9783366621 -4952983.382540375 0 0 0 0 9094523.0182484388 -3489592.0785589218 0 -3489592.0785589218 -12958774.320677346 0 0 0 0 81426721.595700741 106129213.58801572 0 106129213.58801572 43769353.113092512 0 0 0 0 3913360.5717337402 -1121633.6755416859 0 -1121633.6755416859 51163.860531952545 0 0 0 0 12188532.223204536 13788140.850615263 0 13788140.850615263 56441.866324812174 0 0 0 0 27475907.049485207 11112124.198760256 0 11112124.198760256 -4162469.967848599 0 0 0 0 27914223.422901094 15544359.829730468 0 15544359.829730468 -12751077.510461161 0 0 0 0 29046083.058899939 22934040.679342955 0 22934040.679342955 14822997.8393116 0 0 0 0 33601894.935440302 26077936.703854442 0 26077936.703854442 6075144.3758621663 0 0 0 0 28578110.371209785 7842349.9511274695 0 7842349.9511274695 -4272365.4780164957 0 0 0 0 44303310.770241737 33165732.272306323 0 33165732.272306323 -6174199.4661958255 0 0 0 0 715867.68254259904 -646760.48249809397 0 -646760.48249809397 -74239.922786146184 0 0 0 0 7223045.2794426382 29074220.355517849 0 29074220.355517849 102199088.5411188 0 0 0 0 13757866.387090802 72703679.584919065 0 72703679.584919065 83459226.586702347 0 0 0 0 -18949036.107424259 33935552.414437905 0 33935552.414437905 -68398517.31938225 0 0 0 0 -232240.08554034331 -55298.676880456478 0 -55298.676880456478 183960.36579069172 0 0 0 0 -8240788.3686518669 -10758826.384446681 0 -10758826.384446681 -15588050.289436538 0 0 0 0 -958680.79582686222 -3981987.7283986928 0 -3981987.7283986928 376689.21349703416 0 0 0 0 -1914125.1005592346 -2865880.7856698632 0 -2865880.7856698632 -3692434.1976590399 0 0 0 0 2788032.4805312422 -109724.62190509716 0 -109724.62190509716 -514738.91723235504 0 0 0 0 107436.66874553752 19093.059283814044 0 19093.059283814044 -82455.292281430899 0 0 0 0 -825102.54323959351 -4680914.4229088798 0 -4680914.4229088798 -2994871.1414979845 0 0 0 0 1552008.1016023755 -11187772.55788523 0 -11187772.55788523 6324898.1894459724 0 0 0 0 -204401.92300539889 -346590.21790245693 0 -346590.21790245693 67688.139154049684 0 0 0 0 33410510.495906085 47282838.386862516 0 47282838.386862516 53175638.201196015 0 0 0 0 -205325740.96739778 -6989284.5088199675 0 -6989284.5088199675 175368095.82201096 0 0 0 0 2973887.6333762174 -217794.12731364067 0 -217794.12731364067 -272918.45872984017 0 0 0 0 466032145.71991152 -507114548.23934412 0 -507114548.23934412 92337449.377137303 0 0 0 0 508122173.45285791 -371356121.57330716 0 -371356121.57330716 -136411148.84028187 0 0 0 0 816994659.59776056 -170215107.29363281 0 -170215107.29363281 -130640255.22026086 0 0 0 0 336879.92313533305 -161948.40979175409 0 -161948.40979175409 -13167.509062939522 0 0 0 0 -145328020.82668296 -52724953.915448606 0 -52724953.915448606 205763333.05699259 0 0 0 0 74098612.386506677 21862635.214549392 0 21862635.214549392 33833940.106073797 0 0 0 0 9672861.5178451054 -27386148.040138312 0 -27386148.040138312 -100796632.30367959 0 0 0 0 -78799766.350780666 113997706.03459871 0 113997706.03459871 -16904389.063464746 0 0 0 0 2203208857.3143129 942439135.52889228 0 942439135.52889228 252595157.09618306 0 0 0 0 1121592999.1608267 689634271.03451896 0 689634271.03451896 225762326.96455795 0 0 0 0 2204576895.6838861 325897594.8130582 0 325897594.8130582 -249758204.10223868 0 0 0 0 3694894.5468374458 -1134697.7810502443 0 -1134697.7810502443 131308.78568832108 0 0 0 0 852040826.38012505 25624248.260271356 0 25624248.260271356 106994790.90383016 0 0 0 0 1122661225.8764458 150846812.59829074 0 150846812.59829074 -3410809.2684797049 0 0 0 0 51611031.918158531 40697594.627030097 0 40697594.627030097 184040508.46244824 0 0 0 0 1223518154.2152841 -12198289.730306901 0 -12198289.730306901 -284760661.83446586 0 0 0 0 2026433960.3239746 -75141058.162188619 0 -75141058.162188619 -352067710.75886989 0 0 0 0 1725726812.6686211 -434467657.02652985 0 -434467657.02652985 -151711322.38969734 0 0 0 0 2205062998.5918159 -287456097.63534975 0 -287456097.63534975 -144823835.36439103 0 0 0 0 1748359158.8572199 -320827936.44574988 0 -320827936.44574988 -50032864.421900406 0 0 0 0 2201721321.836381 -718785941.422979 0 -718785941.422979 -168704170.72434902 0 0 0 0 1092532889.0035172 8150617.3556454927 0 8150617.3556454927 -210104196.50784189 0 0 0 0 1506578947.8976498 -1101239947.6272306 0 -1101239947.6272306 269840789.22775656 0 0 0 0 1506901.8655197266 -624652.1237107804 0 -624652.1237107804 437631.77735114319 0 0 0 0 -4590432.3912096024 4159590.4916448146 0 4159590.4916448146 -1846792.3013018966 0 0 0 0 4542241.9799932772 -791296.29927839478 0 -791296.29927839478 -1830065.9995911717 0 0 0 0 988195.28042316437 -57490302.448196486 0 -57490302.448196486 -141897080.38240057 0 0 0 0 319208.77901291754 -27696.910479832208 0 -27696.910479832208 -182747.7750091838 0 0 0 0 1863437.5555858612 -25591387.102071784 0 -25591387.102071784 -243301697.45314586 0 0 0 0 503077.33951421734 296152.07719406346 0 296152.07719406346 -590224.52079395019 0 0 0 0 770172890.80197525 -792061631.77078044 0 -792061631.77078044 254831718.31601042 0 0 0 0 50319973.629404068 -93974003.013401717 0 -93974003.013401717 -229741779.03427631 0 0 0 0 326105371.42254925 157349998.89218783 0 157349998.89218783 -9045520.7204688638 0 0 0 0 22322426.090198159 160691271.50530106 0 160691271.50530106 13464662.438330155 0 0 0 0 87160637.234764576 51575401.623428404 0 51575401.623428404 -9037219.5690634549 0 0 0 0 4768957.4662057888 -547713.98430328653 0 -547713.98430328653 -163430.69064012443 0 0 0 0 -1694862.5187234879 -3095839.7658795714 0 -3095839.7658795714 -1980253.0975724459 0 0 0 0 -22554987.173871994 -17441040.8813124 0 -17441040.8813124 -9877714.250771746 0 0 0 0 -495269.31801559497 -1302797.9586055852 0 -1302797.9586055852 613252.48437222815 0 0 0 0 25817897.891604424 -51212268.13402237 0 -51212268.13402237 -21790551.512815975 0 0 0 0 -2871649.5353660583 -3386066.4556636363 0 -3386066.4556636363 -1734970.4992333651 0 0 0 0 -2122882.4313411713 -2632408.977263242 0 -2632408.977263242 -2080780.8820801005 0 0 0 0 16831.777006117627 -699371.94845435815 0 -699371.94845435815 254987.71397056658 0 0 0 0 -2468973.6588840485 -4317697.3342230618 0 -4317697.3342230618 -2009614.8163663149 0 0 0 0 53814824.768093109 7821098.7723661959 0 7821098.7723661959 -6210953.8885280062 0 0 0 0 -3118040.6560553312 -4132975.7126491629 0 -4132975.7126491629 -1360981.0006332397 0 0 0 0 -4350354.9612001181 -10285948.631558519 0 -10285948.631558519 -597417.45159161091 0 0 0 0 3581912.1003217697 -110671.70341221988 0 -110671.70341221988 1286980.8035856485 0 0 0 0 4470205.1632286254 426928.92237136886 0 426928.92237136886 -628432.00578458537 0 0 0 0 3786037.761781035 -82620.428806503303 0 -82620.428806503303 746316.62410376046 0 0 0 0 2202543333.8974953 338570.9105130448 0 338570.9105130448 -703483.89394224179 0 0 0 0 13023891.434719086 -31805555.516232491 0 -31805555.516232491 158079546.94442761 0 0 0 0 -99118278.283143997 337329236.2110936 0 337329236.2110936 313536845.67860663 0 0 0 0 2202543869.4134464 338787.93071227474 0 338787.93071227474 -703398.58548062225 0 0 0 0 3067956.2411228409 753396.30467192852 0 753396.30467192852 393075.5074569197 0 0 0 0 109963179.96918106 -640776236.79465532 0 -640776236.79465532 565648077.68498683 0 0 0 0 4009603.3356085289 -672868.29342235858 0 -672868.29342235858 -665148.18645040051 0 0 0 0 5028425.2157196645 14258.786177076399 0 14258.786177076399 74170.261352813512 0 0 0 0 4872814.3408412933 1421650.8931696862 0 1421650.8931696862 317422.56252211332 0 0 0 0 13812856.36220932 12730268.24947834 0 12730268.24947834 26314961.207489967 0 0 0 0 -26985207.774330139 -4560834.3461704254 0 -4560834.3461704254 39895015.097753525 0 0 0 0 -25568262.53528595 -26614858.156179428 0 -26614858.156179428 17212398.549875259 0 0 0 0 -16543245.471366882 -2746941.8692646027 0 -2746941.8692646027 6543307.2162685394 0 0 0 0 12040662.349242795 -5710118.8341702521 0 -5710118.8341702521 4501939.7783782706 0 0 0 0 -32750103.288255692 -25898186.92890954 0 -25898186.92890954 8041385.8281040192 0 0 0 0 -227404.46080207825 -6023110.5444629192 0 -6023110.5444629192 5900868.1462173462 0 0 0 0 564346.61135101318 1980640.6230669022 0 1980640.6230669022 17337491.375511169 0 0 0 0 13082772.461204529 19403671.926388741 0 19403671.926388741 29530708.513825536 0 0 0 0 -12534699.261245728 4696971.5021061897 0 4696971.5021061897 31377792.905180931 0 0 0 0 666366.08014155179 4729458.9715532092 0 4729458.9715532092 635340.27900114702 0 0 0 0 -32657665.240722656 296741938.02229595 0 296741938.02229595 -105884082.08422926 0 0 0 0 -7785046.9989242554 125189870.28770351 0 125189870.28770351 1049258020.3028016 0 0 0 0 1136716427.1564636 461916260.12920761 0 461916260.12920761 11068696.473266602 0 0 0 0 -386798393.53056335 -602447890.99053097 0 -602447890.99053097 602396744.43370247 0 0 0 0 927912298.21219635 -976486707.83428574 0 -976486707.83428574 519917822.44025803 0 0 0 0 -144734407.33101654 -947740097.60700798 0 -947740097.60700798 -81327906.430188552 0 0 0 0 22654.415716834366 1390968.0552072162 0 1390968.0552072162 458171.00493982062 0 0 0 0 299211900.77257538 -407922234.8853693 0 -407922234.8853693 -285943454.10506916 0 0 0 0 -130290.99514296651 -3799381.2434222116 0 -3799381.2434222116 -511478.11005521478 0 0 0 0 578032275.97554588 928711864.97531652 0 928711864.97531652 539495771.48976517 0 0 0 0 3420695.8501830921 390298.21509207226 0 390298.21509207226 392576.96946208645 0 0 0 0 662577606.12361145 -350160432.00833797 0 -350160432.00833797 -320053869.53689957 0 0 0 0 1410329700.4681778 -390273443.94991112 0 -390273443.94991112 76189549.505325317 0 0 0 0 1239097580.3984385 607608059.27311707 0 607608059.27311707 -135887343.96024704 0 0 0 0 476063818.93903351 727175024.49174213 0 727175024.49174213 -31344864.724691391 0 0 0 0 208775309.63698959 -70783549.540207863 0 -70783549.540207863 -353133618.52250338 0 0 0 0 386924182.66196442 234553574.69309044 0 234553574.69309044 85276347.524366379 0 0 0 0 21690943.393229961 69783719.547832608 0 69783719.547832608 79183251.506137848 0 0 0 0 24229407.347202301 463867720.65985966 0 463867720.65985966 139043290.30526733 0 0 0 0 -54041610.656404495 -2125724.7203402519 0 -2125724.7203402519 74170002.658466339 0 0 0 0 -39637861.171463013 10048633.368565559 0 10048633.368565559 64564228.205619097 0 0 0 0 -16282907.771316528 6229565.6354188919 0 6229565.6354188919 41104954.754991531 0 0 0 0 -53851988.595149994 -25159872.247653008 0 -25159872.247653008 38616393.062732697 0 0 0 0 -26419936.891704559 -12898891.791590691 0 -12898891.791590691 6593759.0284347534 0 0 0 0 -5118178.5741767883 -50727249.453598022 0 -50727249.453598022 72292133.177318573 0 0 0 0 -14753484.5418396 -62616729.814583778 0 -62616729.814583778 17076997.851561785 0 0 0 0 16678168.70639801 -42056969.144286156 0 -42056969.144286156 35760002.413372472 0 0 0 0 91916016.274650574 11362534.495148182 0 11362534.495148182 34992005.596632957 0 0 0 0 244297637.41145325 -54327078.698023796 0 -54327078.698023796 17673293.945587635 0 0 0 0 148398062.2634964 -3980953.6543374062 0 -3980953.6543374062 -25425447.54553318 0 0 0 0 4026531.9052715302 -10163553.39190197 0 -10163553.39190197 -79001168.155761719 0 0 0 0 -5870218.681892395 -29071506.176320076 0 -29071506.176320076 -4392663.4684419632 0 0 0 0 -2521988.3923132517 -4974335.8017811235 0 -4974335.8017811235 3958392.306295312 0 0 0 0 -29765265.119354248 -110824865.71745348 0 -110824865.71745348 -62993937.261809766 0 0 0 0 10993480.44374365 -5417034.0780059509 0 -5417034.0780059509 2176209.9131462309 0 0 0 0 -60941712.619147778 -47412494.423598796 0 -47412494.423598796 22197248.761654854 0 0 0 0 -23730861.588371277 -22815100.220522881 0 -22815100.220522881 -71503497.864015579 0 0 0 0 25106640.968044281 -26760847.909124374 0 -26760847.909124374 -34052999.822502136 0 0 0 0 -63252889.047969818 -67000505.416368484 0 -67000505.416368484 -4976717.5901179314 0 0 0 0 74095797.882252693 110881233.32956606 0 110881233.32956606 138910828.8327387 0 0 0 0 131401.14478987316 -1650741.6069097864 0 -1650741.6069097864 818410.57682116306 0 0 0 0 10007975.441808701 47798061.954184115 0 47798061.954184115 -8760765.24502635 0 0 0 0 61515493.257703304 78547670.179203868 0 78547670.179203868 124502471.54313892 0 0 0 0 11066693.107678704 -5867666.3692462239 0 -5867666.3692462239 3638339.4915275294 0 0 0 0 -74889421.542954445 -63781474.937269449 0 -63781474.937269449 -4895593.5080432892 0 0 0 0 -96466546.353626251 -82970493.517626286 0 -82970493.517626286 38588575.557461262 0 0 0 0 -9149200.4981040955 -13773762.142104149 0 -13773762.142104149 -12088229.744021416 0 0 0 0 -25579264.907901764 -51580681.271674395 0 -51580681.271674395 -19592930.481063843 0 0 0 0 13261536.258597374 77993127.973276868 0 77993127.973276868 68544759.708058298 0 0 0 0 97606298.071885824 94889767.049270377 0 94889767.049270377 137183097.67231309 0 0 0 0 88665398.107910156 97345805.511828661 0 97345805.511828661 111002811.65175831 0 0 0 0 101013846.89248943 101785650.58257605 0 101785650.58257605 111009631.42269504 0 0 0 0 251547683.21618462 82643017.045603812 0 82643017.045603812 96054118.368315876 0 0 0 0 124385300.1446476 131887871.26135308 0 131887871.26135308 106247493.69160289 0 0 0 0 98530530.357226372 47819059.778000653 0 47819059.778000653 90775195.315348774 0 0 0 0 121750235.72605228 105980182.98283154 0 105980182.98283154 92532098.405547574 0 0 0 0 58256649.24140501 107601049.20432034 0 107601049.20432034 125829244.52484031 0 0 0 0 121865501.76538134 37488259.095428765 0 37488259.095428765 202394826.61931562 0 0 0 0 33514876.619659424 116213715.40188318 0 116213715.40188318 225293548.77174532 0 0 0 0 260253.47346356185 -345546.31256289943 0 -345546.31256289943 69758.948732587975 0 0 0 0 188375400.96369314 202312196.78200805 0 202312196.78200805 225548518.49318081 0 0 0 0 48452308.701416016 52250870.810613394 0 52250870.810613394 5253555.304194808 0 0 0 0 52265109.472621918 124965552.12288445 0 124965552.12288445 86452642.959241807 0 0 0 0 31380252.646320343 134765521.29947734 0 134765521.29947734 160782711.94740686 0 0 0 0 48118327.203392506 97013660.80742459 0 97013660.80742459 135106000.62023106 0 0 0 0 36278874.644464493 152218710.46704206 0 152218710.46704206 206978337.23044604 0 0 0 0 157584071.77797377 160496416.82410261 0 160496416.82410261 86315530.346989438 0 0 0 0 19368149.479887933 124437125.71529 0 124437125.71529 186824122.15776855 0 0 0 0 42272110.046736717 132429210.18808919 0 132429210.18808919 152209463.19672799 0 0 0 0 -1482771.7060260773 74888099.070784688 0 74888099.070784688 150983480.2862308 0 0 0 0 234635.82853794098 43864579.02958262 0 43864579.02958262 88478367.188183069 0 0 0 0 32762734.012308121 31669035.903003931 0 31669035.903003931 18293576.349235535 0 0 0 0 -159428208.0225296 -262869415.56956863 0 -262869415.56956863 -14634139.875576496 0 0 0 0 -182446699.27890015 -51524978.883590698 0 -51524978.883590698 -72124662.574780464 0 0 0 0 -214388120.10781097 -573972068.61301231 0 -573972068.61301231 503016697.02722526 0 0 0 0 6086383.1914796829 75999743.460166812 0 75999743.460166812 256618386.71314216 0 0 0 0 12752190.445336409 -881655.41584312962 0 -881655.41584312962 313373.96426723967 0 0 0 0 437397235.85910797 -483053238.17974579 0 -483053238.17974579 -278043748.83922386 0 0 0 0 12391938.446053028 -154097416.35816628 0 -154097416.35816628 12027354.862877592 0 0 0 0 189624194.14252639 77689548.672736615 0 77689548.672736615 -99635232.569047213 0 0 0 0 115423307.48042583 158757888.88120854 0 158757888.88120854 106396336.05537617 0 0 0 0 71339728.128825188 58516659.761896014 0 58516659.761896014 -16342041.503929615 0 0 0 0 59238420.939588547 100050739.41446018 0 100050739.41446018 72183509.519186497 0 0 0 0 41928888.37479496 44887478.601493001 0 44887478.601493001 3289858.3907529116 0 0 0 0 1531031258.8234863 518864872.92731857 0 518864872.92731857 320391820.80774879 0 0 0 0 21268959.321627457 1265012.4289648691 0 1265012.4289648691 1772865.2109448188 0 0 0 0 -1194566.0377578735 20321653.919056773 0 20321653.919056773 13271965.466404438 0 0 0 0 -1946356405.5589905 -3250088897.2568111 0 -3250088897.2568111 114782933.67190039 0 0 0 0 13839489.099650916 -4693996.3677620757 0 -4693996.3677620757 5275893.6301703788 0 0 0 0 -4227833.0645179749 -11361786.050843239 0 -11361786.050843239 12337582.971712112 0 0 0 0 39799766.629634857 -72365313.64678812 0 -72365313.64678812 -61397752.071804881 0 0 0 0 30401632.329906464 -2751024.2054708004 0 -2751024.2054708004 -17383068.623970032 0 0 0 0 9491156.4007476456 694289.95829260862 0 694289.95829260862 2002335.843189362 0 0 0 0 54732234.972862244 -41999475.560952187 0 -41999475.560952187 12378114.662662506 0 0 0 0 7297512.6981430054 -45693197.776511073 0 -45693197.776511073 38799392.815198898 0 0 0 0 7603619.7634277344 -16509224.329011917 0 -16509224.329011917 -2933753.096282959 0 0 0 0 1543349.0658348575 1527147.4697560873 0 1527147.4697560873 -1178449.5139322835 0 0 0 0 3017477.8224992752 50501990.471326113 0 50501990.471326113 -62729101.97498703 0 0 0 0 -131450187.37796021 105355889.92502975 0 105355889.92502975 2076860.267829895 0 0 0 0 2608820576.9359283 501055226.62464046 0 501055226.62464046 -1992850804.4309521 0 0 0 0 -468301849.59210968 -318137738.67859674 0 -318137738.67859674 204831804.41709328 0 0 0 0 168748461.19145966 -322763909.50911665 0 -322763909.50911665 175245943.0588913 0 0 0 0 19695466.0730896 -80621689.739322186 0 -80621689.739322186 109980973.16990113 0 0 0 0 -80954654.831695557 29602468.646450043 0 29602468.646450043 68736223.467960358 0 0 0 0 40882047.44984436 -208772716.12575483 0 -208772716.12575483 223116591.12540054 0 0 0 0 -128332657.90865326 -163251311.80389214 0 -163251311.80389214 265158360.78526878 0 0 0 0 104517286.86475372 -142072309.82576358 0 -142072309.82576358 162480553.21900845 0 0 0 0 19212326.495407104 -112071408.68485832 0 -112071408.68485832 152179499.13326144 0 0 0 0 -34205194.795402527 -174841413.81610703 0 -174841413.81610703 209707265.87705517 0 0 0 0 209998384.14915514 2016805.6924522668 0 2016805.6924522668 -17014832.845179558 0 0 0 0 226227047.97472763 -185581018.39107692 0 -185581018.39107692 112948753.49941182 0 0 0 0 -237128463.49577713 -44193807.919193268 0 -44193807.919193268 -426272252.69703007 0 0 0 0 -30008193.417541504 -494018391.74791741 0 -494018391.74791741 -439575825.01882935 0 0 0 0 7737883.1338047236 -5539834.0015392937 0 -5539834.0015392937 1772989.234529994 0 0 0 0 182435686.34277344 307532246.01037121 0 307532246.01037121 765018418.76888025 0 0 0 0 146733570.04284668 130025475.65018749 0 130025475.65018749 492535095.88472986 0 0 0 0 265068331.01364136 360497397.15450954 0 360497397.15450954 543310382.8191694 0 0 0 0 179141.21115801483 -1123817.4409866438 0 -1123817.4409866438 -129844.68319017679 0 0 0 0 424558380.53939247 155487230.24292004 0 155487230.24292004 333127190.45375061 0 0 0 0 350694487.24736023 332480720.75644875 0 332480720.75644875 542185284.81731033 0 0 0 0 943714839.00505066 1274364145.7068138 0 1274364145.7068138 1184131974.63766 0 0 0 0 2287173.4976453483 -2098936.2220746735 0 -2098936.2220746735 996049.25890035508 0 0 0 0 488242334.16431427 -50171572.771715641 0 -50171572.771715641 161033820.05882168 0 0 0 0 256957277.34332275 120128915.50319958 0 120128915.50319958 391267176.70044708 0 0 0 0 95094938.593055725 -139118357.3826313 0 -139118357.3826313 201141594.47676003 0 0 0 0 223616075.01913834 -50891803.837786436 0 -50891803.837786436 141925999.76278925 0 0 0 0 345872507.84896851 156971477.34368634 0 156971477.34368634 308104652.3611517 0 0 0 0 53908175.253166199 55381931.923254728 0 55381931.923254728 303165767.98229122 0 0 0 0 206195200.92124939 160970057.0058043 0 160970057.0058043 127371641.05018282 0 0 0 0 10356500.176803589 205699030.8854351 0 205699030.8854351 411295668.08870888 0 0 0 0 221651668.27532959 230105460.73269987 0 230105460.73269987 404138194.82214451 0 0 0 0 -3362866.7643890381 -61365285.140238762 0 -61365285.140238762 80631962.143317699 0 0 0 0 51199313.857326508 205817233.51027122 0 205817233.51027122 -281031206.08756065 0 0 0 0 -86775930.831748962 9365741.0331577063 0 9365741.0331577063 131580416.40693064 0 0 0 0 -81724213.724594116 86417077.355848551 0 86417077.355848551 -102111791.52890947 0 0 0 0 9915619.4032478333 100953364.53581876 0 100953364.53581876 -279073114.81831288 0 0 0 0 1264022.2058245204 2512481.0585667267 0 2512481.0585667267 1106801.9716867204 0 0 0 0 -31026124.464057922 114144438.45092493 0 114144438.45092493 370687853.73190409 0 0 0 0 17782234.918704987 -274263242.99544597 0 -274263242.99544597 295796976.93637705 0 0 0 0 -9383998.7110385895 -121217165.17572522 0 -121217165.17572522 150731004.82908344 0 0 0 0 45502412.671409607 142231860.90994698 0 142231860.90994698 -334413055.87334031 0 0 0 0 19722116.305614471 128378594.55269957 0 128378594.55269957 -219279949.006356 0 0 0 0 1338318.2091363482 2298311.3247882603 0 2298311.3247882603 966428.91421949072 0 0 0 0 334678949.28826714 -258410976.80529353 0 -258410976.80529353 -119966484.47408211 0 0 0 0 322458488.94168091 -40271804.285561502 0 -40271804.285561502 -106799236.69574165 0 0 0 0 357551967.60449219 -26194107.371498823 0 -26194107.371498823 -328100685.70335925 0 0 0 0 163648758.77402496 -11108291.252566218 0 -11108291.252566218 -29749213.927928925 0 0 0 0 33180473.468515396 -1650355.3423498571 0 -1650355.3423498571 -270896912.92772388 0 0 0 0 32318340.965669632 -19499199.678228021 0 -19499199.678228021 -52761939.514104605 0 0 0 0 142840382.80012512 56338541.71819365 0 56338541.71819365 -92835974.953130782 0 0 0 0 -20689627.329025269 26663198.800875783 0 26663198.800875783 41352915.17242527 0 0 0 0 8354081.8132629395 77442934.596629679 0 77442934.596629679 41447092.728737831 0 0 0 0 -62349196.69354248 49970784.200168729 0 49970784.200168729 138606718.85570407 0 0 0 0 23459045.72577095 16610802.27183342 0 16610802.27183342 269468488.33572817 0 0 0 0 144273728.95256805 -133050531.20655406 0 -133050531.20655406 462828041.78338838 0 0 0 0 134827839.47377014 -60359932.691009879 0 -60359932.691009879 6135410.3777016401 0 0 0 0 116467853.0253067 216257547.52339661 0 216257547.52339661 454958048.46839607 0 0 0 0 1324857.8731460664 66052.261738767847 0 66052.261738767847 776404.1590974147 0 0 0 0 105716398.64324951 155994254.80532765 0 155994254.80532765 196882227.70246166 0 0 0 0 35237539.805870056 74864295.008310795 0 74864295.008310795 164556238.81953365 0 0 0 0 17608927.73400116 98470116.57715261 0 98470116.57715261 159846355.36624587 0 0 0 0 19491637.532751083 86948639.318497851 0 86948639.318497851 201903791.16526055 0 0 0 0 10405556.380220652 2159196.6532677147 0 2159196.6532677147 161811.81558607612 0 0 0 0 13883500.562225342 50431584.296741292 0 50431584.296741292 206985566.96948445 0 0 0 0 -534095543.86928558 89256847.879809856 0 89256847.879809856 56175219.164019585 0 0 0 0 3402974.6743736267 7412331.7844948769 0 7412331.7844948769 6650165.4888625145 0 0 0 0 -2782252.2301044464 2547600.8022036552 0 2547600.8022036552 18126773.737195969 0 0 0 0 9274105.1971359253 24647594.477385998 0 24647594.477385998 56668377.32410717 0 0 0 0 6853711.4305693842 4025568.8221607087 0 4025568.8221607087 2809058.9379920643 0 0 0 0 3540264.8574530948 499028.17202729173 0 499028.17202729173 2901978.8943633833 0 0 0 0 7027298.0105605982 17819.655734314583 0 17819.655734314583 -364305.86506553099 0 0 0 0 474688102.51753616 -121803782.68944585 0 -121803782.68944585 -377754921.83288121 0 0 0 0 110557425.38140106 -235904808.79971516 0 -235904808.79971516 -228808053.4889901 0 0 0 0 315883406.49482346 -282653713.92924547 0 -282653713.92924547 -226768303.91409397 0 0 0 0 -140171016.88712311 -21119746.906896591 0 -21119746.906896591 -167367223.4307189 0 0 0 0 4580201.8482322693 314411468.40482211 0 314411468.40482211 -157630971.23407269 0 0 0 0 -23847721.627029419 69679010.333969712 0 69679010.333969712 197167110.29228485 0 0 0 0 7956093.5910511017 25607828.945418626 0 25607828.945418626 227077744.1786325 0 0 0 0 -68086247.174121857 -4699276.8122253418 0 -4699276.8122253418 447421301.32481849 0 0 0 0 50841879.676628113 11853049.704425931 0 11853049.704425931 286680187.91457069 0 0 0 0 -84978918.568824768 80797535.794738263 0 80797535.794738263 310721612.47308874 0 0 0 0 -35873001.467266083 27303488.414980367 0 27303488.414980367 61618724.171536446 0 0 0 0 13703576.634887695 131838721.91553998 0 131838721.91553998 -89493271.547699928 0 0 0 0 20586574.776938915 32370423.985940143 0 32370423.985940143 -140141997.39801455 0 0 0 0 -46254793.464019775 122660454.99389303 0 122660454.99389303 182600461.85784805 0 0 0 0 -53735671.320431709 119093171.29914135 0 119093171.29914135 118196794.05756044 0 0 0 0 -91475290.458259583 50493089.403452158 0 50493089.403452158 241258078.67367953 0 0 0 0 -94088903.387054443 -2948890.9115866423 0 -2948890.9115866423 -33029178.459350586 0 0 0 0 -51468277.8802948 100577304.37186581 0 100577304.37186581 3390783.4801845551 0 0 0 0 -114837064.00112915 -17153457.321503997 0 -17153457.321503997 -79830409.899345756 0 0 0 0 -33124283.118942261 71401232.131085217 0 71401232.131085217 -70728752.000424385 0 0 0 0 -24472151.900527954 52184320.586674809 0 52184320.586674809 -140635799.78792691 0 0 0 0 -173361338.62535095 -131168477.07936364 0 -131168477.07936364 -247270881.41094637 0 0 0 0 -100389813.27565384 7664749.6911425591 0 7664749.6911425591 -164287696.08388948 0 0 0 0 -176444416.26608276 -18508726.470813394 0 -18508726.470813394 -98970182.044706821 0 0 0 0 -90452358.929229736 -67792651.448898792 0 -67792651.448898792 -216163462.23719954 0 0 0 0 942907.39637321234 45955.161778341979 0 45955.161778341979 -461525.17315589939 0 0 0 0 -85649816.537651062 -267598259.16477704 0 -267598259.16477704 -477948558.07851744 0 0 0 0 86924182.098266602 -91250064.269006133 0 -91250064.269006133 -532289251.73631525 0 0 0 0 107351711.76278687 90560822.216568947 0 90560822.216568947 -463825597.32334328 0 0 0 0 41829716.751243591 158691503.64421439 0 158691503.64421439 -237759971.30015087 0 0 0 0 -51507660.104354858 -36050666.282861948 0 -36050666.282861948 -198642657.12701273 0 0 0 0 630633.88676098734 1629646.5092342244 0 1629646.5092342244 -306989.70470577758 0 0 0 0 454785138.85247612 -386863583.62136877 0 -386863583.62136877 -929890904.68339205 0 0 0 0 -21118925.488555908 274702206.4722631 0 274702206.4722631 -565735978.347018 0 0 0 0 42789955.243619919 -68102627.407809198 0 -68102627.407809198 -145306409.27827406 0 0 0 0 -287582947.3804512 81027613.389918685 0 81027613.389918685 -184317937.20552349 0 0 0 0 58452140.096679688 74698734.824454784 0 74698734.824454784 -327899304.11159968 0 0 0 0 -61918367.977149963 156484957.55970359 0 156484957.55970359 -96596197.053058147 0 0 0 0 84285942.872459412 200487871.51718342 0 200487871.51718342 56277886.376127958 0 0 0 0 167062915.49882507 7488396.6455125213 0 7488396.6455125213 -25697975.634416908 0 0 0 0 34332396.418621063 -50888689.516138673 0 -50888689.516138673 171710089.7822808 0 0 0 0 151689300.69892883 71650088.163468361 0 71650088.163468361 18819596.662534475 0 0 0 0 380966849.04752731 -223641846.93877363 0 -223641846.93877363 -156328503.29934287 0 0 0 0 184902551.07568359 -283897728.23730206 0 -283897728.23730206 134840374.86378092 0 0 0 0 141984946.63695526 -73843058.601730108 0 -73843058.601730108 -190400521.33042777 0 0 0 0 89335600.768676758 -182746870.77071476 0 -182746870.77071476 -389315487.79056931 0 0 0 0 86081990.172111511 123556696.50972509 0 123556696.50972509 -417208116.77459431 0 0 0 0 104128590.07791901 -178008195.66298628 0 -178008195.66298628 -12856591.146486998 0 0 0 0 99133086.946022034 -33336622.810464621 0 -33336622.810464621 -206708305.766325 0 0 0 0 128700078.40699577 -104392489.05344307 0 -104392489.05344307 -51275278.728182793 0 0 0 0 67085368.084762573 -133869299.78757668 0 -133869299.78757668 -65364789.235408306 0 0 0 0 241043461.2419548 -180581390.0459969 0 -180581390.0459969 -166854556.23207617 0 0 0 0 -7841804.4065093994 -135038953.13469148 0 -135038953.13469148 38442301.642878532 0 0 0 0 37271726.782300949 -179376833.72994334 0 -179376833.72994334 63388098.138441086 0 0 0 0 -44276741.056495667 -179533383.86655867 0 -179533383.86655867 114305798.69947667 0 0 0 0 -20828432.396270752 -177311791.5953638 0 -177311791.5953638 63857481.306324676 0 0 0 0 190930868.3855896 -257182605.01701993 0 -257182605.01701993 -4053333.9369790703 0 0 0 0 17983502.971021652 -255214823.97130352 0 -255214823.97130352 198784415.68065357 0 0 0 0 -54271338.195415497 240188686.72601599 0 240188686.72601599 717337047.55745745 0 0 0 0 86758983.834852219 -401428131.54211044 0 -401428131.54211044 626946172.00234044 0 0 0 0 -74246423.611038208 -135544343.14175725 0 -135544343.14175725 190202287.34641701 0 0 0 0 -52271845.386852264 -132442916.73696679 0 -132442916.73696679 146183933.67275715 0 0 0 0 -77559498.68636322 -102607849.50539124 0 -102607849.50539124 111376716.44409573 0 0 0 0 -139806399.07841492 77632942.556401908 0 77632942.556401908 65726845.037775278 0 0 0 0 -2818419.9762878418 25750011.678013802 0 25750011.678013802 -66427183.909421444 0 0 0 0 -28072937.474365234 178305644.30646706 0 178305644.30646706 -167065303.337924 0 0 0 0 31158099.887706757 167347778.68565607 0 167347778.68565607 -301275355.92939568 0 0 0 0 12908103.030830383 -21007047.041678548 0 -21007047.041678548 -46286555.048843384 0 0 0 0 8672169.3519744873 384672729.11257553 0 384672729.11257553 -96251710.130469561 0 0 0 0 -177528281.40982056 -157590403.85261679 0 -157590403.85261679 -268737136.74941635 0 0 0 0 690642257.50888062 364388944.64637989 0 364388944.64637989 14650591.877241194 0 0 0 0 587847916.16929626 -449375478.74146974 0 -449375478.74146974 -182697704.36823088 0 0 0 0 -186222124.99388123 80345805.18742466 0 80345805.18742466 -235793064.01926875 0 0 0 0 -23525731.977981567 -431102568.68887639 0 -431102568.68887639 607580238.73327911 0 0 0 0 -163708344.33169556 -392824060.0468483 0 -392824060.0468483 -114056029.17359018 0 0 0 0 101471100.04756165 -263228279.02708244 0 -263228279.02708244 -70088756.478173256 0 0 0 0 -4771394.8987140656 -2445955.5952172726 0 -2445955.5952172726 800786595.22637558 0 0 0 0 2531515.3573032655 -507530.81484909914 0 -507530.81484909914 -261072.48362210239 0 0 0 0 653775969.28884125 180953864.61764818 0 180953864.61764818 245193469.20778117 0 0 0 0 547086140.59329224 -416485166.82530123 0 -416485166.82530123 152968493.65943739 0 0 0 0 141690633.49416351 -56815035.727433324 0 -56815035.727433324 -11986134.329111934 0 0 0 0 477659532.8898325 -190826263.75667351 0 -190826263.75667351 41423277.54023695 0 0 0 0 434587917.08061981 79706198.876322448 0 79706198.876322448 7903708.6736757755 0 0 0 0 136871999.47116089 -260250185.55822062 0 -260250185.55822062 342237761.08091879 0 0 0 0 55501747.319412231 -114751476.4967351 0 -114751476.4967351 126769859.91739178 0 0 0 0 29278518.209190369 -152842498.19261408 0 -152842498.19261408 147105533.11022854 0 0 0 0 159782564.80500793 -129546402.97794527 0 -129546402.97794527 -26181353.938410401 0 0 0 0 -48984682.17640686 -108703737.80909514 0 -108703737.80909514 53594469.388475239 0 0 0 0 -31498269.510185242 -118215838.34552222 0 -118215838.34552222 -4512433.3052076101 0 0 0 0 18246858.27431488 -120966181.29988492 0 -120966181.29988492 55020674.103020072 0 0 0 0 -25004545.095348358 -95043962.531934202 0 -95043962.531934202 120616741.00752687 0 0 0 0 -15466318.009155273 -124478035.36827636 0 -124478035.36827636 211243219.64294451 0 0 0 0 -45766327.871002197 -95740509.953821659 0 -95740509.953821659 140029603.09863114 0 0 0 0 -54513242.114097595 -129713675.95125282 0 -129713675.95125282 144054593.67841172 0 0 0 0 -56913690.833732605 -130251703.15363395 0 -130251703.15363395 108995604.8014828 0 0 0 0 -44680255.930202484 -91324919.094861686 0 -91324919.094861686 83156073.907436371 0 0 0 0 -41765661.139240265 -146954936.80670691 0 -146954936.80670691 92503971.536976576 0 0 0 0 -66526907.558029175 -144256282.37878013 0 -144256282.37878013 92564012.050297126 0 0 0 0 -69347377.896286011 -150153926.15824729 0 -150153926.15824729 81416190.576349735 0 0 0 0 -85786376.108695984 -119641523.20031118 0 -119641523.20031118 87980531.642972529 0 0 0 0 -48544376.542232513 -132808928.78846636 0 -132808928.78846636 92527562.391871452 0 0 0 0 -76544804.930885315 -72607190.513306022 0 -72607190.513306022 6032879.6919679642 0 0 0 0 -47952365.30165863 -119455853.32834303 0 -119455853.32834303 -101252932.74029875 0 0 0 0 -73543.584794998169 34553603.494545758 0 34553603.494545758 -236043688.83537579 0 0 0 0 25793469.305145264 -31077670.907504916 0 -31077670.907504916 -120655365.37507296 0 0 0 0 71277871.187843323 112199571.50589657 0 112199571.50589657 -225991515.06774235 0 0 0 0 140611899.54380798 94491962.453442097 0 94491962.453442097 -307827879.39746666 0 0 0 0 -229048327.12617874 -34140733.473326802 0 -34140733.473326802 -157238701.73520565 0 0 0 0 -26347942.715270996 -159784611.05670667 0 -159784611.05670667 -383905290.30012172 0 0 0 0 182587299.15472412 13052733.157277107 0 13052733.157277107 -414858421.2146008 0 0 0 0 -42379831.102508545 -181216211.42567587 0 -181216211.42567587 -300775910.12477636 0 0 0 0 22220274.784156799 -67569355.18296349 0 -67569355.18296349 -153053849.17056918 0 0 0 0 -108119940.43814087 -76738882.589241266 0 -76738882.589241266 -20247943.272479534 0 0 0 0 85799595.635528564 -66361446.249215782 0 -66361446.249215782 -79969296.663938522 0 0 0 0 -21164067.942596436 -67905680.513147116 0 -67905680.513147116 -79360554.738248169 0 0 0 0 162112881.78067017 -18816872.82054925 0 -18816872.82054925 -213109423.23434854 0 0 0 0 59659931.777885437 -12255854.11298418 0 -12255854.11298418 -372980206.1898036 0 0 0 0 131313692.47823334 -29689334.523070574 0 -29689334.523070574 -248994023.73657322 0 0 0 0 67077628.361127853 -46953962.093892336 0 -46953962.093892336 -213936191.74164462 0 0 0 0 132403962.17919922 8523854.1343433857 0 8523854.1343433857 -217452437.63864613 0 0 0 0 168738115.75443625 -18428472.379318826 0 -18428472.379318826 -205057313.55209494 0 0 0 0 130842521.25335693 16085568.179950953 0 16085568.179950953 -173608198.71065426 0 0 0 0 276663320.96330452 -45402776.396164298 0 -45402776.396164298 -148205465.61318469 0 0 0 0 2715220.1584814675 -4616136.8170961263 0 -4616136.8170961263 -2170536.3191896663 0 0 0 0 22384963.553030968 -48980056.474899292 0 -48980056.474899292 -3795809.1780881882 0 0 0 0 17694705.672602557 1700944.2816099236 0 1700944.2816099236 -3104167.6710836506 0 0 0 0 96816648.538803101 -24732102.142346859 0 -24732102.142346859 -196898419.04010916 0 0 0 0 120561315.11635399 -3415406.0493972301 0 -3415406.0493972301 -184506486.46851921 0 0 0 0 46466197.340759277 -25350115.510902405 0 -25350115.510902405 -158104112.77724457 0 0 0 0 18302126.965755463 -53730788.866797328 0 -53730788.866797328 -153551557.89673328 0 0 0 0 19396522.210533142 -83653604.268813372 0 -83653604.268813372 -151610148.0021739 0 0 0 0 70391460.531082153 -74716976.252181053 0 -74716976.252181053 -247002778.27452502 0 0 0 0 8154672.165599823 -433260.68621551991 0 -433260.68621551991 -11075109.6279217 0 0 0 0 365696.09796905518 -4916984.5797042847 0 -4916984.5797042847 -9782986.1954550743 0 0 0 0 5933938.8720369786 -7897160.7290167324 0 -7897160.7290167324 -3260615.8041993817 0 0 0 0 7178598.5552491359 -1564284.1103170291 0 -1564284.1103170291 -1715544.7687061355 0 0 0 0 5789811.2741440237 617766.8445177672 0 617766.8445177672 -1207171.6045810604 0 0 0 0 9589869.511516571 708396.36441278458 0 708396.36441278458 -352375.24688673019 0 0 0 0 4110921.8128376007 9943582.9689152241 0 9943582.9689152241 7293105.4450912476 0 0 0 0 8902847.9485769402 3245674.1921764798 0 3245674.1921764798 -1052204.084709838 0 0 0 0 3381100.3803482056 966054.44064569473 0 966054.44064569473 -1736562.697245121 0 0 0 0 4527465.9295509867 2521144.9363493938 0 2521144.9363493938 -325073.53315100772 0 0 0 0 2745308.4976036148 1293790.3875184879 0 1293790.3875184879 -1200369.5765356962 0 0 0 0 -113484921.5284729 67969389.30206871 0 67969389.30206871 -29571896.050476074 0 0 0 0 -78400018.36390686 -18074438.829056263 0 -18074438.829056263 21799461.663088799 0 0 0 0 -137529177.60124588 -123590042.20937991 0 -123590042.20937991 -104106779.56883526 0 0 0 0 -110858836.28504944 104407424.16000605 0 104407424.16000605 111731758.13172722 0 0 0 0 10706350.438034058 -63905055.52851963 0 -63905055.52851963 -303345348.18769646 0 0 0 0 1016449.9604336992 299617.3847873304 0 299617.3847873304 -527284.84985587327 0 0 0 0 762028.01577305049 -1431109.6035427444 0 -1431109.6035427444 -173317.89104535081 0 0 0 0 30549809.193973541 -95233699.590069294 0 -95233699.590069294 5494442.5528497696 0 0 0 0 88802714.750579834 29893452.073346138 0 29893452.073346138 3056869.8941459656 0 0 0 0 58413547.726997375 -119824517.38090611 0 -119824517.38090611 12516210.40762043 0 0 0 0 1612996.517252069 1563017.397070379 0 1563017.397070379 -884069.17254257435 0 0 0 0 101204120.06674957 136892001.58617306 0 136892001.58617306 -343890441.52813148 0 0 0 0 451727887.27377319 -209588257.7405262 0 -209588257.7405262 -261790901.81171036 0 0 0 0 113715820.76301575 -53494344.204340935 0 -53494344.204340935 3381896.8352222443 0 0 0 0 15931054.806480408 -32994895.810433388 0 -32994895.810433388 -805671.80338287354 0 0 0 0 8196357.8681283519 2924294.216811684 0 2924294.216811684 -2549391.1703804368 0 0 0 0 46312519.231990814 -10280076.087192535 0 -10280076.087192535 -2540109.3408241272 0 0 0 0 5516550.3826751709 1046058.8750696182 0 1046058.8750696182 -4549166.4012479782 0 0 0 0 8337349.6131057739 3232101.9988408089 0 3232101.9988408089 -2976176.1315174103 0 0 0 0 79424130.03427887 -26733883.157976151 0 -26733883.157976151 -50809926.681367874 0 0 0 0 2629868.4484154359 6779327.9529025154 0 6779327.9529025154 -3964928.3088601506 0 0 0 0 15324119.559722267 -3411638.2205790309 0 -3411638.2205790309 -810671.8490322181 0 0 0 0 6089110.4794006348 -35612101.857257843 0 -35612101.857257843 -43362415.305634499 0 0 0 0 -8862579.7123031616 -13017181.372770309 0 -13017181.372770309 -51399541.789545059 0 0 0 0 -6525381.912902832 -4406701.2409706116 0 -4406701.2409706116 -55125868.958835602 0 0 0 0 -4319931.8691711426 -10507734.627473831 0 -10507734.627473831 -39012764.969100952 0 0 0 0 5582541.9190979004 -31160476.394512177 0 -31160476.394512177 -34740885.282875061 0 0 0 0 606283.31651306152 -1090625.6576766968 0 -1090625.6576766968 -23010828.277959824 0 0 0 0 -33661367.496032715 -3934995.3709907532 0 -3934995.3709907532 -51164985.317420959 0 0 0 0 6228262.1948471069 -762500.19132804871 0 -762500.19132804871 -2994998.8828659058 0 0 0 0 7672525.0574092418 5710864.0035368828 0 5710864.0035368828 -1981677.4565485332 0 0 0 0 11113759.859860402 -3747370.3298522942 0 -3747370.3298522942 -1102558.5160288415 0 0 0 0 2704556.6706085205 2131462.0581932068 0 2131462.0581932068 -2871792.4546470642 0 0 0 0 -70424890.020584106 -9364321.6125335693 0 -9364321.6125335693 -47833970.105300903 0 0 0 0 12494465.7666039 1444871.2378063276 0 1444871.2378063276 -3587595.5572104715 0 0 0 0 -4929614.2079162598 11713090.801019669 0 11713090.801019669 -5262021.1468658447 0 0 0 0 3796809.0637626648 -1296405.3351325989 0 -1296405.3351325989 13991959.671731949 0 0 0 0 7258282.8302345276 1721897.8103466034 0 1721897.8103466034 -621386.08747291565 0 0 0 0 8791072.9957663789 3679367.8422023179 0 3679367.8422023179 569320.71883980185 0 0 0 0 9115588.9619350433 3567339.2789802551 0 3567339.2789802551 -5792308.9384841919 0 0 0 0 10853491.053264473 3594641.1555238562 0 3594641.1555238562 -4368384.4540991317 0 0 0 0 5328066.7628631592 2163196.824924469 0 2163196.824924469 -4853078.584487915 0 0 0 0 6185432.6051912243 3086062.1034291731 0 3086062.1034291731 725100.29809070518 0 0 0 0 11549072.138008118 1173049.6678478718 0 1173049.6678478718 -4511784.3690090179 0 0 0 0 10376305.247016907 2770105.8938672543 0 2770105.8938672543 -3493160.0041656494 0 0 0 0 10761430.868163489 752073.64854896814 0 752073.64854896814 -2054092.0331912376 0 0 0 0 12024267.455215488 5285607.2043328322 0 5285607.2043328322 -2074950.6227242798 0 0 0 0 12838320.490937782 3181656.2860281058 0 3181656.2860281058 -1167069.249120641 0 0 0 0 9749044.2553520203 3508015.6578718573 0 3508015.6578718573 -4953194.3659477234 0 0 0 0 6706852.2367811203 5836214.4775624275 0 5836214.4775624275 -5555193.2497444153 0 0 0 0 8796294.5646820068 1565763.9350047112 0 1565763.9350047112 -4339498.4698972702 0 0 0 0 20850255.84418869 6582815.4672517776 0 6582815.4672517776 -6568660.5740261078 0 0 0 0 15887704.609312057 18562845.991182327 0 18562845.991182327 -16427041.854175568 0 0 0 0 -17145272.927375793 27261675.879833221 0 27261675.879833221 -4199249.1377401352 0 0 0 0 10771375.588785172 38653942.296676636 0 38653942.296676636 -26019464.390929699 0 0 0 0 4950209.4041490555 33633842.355086327 0 33633842.355086327 -28717840.756883621 0 0 0 0 9909264.9550157618 5942438.8857328501 0 5942438.8857328501 -3846707.2062132 0 0 0 0 47278871.885696411 24504545.343881607 0 24504545.343881607 -51701085.139147043 0 0 0 0 22284431.04253006 8604769.3691778183 0 8604769.3691778183 -54304963.200987697 0 0 0 0 31773809.069538116 34453113.522221804 0 34453113.522221804 74701.036113739014 0 0 0 0 9752111.1358261108 -1019145.3906943798 0 -1019145.3906943798 -12423530.918756723 0 0 0 0 20316595.083624333 -968028.71435451927 0 -968028.71435451927 -3257389.0463105133 0 0 0 0 6445524.1272594593 -1821206.4172051903 0 -1821206.4172051903 1108810.4088135748 0 0 0 0 284930109.96237183 270403204.59474659 0 270403204.59474659 237072604.08143044 0 0 0 0 -131371096.69380951 -62960263.266247749 0 -62960263.266247749 7180530.3689483404 0 0 0 0 -32703952.845275879 13616352.71025753 0 13616352.71025753 16090618.587027431 0 0 0 0 360451541.43546677 102249344.28796005 0 102249344.28796005 186270751.82659721 0 0 0 0 241760587.36861801 238078992.64074516 0 238078992.64074516 662116805.18629646 0 0 0 0 99662.37161564827 -1680041.6871604323 0 -1680041.6871604323 -23433148.46512413 0 0 0 0 24005.531311035156 826688.636926651 0 826688.636926651 -6773794.6842021942 0 0 0 0 55680737.223312378 -454734548.14573717 0 -454734548.14573717 -216734519.36951923 0 0 0 0 1751723.1927911229 -3862557.3767181309 0 -3862557.3767181309 -570090.22040069522 0 0 0 0 -7546987.0635299683 22669125.757083416 0 22669125.757083416 -51950202.725838184 0 0 0 0 447178080.90830231 -99972053.457432747 0 -99972053.457432747 -1063528954.5526571 0 0 0 0 -43603125.285224915 41385409.881929874 0 41385409.881929874 -17606091.856178284 0 0 0 0 131482720.54110718 5797844.6873617172 0 5797844.6873617172 -149434366.62112099 0 0 0 0 1897020.3793749772 -2994843.8840825595 0 -2994843.8840825595 -449797.66691262467 0 0 0 0 42801584.952857971 59110348.790353775 0 59110348.790353775 -630897297.69588614 0 0 0 0 -47001515.264795303 33922243.173144341 0 33922243.173144341 -13996082.485452652 0 0 0 0 -29717987.127370179 -3900918.5947991014 0 -3900918.5947991014 7835039.0960903168 0 0 0 0 -28450961.914039612 -74366545.629917145 0 -74366545.629917145 33999151.477981567 0 0 0 0 7920784.5052337646 9114461.4341278076 0 9114461.4341278076 47469875.216608047 0 0 0 0 -2970417.214515686 -60067413.92387104 0 -60067413.92387104 88017229.638307571 0 0 0 0 19482637.451986313 -50533983.679520607 0 -50533983.679520607 43212258.937467575 0 0 0 0 54160015.747653961 -37306142.09472084 0 -37306142.09472084 16631450.822546005 0 0 0 0 270495840.57888031 98281486.892354012 0 98281486.892354012 -3411961.8355066776 0 0 0 0 130545401.37519073 -137081063.59033871 0 -137081063.59033871 146449449.19421005 0 0 0 0 10695280.309188843 -9882174.2746963501 0 -9882174.2746963501 170794575.56642342 0 0 0 0 -196952730.48841095 110221328.16479492 0 110221328.16479492 243956316.65319443 0 0 0 0 66835005.527487755 -139456476.36906874 0 -139456476.36906874 -90310431.015088081 0 0 0 0 10303574.285270536 -3400139.1829936178 0 -3400139.1829936178 1091122.6916070804 0 0 0 0 426797985.93906403 33486507.398076057 0 33486507.398076057 -126526010.37606621 0 0 0 0 104447309.1469841 -161922020.99971914 0 -161922020.99971914 -80125191.047130585 0 0 0 0 155253829.2722702 66977860.258144379 0 66977860.258144379 12600801.675935984 0 0 0 0 1046244.0132661089 173150.96429067478 0 173150.96429067478 -264599.67375017749 0 0 0 0 109802943.84554672 92704364.265659332 0 92704364.265659332 46535351.11989975 0 0 0 0 7081483.8311052322 5317914.773632288 0 5317914.773632288 -4768902.0356292725 0 0 0 0 6536804.2552978434 762251.73675331357 0 762251.73675331357 -2753997.1297579026 0 0 0 0 187247182.44216919 122511509.5229187 0 122511509.5229187 -10089570.172344208 0 0 0 0 -82359.28944317624 4638654.7201670287 0 4638654.7201670287 -721998.04404583341 0 0 0 0 -189369830.49212646 148341048.5882206 0 148341048.5882206 31176087.716121674 0 0 0 0 3202908.857963562 -63142438.521684647 0 -63142438.521684647 -20980403.475090027 0 0 0 0 -29032719.324943542 -60464304.787601471 0 -60464304.787601471 27721245.587406158 0 0 0 0 54890986.068651199 86928223.18394804 0 86928223.18394804 19755109.045089722 0 0 0 0 73666305.235183716 -2364558.4328784943 0 -2364558.4328784943 14173514.91110611 0 0 0 0 12617721.254341125 -21204677.060564995 0 -21204677.060564995 51906348.677371025 0 0 0 0 4821253.7572174072 -27256715.829475403 0 -27256715.829475403 16162410.426765442 0 0 0 0 10677429.455444336 1399780.4181747437 0 1399780.4181747437 5778288.044752121 0 0 0 0 12051073.272415161 -54094340.551728249 0 -54094340.551728249 -14280210.697069168 0 0 0 0 219904913.95257998 150303375.2837342 0 150303375.2837342 63019820.83442688 0 0 0 0 120601866.00361633 88804285.138032913 0 88804285.138032913 8154278.1364212036 0 0 0 0 123623167.55930328 62635233.636110306 0 62635233.636110306 -3323719.192065239 0 0 0 0 200034699.07919788 68193436.443099022 0 68193436.443099022 -13309389.141864777 0 0 0 0 326605696.97312164 73121961.156845093 0 73121961.156845093 -14481757.628134727 0 0 0 0 149018404.21062469 28942353.832604408 0 28942353.832604408 6822073.3154945374 0 0 0 0 240365202.04454041 190421126.50227261 0 190421126.50227261 30257576.276304245 0 0 0 0 202996071.93654633 215974347.64741611 0 215974347.64741611 51839345.640684605 0 0 0 0 118979984.32372284 133401046.14709473 0 133401046.14709473 29382800.056907654 0 0 0 0 115691003.47014618 190539197.25082493 0 190539197.25082493 76388399.075503349 0 0 0 0 176530447.18387985 151273212.94911599 0 151273212.94911599 32600717.908128738 0 0 0 0 165059112.64447117 192932318.11199665 0 192932318.11199665 63870581.20236969 0 0 0 0 216282061.30166626 177581023.45930767 0 177581023.45930767 26237697.349748611 0 0 0 0 140611961.33905411 217324318.47914505 0 217324318.47914505 245765546.89087009 0 0 0 0 137184325.30639648 162196045.43255711 0 162196045.43255711 173658450.29730988 0 0 0 0 185849788.53351593 180486821.54252815 0 180486821.54252815 62778520.689052939 0 0 0 0 179203039.08217621 180901811.91134262 0 180901811.91134262 124322075.47284698 0 0 0 0 253054344.89266789 178264535.43504855 0 178264535.43504855 167911958.65810966 0 0 0 0 295143398.89598846 138420715.23414803 0 138420715.23414803 62670997.999933243 0 0 0 0 228849258.03659058 244623612.42793655 0 244623612.42793655 147033174.29852104 0 0 0 0 161298930.51655579 88396147.28704834 0 88396147.28704834 54792837.241527796 0 0 0 0 216540508.62578201 183735375.99415684 0 183735375.99415684 55362474.825492859 0 0 0 0 115428024.10338593 109957173.5048275 0 109957173.5048275 48752111.278792381 0 0 0 0 121440805.90109062 71872943.508677125 0 71872943.508677125 3335685.3103427887 0 0 0 0 106088680.45149994 159385347.25961971 0 159385347.25961971 54333743.664653778 0 0 0 0 68888445.165117264 -4186337.402150631 0 -4186337.402150631 -51363568.869913101 0 0 0 0 22011112.620353699 62231413.793164253 0 62231413.793164253 28718095.784129143 0 0 0 0 -30560454.314281464 -111064371.39270067 0 -111064371.39270067 -130058022.9859612 0 0 0 0 -68728381.795331955 -40887925.894976616 0 -40887925.894976616 -22742210.848945618 0 0 0 0 16365371.855010986 115602634.39290822 0 115602634.39290822 81006543.823843002 0 0 0 0 34198472.235363007 24124437.768479347 0 24124437.768479347 -25171121.97033596 0 0 0 0 -16031001.83366394 39923826.212007523 0 39923826.212007523 -23956314.460343361 0 0 0 0 -68096746.325986385 94469746.563768357 0 94469746.563768357 2472221.7341871262 0 0 0 0 -872471.63326568343 -556315.66772370972 0 -556315.66772370972 336892.14164926275 0 0 0 0 -146301854.95688248 -162892596.31918859 0 -162892596.31918859 10026269.371655773 0 0 0 0 87679809.356700897 -58415012.92927742 0 -58415012.92927742 10971001.931218386 0 0 0 0 -67804646.161158562 117003789.80860877 0 117003789.80860877 210016238.29264545 0 0 0 0 159229516.17747498 168820788.88613462 0 168820788.88613462 119480100.79620361 0 0 0 0 43218646.572395325 88952515.279963493 0 88952515.279963493 22653550.907232761 0 0 0 0 -140538613.34525299 -47885099.650774002 0 -47885099.650774002 123045463.52793884 0 0 0 0 17815243.695713043 152435031.11367393 0 152435031.11367393 181402410.23369789 0 0 0 0 194710067.68343925 277447627.66276646 0 277447627.66276646 209029173.97493172 0 0 0 0 166561210.60029602 201845958.5839529 0 201845958.5839529 72809191.374884605 0 0 0 0 532953826.17025757 363367554.24056149 0 363367554.24056149 152554286.44776154 0 0 0 0 358688889.05344009 205103269.26627159 0 205103269.26627159 15678416.253791809 0 0 0 0 607457698.43195724 25031297.750010729 0 25031297.750010729 -49640257.193935394 0 0 0 0 426145843.47732544 503064345.80468559 0 503064345.80468559 500870654.41722298 0 0 0 0 727997.09930796549 196026.42839609273 0 196026.42839609273 -80312.945266386494 0 0 0 0 799206098.97270966 159887195.28031063 0 159887195.28031063 141545566.84267235 0 0 0 0 230992227.5749588 207238530.5602355 0 207238530.5602355 466655598.90965939 0 0 0 0 203170203.13911438 114116753.57827187 0 114116753.57827187 174723027.24600351 0 0 0 0 -2475769.2392959595 53481420.542593002 0 53481420.542593002 -11288443.050075531 0 0 0 0 1898405.3617544174 49285003.24723959 0 49285003.24723959 13589115.504501343 0 0 0 0 1733108.0672454834 45595193.186172485 0 45595193.186172485 23784599.676822662 0 0 0 0 5744345.9864654541 19710503.036160469 0 19710503.036160469 -13061088.980636597 0 0 0 0 15294817.213867188 -1263239.275352478 0 -1263239.275352478 4918061.4464263916 0 0 0 0 9052817.9035797119 -5925522.0559511185 0 -5925522.0559511185 -21235519.541305542 0 0 0 0 4646951.8997840881 25010342.063777924 0 25010342.063777924 35698098.07006073 0 0 0 0 13911877.333713531 -5414799.9903349876 0 -5414799.9903349876 63457915.701530457 0 0 0 0 28388858.650924683 15899127.688213348 0 15899127.688213348 32215846.536020279 0 0 0 0 3154375.1770744324 29537069.662713528 0 29537069.662713528 50908005.945869446 0 0 0 0 9271602.7808990479 38598756.689146042 0 38598756.689146042 21997963.697105408 0 0 0 0 8295934.2344970703 40854672.887714386 0 40854672.887714386 16831770.735664368 0 0 0 0 3032674.0726928711 43017645.302181244 0 43017645.302181244 28494105.998790741 0 0 0 0 3944169.153503418 38239178.325546265 0 38239178.325546265 41462949.38621521 0 0 0 0 117149525.62724686 -54771495.158783913 0 -54771495.158783913 45005684.842788696 0 0 0 0 17260013.167709351 17566565.209758759 0 17566565.209758759 68580013.418867111 0 0 0 0 17846999.118438721 15039632.200170517 0 15039632.200170517 59705870.879104614 0 0 0 0 23739638.831136703 -9638383.4802780151 0 -9638383.4802780151 86779923.109676361 0 0 0 0 229206360.83824921 -129528527.453125 0 -129528527.453125 10539265.951997757 0 0 0 0 15661895.304107666 -129841540.39080048 0 -129841540.39080048 19038056.078323364 0 0 0 0 -50039044.244514465 60828168.921760559 0 60828168.921760559 56001595.035552979 0 0 0 0 -14409122.677062988 38800804.851696014 0 38800804.851696014 69219371.853597641 0 0 0 0 -19428198.217063904 74303228.926639557 0 74303228.926639557 32336324.409236908 0 0 0 0 -4812426.5886230469 67797970.797391891 0 67797970.797391891 22981948.222328186 0 0 0 0 -22164462.655426025 64090600.192237854 0 64090600.192237854 42713835.006093979 0 0 0 0 -3938352.0583496094 44924183.029624939 0 44924183.029624939 51371269.912940979 0 0 0 0 -715216.38269042969 57021982.303524256 0 57021982.303524256 19908047.47461319 0 0 0 0 83140737.172745705 70434979.600005388 0 70434979.600005388 103612883.79660225 0 0 0 0 254413474.17494202 107867888.03145266 0 107867888.03145266 -144282491.7101717 0 0 0 0 90731961.571563721 61781893.645828247 0 61781893.645828247 109332383.65627003 0 0 0 0 189488156.69247246 287499659.44146276 0 287499659.44146276 360010060.49497223 0 0 0 0 95539180.334972382 60108663.785157204 0 60108663.785157204 105281952.31191063 0 0 0 0 368715883.05503464 297809136.31721163 0 297809136.31721163 82279483.192249775 0 0 0 0 365296334.69513321 237402159.38802624 0 237402159.38802624 -5193769.2016713619 0 0 0 0 357770470.05451584 266095734.10665083 0 266095734.10665083 169911213.34273911 0 0 0 0 546544489.05163193 298507677.60245991 0 298507677.60245991 72209916.55857563 0 0 0 0 404427837.98908234 106441783.17734051 0 106441783.17734051 149299913.42209828 0 0 0 0 138460793.77283478 204469936.88579535 0 204469936.88579535 184216644.23018837 0 0 0 0 -47915236.00194931 -29976760.793620586 0 -29976760.793620586 257247513.10671473 0 0 0 0 339856824.24976158 -74984812.128312469 0 -74984812.128312469 -26359784.955578804 0 0 0 0 233691888.44027388 424793574.4394719 0 424793574.4394719 502891102.66609001 0 0 0 0 418517665.61949348 146367738.01681811 0 146367738.01681811 -179782377.2225486 0 0 0 0 10751096.529998353 469060.47273033205 0 469060.47273033205 -6903.8556188917246 0 0 0 0 7552320.5198385119 692728.08577495813 0 692728.08577495813 -9224530.9887192249 0 0 0 0 -15081256.30787468 -4730868.5709934235 0 -4730868.5709934235 4675440.0423598289 0 0 0 0 -127659075.82624698 -287443629.82216442 0 -287443629.82216442 -109058542.87307572 0 0 0 0 -108842176.54551697 74724188.995419681 0 74724188.995419681 -62610023.24711132 0 0 0 0 11690452.756890422 716703.549263658 0 716703.549263658 -2779960.7383084423 0 0 0 0 13800628.391881794 -4974213.2555535799 0 -4974213.2555535799 1496084.1302333465 0 0 0 0 -30164904.921681881 -5545954.4110343456 0 -5545954.4110343456 45426745.484349489 0 0 0 0 -30632224.57273531 -34207531.745700598 0 -34207531.745700598 2572868.2457244247 0 0 0 0 33557127.871437043 -29130540.940865159 0 -29130540.940865159 43694323.106264114 0 0 0 0 -219520.07122004731 151093.25889186957 0 151093.25889186957 173804.68626063038 0 0 0 0 10556963.112962723 17322319.869942188 0 17322319.869942188 19709962.116201401 0 0 0 0 51072148.952020273 -23374174.406402349 0 -23374174.406402349 43614998.295722961 0 0 0 0 13654350.516876874 -6377510.9256609594 0 -6377510.9256609594 1880555.2978755767 0 0 0 0 10856234.185122222 -65351966.567620918 0 -65351966.567620918 -21228593.110740185 0 0 0 0 55643781.211333036 -28997114.766497731 0 -28997114.766497731 -33066332.553202629 0 0 0 0 102436659.23301315 -3541813.1745586395 0 -3541813.1745586395 -161557695.14771616 0 0 0 0 -180585221.33848047 -13908155.657391071 0 -13908155.657391071 95809423.98663044 0 0 0 0 -6371098.9345884323 124680181.61017585 0 124680181.61017585 234002404.66619444 0 0 0 0 38968500.317087173 -26659037.654428482 0 -26659037.654428482 124881029.07760525 0 0 0 0 40736325.870012283 36038164.161380768 0 36038164.161380768 91296667.742360592 0 0 0 0 67527605.510070801 36301287.20816946 0 36301287.20816946 -4583501.991985321 0 0 0 0 77410288.136740685 42239810.312090874 0 42239810.312090874 -48669024.673882484 0 0 0 0 52949543.826598167 14668784.255817413 0 14668784.255817413 -51847278.558608055 0 0 0 0 75504027.482682228 28323513.628603458 0 28323513.628603458 -74297503.67682457 0 0 0 0 25809286.612279892 46616873.782520294 0 46616873.782520294 -70188441.416174889 0 0 0 0 45006268.116012573 47718691.673079491 0 47718691.673079491 -67460466.690480709 0 0 0 0 9738724.1728210449 -20875131.682106972 0 -20875131.682106972 -48144196.356140614 0 0 0 0 49682353.369581223 74288647.480195045 0 74288647.480195045 -238963099.86850929 0 0 0 0 43567810.057022095 131675229.04442978 0 131675229.04442978 -78847231.579345703 0 0 0 0 11667124.416114807 -176838819.12273026 0 -176838819.12273026 -65320500.806957245 0 0 0 0 23168193.171901703 28738020.004076004 0 28738020.004076004 77432651.15536499 0 0 0 0 -6975334.834602356 59337043.396233559 0 59337043.396233559 -44987204.704368591 0 0 0 0 -41583136.231836319 94833334.068366051 0 94833334.068366051 -64460239.757665634 0 0 0 0 -38531455.878356934 58449063.676377296 0 58449063.676377296 -28911038.574729919 0 0 0 0 53517512.602062225 42249051.57888031 0 42249051.57888031 -107945301.72306442 0 0 0 0 45620643.122217178 92859655.834747553 0 92859655.834747553 24910535.039836884 0 0 0 0 -1484104.3848953247 75141729.989491463 0 75141729.989491463 29874828.505367279 0 0 0 0 -1670071.1438713074 143536852.59602737 0 143536852.59602737 -62173107.820774555 0 0 0 0 4748642.9528083801 55926795.14958477 0 55926795.14958477 47100968.328943253 0 0 0 0 9887180.2956542969 50672008.363905907 0 50672008.363905907 36666978.026405334 0 0 0 0 100763925.34568214 1721609.8596291542 0 1721609.8596291542 48925777.830593348 0 0 0 0 9484930.6402053833 54863719.122919559 0 54863719.122919559 -27538195.725058317 0 0 0 0 556598.22008644883 2413498.3470557299 0 2413498.3470557299 -1418008.6920982348 0 0 0 0 -10502282.814483643 79699984.47336483 0 79699984.47336483 82193470.766209602 0 0 0 0 10273158.586914062 -9631138.7893209457 0 -9631138.7893209457 51686627.954019785 0 0 0 0 25790523.637531281 53368168.786354065 0 53368168.786354065 -62473654.821708679 0 0 0 0 35757291.391181946 -12442141.345808029 0 -12442141.345808029 -72211929.157949448 0 0 0 0 4504557.2718147952 2743759.9470007974 0 2743759.9470007974 -2482239.7094343253 0 0 0 0 34601892.100341797 14849232.913030624 0 14849232.913030624 -38073417.140176773 0 0 0 0 22352164.870527267 17892550.652784109 0 17892550.652784109 32391528.634591579 0 0 0 0 -13470956.302722931 29775334.848415375 0 29775334.848415375 -1094173.4950156212 0 0 0 0 4149472.036587459 2304706.180630066 0 2304706.180630066 -2660769.1720487829 0 0 0 0 25334709.198497772 38951996.685890198 0 38951996.685890198 -12846101.196813583 0 0 0 0 29359230.652179718 -14834285.799273491 0 -14834285.799273491 -3626902.4058818817 0 0 0 0 34298858.442150116 11887844.104416609 0 11887844.104416609 -57858245.811828613 0 0 0 0 -14273676.062480927 -9040138.6409282684 0 -9040138.6409282684 -23846419.064186096 0 0 0 0 17263982.17363739 -25456332.401361465 0 -25456332.401361465 -35622177.054660797 0 0 0 0 36627212.600191116 -3831347.0280852318 0 -3831347.0280852318 -16726775.380818367 0 0 0 0 5210944.3199424744 11817340.727464676 0 11817340.727464676 -24100853.044214249 0 0 0 0 34919814.082015991 -13103725.156002045 0 -13103725.156002045 -34205142.592214584 0 0 0 0 14182804.428367615 1844898.5525312424 0 1844898.5525312424 -6869565.6604104042 0 0 0 0 5591714.1014151238 -2057856.8298152848 0 -2057856.8298152848 66943.891815736424 0 0 0 0 11016172.245632172 18803277.925228119 0 18803277.925228119 1150299.3534946442 0 0 0 0 1124361.2789937225 84457.199509070255 0 84457.199509070255 -79650.304619256407 0 0 0 0 -9906136.5691299438 8665818.5859241486 0 8665818.5859241486 -23704068.070121765 0 0 0 0 -6118578.5806064606 14477988.873800278 0 14477988.873800278 -14789117.504760742 0 0 0 0 -31658919.185852051 -6543940.5157737732 0 -6543940.5157737732 -55606936.022752762 0 0 0 0 5078545.1636660323 4667415.1424812824 0 4667415.1424812824 -1299197.6170395967 0 0 0 0 -24441847.376152039 11657284.449831009 0 11657284.449831009 11377236.43944931 0 0 0 0 -25625737.996463776 6272537.4103069305 0 6272537.4103069305 -2508442.6324615479 0 0 0 0 -6520697.2570800781 16760020.78037262 0 16760020.78037262 -46197497.565841675 0 0 0 0 3690785.9376373291 30577996.722885132 0 30577996.722885132 -32458202.167694092 0 0 0 0 2633511.0942153931 9586448.4146595001 0 9586448.4146595001 -35318599.700263977 0 0 0 0 3776533.1134033203 18515829.095668793 0 18515829.095668793 -7688988.7587661743 0 0 0 0 410540.2672958374 11838911.646571159 0 11838911.646571159 -32752191.413402557 0 0 0 0 -12017155.923553467 6687699.2201347351 0 6687699.2201347351 -49236466.312555313 0 0 0 0 -7759170.438583374 811820.0404586792 0 811820.0404586792 -46408822.369483948 0 0 0 0 3485944.0060424805 41122729.575469971 0 41122729.575469971 -12965410.942398071 0 0 0 0 -3998527.8445205688 23910321.134025574 0 23910321.134025574 82180969.827014923 0 0 0 0 673202.66230981797 3118842.3019241346 0 3118842.3019241346 -1963945.0256563914 0 0 0 0 -32803475.911037445 -36786904.367576599 0 -36786904.367576599 2993434.5208983421 0 0 0 0 72410742.285606384 76159733.584308863 0 76159733.584308863 102683535.1189146 0 0 0 0 156119364.73247147 -13555854.454711437 0 -13555854.454711437 -198040638.53688848 0 0 0 0 1487224.8744071573 1613789.3263923516 0 1613789.3263923516 -539574.64774889639 0 0 0 0 24644352.856409371 24538085.122697353 0 24538085.122697353 -77281908.782108575 0 0 0 0 -166818984.69576836 -24703397.96093142 0 -24703397.96093142 212017615.65602016 0 0 0 0 6429476.9734912813 1914167.8802366764 0 1914167.8802366764 149907.09140242048 0 0 0 0 115530851.07805681 185618298.8125594 0 185618298.8125594 251252241.19412208 0 0 0 0 237892086.84447002 135171974.39181983 0 135171974.39181983 174626413.38708234 0 0 0 0 3530786.8044388844 2560891.1411960991 0 2560891.1411960991 -903903.12478519604 0 0 0 0 -24882550.430772066 55133719.156002715 0 55133719.156002715 1740166.6101469994 0 0 0 0 291068.41018867493 75049855.82499969 0 75049855.82499969 14261799.622457981 0 0 0 0 40156881.219470024 77684216.094907999 0 77684216.094907999 -14848717.869453669 0 0 0 0 169083709.38157964 -93158214.447860241 0 -93158214.447860241 -52044375.54877089 0 0 0 0 -685921445.47628653 186060776.39504105 0 186060776.39504105 979943281.37096047 0 0 0 0 2043612.274135726 1010541.7101699681 0 1010541.7101699681 139896.56763793991 0 0 0 0 1163268276.9268627 -108897954.57951605 0 -108897954.57951605 -305699826.28937221 0 0 0 0 3604125.1308333655 1685267.2645767103 0 1685267.2645767103 -625732.6803268576 0 0 0 0 389829.94723278284 1193317.7217344395 0 1193317.7217344395 -685534.65462138387 0 0 0 0 -24177548.23995769 224906742.3947244 0 224906742.3947244 116382837.70275009 0 0 0 0 55500765.262514114 -59346578.219560504 0 -59346578.219560504 -83424257.517414927 0 0 0 0 381384229.38895708 -65958703.730326414 0 -65958703.730326414 -139137398.52411938 0 0 0 0 546227367.00558996 284673499.46092445 0 284673499.46092445 85557394.617363572 0 0 0 0 422639786.34162629 -38916143.407456875 0 -38916143.407456875 -95515821.499757051 0 0 0 0 139534363.80129969 19160492.530114412 0 19160492.530114412 -30413773.896518469 0 0 0 0 -64247212.096054196 -2369860.9051157236 0 -2369860.9051157236 32325895.260852575 0 0 0 0 82692662.241745949 -10842873.690981269 0 -10842873.690981269 24289960.983314514 0 0 0 0 412807232.03546512 160316149.42869961 0 160316149.42869961 -29605863.597703218 0 0 0 0 152726384.57952249 34879099.146469355 0 34879099.146469355 -27634539.918937176 0 0 0 0 69491277.078849673 110455216.30450517 0 110455216.30450517 68317254.513287544 0 0 0 0 -45330577.379059553 26407460.119359255 0 26407460.119359255 24632169.828929901 0 0 0 0 -29118861.522256494 29068903.743256569 0 29068903.743256569 18356620.111677408 0 0 0 0 -40692453.908469021 16548479.955599427 0 16548479.955599427 20125408.815463066 0 0 0 0 -31888130.599557698 26688226.202584386 0 26688226.202584386 40390251.319040775 0 0 0 0 -32289842.042858034 72298204.565003514 0 72298204.565003514 8326310.3446850777 0 0 0 0 -16003122.343705177 52296345.514440298 0 52296345.514440298 42995587.576677412 0 0 0 0 -25106877.55487445 36228815.288101077 0 36228815.288101077 15759257.448270798 0 0 0 0 -17007663.462714493 27461439.641929984 0 27461439.641929984 25086222.411826134 0 0 0 0 -16919558.963524461 15025924.609055996 0 15025924.609055996 21244075.163453102 0 0 0 0 684146.5965282917 -97519.98750013113 0 -97519.98750013113 415566.97479963303 0 0 0 0 -18716004.394512393 4025350.683811307 0 4025350.683811307 8227058.8550648689 0 0 0 0 -34644061.009908795 -47076001.225908518 0 -47076001.225908518 -13480743.893722534 0 0 0 0 -64156257.184267282 15226850.589776516 0 15226850.589776516 25803463.714080811 0 0 0 0 -44996.738723229239 84647.92823135393 0 84647.92823135393 96400.02832221266 0 0 0 0 -303006.43280316499 6848.5502532733371 0 6848.5502532733371 1292121.2398189232 0 0 0 0 -28810814.10734728 -1985004.7399874181 0 -1985004.7399874181 11240383.655145168 0 0 0 0 333478.18192467093 16373678.493284702 0 16373678.493284702 -35811350.981489182 0 0 0 0 -154871.13908284833 586539.67581199482 0 586539.67581199482 1604522.1753215101 0 0 0 0 -12634283.991835356 1609788.2328959107 0 1609788.2328959107 4606566.9866137505 0 0 0 0 -85189962.92827785 64684367.216320634 0 64684367.216320634 -2970444.3353526592 0 0 0 0 -97840195.444760203 -70846223.984096169 0 -70846223.984096169 -2228534.0129359365 0 0 0 0 -75243016.487945497 -62996082.727005005 0 -62996082.727005005 -51446319.08525306 0 0 0 0 -128695326.08865315 4560866.3533257246 0 4560866.3533257246 82441498.181726903 0 0 0 0 -357028.27611979761 589617.05408700695 0 589617.05408700695 436708.91717094963 0 0 0 0 -15471668.683012128 136803880.06660008 0 136803880.06660008 96828726.269867659 0 0 0 0 471116477.71877503 105816445.24431282 0 105816445.24431282 -148182360.99287796 0 0 0 0 -1183911.3391934484 47337009.423833311 0 47337009.423833311 47202054.625311196 0 0 0 0 409112292.36590761 234659918.67682284 0 234659918.67682284 -56849262.086040556 0 0 0 0 691166.30857620016 -213744.13026240468 0 -213744.13026240468 -82396.464440097334 0 0 0 0 -18512.795067310333 -1173237.4880037308 0 -1173237.4880037308 1718571.9831085205 0 0 0 0 -251079.13943731785 -974082.05993402004 0 -974082.05993402004 1785284.2753694057 0 0 0 0 -394266.70081659569 -1234329.4940965632 0 -1234329.4940965632 1932101.8727027276 0 0 0 0 -98129466.87913084 797491.82035779953 0 797491.82035779953 24333378.863394976 0 0 0 0 -67886009.99124527 -62649116.805427074 0 -62649116.805427074 47663827.495796919 0 0 0 0 -35489357.813784122 -78981169.398086548 0 -78981169.398086548 90953670.636610031 0 0 0 0 -11341049.05842042 2425052.9403972626 0 2425052.9403972626 12966206.666377068 0 0 0 0 -1157900.1059964895 -1326425.1037186384 0 -1326425.1037186384 2538184.8131120205 0 0 0 0 -1371287.4085688591 -3730498.6681127548 0 -3730498.6681127548 4424028.3162636757 0 0 0 0 -1614313.4524651412 -257146.99448581575 0 -257146.99448581575 2111590.6606342718 0 0 0 0 -2210060.6652667313 -1366391.467474472 0 -1366391.467474472 2497515.242941332 0 0 0 0 -10380121.700439453 -3517413.4974179268 0 -3517413.4974179268 9368922.9759273529 0 0 0 0 263833.35247397423 -1454827.0880360603 0 -1454827.0880360603 2021924.7956489176 0 0 0 0 6483448.0713320067 -2295027.569528807 0 -2295027.569528807 989899.80945400533 0 0 0 0 1894223.5731064784 1299023.9013172956 0 1299023.9013172956 188989.07762045972 0 0 0 0 2129262.5560050011 -528588.09799081087 0 -528588.09799081087 -1731747.9347901344 0 0 0 0 792184.88083380507 417143.12551811803 0 417143.12551811803 1812863.1042414852 0 0 0 0 907536.60925102234 239542.21367239952 0 239542.21367239952 291345.78553809971 0 0 0 0 9619815.4958450198 5189786.1077649593 0 5189786.1077649593 -8182829.8330565691 0 0 0 0 -800904.24129849672 7274276.5435307026 0 7274276.5435307026 -1549355.6799712628 0 0 0 0 31106.049525825947 814565.92566058738 0 814565.92566058738 619505.37329680554 0 0 0 0 -86722.240175996849 382800.2566161236 0 382800.2566161236 1429461.6248781562 0 0 0 0 1538801.2743021585 -49961.147279573997 0 -49961.147279573997 710492.48690514429 0 0 0 0 914952.83490967751 191688.49264752865 0 191688.49264752865 352786.70869213343 0 0 0 0 445173.49119052291 -905614.53636211157 0 -905614.53636211157 1751442.2575516701 0 0 0 0 438762.61312998831 -853221.3777089119 0 -853221.3777089119 1393048.8801283836 0 0 0 0 910503.57704091072 -1058172.8646632433 0 -1058172.8646632433 1459868.7087645531 0 0 0 0 2962812.8886896372 -88327.445264816284 0 -88327.445264816284 -803890.20332837105 0 0 0 0 333174.54163951421 -413910.39536008175 0 -413910.39536008175 1888675.6715597357 0 0 0 0 297491.29866307974 2397756.0913974047 0 2397756.0913974047 77424.901206493378 0 0 0 0 1073572.544649798 -993455.27045746217 0 -993455.27045746217 2497724.2486329516 0 0 0 0 -6559.0714874267578 -2330370.3343260884 0 -2330370.3343260884 1309325.4867625237 0 0 0 0 5586646.3722881079 -5958805.7646598816 0 -5958805.7646598816 2386659.9860871434 0 0 0 0 -3360501.1959080696 2661628.433819294 0 2661628.433819294 282573.61408436298 0 0 0 0 -394397.18273231841 -553154.05695439712 0 -553154.05695439712 1413493.7643258306 0 0 0 0 152676902.1047188 65446709.282974243 0 65446709.282974243 -12753286.058356285 0 0 0 0 103506566.15685087 122566342.62436962 0 122566342.62436962 122613218.66724777 0 0 0 0 -5465565.5193269253 420003.62832427025 0 420003.62832427025 1703357.8576984406 0 0 0 0 71958066.334838748 51808729.180092573 0 51808729.180092573 37046015.508657455 0 0 0 0 -2470880.20730865 -193832.77716422081 0 -193832.77716422081 1303874.7653067112 0 0 0 0 -623308.02004981041 -1267701.9654397368 0 -1267701.9654397368 2004681.4206523895 0 0 0 0 -201162.27630877495 -961873.96488952637 0 -961873.96488952637 2062589.8085306883 0 0 0 0 -223781.36941884807 -629018.87685593334 0 -629018.87685593334 1984347.0042678339 0 0 0 0 -709956.4028496407 -1103247.23364262 0 -1103247.23364262 2771022.9521167949 0 0 0 0 -118960499.3385191 94582010.709177494 0 94582010.709177494 -68275797.029405117 0 0 0 0 -1421727.99576015 -500638.85606661299 0 -500638.85606661299 1363230.407716108 0 0 0 0 92329075.852445066 73419372.947122723 0 73419372.947122723 177479636.03128338 0 0 0 0 -54759892.900784016 26142263.579572201 0 26142263.579572201 -12822083.213396072 0 0 0 0 -265467133.96362019 47919945.410415173 0 47919945.410415173 46879632.601779938 0 0 0 0 -222572431.18857837 214898272.41046429 0 214898272.41046429 205858719.00932813 0 0 0 0 1343439.7863883823 -535323.11643263791 0 -535323.11643263791 -1029491.7428185144 0 0 0 0 110512393.92800021 5082859.5824165344 0 5082859.5824165344 -19564624.983761787 0 0 0 0 -2381533.2126619816 -21849359.705570221 0 -21849359.705570221 10401040.948154449 0 0 0 0 -26609517.157907188 280.70625138282776 0 280.70625138282776 9648797.8131217957 0 0 0 0 4537326.8852548059 -2278470.6826534551 0 -2278470.6826534551 -4096531.024297751 0 0 0 0 -427432.96174981463 -271187.61231713835 0 -271187.61231713835 373776.3652293362 0 0 0 0 -221071447.51114893 -11388618.19559288 0 -11388618.19559288 782723843.03925037 0 0 0 0 -24268170.171763659 5093900.3353996277 0 5093900.3353996277 -17236928.892478943 0 0 0 0 -22105281.817403316 345216891.93082857 0 345216891.93082857 -219876823.0938015 0 0 0 0 86421687.234829426 321471596.30476952 0 321471596.30476952 -241002892.54561615 0 0 0 0 252465226.69250548 -287323380.06522679 0 -287323380.06522679 -85869025.739351273 0 0 0 0 36115188.65929842 443768882.86644363 0 443768882.86644363 496396797.2929821 0 0 0 0 -118027108.66274464 126040826.43770123 0 126040826.43770123 280762428.42993069 0 0 0 0 27185409.54357785 -10110660.966378868 0 -10110660.966378868 -60584802.083431244 0 0 0 0 -18618205.525681637 399958638.01808822 0 399958638.01808822 -92283924.730747223 0 0 0 0 -157304685.38377571 310271.45979499817 0 310271.45979499817 -896481941.38248444 0 0 0 0 -310295389.62085247 400948664.03924179 0 400948664.03924179 -87608712.447842836 0 0 0 0 -433717982.19832206 4253111.1517286301 0 4253111.1517286301 -59112174.994342804 0 0 0 0 339049.2256124675 336003.77892727335 0 336003.77892727335 -269372.91879976075 0 0 0 0 216530552.26983118 -221206586.93906593 0 -221206586.93906593 -454581582.07213402 0 0 0 0 323462660.78754234 -80603201.073814392 0 -80603201.073814392 -269892792.03093266 0 0 0 0 513213264.434268 -252521592.31836319 0 -252521592.31836319 -218950920.83247375 0 0 0 0 114172432.91639614 74857219.01529789 0 74857219.01529789 22315184.824676514 0 0 0 0 301296390.56311369 -133541873.26277733 0 -133541873.26277733 -5956859.6711273193 0 0 0 0 363961772.37330055 -167936839.98482037 0 -167936839.98482037 -149772730.9760313 0 0 0 0 287968060.7871418 -174112141.68010044 0 -174112141.68010044 -129223473.41590405 0 0 0 0 234623358.07954788 -234821262.05106753 0 -234821262.05106753 22855777.040208817 0 0 0 0 243094048.79592252 -308898687.44055116 0 -308898687.44055116 -123346730.6305275 0 0 0 0 366566443.87181377 -240135817.44494629 0 -240135817.44494629 -85052762.778635025 0 0 0 0 70526874.227475405 -524678752.39948559 0 -524678752.39948559 36018906.847371101 0 0 0 0 813892542.38552284 192008115.95998383 0 192008115.95998383 -14538761.35301733 0 0 0 0 648919219.78990555 -303809539.84557343 0 -303809539.84557343 -48170683.991527557 0 0 0 0 372601118.63800812 -192330378.83260536 0 -192330378.83260536 -69447395.532535553 0 0 0 0 -479182848.57716274 -1072482812.7112637 0 -1072482812.7112637 -507424921.90458107 0 0 0 0 114143872.43004608 -445479607.27223206 0 -445479607.27223206 122613788.5429492 0 0 0 0 799709380.89032865 -88307638.715402603 0 -88307638.715402603 -138032416.22247648 0 0 0 0 100595658.55908203 -392903615.3164444 0 -392903615.3164444 135365289.07060051 0 0 0 0 2650825.0864851857 -677999.06946705142 0 -677999.06946705142 -14012.902982061612 0 0 0 0 353685068.56350356 296412781.93601751 0 296412781.93601751 241948563.5238229 0 0 0 0 161032163.18570375 -313851079.48942375 0 -313851079.48942375 44554894.257253408 0 0 0 0 1127914267.4042382 1171194797.1249161 0 1171194797.1249161 -148434408.64085197 0 0 0 0 -182799895.70774603 -212661416.57331562 0 -212661416.57331562 125670756.61868095 0 0 0 0 309520077.57716918 -215352910.15445805 0 -215352910.15445805 18239275.008069038 0 0 0 0 131966045.30591393 -36573980.86678791 0 -36573980.86678791 -132342648.55025053 0 0 0 0 1268783.6451067803 -837068.59107699315 0 -837068.59107699315 -328857.85825903766 0 0 0 0 117348044.57843399 2891056.450922966 0 2891056.450922966 -53046901.120209455 0 0 0 0 -20395602.114068985 -41897421.492199898 0 -41897421.492199898 -65377833.599685669 0 0 0 0 128601529.75550079 -33315069.175943613 0 -33315069.175943613 -72973227.730004311 0 0 0 0 212092881.08684224 -16139097.106372014 0 -16139097.106372014 99941776.864549637 0 0 0 0 212701132.29703903 12566659.820717812 0 12566659.820717812 -103904336.73996401 0 0 0 0 288086096.73408508 -87913150.400915146 0 -87913150.400915146 -125334444.29418516 0 0 0 0 122064680.52442932 -188697272.63876057 0 -188697272.63876057 438487597.78589821 0 0 0 0 99424516.289392471 -286999988.53891659 0 -286999988.53891659 11774350.232959747 0 0 0 0 56582525.366441607 31667088.41328907 0 31667088.41328907 10054161.676377773 0 0 0 0 14436267.825006485 -528030292.78965473 0 -528030292.78965473 293788990.45959806 0 0 0 0 47142406.46388945 620376266.25839412 0 620376266.25839412 -64302997.980194092 0 0 0 0 183949393.30970192 35407724.546332359 0 35407724.546332359 -385148402.60523796 0 0 0 0 34961447.9499228 41332270.775729418 0 41332270.775729418 24669482.604968071 0 0 0 0 6858134.062415421 -972042.70112956385 0 -972042.70112956385 -487274.08247034554 0 0 0 0 -137557548.87504196 102109191.08844566 0 102109191.08844566 312076305.42016506 0 0 0 0 19469668.527467251 35656439.224666595 0 35656439.224666595 23458882.789450645 0 0 0 0 41453887.916566849 31048828.421836019 0 31048828.421836019 20970960.542974472 0 0 0 0 38820704.974506386 25408293.455691099 0 25408293.455691099 9981593.4592370987 0 0 0 0 651695.02648243424 198286.82248855033 0 198286.82248855033 -579407.38891042629 0 0 0 0 93903615.843495131 80626183.830299854 0 80626183.830299854 56064851.626593828 0 0 0 0 257437511.02267992 182556313.62173986 0 182556313.62173986 111103520.45871973 0 0 0 0 47694763.659509182 58070069.49448514 0 58070069.49448514 42153853.082933903 0 0 0 0 1074612.042798619 319042.89560258668 0 319042.89560258668 -972343.39811977022 0 0 0 0 245724061.16078231 -52206904.327276945 0 -52206904.327276945 -46783008.685124874 0 0 0 0 336748927.90343189 -8982830.3715490997 0 -8982830.3715490997 -41045506.747233391 0 0 0 0 -17173421.58671689 -59040145.681723118 0 -59040145.681723118 3262414.1194915771 0 0 0 0 245607549.65276238 -53506565.919282436 0 -53506565.919282436 -39536883.435129419 0 0 0 0 342804660.96480882 55054460.292336106 0 55054460.292336106 -4380522.462223053 0 0 0 0 161583284.27084261 36492727.556452036 0 36492727.556452036 18323111.5447855 0 0 0 0 111438943.37169397 -71680986.988917828 0 -71680986.988917828 53219465.005014345 0 0 0 0 78255.881048358744 -36823.265160355484 0 -36823.265160355484 369164.15058934968 0 0 0 0 57106858.07303673 17551528.566831231 0 17551528.566831231 -41045697.110605717 0 0 0 0 187437008.7002458 8849535.4362564087 0 8849535.4362564087 -8792581.7159247398 0 0 0 0 105282153.53926964 15130770.4210006 0 15130770.4210006 -9102765.5009145737 0 0 0 0 112450601.96168485 -6799695.6303093433 0 -6799695.6303093433 -11419369.4260602 0 0 0 0 438105.80849549174 2581172.7096963227 0 2581172.7096963227 -2358750.4284391403 0 0 0 0 92986049.174777448 30334436.53285253 0 30334436.53285253 -21041788.349486828 0 0 0 0 63237958.576096654 -14764688.230172396 0 -14764688.230172396 -12654423.091758847 0 0 0 0 142582631.29972184 58387931.514764249 0 58387931.514764249 -26179040.772980213 0 0 0 0 127982071.59999865 16922979.412133932 0 16922979.412133932 -19686176.320225716 0 0 0 0 111651223.30603147 50036064.085743189 0 50036064.085743189 -27081806.611780882 0 0 0 0 192311525.82489371 60609711.321251631 0 60609711.321251631 -21475205.431024075 0 0 0 0 124866572.44965482 66844324.682620049 0 66844324.682620049 -21451112.121466987 0 0 0 0 92561309.907468721 50102308.395572729 0 50102308.395572729 -7761227.2436351776 0 0 0 0 44253715.478957653 51017922.344103336 0 51017922.344103336 -4070318.7767927647 0 0 0 0 121220303.26891673 62674167.597222649 0 62674167.597222649 -48414536.831974268 0 0 0 0 120623065.72250974 66588574.288542151 0 66588574.288542151 -23365175.241741657 0 0 0 0 120844183.0727942 65069123.991200328 0 65069123.991200328 -21174319.348352432 0 0 0 0 114704885.60392475 84765257.877976716 0 84765257.877976716 7406117.2130591869 0 0 0 0 108175184.44889534 70554557.213132381 0 70554557.213132381 -21094170.86132431 0 0 0 0 88615808.443051577 63147996.684389114 0 63147996.684389114 13136590.175209284 0 0 0 0 120465342.18741131 77250466.466505408 0 77250466.466505408 -23566982.214113951 0 0 0 0 110681470.65145206 86283922.126891613 0 86283922.126891613 -30205468.750840664 0 0 0 0 106509853.48413026 85505013.403819248 0 85505013.403819248 40343700.380594492 0 0 0 0 123404897.75186396 105900530.86951834 0 105900530.86951834 14504080.064128637 0 0 0 0 106159403.91191778 99166390.499856085 0 99166390.499856085 49884737.091942549 0 0 0 0 121147365.74054384 109993839.4285655 0 109993839.4285655 51986431.030984282 0 0 0 0 93217624.118050754 76284583.026020586 0 76284583.026020586 27314866.906306982 0 0 0 0 94734909.403661251 74229647.802146137 0 74229647.802146137 14030952.144154817 0 0 0 0 85577899.315016985 78162234.028968573 0 78162234.028968573 60332170.450021744 0 0 0 0 56539395.128070354 56853821.164246678 0 56853821.164246678 58806935.870304108 0 0 0 0 49344165.657678843 49846193.781861126 0 49846193.781861126 56831071.108685493 0 0 0 0 59712670.507060274 51116062.180574507 0 51116062.180574507 47614365.917406917 0 0 0 0 56367348.710870922 45886296.25682506 0 45886296.25682506 47843958.788669229 0 0 0 0 41544320.657227218 32375240.120465517 0 32375240.120465517 31000378.703279614 0 0 0 0 -5269804.568246128 -3472963.9067105306 0 -3472963.9067105306 3540850.7300153077 0 0 0 0 13843766.798815725 -6986242.4315273501 0 -6986242.4315273501 2131126.5082706655 0 0 0 0 -6577029.6262359619 -92112726.893836021 0 -92112726.893836021 -111627858.41324234 0 0 0 0 -29996784.801721573 -76800075.807827532 0 -76800075.807827532 9395086.9182043076 0 0 0 0 46726948.635488689 -1988447.9713138342 0 -1988447.9713138342 -16426330.399698734 0 0 0 0 61408354.973238677 23552568.905586123 0 23552568.905586123 -21638014.892614126 0 0 0 0 77857303.19369781 15728138.274165869 0 15728138.274165869 -25020282.491188467 0 0 0 0 96842601.540805042 47600945.790860772 0 47600945.790860772 -11588084.725916386 0 0 0 0 88549049.893602163 43596456.972790778 0 43596456.972790778 -13413718.156391621 0 0 0 0 35295229.555280685 113143199.85888308 0 113143199.85888308 -140526716.93972892 0 0 0 0 53167453.55509758 -32656105.721183538 0 -32656105.721183538 -187055075.11093366 0 0 0 0 -116746136.36575639 43045061.283295505 0 43045061.283295505 5472008.8785321712 0 0 0 0 17521177.243432939 64236469.766222708 0 64236469.766222708 6281719.0124510527 0 0 0 0 61470921.977874756 44432164.072707206 0 44432164.072707206 -1892239.3434844017 0 0 0 0 96313826.273208618 98200120.845456958 0 98200120.845456958 -2357005.1086722612 0 0 0 0 172621728.98569822 73392078.565152407 0 73392078.565152407 24464983.330677807 0 0 0 0 100405376.13734913 74668442.643291831 0 74668442.643291831 25083469.590464205 0 0 0 0 136133325.66479933 69933075.877852425 0 69933075.877852425 -30417196.552143097 0 0 0 0 79796308.605928421 44893692.678910732 0 44893692.678910732 -30824659.362131126 0 0 0 0 88031167.653348923 24643070.871286154 0 24643070.871286154 -67331448.835683882 0 0 0 0 129835550.13833666 69364682.322900116 0 69364682.322900116 -70585169.546796083 0 0 0 0 113574638.81731701 40984913.128326058 0 40984913.128326058 -93122238.505426884 0 0 0 0 51384346.23273325 -44190658.841032267 0 -44190658.841032267 -120086866.70503545 0 0 0 0 602586.67508123582 175774.01671103301 0 175774.01671103301 -559841.83524671383 0 0 0 0 98697613.535294622 22183045.879602581 0 22183045.879602581 -23599289.391503334 0 0 0 0 97934576.498340607 99103342.160451889 0 99103342.160451889 65027444.454628944 0 0 0 0 12429352.198389053 -11390784.978917122 0 -11390784.978917122 12676851.267664433 0 0 0 0 87390342.678215981 28292980.385733128 0 28292980.385733128 -78542834.002393484 0 0 0 0 27385613.625678062 -29524652.704495668 0 -29524652.704495668 -60298887.928277254 0 0 0 0 12426814.402933359 1314673.4956291318 0 1314673.4956291318 -12731550.983195782 0 0 0 0 -71284335.964665413 -70015752.293913126 0 -70015752.293913126 -69618907.672596931 0 0 0 0 697664.1876712821 -126885.98386417422 0 -126885.98386417422 -501156.40451671451 0 0 0 0 -16204100.748701096 -11399995.514997482 0 -11399995.514997482 683039.14345526695 0 0 0 0 2330543.1280947952 -37739.303136436502 0 -37739.303136436502 -1377412.349076546 0 0 0 0 8428048.8705534935 -2055734.8829414845 0 -2055734.8829414845 -3170663.8807582855 0 0 0 0 315799.2508392334 -15014307.441564083 0 -15014307.441564083 931638.43318891525 0 0 0 0 15458925.263162136 -15029810.275019169 0 -15029810.275019169 -17677443.356187344 0 0 0 0 11151235.88763761 -148929.60930569423 0 -148929.60930569423 -2947601.5569904316 0 0 0 0 11381490.117808819 -9948313.1990613937 0 -9948313.1990613937 -23434583.084274292 0 0 0 0 -5449473.7320356369 -7984425.9787449837 0 -7984425.9787449837 -7337068.6884498596 0 0 0 0 4832988.8901811903 577610.42365950067 0 577610.42365950067 -2099906.9104487118 0 0 0 0 17973492.799106598 9042052.807297349 0 9042052.807297349 -4160723.2471489906 0 0 0 0 52353490.707849741 27152466.124243736 0 27152466.124243736 14193134.885281563 0 0 0 0 60425585.515464306 6109464.9504511356 0 6109464.9504511356 -6324397.9487905502 0 0 0 0 36645718.216312408 26469341.967060089 0 26469341.967060089 42872975.692229033 0 0 0 0 5885480.4140486717 -656335.1428809166 0 -656335.1428809166 504221.2550907135 0 0 0 0 33579085.51930809 13186908.413389444 0 13186908.413389444 -23603410.113423347 0 0 0 0 19347596.011553288 20554889.853524208 0 20554889.853524208 19235379.533443451 0 0 0 0 10322033.395552158 -2250963.2958450317 0 -2250963.2958450317 -5072369.7194695473 0 0 0 0 18007623.340368271 -256166366.46155262 0 -256166366.46155262 -12946820.214650154 0 0 0 0 -26193616.306694031 160049481.46094513 0 160049481.46094513 -3499220.0105295181 0 0 0 0 18519038.352085114 -46464900.615185738 0 -46464900.615185738 -20126881.907504082 0 0 0 0 53441193.122020721 31301116.942198753 0 31301116.942198753 -152164246.24408603 0 0 0 0 33976966.932278156 -2213491.9238247871 0 -2213491.9238247871 -37122123.275673866 0 0 0 0 9265596.615826793 -778764.96334145521 0 -778764.96334145521 -1317012.7839898844 0 0 0 0 -19025766.960420609 15619478.667637587 0 15619478.667637587 -5654363.7394175529 0 0 0 0 -63253403.555080414 46478605.601577282 0 46478605.601577282 115005849.09676933 0 0 0 0 36936840.750372887 37640374.481017113 0 37640374.481017113 -107199507.98444366 0 0 0 0 3944367.2574141659 -387499.55501629878 0 -387499.55501629878 -1042805.2104313266 0 0 0 0 -45891227.238965988 37572677.408425331 0 37572677.408425331 -18576105.37753623 0 0 0 0 8541321.2701577209 6185773.0727513786 0 6185773.0727513786 -3152428.2729016379 0 0 0 0 16104048.355042934 17331186.889531255 0 17331186.889531255 9330538.9237117767 0 0 0 0 7617916.3746414185 4135009.9662060738 0 4135009.9662060738 -13125087.112369537 0 0 0 0 40830124.199020386 4818513.0468673706 0 4818513.0468673706 -16600338.980732918 0 0 0 0 35412811.127516747 21253294.145344019 0 21253294.145344019 -2014628.2239046097 0 0 0 0 28711021.662858963 34610216.977388382 0 34610216.977388382 22225221.339347064 0 0 0 0 -3976512.0325317383 16850210.102208614 0 16850210.102208614 17494352.486477375 0 0 0 0 17519130.06811142 14821608.519101143 0 14821608.519101143 -37873929.300354481 0 0 0 0 5112608.8120703697 33119925.244684815 0 33119925.244684815 -9149018.1634273529 0 0 0 0 17833416.215970993 21471121.636705399 0 21471121.636705399 -28244833.233553886 0 0 0 0 6690629.0490133325 4088592.9761056341 0 4088592.9761056341 -2055922.2265429061 0 0 0 0 3429260.9676132202 13529142.545642762 0 13529142.545642762 -4750370.1753582247 0 0 0 0 3257703.5711496277 10091587.711066827 0 10091587.711066827 -91146.202275754884 0 0 0 0 40345682.164993286 27419317.104063034 0 27419317.104063034 7618309.844212532 0 0 0 0 -107798.4845909318 1735414.9981450315 0 1735414.9981450315 61269.177048268422 0 0 0 0 23859382.152200699 16921669.349286556 0 16921669.349286556 1224101.9233779907 0 0 0 0 24848778.554456711 10247355.907001853 0 10247355.907001853 -10073834.470829487 0 0 0 0 19770791.857034683 11068235.934562445 0 11068235.934562445 -5721227.2526607513 0 0 0 0 -2699175.0784300119 3440907.2588802832 0 3440907.2588802832 1738819.8187600896 0 0 0 0 -7855453.1551647186 21276609.378600694 0 21276609.378600694 32741519.81241107 0 0 0 0 -94588682.544816971 63948590.259121895 0 63948590.259121895 9654471.2962713242 0 0 0 0 -67840940.89566803 123053838.11418986 0 123053838.11418986 -119089965.67003441 0 0 0 0 1900796.2565574646 3196052.5116701983 0 3196052.5116701983 1265051.9971863031 0 0 0 0 4240370.0514551308 4201789.3459973186 0 4201789.3459973186 1679354.1771028128 0 0 0 0 1920761.4202651978 4321363.5313961506 0 4321363.5313961506 -86013.72115957737 0 0 0 0 38734357.078071594 59755620.420173824 0 59755620.420173824 -18288182.152968828 0 0 0 0 -973532.57299737632 710.56793877539167 0 710.56793877539167 565662.4013565894 0 0 0 0 -26899815.951704025 48271302.687957272 0 48271302.687957272 118873765.87601572 0 0 0 0 22799528.116928101 21302599.372957855 0 21302599.372957855 -6047763.6089725848 0 0 0 0 -67656071.209299088 179106588.42239642 0 179106588.42239642 95174219.138301373 0 0 0 0 110914861.05086327 230353809.95800591 0 230353809.95800591 -469093451.60813248 0 0 0 0 -80222947.601364136 325403134.14280474 0 325403134.14280474 578340044.98540449 0 0 0 0 151800448.63023567 -282880269.55679727 0 -282880269.55679727 348310924.17062569 0 0 0 0 606255288.1879406 -644989988.99269772 0 -644989988.99269772 255094790.50516748 0 0 0 0 196417540.73108482 -482947707.15747643 0 -482947707.15747643 743469818.76278687 0 0 0 0 165196938.88749123 113155863.30056143 0 113155863.30056143 158959954.1859231 0 0 0 0 -131557583.72633743 51633488.813808918 0 51633488.813808918 181689334.7225306 0 0 0 0 -124272730.04598808 248497.73631477356 0 248497.73631477356 -86275958.472625732 0 0 0 0 -191187949.97816372 -2486168.2328066826 0 -2486168.2328066826 510844008.59963131 0 0 0 0 -238774839.02075195 -474348967.95823145 0 -474348967.95823145 202333061.09653711 0 0 0 0 876108490.75127792 300765075.97037172 0 300765075.97037172 -461117384.19410896 0 0 0 0 -286031503.5952301 -436545881.78975344 0 -436545881.78975344 500990431.52487159 0 0 0 0 1495376.3644662779 -416693.01100661117 0 -416693.01100661117 -32490.369115504436 0 0 0 0 662136056.38126373 442451032.03586197 0 442451032.03586197 -197248075.28488445 0 0 0 0 424667838.11138153 306539077.73410988 0 306539077.73410988 199872653.28728294 0 0 0 0 512735350.0399971 -379309965.50924253 0 -379309965.50924253 -227164961.93060875 0 0 0 0 231100709.25422287 -558826524.71532011 0 -558826524.71532011 -243474360.27947092 0 0 0 0 4966596.7587165833 3502379.3423130512 0 3502379.3423130512 -2396318.0080399513 0 0 0 0 2463432.5135726929 2991752.8228399754 0 2991752.8228399754 -509871.86284446716 0 0 0 0 3710146.0404318534 2604116.3968622289 0 2604116.3968622289 1711085.7355877026 0 0 0 0 -210454331.44329643 -21520710.115938425 0 -21520710.115938425 83317871.374919891 0 0 0 0 -254299473.04810333 -12290480.298000336 0 -12290480.298000336 125807664.33713055 0 0 0 0 -127645018.66700077 74214489.1666224 0 74214489.1666224 25238674.742595196 0 0 0 0 2920868.9301397726 -1354935.1886165659 0 -1354935.1886165659 1239660.7711810712 0 0 0 0 -176674676.37130737 -217714033.43490171 0 -217714033.43490171 -71367235.302863121 0 0 0 0 15033555.75976181 -10259441.332898855 0 -10259441.332898855 -5920649.9946291447 0 0 0 0 -108711365.72180843 -287086604.22836816 0 -287086604.22836816 -420933672.59153986 0 0 0 0 1862992.7578792125 906425.33285576408 0 906425.33285576408 595267.11642219499 0 0 0 0 628348.75226211548 7989914.5891386271 0 7989914.5891386271 -5713469.076706171 0 0 0 0 1271520.0420532227 510781.80582046509 0 510781.80582046509 -886859.69243216515 0 0 0 0 2841859.8622848149 370447.86130753951 0 370447.86130753951 -3340.9559525761288 0 0 0 0 4896114.7047117958 1369047.3621951342 0 1369047.3621951342 -515841.85307945567 0 0 0 0 1767253.0766563416 9123762.5626568794 0 9123762.5626568794 -5430417.0891927481 0 0 0 0 522351.42137598991 999831.73588311672 0 999831.73588311672 -2159763.3028626442 0 0 0 0 955818.811678892 1051310.0157211157 0 1051310.0157211157 -245867.45491707796 0 0 0 0 -358111.07021713257 5681698.5187227726 0 5681698.5187227726 807049.70091772079 0 0 0 0 6344917.2170172911 626814.00504246587 0 626814.00504246587 -889278.65968124906 0 0 0 0 68058630.165826797 -38211884.645090938 0 -38211884.645090938 -72284426.15885067 0 0 0 0 -27427640.174081802 -44976356.998324871 0 -44976356.998324871 -46975750.767806053 0 0 0 0 10290117.760545731 -18323292.336077452 0 -18323292.336077452 -78220417.975902081 0 0 0 0 -170045734.88007426 -153136387.04394642 0 -153136387.04394642 -76664250.948912621 0 0 0 0 29157082.546737671 -66793256.114725351 0 -66793256.114725351 -40087609.741035938 0 0 0 0 131655919.46883392 -79543317.672229767 0 -79543317.672229767 5209590.568710804 0 0 0 0 627730.74028681242 428957.20757328253 0 428957.20757328253 -48697.067712116987 0 0 0 0 7644606.5820770264 -50460032.160621166 0 -50460032.160621166 24697247.570607066 0 0 0 0 2312259.4194770004 628799.88613233622 0 628799.88613233622 -276827.6638511424 0 0 0 0 4535327.3926563263 -3775737.0860571861 0 -3775737.0860571861 45135578.649934769 0 0 0 0 12989403.048941612 -7161407.9237218797 0 -7161407.9237218797 10426002.238161564 0 0 0 0 13316398.028270721 4307795.0299720764 0 4307795.0299720764 846276.97336673737 0 0 0 0 -5606755.1871032715 4473005.0324530602 0 4473005.0324530602 74028685.863580227 0 0 0 0 581305891.52294922 104148772.19269633 0 104148772.19269633 -469400854.73672694 0 0 0 0 46934991.884432793 -112460788.31330258 0 -112460788.31330258 299847802.69074202 0 0 0 0 1331059.7908373587 -704777.05104977684 0 -704777.05104977684 544911.96408659033 0 0 0 0 139644940.17749405 188796461.4081254 0 188796461.4081254 -149040710.3397072 0 0 0 0 423297504.06058884 -266028911.26205945 0 -266028911.26205945 102674525.50008607 0 0 0 0 105442482.61449432 -116070235.14038134 0 -116070235.14038134 38865155.764209986 0 0 0 0 308232996.04315948 7918481.4422380924 0 7918481.4422380924 -86058516.323901176 0 0 0 0 114974952.10093689 -126201206.67529798 0 -126201206.67529798 15450637.124260902 0 0 0 0 14948017.222751617 -87856919.567721844 0 -87856919.567721844 148421373.99417353 0 0 0 0 -1304269.6727104187 -61678335.948722363 0 -61678335.948722363 -18907866.35897398 0 0 0 0 93707962.759083748 -98842082.76568234 0 -98842082.76568234 -151100048.19550514 0 0 0 0 39537763.28756237 -1949250.4494384527 0 -1949250.4494384527 -54574401.233263969 0 0 0 0 124224530.03820419 -9424988.4909248352 0 -9424988.4909248352 -79032652.76984024 0 0 0 0 -684218.82783508301 -174069133.54320383 0 -174069133.54320383 -285897434.39711952 0 0 0 0 -88476809.554885864 -59910512.550235271 0 -59910512.550235271 -155020380.6977787 0 0 0 0 -82591067.619934082 -77544165.079387426 0 -77544165.079387426 -152389363.15365171 0 0 0 0 -101900548.73280144 -101212461.47787476 0 -101212461.47787476 43076746.149253845 0 0 0 0 3049194.8396919705 65840.115551181836 0 65840.115551181836 -137792.78952207044 0 0 0 0 -1199006918.9110794 685443461.25435448 0 685443461.25435448 812845588.59603739 0 0 0 0 96850203.137672424 -235216624.0870719 0 -235216624.0870719 74583910.169502258 0 0 0 0 108013453.77661705 -201909180.66918564 0 -201909180.66918564 -116490013.01528788 0 0 0 0 26587987.211889744 -174714572.11837584 0 -174714572.11837584 -75692805.482655525 0 0 0 0 -44140.547270676121 260793.39334935369 0 260793.39334935369 579871.44815746089 0 0 0 0 720454.84184837341 947699.96176505089 0 947699.96176505089 9193175.5223021507 0 0 0 0 -4072945.9376277924 4377338.2200806141 0 4377338.2200806141 7336533.8553884029 0 0 0 0 -4266003.4760322571 12894227.129296303 0 12894227.129296303 24702077.427219868 0 0 0 0 -126430.37996787205 195227.89504469605 0 195227.89504469605 518477.42934400635 0 0 0 0 -18964892.340705872 -24280280.591225624 0 -24280280.591225624 24772418.369515896 0 0 0 0 -25226955.029838562 702409.10656738281 0 702409.10656738281 36588090.274817944 0 0 0 0 -12069718.872108459 -21919699.842552662 0 -21919699.842552662 -13658243.191944122 0 0 0 0 17308616.725494385 -7594853.3718395233 0 -7594853.3718395233 8311308.0019919872 0 0 0 0 4573864.5563259125 -4441721.4836807251 0 -4441721.4836807251 16054654.470645905 0 0 0 0 8719747.9635286331 12776425.068438292 0 12776425.068438292 5346580.9955158234 0 0 0 0 7120719.6512527466 -674037.22180938721 0 -674037.22180938721 4078303.931936264 0 0 0 0 10920408.655582428 128059.92097902298 0 128059.92097902298 -6075814.1041946411 0 0 0 0 7098285.3769073486 -517181.09840250015 0 -517181.09840250015 3714635.1561555862 0 0 0 0 4136671.2046012878 -4982653.6473236084 0 -4982653.6473236084 -3348103.0205819607 0 0 0 0 593136.01751708984 11486508.755243778 0 11486508.755243778 -115162358.7824955 0 0 0 0 -5146348.8193664551 29222635.197530746 0 29222635.197530746 -88223970.473423004 0 0 0 0 59574.744439700618 86100.248627903871 0 86100.248627903871 80079.405193963088 0 0 0 0 4975300.1290893555 8964316.0254468918 0 8964316.0254468918 -3383034.7665982246 0 0 0 0 19283.916530681774 68229.633529640734 0 68229.633529640734 65584.898710907437 0 0 0 0 -1520472.5674209595 18059995.799741268 0 18059995.799741268 -15978039.069026947 0 0 0 0 2666203.6118431091 -17966186.395012379 0 -17966186.395012379 -102940699.09389257 0 0 0 0 -15223304.975318909 17592043.981348038 0 17592043.981348038 -116857623.79158497 0 0 0 0 9480169.6163711548 22000524.013206959 0 22000524.013206959 -161027523.27387714 0 0 0 0 11412867.741420746 -23503157.35955739 0 -23503157.35955739 -53250884.649311066 0 0 0 0 -21010081.003494263 17445505.164584637 0 17445505.164584637 -46926542.616788864 0 0 0 0 19433637.049304962 9928707.4287519455 0 9928707.4287519455 -131005947.12225628 0 0 0 0 -16698530.639579773 7431419.8156251907 0 7431419.8156251907 -130945114.68016315 0 0 0 0 15225399.303890228 9030929.4225234985 0 9030929.4225234985 -98274588.474427819 0 0 0 0 -30463949.355407715 7665019.9074602127 0 7665019.9074602127 -98138068.765306473 0 0 0 0 -22332754.272581458 -4553000.3724871874 0 -4553000.3724871874 -6482914.3835678101 0 0 0 0 199273919.64778328 -57134087.589113951 0 -57134087.589113951 -66537513.06610775 0 0 0 0 143356.35892208666 270488.12989989482 0 270488.12989989482 84447.476670349948 0 0 0 0 153921324.83753586 24270775.170675278 0 24270775.170675278 -212651634.75910282 0 0 0 0 145255152.79921722 58475550.282267392 0 58475550.282267392 -47383192.587224007 0 0 0 0 37305072.182117462 88712275.333474398 0 88712275.333474398 -24808262.965392113 0 0 0 0 65601102.563112259 28124125.576021433 0 28124125.576021433 3605083.801697731 0 0 0 0 233531.1404866688 692752.87922148686 0 692752.87922148686 482662.53652449651 0 0 0 0 11024986.554218292 -4229033.3034863472 0 -4229033.3034863472 6796612.5982313156 0 0 0 0 -8601590.8667678833 -17384511.028599739 0 -17384511.028599739 -952781.78364372253 0 0 0 0 -13606261.97807312 3649472.4150247574 0 3649472.4150247574 14140253.421683311 0 0 0 0 2257809.571937561 1982733.7132148743 0 1982733.7132148743 2902922.9332466125 0 0 0 0 648409.54381149542 521024.96128401347 0 521024.96128401347 1382707.3781478868 0 0 0 0 -1292387.8854536051 972068.32571974816 0 972068.32571974816 158562.28522026888 0 0 0 0 29065965.319350243 48905621.20629257 0 48905621.20629257 67861051.57325983 0 0 0 0 -173532599.76203156 -26158025.152390003 0 -26158025.152390003 5299742.1793400645 0 0 0 0 -80273.507080124691 -121550.91477536713 0 -121550.91477536713 98570.795624314225 0 0 0 0 -198188.8960609436 -274477.5791246891 0 -274477.5791246891 224124.57943725586 0 0 0 0 1648786.9673195593 20741.553404289763 0 20741.553404289763 593968.39319367683 0 0 0 0 241378.02095176093 -64978.953190069646 0 -64978.953190069646 134426.48262049211 0 0 0 0 -4296471.991607666 2499441.0959510803 0 2499441.0959510803 -2308512.2514610291 0 0 0 0 2535520.5170846432 -526710.37852948438 0 -526710.37852948438 68374.306736653903 0 0 0 0 986857.48650360107 1292906.5557551384 0 1292906.5557551384 3339834.5829296112 0 0 0 0 2288450.9761541774 -17318.429329703562 0 -17318.429329703562 1335494.4592323911 0 0 0 0 -3772259.0123519897 -1522796.1790289879 0 -1522796.1790289879 1818031.1946949959 0 0 0 0 224898229.7442627 150292289.88730812 0 150292289.88730812 -19093445.917696476 0 0 0 0 197376875.34064102 67672388.101018429 0 67672388.101018429 -83718673.213671684 0 0 0 0 -210153243.87411118 232703193.33299112 0 232703193.33299112 72294359.455222607 0 0 0 0 720467265.83132935 51594656.098329544 0 51594656.098329544 -166389521.83976078 0 0 0 0 115893832.94569397 54158712.227795601 0 54158712.227795601 22278970.51424408 0 0 0 0 -109051936.64854431 -35883467.247236252 0 -35883467.247236252 77566197.842006683 0 0 0 0 331349870.94623232 -639137926.73730111 0 -639137926.73730111 268155094.65929604 0 0 0 0 326002014.04160309 429407548.35268903 0 429407548.35268903 -76273573.419956207 0 0 0 0 16529704.594161987 132078032.31606579 0 132078032.31606579 -427340345.0383997 0 0 0 0 30536850.515575409 40348030.197916985 0 40348030.197916985 -226147999.08395672 0 0 0 0 -135132863.11827087 119508216.2175808 0 119508216.2175808 290130847.85971451 0 0 0 0 -108788.62645438127 213782.63432052825 0 213782.63432052825 -79331.418054508278 0 0 0 0 -58022299.262283325 102445453.51927185 0 102445453.51927185 280989717.34683228 0 0 0 0 45710159.066047668 -4384132.5502614975 0 -4384132.5502614975 -343863640.27725601 0 0 0 0 -6024888.3014907837 -14729467.334768295 0 -14729467.334768295 -16437829.007348061 0 0 0 0 -3740119.8624489307 -1326533.9342000708 0 -1326533.9342000708 -6116485.6533985138 0 0 0 0 3562621.5910892896 -1045927.8256093238 0 -1045927.8256093238 123152.93254449149 0 0 0 0 -576586.75494758785 -47203.923739281949 0 -47203.923739281949 651534.81103074062 0 0 0 0 -2172558.8170394897 -16543047.094838381 0 -16543047.094838381 -248248493.15903473 0 0 0 0 40979490.281974792 -4102123.5081729889 0 -4102123.5081729889 -340663136.60106659 0 0 0 0 51312451.958820343 133094975.71252155 0 133094975.71252155 -213472927.0393784 0 0 0 0 -30051748.581432343 1120644.686273098 0 1120644.686273098 -128830245.09755039 0 0 0 0 6896656.5132827759 4040526.1015677452 0 4040526.1015677452 -1695168.4023491144 0 0 0 0 5277264.6451721191 2590753.0006713867 0 2590753.0006713867 1324819.5254573226 0 0 0 0 9040012.9013853073 6733149.043526113 0 6733149.043526113 1122892.3448419571 0 0 0 0 8869574.8420181274 4725795.7715220451 0 4725795.7715220451 -642630.51336479187 0 0 0 0 7650371.9186935425 129963.49525117874 0 129963.49525117874 -304373.04654693604 0 0 0 0 1503636.2428036286 -233817.86727563944 0 -233817.86727563944 -690618.83752920199 0 0 0 0 4550446.5300617218 4559872.2134488821 0 4559872.2134488821 -1166649.7491312027 0 0 0 0 45625.710983276367 -3406249.5 0 -3406249.5 -1120620.7126636505 0 0 0 0 1973618.969942553 567432.25650260551 0 567432.25650260551 -646251.30827397585 0 0 0 0 -5532845.4652557373 -5205884.2166757584 0 -5205884.2166757584 -1600923.409763813 0 0 0 0 1837569.8476715088 1963615.3938560486 0 1963615.3938560486 2785925.2051506042 0 0 0 0 1969351.5865478516 1884787.3974876404 0 1884787.3974876404 2786649.461643219 0 0 0 0 180508.7811206039 220917.03020663909 0 220917.03020663909 375087.31660265964 0 0 0 0 6312140.0972595215 2867415.0317707062 0 2867415.0317707062 -3584803.4429297447 0 0 0 0 -1736273.9999809265 3365032.30394876 0 3365032.30394876 -1149511.8059473038 0 0 0 0 1956709.7263259888 1457086.6539163589 0 1457086.6539163589 1223955.8307161331 0 0 0 0 3502748.5230789185 -7296151.100440979 0 -7296151.100440979 -4883050.4655060768 0 0 0 0 1738991.388299942 451166.78702068329 0 451166.78702068329 9214442.2669558525 0 0 0 0 7629337.7633552551 2595534.240231514 0 2595534.240231514 5626147.478884697 0 0 0 0 4052925.8196258545 -495501.05862426758 0 -495501.05862426758 -1315727.3998279572 0 0 0 0 -12953084.281513214 -7512034.0357177258 0 -7512034.0357177258 13515984.723995686 0 0 0 0 -252131.10961151123 11664822.807025433 0 11664822.807025433 17518903.41821003 0 0 0 0 -4112949.4376296997 17148615.468717337 0 17148615.468717337 55653563.616967201 0 0 0 0 -778823.2038192749 7494324.6767859459 0 7494324.6767859459 21558645.202869177 0 0 0 0 -1170979.1676521301 624658.92878675461 0 624658.92878675461 4621061.4262580872 0 0 0 0 -6845.5892105102539 3192819.7057948112 0 3192819.7057948112 9396457.223610878 0 0 0 0 11190502.54276371 14167199.31659019 0 14167199.31659019 9234843.0449514389 0 0 0 0 9627816.3667831421 33674281.520380974 0 33674281.520380974 22491100.217238188 0 0 0 0 1323667.2226810455 15379733.357224941 0 15379733.357224941 23755809.050374031 0 0 0 0 16198127.762301445 56289717.624937773 0 56289717.624937773 37445528.020942688 0 0 0 0 5764947.1695175171 34229439.604604006 0 34229439.604604006 27230787.635699272 0 0 0 0 15646805.477962494 79750946.705933571 0 79750946.705933571 12221379.608289719 0 0 0 0 21653713.600416183 60840610.191811204 0 60840610.191811204 -41295622.194390297 0 0 0 0 7779654.421918869 159767194.65051842 0 159767194.65051842 -101441261.28785896 0 0 0 0 50992732.770994186 3231033.572593689 0 3231033.572593689 -2101975.7748762369 0 0 0 0 32473345.211425781 33187346.516082048 0 33187346.516082048 -6514147.5801763535 0 0 0 0 381782.52097601071 -152186.08272890095 0 -152186.08272890095 -151068.90146390488 0 0 0 0 -170225502.21796703 190037727.87822008 0 190037727.87822008 -46193825.847621918 0 0 0 0 -26634587.895076752 142515202.33199787 0 142515202.33199787 -40437079.126036927 0 0 0 0 -148610787.14039612 118522853.7658937 0 118522853.7658937 122103581.08901024 0 0 0 0 -65443938.572669983 41511374.474392414 0 41511374.474392414 144050544.25469637 0 0 0 0 -2397308.271856308 73357072.090419292 0 73357072.090419292 66022223.32454586 0 0 0 0 -41544751.567295074 102830274.20054197 0 102830274.20054197 47057368.044629455 0 0 0 0 8701065.50050354 83578245.174504757 0 83578245.174504757 43879221.591586113 0 0 0 0 -50485108.349575043 -92858336.974399567 0 -92858336.974399567 -32198997.250098228 0 0 0 0 -238727857.65109253 223878.90329790115 0 223878.90329790115 -62004245.988014221 0 0 0 0 170732568.07410812 69142055.562416553 0 69142055.562416553 -188358868.96650839 0 0 0 0 -105650223.78050613 172713563.74189472 0 172713563.74189472 -259085612.10007095 0 0 0 0 -88979764.689683914 133768726.09730721 0 133768726.09730721 -202694937.61078644 0 0 0 0 90433279.003723145 99232498.825736046 0 99232498.825736046 -323722659.11532021 0 0 0 0 -30267835.844120026 101826696.38448334 0 101826696.38448334 130637598.7593565 0 0 0 0 122571000.97552872 249212894.43764132 0 249212894.43764132 -116937325.71475887 0 0 0 0 1688392.7941322327 116620298.81587219 0 116620298.81587219 -160129598.47732639 0 0 0 0 12196678.662887573 139925915.98437929 0 139925915.98437929 -121848568.45731977 0 0 0 0 816098489.62228775 -59960208.968435526 0 -59960208.968435526 -34160666.817572773 0 0 0 0 187299265.25142097 287194789.60032511 0 287194789.60032511 264910330.17606974 0 0 0 0 179711477.15425301 23275106.158221245 0 23275106.158221245 -112332001.34051484 0 0 0 0 693509710.84816694 -475295879.83901501 0 -475295879.83901501 1155930.3023110628 0 0 0 0 2712506.6497178087 977172.52477998426 0 977172.52477998426 -182838.18794050394 0 0 0 0 -1089725.1847896576 -78412357.892770529 0 -78412357.892770529 445767290.57856047 0 0 0 0 348433887.46210098 -80021496.942588806 0 -80021496.942588806 -127899327.62613946 0 0 0 0 308242518.49766684 -22211704.758526981 0 -22211704.758526981 -122336497.35533476 0 0 0 0 21636928.937802315 20616250.440813899 0 20616250.440813899 -53328174.766453028 0 0 0 0 8222341.8374052048 49993433.053963423 0 49993433.053963423 69438430.193563461 0 0 0 0 -16321202.686651349 22793534.339840025 0 22793534.339840025 112265215.72037745 0 0 0 0 -28782266.656982422 29035594.110373497 0 29035594.110373497 109393888.32103476 0 0 0 0 346376392.1508249 -90655081.902081668 0 -90655081.902081668 -181197571.56201839 0 0 0 0 14226033.848882675 -6941919.751554966 0 -6941919.751554966 108771851.14342204 0 0 0 0 228561822.93864805 -111243677.74372578 0 -111243677.74372578 -60322860.747738838 0 0 0 0 7750462.9831747534 3423411.4173924024 0 3423411.4173924024 -551002.63233917253 0 0 0 0 -250339823.08679575 374788178.3793478 0 374788178.3793478 -79619228.672616005 0 0 0 0 2942744.1545991898 22580625.699362874 0 22580625.699362874 58512325.091763496 0 0 0 0 8993377.4725933988 845998.70706829615 0 845998.70706829615 -2094249.4704939891 0 0 0 0 -13391993.181866646 -26250124.357051849 0 -26250124.357051849 -13548412.660544574 0 0 0 0 -5837816.7652831078 -38833072.242882967 0 -38833072.242882967 7349320.6076728404 0 0 0 0 37492644.475625992 54849387.361207962 0 54849387.361207962 33126087.553429604 0 0 0 0 19465868.546669006 44764710.632744312 0 44764710.632744312 59343613.304690272 0 0 0 0 11004234.167278025 657911.17041654559 0 657911.17041654559 -2696489.1582752028 0 0 0 0 14686008.907828331 -153645721.37964725 0 -153645721.37964725 107336495.84347057 0 0 0 0 45761720.914440155 46466460.473721981 0 46466460.473721981 12483102.185801506 0 0 0 0 -5457181.8270874023 -29984859.135684967 0 -29984859.135684967 -49208771.569446564 0 0 0 0 -11549638.870837927 3899084.3165794909 0 3899084.3165794909 35754273.372971535 0 0 0 0 146139671.37067556 53444235.496416926 0 53444235.496416926 -46293212.882271767 0 0 0 0 -85318.508344457077 -185796.20903661853 0 -185796.20903661853 435123.17009430891 0 0 0 0 15769399.274210334 -27545358.554458618 0 -27545358.554458618 25376568.244888783 0 0 0 0 8816507.6050546169 3594467.8560516834 0 3594467.8560516834 -2426771.5320694447 0 0 0 0 -2319247.1081843376 1870905.8185534477 0 1870905.8185534477 16322248.900197029 0 0 0 0 -9561934.1064453125 -437324.4734377861 0 -437324.4734377861 20081172.017755032 0 0 0 0 1267295.358335048 19148312.457514048 0 19148312.457514048 3564940.8572835922 0 0 0 0 -5467075.5153274536 19014257.740753174 0 19014257.740753174 29858454.245381832 0 0 0 0 -12572819.42895329 31749328.630742788 0 31749328.630742788 7272879.7226200104 0 0 0 0 -20678519.513844728 -17658582.392986178 0 -17658582.392986178 134187865.42310238 0 0 0 0 -13977099.502931118 -2659205.7495646477 0 -2659205.7495646477 44385977.579013824 0 0 0 0 -15520720.836470127 43985213.109839439 0 43985213.109839439 87729882.899026394 0 0 0 0 36854361.59444499 69755046.893504143 0 69755046.893504143 -97711793.210861206 0 0 0 0 -14485203.260408878 78200095.708356857 0 78200095.708356857 -1164458.6445980072 0 0 0 0 13611917.067925215 44188349.950385094 0 44188349.950385094 5582328.231133461 0 0 0 0 13420034.956013441 46826890.032177925 0 46826890.032177925 -22860735.217037201 0 0 0 0 -80446631.089213371 125365498.25221348 0 125365498.25221348 204889291.70898247 0 0 0 0 56976654.332817554 127740838.01260567 0 127740838.01260567 -7668118.3044090271 0 0 0 0 -12558668.422221363 92393618.597557545 0 92393618.597557545 25307269.957315445 0 0 0 0 -23942816.990180969 249528360.20435905 0 249528360.20435905 -18635165.337099075 0 0 0 0 59642778.556709528 163891014.65255761 0 163891014.65255761 -307007095.7473774 0 0 0 0 22136539.789415359 -218615678.18787956 0 -218615678.18787956 -356830518.8625114 0 0 0 0 8704618.4653151669 -1790810.5700902357 0 -1790810.5700902357 -4846427.6932650469 0 0 0 0 21572330.53961587 14464880.754134178 0 14464880.754134178 -51451958.256394386 0 0 0 0 4062728.4368878473 1711553.1434506024 0 1711553.1434506024 1516932.3208773322 0 0 0 0 34436375.414347649 -28796298.791099906 0 -28796298.791099906 23849526.391048431 0 0 0 0 22093226.638361275 6848583.8425908089 0 6848583.8425908089 -50541108.627400577 0 0 0 0 309040.1366772349 179748.14579281554 0 179748.14579281554 25483.976781262085 0 0 0 0 17631510.306739807 6888667.2861738205 0 6888667.2861738205 5568244.9303770065 0 0 0 0 12203220.344589863 3436304.7445811033 0 3436304.7445811033 -13897935.595403671 0 0 0 0 12690478.04506731 2938603.0248408318 0 2938603.0248408318 -20189420.325917721 0 0 0 0 10242411.731620554 18743200.81231904 0 18743200.81231904 2366356.7481861115 0 0 0 0 10337696.934495091 22095296.955030441 0 22095296.955030441 -33472087.273729324 0 0 0 0 11882005.835832596 7210898.2230973244 0 7210898.2230973244 2089058.7431869507 0 0 0 0 12393833.322986603 9519956.6831412315 0 9519956.6831412315 9827871.265794754 0 0 0 0 140940898.65086746 -60721644.254133224 0 -60721644.254133224 5380151.2356567383 0 0 0 0 99457174.280517578 166093318.48763156 0 166093318.48763156 -15938636.909076393 0 0 0 0 225260348.1961174 136037186.0804143 0 136037186.0804143 25195324.619321108 0 0 0 0 123904592.68927002 52848043.97297132 0 52848043.97297132 7167359.9860477448 0 0 0 0 104513928.26448441 66422819.29575491 0 66422819.29575491 -1533658.3537044525 0 0 0 0 60059706.853149414 74986480.588007927 0 74986480.588007927 23511087.5960536 0 0 0 0 122787799.27976131 103655659.99127722 0 103655659.99127722 35080476.231492996 0 0 0 0 40821623.897628784 97808195.707688332 0 97808195.707688332 100705083.0249052 0 0 0 0 28138339.163261414 69144496.511643887 0 69144496.511643887 44379522.347455025 0 0 0 0 17852344.092575073 71330281.484480381 0 71330281.484480381 42511778.453465462 0 0 0 0 29300224.701499939 84871456.839450836 0 84871456.839450836 53916586.373859406 0 0 0 0 65218057.080886841 85691593.554097652 0 85691593.554097652 30317439.335244179 0 0 0 0 42684281.641716003 77795389.013219357 0 77795389.013219357 27750954.504554749 0 0 0 0 34772766.470563889 72225787.395663977 0 72225787.395663977 32196855.456353188 0 0 0 0 28970606.743961334 83657124.60874939 0 83657124.60874939 30789751.421447754 0 0 0 0 42891571.588531494 70524173.807031155 0 70524173.807031155 28893717.004546165 0 0 0 0 55654401.220912933 73752685.326956749 0 73752685.326956749 25763794.74656868 0 0 0 0 62090771.401115417 56875836.125649452 0 56875836.125649452 13712772.853285313 0 0 0 0 76273099.6914711 40763860.317531586 0 40763860.317531586 4124989.0927834511 0 0 0 0 46267567.831562042 49532715.153875113 0 49532715.153875113 16132442.65234375 0 0 0 0 82022952.039082527 72069454.197594702 0 72069454.197594702 17807962.274894714 0 0 0 0 54434943.241973877 60305090.559754372 0 60305090.559754372 13174864.481040001 0 0 0 0 434130379.4525454 -198493085.3207351 0 -198493085.3207351 230931262.14458692 0 0 0 0 180727685.75118136 100831564.88961026 0 100831564.88961026 48518079.494152665 0 0 0 0 242652569.93243825 299639420.58034003 0 299639420.58034003 564184443.95964766 0 0 0 0 -133927584.89481884 6688873.7741661221 0 6688873.7741661221 130337193.07528007 0 0 0 0 -57423719.2349087 134854185.98248652 0 134854185.98248652 262116471.82271618 0 0 0 0 -315113964.04968214 -65907958.240423322 0 -65907958.240423322 119923062.68106019 0 0 0 0 -109525972.72830367 11085138.109962497 0 11085138.109962497 -6956294.8551629335 0 0 0 0 2288026.4606316304 -1235274.5266874477 0 -1235274.5266874477 1481004.0856474806 0 0 0 0 -63595230.973996818 114191046.7725662 0 114191046.7725662 51735176.298531651 0 0 0 0 1624555.6279979213 -1321899.861639055 0 -1321899.861639055 1870009.1296467343 0 0 0 0 -139724881.38721991 31047429.829172708 0 31047429.829172708 48505033.193320893 0 0 0 0 -1799128.5558065176 1565094.7362778187 0 1565094.7362778187 9775571.7316989899 0 0 0 0 13489291.728441 11052977.831850648 0 11052977.831850648 260733.1320142746 0 0 0 0 7044308.9536160529 9864137.9279530048 0 9864137.9279530048 9406883.5397741646 0 0 0 0 14042514.158909261 4188156.2806816101 0 4188156.2806816101 4821139.847799778 0 0 0 0 11718316.759958029 6129103.4303511381 0 6129103.4303511381 4562931.4801330566 0 0 0 0 14505793.582639694 4449741.3102760315 0 4449741.3102760315 4631636.7021764666 0 0 0 0 15936351.487354279 4134073.4348912239 0 4134073.4348912239 -8154912.6884794235 0 0 0 0 9262477.8281731512 -1291800.7774561136 0 -1291800.7774561136 -5274074.4797253609 0 0 0 0 18506840.717525244 6645463.8108131886 0 6645463.8108131886 3948652.8063049316 0 0 0 0 3541269.0969519811 -695579.22751517978 0 -695579.22751517978 931628.57383141946 0 0 0 0 -301459988.06795663 -206396810.40007758 0 -206396810.40007758 12128183.827005863 0 0 0 0 12935290.262791634 6943860.1989674568 0 6943860.1989674568 5574351.6490664482 0 0 0 0 -90041835.567515314 -111169559.77034128 0 -111169559.77034128 -120863485.99394035 0 0 0 0 -95906057.339665622 -20407389.125738658 0 -20407389.125738658 48879962.223380566 0 0 0 0 67175022.845333755 -155467082.62758875 0 -155467082.62758875 139447832.53061789 0 0 0 0 -211053540.07535666 -45605672.010495543 0 -45605672.010495543 -32228347.370654106 0 0 0 0 -46013459.383083045 -107551106.31333876 0 -107551106.31333876 -125626207.08867931 0 0 0 0 -42473426.452409565 -172507363.74797118 0 -172507363.74797118 -6020204.8083724976 0 0 0 0 68315301.514764667 -41466255.549587011 0 -41466255.549587011 -80994290.444063663 0 0 0 0 99366783.623041511 -103026212.85158992 0 -103026212.85158992 39669958.700735092 0 0 0 0 -49291357.338707089 -109648060.71267748 0 -109648060.71267748 -26019848.153795481 0 0 0 0 178110287.03793585 48137108.515711904 0 48137108.515711904 53262791.31312871 0 0 0 0 -31998161.04471992 -91341240.145080209 0 -91341240.145080209 -102097202.43509483 0 0 0 0 -40158176.43259871 -71664129.836330414 0 -71664129.836330414 -75631853.371723175 0 0 0 0 20994741.702569485 -47737235.275414467 0 -47737235.275414467 -94556031.038442612 0 0 0 0 41976895.842810392 -69907500.643753529 0 -69907500.643753529 -81486657.770057678 0 0 0 0 56289083.696708575 -26734659.139740158 0 -26734659.139740158 -65606640.771711349 0 0 0 0 57125980.680181444 -86608829.303407341 0 -86608829.303407341 -95574749.701711655 0 0 0 0 -39806109.701914817 -99232610.008867741 0 -99232610.008867741 -70328264.747722626 0 0 0 0 -148744123.6119827 -141973004.88234425 0 -141973004.88234425 -52265995.58658123 0 0 0 0 5702574.9495134568 896000.73321329919 0 896000.73321329919 535333.45286006294 0 0 0 0 -1293147.5830647089 -1369631.9942605109 0 -1369631.9942605109 -192870.81121744658 0 0 0 0 -13424783.164474487 -6066850.9597272873 0 -6066850.9597272873 -11549890.685159683 0 0 0 0 -75276497.556520462 -54169625.573981047 0 -54169625.573981047 -88873769.049482346 0 0 0 0 15347778.411416514 476857.68111291702 0 476857.68111291702 -5407126.5811114283 0 0 0 0 -1423702.5651859087 -1077851.0423036483 0 -1077851.0423036483 -332734.60337214684 0 0 0 0 -21597496.242840469 -4940541.9670372009 0 -4940541.9670372009 -32850179.794303894 0 0 0 0 23445091.407951355 -823499.47846412659 0 -823499.47846412659 -12668898.799036503 0 0 0 0 30808603.593818665 -7519672.9889431 0 -7519672.9889431 -6764020.0768280029 0 0 0 0 34896052.955223083 15119818.290255547 0 15119818.290255547 11425203.995804071 0 0 0 0 8573833.576091487 -1534556.7627289051 0 -1534556.7627289051 -5503830.3128021117 0 0 0 0 16342976.09180069 -15884408.654221535 0 -15884408.654221535 -8588545.7646837234 0 0 0 0 15423206.111316323 6225643.9682300091 0 6225643.9682300091 4574641.4338626862 0 0 0 0 4773726.4903736115 7374024.540220499 0 7374024.540220499 -2044135.8997612 0 0 0 0 23714134.710105896 11350102.601341248 0 11350102.601341248 -8699382.5686995387 0 0 0 0 22633896.617790222 17713503.270641148 0 17713503.270641148 -1173095.4224567413 0 0 0 0 28442156.237687588 9127458.5174326897 0 9127458.5174326897 3237445.6710577011 0 0 0 0 -1847126.265291214 -988539.45882630348 0 -988539.45882630348 45951477.776837349 0 0 0 0 28877277.020168304 -1569442.5878553391 0 -1569442.5878553391 567458.13549995422 0 0 0 0 22840393.52978611 4359844.2032668591 0 4359844.2032668591 48954507.963701248 0 0 0 0 8559790.1434192657 36661228.223077536 0 36661228.223077536 158418176.70606804 0 0 0 0 47886765.578346252 30751776.5426054 0 30751776.5426054 41482131.054092407 0 0 0 0 103112899.54154587 135067770.35944462 0 135067770.35944462 135257336.98582709 0 0 0 0 207231974.3102684 73296798.300831318 0 73296798.300831318 63301114.760573387 0 0 0 0 159018192.27912521 96992784.79897213 0 96992784.79897213 53966138.187548399 0 0 0 0 106736505.81564713 67800553.555277348 0 67800553.555277348 42744634.300759315 0 0 0 0 77448744.243933678 68626505.348672152 0 68626505.348672152 68607061.551243782 0 0 0 0 44889580.264877319 66301120.210143089 0 66301120.210143089 78078839.619486332 0 0 0 0 97969898.82478714 85803933.96890974 0 85803933.96890974 48615658.691025734 0 0 0 0 46930799.316642761 66837417.214417458 0 66837417.214417458 61602038.998673439 0 0 0 0 36588548.936595917 27841313.308441162 0 27841313.308441162 34267566.157952309 0 0 0 0 25636460.085124969 41586563.392933846 0 41586563.392933846 68976948.361668587 0 0 0 0 27221653.666244507 34921685.078463554 0 34921685.078463554 107693672.48652792 0 0 0 0 20405205.706027985 21030621.767258644 0 21030621.767258644 41847167.762381554 0 0 0 0 31420256.388484955 4720100.1707761288 0 4720100.1707761288 -6564358.9842786789 0 0 0 0 26426802.068706512 36710865.370302677 0 36710865.370302677 19519346.460326195 0 0 0 0 30070567.328281403 27923119.546311855 0 27923119.546311855 29577569.978523254 0 0 0 0 39322808.654697418 53422449.687811613 0 53422449.687811613 53200740.539223194 0 0 0 0 72722640.884692669 58031856.338516116 0 58031856.338516116 43364767.445960045 0 0 0 0 57849031.698876381 -2297252.0124309063 0 -2297252.0124309063 -35014491.570679665 0 0 0 0 40949990.764015198 55066505.868649483 0 55066505.868649483 51176738.873091221 0 0 0 0 -22745.445584855974 -183323.41296774801 0 -183323.41296774801 -481452.71656766604 0 0 0 0 69940006.763263702 80840190.463307381 0 80840190.463307381 66836664.943785667 0 0 0 0 6572694.6320888307 1692890.5228611692 0 1692890.5228611692 -1000539.2463935413 0 0 0 0 8755602.2800636292 -269240.57595288754 0 -269240.57595288754 14264095.140114307 0 0 0 0 19271921.684824228 -51591718.940084934 0 -51591718.940084934 -87187323.014038086 0 0 0 0 7398407.6324148178 4597823.864171803 0 4597823.864171803 1452184.2364284992 0 0 0 0 9236711.2961642444 575360.11045337562 0 575360.11045337562 -5734959.7309242636 0 0 0 0 -9160018.5769639015 -55178864.742398262 0 -55178864.742398262 -60474168.542106628 0 0 0 0 1645316.5907459259 -7763276.3860770464 0 -7763276.3860770464 12788298.622045875 0 0 0 0 5004150.2326068878 10709121.954788446 0 10709121.954788446 -5076664.9834392071 0 0 0 0 17652711.498214722 9334035.7780189514 0 9334035.7780189514 24768331.518321037 0 0 0 0 19620273.816303253 -7411775.7291785479 0 -7411775.7291785479 -13562093.589017451 0 0 0 0 9369576.5621757507 11134008.135821104 0 11134008.135821104 -2406767.8723859787 0 0 0 0 -10619496.208783865 12308732.622005582 0 12308732.622005582 19795049.774842262 0 0 0 0 13029500.990787506 -7821455.7035193443 0 -7821455.7035193443 19796941.196856499 0 0 0 0 6534117.7158660889 16469411.821351051 0 16469411.821351051 36646920.70097518 0 0 0 0 5990239.4117240906 -6567453.1266977787 0 -6567453.1266977787 83331637.162495613 0 0 0 0 6823802.9459037781 5756382.362683773 0 5756382.362683773 22246246.928382874 0 0 0 0 2934409.0031967163 46160893.519693851 0 46160893.519693851 74244652.878742218 0 0 0 0 10087112.063770294 41045873.578613043 0 41045873.578613043 37809857.211387634 0 0 0 0 13170252.733596802 61018840.542286158 0 61018840.542286158 95566323.167573929 0 0 0 0 11509652.631546021 65939285.389706612 0 65939285.389706612 85952867.656734943 0 0 0 0 56869273.755386353 152782517.6901989 0 152782517.6901989 238071092.44638824 0 0 0 0 -20807404.227416515 -30148836.814783514 0 -30148836.814783514 30968864.393801689 0 0 0 0 19701254.764060974 -10199.387192249298 0 -10199.387192249298 27937479.111377001 0 0 0 0 -17328122.184160233 -9450388.3610696793 0 -9450388.3610696793 146753709.29287434 0 0 0 0 105111148.28128815 57540468.109305024 0 57540468.109305024 316007809.11403418 0 0 0 0 184582.34825209249 -156840.06362653989 0 -156840.06362653989 293082.36264514644 0 0 0 0 69250241.405146837 13202210.757513702 0 13202210.757513702 178273099.56288719 0 0 0 0 325418889.16318893 261905104.11394501 0 261905104.11394501 132308661.60958886 0 0 0 0 17667226.950820923 14656562.207429409 0 14656562.207429409 1129896.4719462395 0 0 0 0 17053376.710699081 12857368.286443233 0 12857368.286443233 -3904058.6134047508 0 0 0 0 1975874.4521314437 515160.0729369428 0 515160.0729369428 926644.74604512192 0 0 0 0 17678524.622749329 13550536.30498457 0 13550536.30498457 -3318358.823114872 0 0 0 0 224364572.38417816 208541582.41370916 0 208541582.41370916 136121882.72511292 0 0 0 0 606097.15011795145 108510.51434479188 0 108510.51434479188 343880.82930290885 0 0 0 0 215028996.34943581 187636057.89934266 0 187636057.89934266 106572038.35355854 0 0 0 0 251323061.92167664 65536363.841044188 0 65536363.841044188 2554555.8005456924 0 0 0 0 211793420.39987946 175443983.92329979 0 175443983.92329979 122176518.51733112 0 0 0 0 -8492080.8307476044 7843992.8000453115 0 7843992.8000453115 -1426025.8643128872 0 0 0 0 -9372591.1306152344 9922562.9636597633 0 9922562.9636597633 3865385.5713484287 0 0 0 0 73750.18676832132 -276096.0373448329 0 -276096.0373448329 1369073.0530991007 0 0 0 0 549900.62702393718 1294067.3929710784 0 1294067.3929710784 -719208.55834402284 0 0 0 0 176846271.90611267 200294249.40359783 0 200294249.40359783 176574166.69460297 0 0 0 0 211175400.07861328 167248818.26073503 0 167248818.26073503 130522782.37941742 0 0 0 0 -14596310.740585327 58168857.121452332 0 58168857.121452332 85783845.640346527 0 0 0 0 -4166.139068743214 15559.904659411055 0 15559.904659411055 7674.2567605869845 0 0 0 0 156958675.95613098 182701492.47276688 0 182701492.47276688 105559984.38921356 0 0 0 0 173653340.62019348 126886101.26411819 0 126886101.26411819 101696527.91882706 0 0 0 0 196322896.21516037 60980703.018719196 0 60980703.018719196 31455508.377606869 0 0 0 0 144460600.43031311 163533229.09553719 0 163533229.09553719 202492886.36322498 0 0 0 0 182117745.40758514 43741379.158774376 0 43741379.158774376 161438712.14360833 0 0 0 0 176922863.39624906 187310795.26782 0 187310795.26782 103306130.19124222 0 0 0 0 417023.0387506485 -19479824.349692225 0 -19479824.349692225 -53197432.828087807 0 0 0 0 154363523.95786667 47159468.090550423 0 47159468.090550423 70780728.733942509 0 0 0 0 426776.84382129647 406363.4839990316 0 406363.4839990316 -131621.09639564389 0 0 0 0 142321480.44307709 68663741.107926369 0 68663741.107926369 33477360.863397121 0 0 0 0 6020665.8760690689 -7736703.2994995117 0 -7736703.2994995117 -50537899.721372604 0 0 0 0 2568113.7665557861 -1187206.8816547394 0 -1187206.8816547394 -28867778.509304047 0 0 0 0 -2391629.7576332092 -20840246.48597002 0 -20840246.48597002 -26619433.453350067 0 0 0 0 -9262748.0428695679 -15163164.199222565 0 -15163164.199222565 -8913664.5336041451 0 0 0 0 4271258.5223960876 -19913335.401582718 0 -19913335.401582718 -53314048.830821991 0 0 0 0 -1582298.0699958801 -10005245.768152237 0 -10005245.768152237 -49571995.132830858 0 0 0 0 7715259.1017875671 -6430417.9216423035 0 -6430417.9216423035 -64434459.819281101 0 0 0 0 6589473.571395874 -19349201.111941814 0 -19349201.111941814 -73617906.176824808 0 0 0 0 13186262.932556152 -5000140.8854868412 0 -5000140.8854868412 -94112561.773186684 0 0 0 0 4258624.636548996 -4717469.144977808 0 -4717469.144977808 -57658057.227716446 0 0 0 0 15141840.99105835 8526343.0100958347 0 8526343.0100958347 -63402332.634561539 0 0 0 0 -2377141.7492446899 -1251772.635093689 0 -1251772.635093689 -31842968.289178699 0 0 0 0 20033922.803684235 10495135.736116886 0 10495135.736116886 -31939831.965363838 0 0 0 0 5303777.7066669464 -13087179.058501005 0 -13087179.058501005 -13405802.688123703 0 0 0 0 -8328525.1090164185 6277904.8617105484 0 6277904.8617105484 14069157.699924946 0 0 0 0 -15416804.998191833 38979.716149330139 0 38979.716149330139 12354861.07157588 0 0 0 0 1452014.7175948266 1211722.8410516558 0 1211722.8410516558 -860440.1964393676 0 0 0 0 -5953987.3777313232 8947425.435792923 0 8947425.435792923 4352463.4791989326 0 0 0 0 -588921.19912338257 11234441.530900002 0 11234441.530900002 -13852775.247972488 0 0 0 0 -6864163.9641151428 36494953.436848164 0 36494953.436848164 -53925036.090073586 0 0 0 0 -8832179.6958465576 4392597.5652999878 0 4392597.5652999878 -16769350.697145939 0 0 0 0 -5380264.3787460327 18824219.345469475 0 18824219.345469475 -35721350.91115427 0 0 0 0 12835882.056163788 7266354.7082986832 0 7266354.7082986832 -73789166.06890583 0 0 0 0 18504227.721427917 -13903273.496125221 0 -13903273.496125221 -115341262.31351471 0 0 0 0 12871271.800900429 -1151840.8112753984 0 -1151840.8112753984 -119806600.11071205 0 0 0 0 19397314.375562668 -23007005.183937848 0 -23007005.183937848 -147240371.21694279 0 0 0 0 14493402.430171967 -873304.18627119064 0 -873304.18627119064 -120803523.09122753 0 0 0 0 2903834.1031742096 -29645836.113074303 0 -29645836.113074303 -139749148.83505344 0 0 0 0 16315163.663537979 -14828843.701719522 0 -14828843.701719522 -114016997.92571259 0 0 0 0 16582911.197870255 -21866158.372245073 0 -21866158.372245073 -149817143.730124 0 0 0 0 22672073.716491237 -3839079.4959780579 0 -3839079.4959780579 -381839.72035696497 0 0 0 0 18006585.677230835 -46546155.121666908 0 -46546155.121666908 -171512847.61434698 0 0 0 0 22431734.627975464 -31298475.359306812 0 -31298475.359306812 -143583059.89365911 0 0 0 0 12324588.96811676 -34414813.224975586 0 -34414813.224975586 -105315900.17326641 0 0 0 0 -2636962.9496135712 -40069071.754754782 0 -40069071.754754782 -86651757.191196203 0 0 0 0 18183394.995054245 -28073755.993666649 0 -28073755.993666649 -134657075.36517859 0 0 0 0 -46819851.729576111 -95734419.344685078 0 -95734419.344685078 -142092482.57663465 0 0 0 0 -1528308.2986946106 -25275625.13883996 0 -25275625.13883996 -49406344.210272312 0 0 0 0 21414722.578839302 -36754505.010750532 0 -36754505.010750532 -166189021.7710104 0 0 0 0 14594215.368251801 -30824989.998095751 0 -30824989.998095751 -134408265.83874175 0 0 0 0 17500791.906085968 -36159943.802651167 0 -36159943.802651167 -149358245.46741581 0 0 0 0 -11074163.567054749 -54371576.037073553 0 -54371576.037073553 -42221024.808647484 0 0 0 0 23879476.399080686 -4373800.5801012432 0 -4373800.5801012432 -664411.52855178225 0 0 0 0 17455739.42824173 -18602048.969790697 0 -18602048.969790697 -22434439.71554184 0 0 0 0 -17505089.783317566 -52540566.614750504 0 -52540566.614750504 -19330582.651023865 0 0 0 0 -14090433.050224304 -48217275.850044966 0 -48217275.850044966 -37756132.455618382 0 0 0 0 -11300786.262069702 -56917750.940082192 0 -56917750.940082192 -37087558.739447832 0 0 0 0 -24860506.652542114 -71585190.950872898 0 -71585190.950872898 29422642.713827074 0 0 0 0 22484399.737983704 -39430814.74830842 0 -39430814.74830842 -32154453.535604715 0 0 0 0 46323222.362724304 -92730536.652581096 0 -92730536.652581096 48736025.047155261 0 0 0 0 20048236.330581665 -94098367.966191113 0 -94098367.966191113 -166700860.48179656 0 0 0 0 -28673961.555091858 -99844711.628491342 0 -99844711.628491342 -36321240.181531191 0 0 0 0 -16510208.970878601 -50283457.136746407 0 -50283457.136746407 -37179076.866002768 0 0 0 0 45974420.925981522 47358494.541738272 0 47358494.541738272 16667454.52514267 0 0 0 0 78046670.802571297 86004344.572016299 0 86004344.572016299 6787975.6645150185 0 0 0 0 3752452.9942044644 1577887.7287023021 0 1577887.7287023021 -2891913.6501836334 0 0 0 0 100757586.39155388 65239250.562735438 0 65239250.562735438 25341898.33449769 0 0 0 0 52289181.817577362 51740549.641932011 0 51740549.641932011 49080946.215029716 0 0 0 0 62755137.00636673 22108077.227389574 0 22108077.227389574 -63841245.313436508 0 0 0 0 35928454.122817993 25217245.923679113 0 25217245.923679113 -18928781.312991619 0 0 0 0 73112025.161865234 21225390.416404724 0 21225390.416404724 -85568546.50518167 0 0 0 0 32023322.267234802 -42951587.6079638 0 -42951587.6079638 -146650008.47736263 0 0 0 0 62070319.079223633 63482919.080465555 0 63482919.080465555 -23502422.083382577 0 0 0 0 54250172.712254524 58398362.562746167 0 58398362.562746167 32893099.269757271 0 0 0 0 138454328.98719025 63505793.73584938 0 63505793.73584938 -91213512.198224068 0 0 0 0 154322879.64160538 107711469.44519591 0 107711469.44519591 9759273.6351964474 0 0 0 0 216426.76533807442 73491.904231076129 0 73491.904231076129 -158538.27774494886 0 0 0 0 27944960.019317627 -12813464.666186333 0 -12813464.666186333 -136577118.45965147 0 0 0 0 7962774.8980293274 -50336111.826985359 0 -50336111.826985359 -134300060.83030033 0 0 0 0 -8066169.2184867859 -35289070.155079365 0 -35289070.155079365 -117362553.18781137 0 0 0 0 24888869.583909601 -5338009.4672597377 0 -5338009.4672597377 -1476961.2902825787 0 0 0 0 375365.17266082764 -7288990.1902661324 0 -7288990.1902661324 4831847.5678369999 0 0 0 0 9798910.8878898546 -6773481.2967293411 0 -6773481.2967293411 140945.35170816793 0 0 0 0 42048495.91872406 -10531449.247671604 0 -10531449.247671604 -19647441.100368738 0 0 0 0 10725215.529876709 -64233617.101926208 0 -64233617.101926208 131049657.93533039 0 0 0 0 48386654.445446014 -107319764.91220713 0 -107319764.91220713 -9155038.1545827389 0 0 0 0 -41615910.805969238 -101010543.00924063 0 -101010543.00924063 -169355435.76672745 0 0 0 0 17086522.671161652 -43622548.422476292 0 -43622548.422476292 -115134151.86573696 0 0 0 0 1696473.3674105997 -1063913.1811509365 0 -1063913.1811509365 -218621.08000708278 0 0 0 0 -5745419.8763389587 -20105365.012111664 0 -20105365.012111664 -120945408.10020638 0 0 0 0 17799884.020397186 -38880104.302337646 0 -38880104.302337646 -105990140.0796262 0 0 0 0 39536454.9848032 39442015.222699881 0 39442015.222699881 -36267433.3309412 0 0 0 0 31097899.862943172 18917512.082175314 0 18917512.082175314 -55364868.596962929 0 0 0 0 -12302821.35244751 -45699770.414087772 0 -45699770.414087772 -107916681.85469961 0 0 0 0 9829721.5131988525 7833447.7831954956 0 7833447.7831954956 -18957320.44940269 0 0 0 0 6658158.554485321 -70928043.185780287 0 -70928043.185780287 -130426432.8254056 0 0 0 0 -197086.8062027134 -311891.88348218706 0 -311891.88348218706 403551.95040978619 0 0 0 0 1076171.8447418213 26103469.662061691 0 26103469.662061691 26419989.296513081 0 0 0 0 10427863.895778328 -7576748.8952636542 0 -7576748.8952636542 2235449.4339543083 0 0 0 0 311377550.62251282 -29982046.438497066 0 -29982046.438497066 -138469313.04526377 0 0 0 0 -107505652.98448944 -29234640.432318926 0 -29234640.432318926 -46808311.131027222 0 0 0 0 10709060.148673486 -3305245.2609366989 0 -3305245.2609366989 -703693.80583897093 0 0 0 0 32858217.715528488 99104976.07564044 0 99104976.07564044 -36069820.87650919 0 0 0 0 99701238.008701324 14380869.113469124 0 14380869.113469124 -29697089.983317852 0 0 0 0 3082439.1754722595 -261871.35836285353 0 -261871.35836285353 -3364522.2615380287 0 0 0 0 16962701.233406067 17425780.930401802 0 17425780.930401802 -9805149.6619296074 0 0 0 0 9470699.817257762 -2227873.2089747973 0 -2227873.2089747973 -20973.322075738339 0 0 0 0 7984210.9861545563 138853.15825623274 0 138853.15825623274 -2381196.8502275944 0 0 0 0 -180173.02407069132 -592253.30303824414 0 -592253.30303824414 863794.99152028887 0 0 0 0 -22152039.056093216 -4279199.4748143554 0 -4279199.4748143554 10449201.409593582 0 0 0 0 4781322.0593948364 -9113169.1657121181 0 -9113169.1657121181 -12361182.012899637 0 0 0 0 11809230.775653839 4930136.2131044269 0 4930136.2131044269 -1387698.1453101635 0 0 0 0 10210374.642028809 6967441.9094247818 0 6967441.9094247818 14395333.955994725 0 0 0 0 12581975.6518116 -4025128.7174910307 0 -4025128.7174910307 -1038386.5832259655 0 0 0 0 8799661.2366384678 -2048317.9581503784 0 -2048317.9581503784 44243.494754552841 0 0 0 0 5636275.2440357395 -6473436.3395111877 0 -6473436.3395111877 2745560.0665969821 0 0 0 0 -886451.34916687012 -42948099.609346867 0 -42948099.609346867 -7211630.0872893333 0 0 0 0 11837742.214565277 -8212653.5759329796 0 -8212653.5759329796 -14813060.416218698 0 0 0 0 14689070.339874268 15536342.895499825 0 15536342.895499825 -18024043.398192883 0 0 0 0 7866934.0870437622 28029139.391690493 0 28029139.391690493 8238003.6183094978 0 0 0 0 13782687.836242676 -44212675.147825241 0 -44212675.147825241 -15162574.699767053 0 0 0 0 4810050.9526824951 -3461488.545715332 0 -3461488.545715332 -13953989.79042387 0 0 0 0 -8586097.6016540527 -45675883.132581711 0 -45675883.132581711 -43544241.414546013 0 0 0 0 3731267.6937179565 -21485796.074454308 0 -21485796.074454308 -56718127.461420059 0 0 0 0 1096447.9641785622 -82550351.191847116 0 -82550351.191847116 69966753.40626049 0 0 0 0 1818422.0303497314 -68808057.062256336 0 -68808057.062256336 -57643388.927690506 0 0 0 0 -174508181.51882172 80367239.452162266 0 80367239.452162266 294884776.72421646 0 0 0 0 1017923.8824044876 -1606128.4719525427 0 -1606128.4719525427 1210539.2928739502 0 0 0 0 221666255.85140991 -86732781.954396248 0 -86732781.954396248 79294096.339540482 0 0 0 0 -5030040.3414031491 -3617277.1585175004 0 -3617277.1585175004 2672732.3362970073 0 0 0 0 -7523522.8980603218 -3311292.6791743636 0 -3311292.6791743636 10026161.696406364 0 0 0 0 2129026.5441970825 -1491542.6960687637 0 -1491542.6960687637 5357745.4750401378 0 0 0 0 8893985.1107788086 -18529.65200138092 0 -18529.65200138092 5449929.8781187534 0 0 0 0 -1909512.0656204224 -4483776.3001680374 0 -4483776.3001680374 6927258.0341663361 0 0 0 0 920774.60703920294 85899.840789660811 0 85899.840789660811 2150668.7389375148 0 0 0 0 -32518492.426677704 16105156.872278571 0 16105156.872278571 6542894.9624314308 0 0 0 0 -5738539.6900367737 -5646847.0391821861 0 -5646847.0391821861 9724934.0609712601 0 0 0 0 5490.9926147460938 -3688493.5146217346 0 -3688493.5146217346 7199337.983853817 0 0 0 0 5833526.3508987427 -7593162.7494020462 0 -7593162.7494020462 6038435.2008628845 0 0 0 0 -2641852.9667282104 -10074532.092203259 0 -10074532.092203259 11821818.931894302 0 0 0 0 -836588.53672027588 1672324.4292149544 0 1672324.4292149544 -4310731.8138122559 0 0 0 0 -83838687.430114746 23669750.767951965 0 23669750.767951965 41385392.586889267 0 0 0 0 6714443.137998688 -805001.12184535712 0 -805001.12184535712 -396893.30888780253 0 0 0 0 1527732.7947242968 -4678197.7907298226 0 -4678197.7907298226 425688.57226727519 0 0 0 0 2313188.5173950195 -2937729.3988418579 0 -2937729.3988418579 -1058032.9795279503 0 0 0 0 -795924.30458116531 -6448055.3158794316 0 -6448055.3158794316 3208271.2256440585 0 0 0 0 12452908.824268341 -5206191.6780149937 0 -5206191.6780149937 -12597867.506915569 0 0 0 0 -528858.53216648102 129693.54489083588 0 129693.54489083588 590669.01131343842 0 0 0 0 480545.66752666235 24747.66011072183 0 24747.66011072183 60777.054415239894 0 0 0 0 85701.105537414551 6006813.2606217861 0 6006813.2606217861 -1084118.0212056637 0 0 0 0 10150879.911155701 -3438344.0625698566 0 -3438344.0625698566 -6813683.7378730774 0 0 0 0 15733150.55821228 56351234.938554883 0 56351234.938554883 -9128129.3292508125 0 0 0 0 42129784.252445221 -26517158.474304974 0 -26517158.474304974 7384557.6865720749 0 0 0 0 23435581.418198586 -46205228.120879382 0 -46205228.120879382 44836933.649429798 0 0 0 0 145503.89655804262 -213431.07909977296 0 -213431.07909977296 48937.515318147518 0 0 0 0 26069946.814331055 21967562.779957294 0 21967562.779957294 17941227.947255611 0 0 0 0 -206915509.68037415 -346321118.38041782 0 -346321118.38041782 -87916797.909812927 0 0 0 0 -12399316.855628967 -201552924.5564363 0 -201552924.5564363 -317372584.83851242 0 0 0 0 -36350297.438209534 -31054157.962397575 0 -31054157.962397575 8675053.2415075302 0 0 0 0 -396913232.76217651 -180594687.85609627 0 -180594687.85609627 85978584.535210609 0 0 0 0 218862192.04346466 -362681771.17930508 0 -362681771.17930508 -205588950.6187396 0 0 0 0 -58236169.160293579 63673480.118840218 0 63673480.118840218 345693.81518936157 0 0 0 0 330057.13287353516 827288.5967502594 0 827288.5967502594 -1300599.5695581436 0 0 0 0 819094.88906097412 2068152.968767643 0 2068152.968767643 -295368.2869553566 0 0 0 0 399306.33900498599 336834.35888896417 0 336834.35888896417 -404084.24624828203 0 0 0 0 -20471579.08505249 -10069965.411374092 0 -10069965.411374092 129405748.95940113 0 0 0 0 959706.29058776796 749315.26339300582 0 749315.26339300582 -104587.98949086585 0 0 0 0 -19334378.927862167 -26047630.713491321 0 -26047630.713491321 8877959.2148885727 0 0 0 0 -3563226.3022003174 -12679240.82298851 0 -12679240.82298851 20079161.590928316 0 0 0 0 848546.77355365455 675592.22398376465 0 675592.22398376465 -877762.80683232797 0 0 0 0 -8528545.8721008301 -38375617.359513998 0 -38375617.359513998 -54747145.571811676 0 0 0 0 -27994587.640808105 -57563358.914392948 0 -57563358.914392948 -66207627.002633572 0 0 0 0 -16841169.006660461 -27224925.76194191 0 -27224925.76194191 -16677762.828128874 0 0 0 0 -39961265.262374878 -33380121.418695927 0 -33380121.418695927 -20551826.081923544 0 0 0 0 1769522.6607999802 -33318820.601396769 0 -33318820.601396769 -36636358.514915466 0 0 0 0 -53075735.359207153 -15507012.352106571 0 -15507012.352106571 -42373121.15967226 0 0 0 0 621060.66717744619 293722.66437378153 0 293722.66437378153 -392720.61510870466 0 0 0 0 -19785765.69152832 -55961114.585066319 0 -55961114.585066319 -57343509.417765617 0 0 0 0 416881.92465591431 -33007007.274421334 0 -33007007.274421334 -89049340.153911591 0 0 0 0 -13366024.208396912 -60775527.728181362 0 -60775527.728181362 -87479869.501213074 0 0 0 0 -71809762.255844116 -61462739.963585854 0 -61462739.963585854 -57860416.226768494 0 0 0 0 1454387.7995723188 421002.5179020483 0 421002.5179020483 -769913.14541431423 0 0 0 0 -88944667.173721313 12617283.133535385 0 12617283.133535385 100135105.50169468 0 0 0 0 48569741.866104126 7585091.9799509048 0 7585091.9799509048 97426448.444597244 0 0 0 0 -7783410.4222412109 2576656.5706481934 0 2576656.5706481934 -2516012.8380222321 0 0 0 0 -36972.844115242362 508455.9079742576 0 508455.9079742576 -24117.204021846876 0 0 0 0 -977020.41482613981 -194955.53269073647 0 -194955.53269073647 356579.92928181926 0 0 0 0 -85708258.025735855 -160369795.13668656 0 -160369795.13668656 -228844892.64241314 0 0 0 0 -142741492.98795319 4571102.9530858994 0 4571102.9530858994 217482682.89090824 0 0 0 0 -37869627.563491821 -39889573.721961021 0 -39889573.721961021 14354951.380722046 0 0 0 0 -13281466.925765991 -32719577.437096596 0 -32719577.437096596 -21907490.8877213 0 0 0 0 -2870221.910621725 -980251.41282404307 0 -980251.41282404307 1229083.6443133238 0 0 0 0 51742556.527008057 40308159.56841135 0 40308159.56841135 216296513.51365376 0 0 0 0 -8776174.9096727371 -13559546.133481026 0 -13559546.133481026 84798.393711090088 0 0 0 0 -183101305.44729614 27527366.105315208 0 27527366.105315208 20264328.578487754 0 0 0 0 973820.94214582816 -778425.70858962834 0 -778425.70858962834 88693.366982298903 0 0 0 0 -33627346.076568604 -19609393.105050087 0 -19609393.105050087 31789147.851700783 0 0 0 0 -183276718.06525421 16138412.125295162 0 16138412.125295162 287709073.42580509 0 0 0 0 -262288175.33468628 -235802796.22035551 0 -235802796.22035551 67705923.78729248 0 0 0 0 -284669212.10699964 96989000.563988641 0 96989000.563988641 774661028.24468899 0 0 0 0 712588218.78245449 461457396.12056506 0 461457396.12056506 364074487.64855385 0 0 0 0 595293226.91487122 -266605073.94293356 0 -266605073.94293356 -207054875.61033487 0 0 0 0 314784561.19294739 4012391.3953714371 0 4012391.3953714371 -31262624.074179649 0 0 0 0 801050579.7383728 -350550563.70575333 0 -350550563.70575333 181576071.01095629 0 0 0 0 721729552.5871048 407108335.28998041 0 407108335.28998041 131565254.97269869 0 0 0 0 259857108.68428802 524475155.82744646 0 524475155.82744646 493788147.29872227 0 0 0 0 1593020.8138994724 741586.52343658265 0 741586.52343658265 -195507.95601292141 0 0 0 0 107386980.0718689 -38755372.950370789 0 -38755372.950370789 -52368062.304655015 0 0 0 0 30472570.769920349 -46622351.211721897 0 -46622351.211721897 52620722.553872108 0 0 0 0 21832243.07346344 2311783.0475463867 0 2311783.0475463867 -29396835.593505859 0 0 0 0 118722883.55428314 254369901.17993069 0 254369901.17993069 441028082.90705061 0 0 0 0 -21405295.094276428 47416592.468569756 0 47416592.468569756 154894152.16505647 0 0 0 0 343478.88177321106 986439.97042936366 0 986439.97042936366 27664.61805406725 0 0 0 0 544367955.91971588 250640756.44937539 0 250640756.44937539 -145078369.42447853 0 0 0 0 394705619.32596588 249781158.44290519 0 249781158.44290519 -285669582.3802247 0 0 0 0 432723548.91814804 439667347.55243051 0 439667347.55243051 146175573.84631729 0 0 0 0 118989553.63592148 283791040.80330276 0 283791040.80330276 -126318831.09197426 0 0 0 0 320689624.05203497 176029926.85159561 0 176029926.85159561 135302107.94369984 0 0 0 0 320142825.00051117 197685193.04869103 0 197685193.04869103 -118194372.73663902 0 0 0 0 31433738.108032227 -64740537.32871294 0 -64740537.32871294 143685791.23851138 0 0 0 0 248135490.85765839 -96734895.597060919 0 -96734895.597060919 72586306.12706542 0 0 0 0 656049.60011188686 636574.19012389285 0 636574.19012389285 -131101.11853227654 0 0 0 0 7937770.2280540466 20269328.773889065 0 20269328.773889065 63208552.755053043 0 0 0 0 131447283.22174072 109939130.22608614 0 109939130.22608614 -11729597.163783193 0 0 0 0 162424894.57080841 197357400.88448882 0 197357400.88448882 156390550.01578364 0 0 0 0 103195380.43782806 61949056.460947037 0 61949056.460947037 141024269.92749542 0 0 0 0 101735821.25520706 76735641.265773773 0 76735641.265773773 81525878.375177383 0 0 0 0 16346167.628616333 6639488.3643269539 0 6639488.3643269539 20343649.211103439 0 0 0 0 -3824343.5944252014 -5181326.5723142624 0 -5181326.5723142624 23075697.000302315 0 0 0 0 -988652.01464080811 6341725.4552774429 0 6341725.4552774429 109656415.32105541 0 0 0 0 41046331.468288422 -26192939.613244534 0 -26192939.613244534 6233531.5390005112 0 0 0 0 11352637.69080162 -18502512.306906939 0 -18502512.306906939 -19486837.492469788 0 0 0 0 4584125.5115814209 -6913574.1118106842 0 -6913574.1118106842 -5655.7472133636475 0 0 0 0 26675949.231582642 26331603.606908798 0 26331603.606908798 -33499082.466533184 0 0 0 0 2552023.2753479183 1186799.5831647129 0 1186799.5831647129 -2206427.025225095 0 0 0 0 23314160.461975098 -13259705.587860107 0 -13259705.587860107 -37285286.064777374 0 0 0 0 69278.11907048896 58694.258984343149 0 58694.258984343149 -543683.45185843389 0 0 0 0 3000051.0591226332 -8291255.9258845402 0 -8291255.9258845402 -8265541.5874445336 0 0 0 0 2709854.9731826782 -5867082.9650371075 0 -5867082.9650371075 -35697479.294192553 0 0 0 0 11007639.323890686 -6476523.0325112343 0 -6476523.0325112343 -17137492.877314091 0 0 0 0 614264.9809300378 1501295.7097841408 0 1501295.7097841408 -3082450.6651393571 0 0 0 0 6732817.9159378484 5064162.7793886326 0 5064162.7793886326 -2542485.0398197221 0 0 0 0 -537010.10696411133 -10669053.593126535 0 -10669053.593126535 -30073039.295156717 0 0 0 0 -2904464.4962368011 521555.31052972376 0 521555.31052972376 -50493225.878238678 0 0 0 0 -2263414.5650038719 11748036.853118539 0 11748036.853118539 15945329.925966263 0 0 0 0 -3371821.0995664597 5177038.7462810278 0 5177038.7462810278 3668585.3611621857 0 0 0 0 -3752833.9242324829 16621285.041583061 0 16621285.041583061 13858551.990558863 0 0 0 0 232498.5419446528 402015.99988123169 0 402015.99988123169 -527113.71162162174 0 0 0 0 46722504.382110596 20446625.012634754 0 20446625.012634754 93445103.142684102 0 0 0 0 601241.98719953001 284471.16354021057 0 284471.16354021057 -87268.813827566337 0 0 0 0 -54595475.193397522 -1657342.6287615299 0 -1657342.6287615299 -23093857.241226196 0 0 0 0 -7201008.5235137939 -15012879.475151539 0 -15012879.475151539 -35246639.520208836 0 0 0 0 -7127193.9354953766 -14276342.471387759 0 -14276342.471387759 -33517380.346962452 0 0 0 0 434241.01753640175 845163.18817764148 0 845163.18817764148 -1554878.6717737936 0 0 0 0 7777294.2211869285 4245160.3904345799 0 4245160.3904345799 -2631612.8226344171 0 0 0 0 86149070.671066284 -15634954.976928711 0 -15634954.976928711 -34023703.559373021 0 0 0 0 16767850.343978882 -20534747.522325516 0 -20534747.522325516 -55122018.264202237 0 0 0 0 -24071290.566459656 112719741.00083661 0 112719741.00083661 119678108.57653385 0 0 0 0 177671008.75081635 -57724508.603280663 0 -57724508.603280663 -23656627.562989712 0 0 0 0 11663040.756786346 5651130.8722748756 0 5651130.8722748756 -26178345.192862511 0 0 0 0 12843704.287227631 22500541.13132906 0 22500541.13132906 -8255021.5122833252 0 0 0 0 5804699.6665019989 4888822.9763325453 0 4888822.9763325453 -7111353.8989143372 0 0 0 0 24998434.82787323 22492049.628572464 0 22492049.628572464 -4543274.7903442383 0 0 0 0 23690816.43554306 13697904.036016583 0 13697904.036016583 13056607.804895401 0 0 0 0 3991336.2083358765 18980329.241049767 0 18980329.241049767 7939010.0812158585 0 0 0 0 22075964.947509766 31066536.443389893 0 31066536.443389893 8619746.4281760454 0 0 0 0 16563150.566261292 28387118.161257744 0 28387118.161257744 30240497.01886785 0 0 0 0 2306992.5297546387 35838987.591304302 0 35838987.591304302 23891242.539412975 0 0 0 0 19349606.608812332 38414538.33505965 0 38414538.33505965 23948048.201704979 0 0 0 0 18936436.997957945 30148676.214164257 0 30148676.214164257 33252327.727226257 0 0 0 0 22880669.227996826 24423474.953577995 0 24423474.953577995 47646588.492724419 0 0 0 0 35678038.268798828 34750667.772831917 0 34750667.772831917 34476328.242534161 0 0 0 0 38035245.002578735 32170610.795834541 0 32170610.795834541 17761348.369147658 0 0 0 0 18450684.202194214 32069269.156986237 0 32069269.156986237 17770312.683391571 0 0 0 0 40348249.716438293 19518098.432546139 0 19518098.432546139 13896100.382566452 0 0 0 0 30511649.788417816 20640705.237539768 0 20640705.237539768 24628424.784780502 0 0 0 0 50014636.307769775 23145812.859946251 0 23145812.859946251 29934367.801403046 0 0 0 0 35464707.771697998 27911193.700808525 0 27911193.700808525 47076889.644168854 0 0 0 0 55878802.250846863 45429220.928378582 0 45429220.928378582 61014097.308059692 0 0 0 0 41848324.311660767 35093723.77209568 0 35093723.77209568 53962463.254005432 0 0 0 0 66418086.078521729 29010238.906370163 0 29010238.906370163 29462755.424659729 0 0 0 0 66585906.916412354 32946633.028616905 0 32946633.028616905 38453950.11277771 0 0 0 0 66861335.998321533 32878444.7622509 0 32878444.7622509 35177050.273895264 0 0 0 0 62688174.156555176 24959688.67902565 0 24959688.67902565 25206144.629459381 0 0 0 0 43675315.283233643 -2685488.8148612976 0 -2685488.8148612976 43412806.554397583 0 0 0 0 16480228.855056763 10535255.5356493 0 10535255.5356493 36985952.687020302 0 0 0 0 -7505954.8037261963 45576897.242872477 0 45576897.242872477 49665060.294301271 0 0 0 0 -5917920.6243095398 8402220.057831049 0 8402220.057831049 60229378.905863762 0 0 0 0 3054243.8577728271 37383601.521994114 0 37383601.521994114 26938481.796466857 0 0 0 0 -2487581.8236732483 22230199.422564268 0 22230199.422564268 28044395.081944466 0 0 0 0 7418866.9059448242 23578086.851306915 0 23578086.851306915 2730683.170658052 0 0 0 0 -3656933.7515449524 40643632.352339745 0 40643632.352339745 29336836.427258015 0 0 0 0 974181.17441558838 41794926.287997007 0 41794926.287997007 29449772.135741651 0 0 0 0 19738743.210266113 15312333.355574071 0 15312333.355574071 -42443637.065441728 0 0 0 0 27613247.083189964 52196240.031864405 0 52196240.031864405 -7330030.2536015511 0 0 0 0 7992558.8184013367 40179809.484093666 0 40179809.484093666 14378826.197874308 0 0 0 0 570950.51912689209 16785288.853672504 0 16785288.853672504 20925916.651161194 0 0 0 0 -64854651.888595581 37110259.380126953 0 37110259.380126953 -30633680.794318616 0 0 0 0 1813924.1845151074 1443546.1888891021 0 1443546.1888891021 -1183005.1870185125 0 0 0 0 93788984.594417572 184365143.94609898 0 184365143.94609898 -38779431.609345555 0 0 0 0 274796701.91956329 59996325.0455679 0 59996325.0455679 -117125663.23811339 0 0 0 0 25236694.897949219 34132118.244974136 0 34132118.244974136 71272547.448506355 0 0 0 0 67059596.231925964 11688430.743144274 0 11688430.743144274 -5340154.320663929 0 0 0 0 612966.55046100542 61757.001485224813 0 61757.001485224813 -430959.10153203132 0 0 0 0 50080100.188156128 4901167.7056350708 0 4901167.7056350708 60837776.611806132 0 0 0 0 47475910.703144073 14574979.727334738 0 14574979.727334738 32933185.127397537 0 0 0 0 41446395.191680908 29384949.102370262 0 29384949.102370262 13538490.28594625 0 0 0 0 40182274.644737244 17717533.632645398 0 17717533.632645398 20467311.167940997 0 0 0 0 34907744.400444031 26730844.300879955 0 26730844.300879955 21396813.630249977 0 0 0 0 17917479.215946198 31657748.149545789 0 31657748.149545789 38086521.459239006 0 0 0 0 28091541.010726929 29805452.375031538 0 29805452.375031538 20790135.583889309 0 0 0 0 41137914.371566772 -116193097.55559343 0 -116193097.55559343 -144140645.26681376 0 0 0 0 1731900.1678345986 1323454.0360971084 0 1323454.0360971084 -1114753.5706952172 0 0 0 0 50088935.72366333 184153773.79976404 0 184153773.79976404 56671485.377165198 0 0 0 0 41279919.431754351 26929192.439695936 0 26929192.439695936 37579358.571996957 0 0 0 0 41241910.566373825 22210263.923148662 0 22210263.923148662 37919772.588218689 0 0 0 0 -173156.33348961361 715740.60542018712 0 715740.60542018712 -726833.74295451143 0 0 0 0 37480334.949226379 23837793.356116787 0 23837793.356116787 43720459.63995982 0 0 0 0 -2953839.2099075317 -74887701.483459294 0 -74887701.483459294 -70880395.01964438 0 0 0 0 804701.98053752631 685956.89359700633 0 685956.89359700633 -560232.29579682928 0 0 0 0 -13310075.487640381 -57208057.498962164 0 -57208057.498962164 -36608487.866367817 0 0 0 0 26688411.959526062 -30833041.390305042 0 -30833041.390305042 -20535347.26523447 0 0 0 0 45892992.242240906 -46994051.419809103 0 -46994051.419809103 -62402278.007120728 0 0 0 0 -73142902.073989868 -49153074.57238543 0 -49153074.57238543 -17963104.340515614 0 0 0 0 -17615068.9335289 -25161152.626256518 0 -25161152.626256518 -9792352.7960515022 0 0 0 0 17603045.295150757 5112969.7944582701 0 5112969.7944582701 -25146512.700680733 0 0 0 0 -22912586.988632202 -32170402.558382034 0 -32170402.558382034 -758655.02888894081 0 0 0 0 -41680575.890480042 12066173.143434063 0 12066173.143434063 -22292777.916127682 0 0 0 0 9567932.1446875297 -375942.40622778679 0 -375942.40622778679 -479746.01338674664 0 0 0 0 -41553302.49199295 322669496.23078918 0 322669496.23078918 526756495.05370951 0 0 0 0 683231541.22920227 -103376838.35700345 0 -103376838.35700345 487710400.55541134 0 0 0 0 5983065.8895508461 1003625.2078003269 0 1003625.2078003269 -813609.01183575089 0 0 0 0 -5804335.6739501953 -13052570.983525515 0 -13052570.983525515 10015538.371605992 0 0 0 0 20260502.452537537 -22955071.085923195 0 -22955071.085923195 -21589452.748175502 0 0 0 0 429129092.17461443 367266644.12362874 0 367266644.12362874 60731321.942936063 0 0 0 0 3163272.4235153198 -11256140.599588156 0 -11256140.599588156 91952592.988895476 0 0 0 0 411061615.92487335 -65276594.932252079 0 -65276594.932252079 -27450975.117355466 0 0 0 0 -165509366.13143158 410690924.27186775 0 410690924.27186775 587453792.60294247 0 0 0 0 2547808.9958468787 938417.87822215119 0 938417.87822215119 -697921.2857665394 0 0 0 0 103402640.12257004 -131446061.43522859 0 -131446061.43522859 -463531855.82504177 0 0 0 0 765542968.87028885 -68769703.404271364 0 -68769703.404271364 -142989088.34390545 0 0 0 0 15426956.107076384 -1577908.6580198596 0 -1577908.6580198596 -579504.24620854354 0 0 0 0 -33718479.885799408 -181698644.92167759 0 -181698644.92167759 -89545275.258071661 0 0 0 0 45652328.611177444 136237465.97429484 0 136237465.97429484 -276066006.62541103 0 0 0 0 -179500734.40387917 139056120.62239215 0 139056120.62239215 176284802.76736942 0 0 0 0 -43961927.768882751 345402915.79556423 0 345402915.79556423 308391816.88782716 0 0 0 0 19066591.443063904 -2589830.4497301336 0 -2589830.4497301336 -502829.87599590188 0 0 0 0 18271336.235092163 -49059699.691546544 0 -49059699.691546544 -214285999.85015416 0 0 0 0 79597461.749794006 -41988292.544371128 0 -41988292.544371128 -432584479.11949611 0 0 0 0 22876940.087907791 31033879.509765863 0 31033879.509765863 -211183652.69447327 0 0 0 0 -14433239.041255951 -8306641.9465370178 0 -8306641.9465370178 -183406667.58861589 0 0 0 0 -24723565.621284485 -57674333.779769897 0 -57674333.779769897 -240612351.10328519 0 0 0 0 -6945129.0463905334 -14959187.08868885 0 -14959187.08868885 -178159049.24108315 0 0 0 0 5623898.6387488842 -45257160.434224516 0 -45257160.434224516 -181750658.38917351 0 0 0 0 -3415300.2971324921 -1788864.1125650406 0 -1788864.1125650406 -143527000.45695591 0 0 0 0 -2062790.2402420044 6418808.1929216385 0 6418808.1929216385 -150324529.70595551 0 0 0 0 15996318.749954224 -27477841.786635637 0 -27477841.786635637 -236201100.41833401 0 0 0 0 21160252.6239115 -3267110.5784730362 0 -3267110.5784730362 -402483.82310897287 0 0 0 0 91289720.119590759 -91145441.011976063 0 -91145441.011976063 -271395675.01451111 0 0 0 0 -13391587.362575531 -52357417.51857543 0 -52357417.51857543 -62673967.028694391 0 0 0 0 170962674.3748455 79990419.750137836 0 79990419.750137836 -24330878.538571835 0 0 0 0 2163477.0711135864 -3473573.9820094109 0 -3473573.9820094109 -86892685.095430613 0 0 0 0 44465714.349326849 -16012193.065795323 0 -16012193.065795323 48261241.292504311 0 0 0 0 82236990.735939026 -90169420.581423998 0 -90169420.581423998 -4862732.1437764168 0 0 0 0 315465291.62093067 174924958.90202031 0 174924958.90202031 82899791.502282619 0 0 0 0 128264772.57846832 59947370.484546304 0 59947370.484546304 59527653.663789392 0 0 0 0 119028875.91990662 311376363.61553687 0 311376363.61553687 250103942.36834025 0 0 0 0 23041283.668700695 -12112520.083435968 0 -12112520.083435968 -106669982.81173849 0 0 0 0 901860.56824223697 827065.86462992616 0 827065.86462992616 -637286.8477105787 0 0 0 0 95251097.960819244 197657666.03283572 0 197657666.03283572 69404669.467961669 0 0 0 0 56571075.04498291 108499042.64116447 0 108499042.64116447 451482.01607173681 0 0 0 0 219240773.43724823 98351335.603326261 0 98351335.603326261 -40857946.73455444 0 0 0 0 1253743162.8361244 -244863354.6832822 0 -244863354.6832822 -187380467.59992716 0 0 0 0 2204166717.6223946 -387969011.90521336 0 -387969011.90521336 -435832094.60587251 0 0 0 0 1507120934.5820732 -210567910.58914357 0 -210567910.58914357 -439035166.32870638 0 0 0 0 2204559879.3663445 -23779068.955736455 0 -23779068.955736455 -442685936.86736304 0 0 0 0 1437478601.3849516 -276217652.0185222 0 -276217652.0185222 -188380066.93908656 0 0 0 0 1055217323.5892963 16936287.930583715 0 16936287.930583715 -83027484.433478862 0 0 0 0 493068306.70270443 23162946.880315065 0 23162946.880315065 32528907.734250426 0 0 0 0 801712028.08753967 -237453855.16759285 0 -237453855.16759285 75720389.717153788 0 0 0 0 592227149.6630497 -243927517.52944756 0 -243927517.52944756 4821010.5993407965 0 0 0 0 864027487.63327885 -381072615.45302492 0 -381072615.45302492 48652764.980610996 0 0 0 0 439399439.91368103 -77318571.794168144 0 -77318571.794168144 34801539.209234282 0 0 0 0 430197529.60821199 -106614918.02298783 0 -106614918.02298783 34172028.914175332 0 0 0 0 256096109.78231049 -265595867.23383617 0 -265595867.23383617 162570100.74895149 0 0 0 0 292742790.64803386 -15261248.546595536 0 -15261248.546595536 -118825073.52222669 0 0 0 0 1029062992.7581444 -853478847.11378312 0 -853478847.11378312 268663806.75242996 0 0 0 0 1541544032.113296 -664786270.90755546 0 -664786270.90755546 -245675411.22461158 0 0 0 0 1509734805.4906387 -707068368.28723431 0 -707068368.28723431 -253047119.29219609 0 0 0 0 2205528901.2041745 -1252067868.3256688 0 -1252067868.3256688 -120986975.20039234 0 0 0 0 1133043804.7677684 -1575464528.0857205 0 -1575464528.0857205 609098122.45662177 0 0 0 0 1197523465.3072543 -1300727962.3938389 0 -1300727962.3938389 675071581.4523313 0 0 0 0 2196524188.9418411 -2027842827.8343856 0 -2027842827.8343856 781220764.63210714 0 0 0 0 141720119.02358246 -393102001.58538675 0 -393102001.58538675 580375063.40743685 0 0 0 0 565974327.53957272 -574254859.76376998 0 -574254859.76376998 155382972.34843668 0 0 0 0 -41032535.138618469 55506265.550508976 0 55506265.550508976 -84754233.182291985 0 0 0 0 -34574859.503103256 -300830429.76781297 0 -300830429.76781297 -447801362.19677973 0 0 0 0 165971770.99869728 -1204522717.6254933 0 -1204522717.6254933 1433954857.9930079 0 0 0 0 2196167709.6478195 156398608.29119259 0 156398608.29119259 -244911092.15235859 0 0 0 0 -322592019.9552784 -411838572.85266328 0 -411838572.85266328 784156372.48400891 0 0 0 0 1304378.5122586954 -1053488.4382249981 0 -1053488.4382249981 1079938.8517295341 0 0 0 0 1102751.7781186933 -1635499.9547118568 0 -1635499.9547118568 1019698.4143516879 0 0 0 0 107783979.6011138 -168167029.46039063 0 -168167029.46039063 249724242.38954777 0 0 0 0 902531289.9935472 438020462.68599808 0 438020462.68599808 175612543.3624931 0 0 0 0 3753512.1781152217 -2116122.1150487354 0 -2116122.1150487354 1352984.5459411754 0 0 0 0 -200101959.57472479 -131347581.3501462 0 -131347581.3501462 230067182.84332943 0 0 0 0 -183516168.06822264 103642706.11288208 0 103642706.11288208 231484779.62107545 0 0 0 0 2193788764.4480491 -90569689.183096841 0 -90569689.183096841 -387994138.56369603 0 0 0 0 3715117.781247139 -1676556.3679151535 0 -1676556.3679151535 -3325978.6791570783 0 0 0 0 4072908.9730380606 -866212.97316368122 0 -866212.97316368122 74262.508838231937 0 0 0 0 -27402889.216257095 -17875818.618272573 0 -17875818.618272573 -141647.92194321752 0 0 0 0 -180189450.98360562 77366549.35007605 0 77366549.35007605 16703767.682850093 0 0 0 0 -63291994.873990059 36059053.135091335 0 36059053.135091335 31197841.467213839 0 0 0 0 -190516541.08442152 -129042872.83649272 0 -129042872.83649272 -17218964.22067073 0 0 0 0 4755759.6988047725 -584651.50202581566 0 -584651.50202581566 -541250.57276078628 0 0 0 0 4209726.0631731255 -3380749.0974025871 0 -3380749.0974025871 939079.97913970472 0 0 0 0 278565962.53699875 58775862.811533213 0 58775862.811533213 -319670158.33490479 0 0 0 0 2223355.059753418 -3239735.4569776952 0 -3239735.4569776952 -4658176.4807019234 0 0 0 0 -152572358.22518539 -35482224.601121902 0 -35482224.601121902 142530893.32763124 0 0 0 0 194219041.41696262 128099128.51332462 0 128099128.51332462 -486556548.09922862 0 0 0 0 286564.72367452644 -168349.48825929977 0 -168349.48825929977 -187339.99971579397 0 0 0 0 196174660.10250092 -79543119.920065403 0 -79543119.920065403 -322301518.51440275 0 0 0 0 79950722.422344208 -10728322.242427349 0 -10728322.242427349 -93243594.379493475 0 0 0 0 -31448998.67051208 47997129.729267798 0 47997129.729267798 -117159834.62167358 0 0 0 0 305422541.96409035 -52850686.419334948 0 -52850686.419334948 -115665001.33664373 0 0 0 0 105752458.95245361 14626059.62723428 0 14626059.62723428 20261936.265895486 0 0 0 0 -24119538.473907471 166811814.7651028 0 166811814.7651028 -218786288.71380675 0 0 0 0 -23121002.848299026 -37734381.448131561 0 -37734381.448131561 -98124265.516138375 0 0 0 0 5605921.4281806946 156886942.5571537 0 156886942.5571537 -149877292.84753537 0 0 0 0 1411953.8388385773 65205047.138831824 0 65205047.138831824 -71029870.539466202 0 0 0 0 -27116477.966762543 46431111.00777787 0 46431111.00777787 -225851052.0555203 0 0 0 0 -49889265.78024292 -21350230.926815987 0 -21350230.926815987 74179920.572008252 0 0 0 0 476623.681682216 294694.20734500233 0 294694.20734500233 -312065.48507609003 0 0 0 0 -39669274.169857025 42084301.838490725 0 42084301.838490725 62552567.134165764 0 0 0 0 61457721.316644669 126521926.68263865 0 126521926.68263865 -391002070.3706553 0 0 0 0 81684753.95042038 84907825.722165942 0 84907825.722165942 -59948185.057663441 0 0 0 0 5363264.0206105411 -1738258.6024303196 0 -1738258.6024303196 30948.04134663989 0 0 0 0 45121536.184942245 -3799855.7812685966 0 -3799855.7812685966 -124741902.7134254 0 0 0 0 6187785.419380188 3208399.9784479141 0 3208399.9784479141 16187084.18029356 0 0 0 0 -27227413.758426666 25406502.772521496 0 25406502.772521496 6901785.6716513634 0 0 0 0 3414994.4148476124 -1217826.6952343062 0 -1217826.6952343062 -3856796.2383568287 0 0 0 0 3999430.219083786 -2148131.8370249271 0 -2148131.8370249271 -4915627.7055156529 0 0 0 0 3526572.6479790211 -2720266.8597104736 0 -2720266.8597104736 -3634101.806973815 0 0 0 0 368744.27354170277 1503142.1709623002 0 1503142.1709623002 -388003.33970527077 0 0 0 0 -2162567.0316806734 12953613.528571039 0 12953613.528571039 -4490124.4194452763 0 0 0 0 4336767.6332144737 13036735.881196737 0 13036735.881196737 -13423183.392717838 0 0 0 0 -1863228.3816125393 4926155.0192520022 0 4926155.0192520022 -432578.4223253876 0 0 0 0 6877942.3266594047 420492.99287757929 0 420492.99287757929 -744210.10899372364 0 0 0 0 6057913.149248356 55858.370729264338 0 55858.370729264338 -1041757.2818583234 0 0 0 0 3670305.5557460785 -307392.63653191924 0 -307392.63653191924 -3003660.711395707 0 0 0 0 2677463.8196849823 82200.260488212109 0 82200.260488212109 -3093643.469489634 0 0 0 0 -8924432.9684677124 15439225.027723789 0 15439225.027723789 12663042.527070522 0 0 0 0 11342790.132202148 17615699.940492153 0 17615699.940492153 -32357085.215214133 0 0 0 0 4529011.1440963745 3190569.7649888992 0 3190569.7649888992 -12822674.008913994 0 0 0 0 -8781654.7518730164 26211006.006264925 0 26211006.006264925 2046336.1886825562 0 0 0 0 -2526793.6740264893 15738775.533107758 0 15738775.533107758 -12016046.847434998 0 0 0 0 8134989.312554772 1950959.5990049532 0 1950959.5990049532 -1726705.8301373618 0 0 0 0 -886301.528175354 6265240.5727086067 0 6265240.5727086067 9030416.2001361847 0 0 0 0 4162255.4651489258 -800827.70139765739 0 -800827.70139765739 -372872.63053131104 0 0 0 0 -44654495.206653595 88839836.835927427 0 88839836.835927427 -126277381.97839892 0 0 0 0 239388.90255071223 1624297.9425506396 0 1624297.9425506396 -280962.12039592216 0 0 0 0 -3400967.1724662781 2037701.7228448391 0 2037701.7228448391 -2056085.2551457882 0 0 0 0 283312.79316237383 1696890.5627406784 0 1696890.5627406784 -460106.57252175373 0 0 0 0 42231545.285163879 24940976.729447365 0 24940976.729447365 -21784778.682128668 0 0 0 0 -43911744.861908913 111800501.83236571 0 111800501.83236571 -45714576.321604669 0 0 0 0 -35742865.643506765 95328498.570755631 0 95328498.570755631 -121838532.25013077 0 0 0 0 -47559925.206554413 101342569.51512659 0 101342569.51512659 -124887949.33558106 0 0 0 0 -19008914.708442688 138378531.16492242 0 138378531.16492242 -100475842.03648858 0 0 0 0 -56335213.687522888 79314219.146075964 0 79314219.146075964 -118269373.42085373 0 0 0 0 -77924820.096471786 94141810.535049185 0 94141810.535049185 -56528764.416376561 0 0 0 0 -49573252.238433838 100122461.69724584 0 100122461.69724584 -103609098.37661853 0 0 0 0 -83401091.952394485 132156499.77363533 0 132156499.77363533 -48839186.355207384 0 0 0 0 -98521530.547958374 109904055.84432046 0 109904055.84432046 -46222624.760970116 0 0 0 0 -129513565.77377319 119665990.06133294 0 119665990.06133294 22654793.299964488 0 0 0 0 -6775707.1273956299 158517588.55716717 0 158517588.55716717 -42435684.495793894 0 0 0 0 18267927.537171364 83119876.242718458 0 83119876.242718458 -58017642.369193107 0 0 0 0 20031082.715782166 117625333.17504564 0 117625333.17504564 30244362.032220721 0 0 0 0 161232351.41679192 66085706.718517259 0 66085706.718517259 -85500900.446977705 0 0 0 0 141447020.48366928 3446078.9857178703 0 3446078.9857178703 62333342.358212948 0 0 0 0 209337918.34379959 35928874.66654408 0 35928874.66654408 66579414.497267127 0 0 0 0 217222962.75115585 41228207.398839384 0 41228207.398839384 -3199464.8068974912 0 0 0 0 87114392.4641819 4467689.6055083573 0 4467689.6055083573 90758878.983937383 0 0 0 0 422002561.95524025 -69769233.877069116 0 -69769233.877069116 79642831.836678788 0 0 0 0 265042883.15939426 86015456.137718007 0 86015456.137718007 69857090.264445007 0 0 0 0 170257263.5032692 -4521171.1614382267 0 -4521171.1614382267 137114856.92224056 0 0 0 0 133562323.79506493 82868925.994698182 0 82868925.994698182 128880974.8246786 0 0 0 0 7589705.0319538116 -8562640.2438205481 0 -8562640.2438205481 92991502.405633092 0 0 0 0 -36213303.707309723 94115552.414533809 0 94115552.414533809 17935496.057322681 0 0 0 0 -163876216.28538322 85269253.02949962 0 85269253.02949962 90483480.792598665 0 0 0 0 -24408909.426649094 59099416.543858767 0 59099416.543858767 -56672028.325583398 0 0 0 0 19904215.824388981 127255300.53866288 0 127255300.53866288 40092890.361521721 0 0 0 0 445892.96680488437 1126474.6870039594 0 1126474.6870039594 1383303.1314034355 0 0 0 0 56073121.987541199 131870472.48251784 0 131870472.48251784 35019426.424872637 0 0 0 0 227424024.70829201 56058039.084122419 0 56058039.084122419 -18454294.173171014 0 0 0 0 -412286600.73617554 103326006.55457348 0 103326006.55457348 5511082.0502894521 0 0 0 0 -143276405.92574477 148182881.33535594 0 148182881.33535594 -95378060.320498884 0 0 0 0 -270395187.82557487 -36355468.885650486 0 -36355468.885650486 27699191.961591844 0 0 0 0 481949384.80975723 106091679.97696906 0 106091679.97696906 -29896583.746026725 0 0 0 0 297910923.08213615 260814638.40075976 0 260814638.40075976 76294461.651177168 0 0 0 0 267590336.2612133 210883521.60921854 0 210883521.60921854 52441723.597222 0 0 0 0 275803715.55602646 186033546.5184027 0 186033546.5184027 72978162.02090162 0 0 0 0 1811520.9858268201 361810.44230593834 0 361810.44230593834 183115.34385844378 0 0 0 0 95885179.413523316 44801180.943483666 0 44801180.943483666 -8662489.346960783 0 0 0 0 84719140.163065553 -141530560.52736583 0 -141530560.52736583 38355437.630827904 0 0 0 0 306968838.27263784 144508091.4912892 0 144508091.4912892 -5335416.1579360962 0 0 0 0 319513155.38801479 91127718.715338588 0 91127718.715338588 34864680.343371391 0 0 0 0 302471779.22858047 134054925.18717527 0 134054925.18717527 112564020.17036152 0 0 0 0 323670667.23912048 166215622.70033407 0 166215622.70033407 -186802.90965676308 0 0 0 0 299628636.48429489 163513185.10659814 0 163513185.10659814 56439621.693192825 0 0 0 0 226953629.75946426 172245261.39675057 0 172245261.39675057 42462616.548594475 0 0 0 0 350476943.55191994 100780605.60968637 0 100780605.60968637 -8839783.6785274744 0 0 0 0 84565585.533945084 43849610.869970322 0 43849610.869970322 54023567.06601572 0 0 0 0 336761976.81378269 89023133.423960924 0 89023133.423960924 11873564.111575365 0 0 0 0 594767831.1392746 38444721.931358814 0 38444721.931358814 20748728.985878408 0 0 0 0 229012.77318205917 61023.905969453976 0 61023.905969453976 1608110.9262440642 0 0 0 0 991977677.57624817 123161734.54884553 0 123161734.54884553 -148620918.67505264 0 0 0 0 31260516.620470047 59375052.438101053 0 59375052.438101053 280578865.01862693 0 0 0 0 298559518.29275703 266859828.65222847 0 266859828.65222847 242143673.98353815 0 0 0 0 23506623.97453022 90165736.678750634 0 90165736.678750634 97766650.893426657 0 0 0 0 -7935322.3580608368 -80184290.16627121 0 -80184290.16627121 18701708.818831205 0 0 0 0 158216212.33036232 81096148.586627185 0 81096148.586627185 -24367698.345417023 0 0 0 0 -152295681.366045 -9293605.1668326855 0 -9293605.1668326855 70310210.123057485 0 0 0 0 -115319505.8425703 141819392.54109901 0 141819392.54109901 -49729883.092679083 0 0 0 0 -265055390.81833267 132112942.48104066 0 132112942.48104066 -1944409.4824284762 0 0 0 0 711275.79785383632 1311652.6283568409 0 1311652.6283568409 1473329.6333727487 0 0 0 0 1184427.6310377829 1261667.3611286408 0 1261667.3611286408 1143592.8288605392 0 0 0 0 -79874880.928730011 81197521.75437808 0 81197521.75437808 -80943742.123147607 0 0 0 0 -43427403.829249382 -28561843.843530178 0 -28561843.843530178 -17573633.764654875 0 0 0 0 -30258961.026316643 -41768881.224047065 0 -41768881.224047065 -6877436.1427702904 0 0 0 0 18428944.958425522 -24124936.049344897 0 -24124936.049344897 -6203658.2057969272 0 0 0 0 17213569.769077778 13666418.396588774 0 13666418.396588774 -22870013.482272625 0 0 0 0 -2162380.4073217697 -603789.78095553722 0 -603789.78095553722 237840.33458366847 0 0 0 0 17309661.63866806 -12073513.883576095 0 -12073513.883576095 -22746639.070036039 0 0 0 0 2702321.7515640259 -15239338.388021231 0 -15239338.388021231 14924561.974304348 0 0 0 0 -2748112.0694313049 3330268.2025725842 0 3330268.2025725842 -4849489.9538347721 0 0 0 0 6022911.3127121963 -379649.85688904114 0 -379649.85688904114 -2081121.6658994569 0 0 0 0 8447578.8758003116 10162187.60006085 0 10162187.60006085 -18396162.224695325 0 0 0 0 10916349.246297821 1231544.1919796877 0 1231544.1919796877 -2048956.7246751552 0 0 0 0 10160424.003324449 6081663.024144575 0 6081663.024144575 -11490511.196972132 0 0 0 0 5839857.9917998314 20064286.970879674 0 20064286.970879674 -27085897.268763542 0 0 0 0 7441870.58278355 3682545.5923199356 0 3682545.5923199356 -49027956.137189746 0 0 0 0 7478902.7156100273 7011775.5645694733 0 7011775.5645694733 -21927624.558663726 0 0 0 0 2008203.6358783245 28151700.7953794 0 28151700.7953794 -17661610.370718241 0 0 0 0 1784901.0826219916 27770375.745502919 0 27770375.745502919 -16122512.913412333 0 0 0 0 1566825.2225280404 38921500.527230263 0 38921500.527230263 -44813554.525709271 0 0 0 0 -968771.17025208473 35518973.043743253 0 35518973.043743253 -18980029.189727783 0 0 0 0 -734589.00289964676 33596633.676409632 0 33596633.676409632 -6918244.2368152142 0 0 0 0 448518.82615447044 27033304.682700038 0 27033304.682700038 -14281615.426443934 0 0 0 0 5939167.047277689 26068778.478845477 0 26068778.478845477 -7176423.436537087 0 0 0 0 3354397.4276900291 18635824.922030449 0 18635824.922030449 5017115.125120163 0 0 0 0 6112477.7156462669 16466702.419017076 0 16466702.419017076 -10960125.236947775 0 0 0 0 341498.12785363197 27417045.676308274 0 27417045.676308274 -4854071.2296919823 0 0 0 0 29696713.602580875 -2567350.0834574699 0 -2567350.0834574699 -27820791.511363268 0 0 0 0 18242256.65284577 -23289281.103655934 0 -23289281.103655934 -29748794.661908865 0 0 0 0 138400587.94668651 -92347868.104306817 0 -92347868.104306817 -98052842.506355047 0 0 0 0 111245251.70818013 -17890571.136307813 0 -17890571.136307813 -35482531.056286335 0 0 0 0 -10041395.999266207 5896911.3775795698 0 5896911.3775795698 -13887263.236547053 0 0 0 0 2146331.1817904711 37149488.731326997 0 37149488.731326997 -20675491.940821528 0 0 0 0 1312629.966714099 27357770.674190342 0 27357770.674190342 -9495409.8279309273 0 0 0 0 -8913208.5259466171 24288508.043706894 0 24288508.043706894 -29487287.919303 0 0 0 0 -25325027.338930666 57710595.81364882 0 57710595.81364882 -63355580.031964481 0 0 0 0 11825379.359564245 27184665.067494065 0 27184665.067494065 -106345780.63173479 0 0 0 0 -21293359.772613525 -43963194.866525292 0 -43963194.866525292 -86793514.442100376 0 0 0 0 9349935.6093692984 620402.23926064302 0 620402.23926064302 -1139025.3983058473 0 0 0 0 133864376.03633881 -37865919.245615959 0 -37865919.245615959 -219638024.59781837 0 0 0 0 150391683.61748627 -40671919.971608102 0 -40671919.971608102 -225336034.53533554 0 0 0 0 7560366.4229322197 565354.12629642175 0 565354.12629642175 -695054.1755772935 0 0 0 0 -75279693.568774492 -4400399.8271616697 0 -4400399.8271616697 -14671517.465707302 0 0 0 0 190578462.34836578 39606202.313195348 0 39606202.313195348 -156977044.11410773 0 0 0 0 -54250210.182621002 -193072309.89689887 0 -193072309.89689887 -144317982.98390818 0 0 0 0 115849788.65026474 65533783.100814342 0 65533783.100814342 -102560206.69165492 0 0 0 0 -75139793.915369034 -19827190.451002002 0 -19827190.451002002 66660166.809324265 0 0 0 0 -99837248.805553436 -63947018.939028978 0 -63947018.939028978 160130.20216965675 0 0 0 0 -790809.69607647322 74394.06509726122 0 74394.06509726122 123460.58913923049 0 0 0 0 86457219.390193939 -23951919.812677145 0 -23951919.812677145 -175950677.81589621 0 0 0 0 19367295.18648243 -109023318.25559872 0 -109023318.25559872 23135754.707152843 0 0 0 0 275832313.50603676 491914241.78192228 0 491914241.78192228 743453064.61262608 0 0 0 0 601025157.90489149 327904401.03772503 0 327904401.03772503 -101435844.55966139 0 0 0 0 520019974.42580032 -60713105.202476501 0 -60713105.202476501 -293568939.92253196 0 0 0 0 154362446.52282715 439447599.32800841 0 439447599.32800841 366819517.81330812 0 0 0 0 51663014.508729935 281643300.43591714 0 281643300.43591714 175076687.64416802 0 0 0 0 -53376997.763692856 233125899.69840431 0 233125899.69840431 440422612.47490799 0 0 0 0 114953326.91816092 208065811.84752965 0 208065811.84752965 145434003.36843204 0 0 0 0 25743328.834259748 130748691.2592214 0 130748691.2592214 87328738.320660591 0 0 0 0 39457524.956497192 195492652.43299747 0 195492652.43299747 262529005.68972135 0 0 0 0 -72754646.874544144 62674559.810107708 0 62674559.810107708 146245815.3976016 0 0 0 0 92846604.148518562 152367400.13458824 0 152367400.13458824 122799898.82358098 0 0 0 0 53542601.005723953 217685439.4392246 0 217685439.4392246 126083379.55073047 0 0 0 0 58627512.923714161 233458375.97038063 0 233458375.97038063 172510943.36697578 0 0 0 0 63678729.542503357 144070543.19856101 0 144070543.19856101 63597076.323443949 0 0 0 0 77761233.354782104 228970484.88581356 0 228970484.88581356 106667195.52316949 0 0 0 0 167443618.01813316 123956686.05023666 0 123956686.05023666 -44643451.339513242 0 0 0 0 -42322170.637500763 -7818253.7074655294 0 -7818253.7074655294 -20647577.685119718 0 0 0 0 404674116.32171059 266750684.35960412 0 266750684.35960412 -15809882.175622821 0 0 0 0 -231127874.87178129 -150902782.51267308 0 -150902782.51267308 -86259692.971220732 0 0 0 0 -9395764.7595300674 140318556.15397581 0 140318556.15397581 92984460.777140856 0 0 0 0 50352428.163085938 164760932.53753221 0 164760932.53753221 102171190.18819487 0 0 0 0 80393238.191113949 176824296.08758411 0 176824296.08758411 83870990.794443369 0 0 0 0 4872091.9279440474 626166.98820595979 0 626166.98820595979 -354064.61777918309 0 0 0 0 -178952904.081007 -182943894.02269614 0 -182943894.02269614 -67475692.125348568 0 0 0 0 -161064862.20720732 -190750114.55119759 0 -190750114.55119759 -76704466.344031572 0 0 0 0 511067.90352386475 -277705.0932522784 0 -277705.0932522784 55309.112100506376 0 0 0 0 -176557546.44744158 -179408198.2197727 0 -179408198.2197727 -77820021.176064014 0 0 0 0 172457789.72830352 94911446.859276175 0 94911446.859276175 -21200950.872809768 0 0 0 0 238238940.67064381 5285747.8938854337 0 5285747.8938854337 -92119958.953963518 0 0 0 0 109791299.97439203 9920466.1700903252 0 9920466.1700903252 -53693058.835129976 0 0 0 0 857927816.75905466 104859997.61727029 0 104859997.61727029 -105055013.51395723 0 0 0 0 -24059999.141730547 77936489.037679732 0 77936489.037679732 -66419232.941150248 0 0 0 0 244720825.69010115 399556337.04577708 0 399556337.04577708 573019111.15973461 0 0 0 0 97684594.058510065 -120376130.10774356 0 -120376130.10774356 215048043.70789647 0 0 0 0 1634395.2211943837 440823.10926883435 0 440823.10926883435 -93685.65020592908 0 0 0 0 602015628.52503312 228937644.8868708 0 228937644.8868708 69202870.279296875 0 0 0 0 238996581.87527466 85418970.037074566 0 85418970.037074566 35551091.576859474 0 0 0 0 92008385.518244743 156009815.51827136 0 156009815.51827136 184610032.29271126 0 0 0 0 155740358.47722816 269989013.39168072 0 269989013.39168072 204982008.01351386 0 0 0 0 268050784.73682451 111108447.78967905 0 111108447.78967905 5056682.4538564682 0 0 0 0 199547523.14115524 102650725.51624489 0 102650725.51624489 31116156.046538353 0 0 0 0 117602201.55024338 53137656.552994728 0 53137656.552994728 -1250032.1327258945 0 0 0 0 257880518.48881555 7163288.6392645836 0 7163288.6392645836 -62744193.169346809 0 0 0 0 246003910.2027607 117694364.61346006 0 117694364.61346006 6535073.0794897079 0 0 0 0 119905111.47989798 -58150468.33146143 0 -58150468.33146143 -70188777.45496273 0 0 0 0 170669613.21643639 43625834.692947388 0 43625834.692947388 -61836563.569034576 0 0 0 0 80810588.590766907 -8617378.3098101616 0 -8617378.3098101616 -71214199.480929255 0 0 0 0 12994942.420672417 -43685264.079740524 0 -43685264.079740524 -78063901.548543483 0 0 0 0 83314900.496654749 -7512945.8717894554 0 -7512945.8717894554 -80300950.224143028 0 0 0 0 102971248.88843775 50782928.875206709 0 50782928.875206709 -38591091.440032005 0 0 0 0 68196371.647257805 25728704.898054123 0 25728704.898054123 -63566072.302165985 0 0 0 0 49489096.421480179 4428083.8434009552 0 4428083.8434009552 -63063370.596798897 0 0 0 0 71175868.149964333 120598472.36761141 0 120598472.36761141 89156876.282595634 0 0 0 0 130556799.1534481 48288074.525984764 0 48288074.525984764 -45864362.789983749 0 0 0 0 60710354.959178448 99915029.566864014 0 99915029.566864014 50300288.644145966 0 0 0 0 -224075398.99541354 16068143.458385885 0 16068143.458385885 219582266.07012653 0 0 0 0 10805286.747511864 80433715.539312363 0 80433715.539312363 -90498370.021883965 0 0 0 0 -104091641.58074474 86659899.99187851 0 86659899.99187851 -11604379.566467285 0 0 0 0 40453311.634840012 63677726.425354958 0 63677726.425354958 -54453113.698161125 0 0 0 0 12676447.553228378 31440062.192452431 0 31440062.192452431 -6678675.6573429108 0 0 0 0 -26043616.036659241 49948006.810334206 0 49948006.810334206 -37535535.867103577 0 0 0 0 -858475.87343025208 36598359.749491692 0 36598359.749491692 -33275547.765817165 0 0 0 0 912495.88743781857 882493.07651371835 0 882493.07651371835 4335015.4997037062 0 0 0 0 -36516833.16084528 27406907.891307592 0 27406907.891307592 -19013849.755430222 0 0 0 0 -14526697.07053566 13998549.187218666 0 13998549.187218666 -12966448.179535866 0 0 0 0 2333583.4123477936 18926781.096763611 0 18926781.096763611 -12568703.314092636 0 0 0 0 -56966829.619655609 -966518.99280369282 0 -966518.99280369282 30081727.459550619 0 0 0 0 2429264.394664295 3012808.7762959958 0 3012808.7762959958 5979896.6786679383 0 0 0 0 8420539.7583733238 2641447.3127815002 0 2641447.3127815002 -3398221.8856893796 0 0 0 0 15778866.009075642 17909375.817170143 0 17909375.817170143 -17215982.511728287 0 0 0 0 -1484998.1734342575 22567341.139745712 0 22567341.139745712 -11747095.992088318 0 0 0 0 9558796.3111558221 2190740.9931425257 0 2190740.9931425257 -5088682.4237828478 0 0 0 0 11754538.161197662 4517550.9595697373 0 4517550.9595697373 -5641189.8900549784 0 0 0 0 9408719.2838859558 7181425.537819989 0 7181425.537819989 4635194.847145319 0 0 0 0 44868641.252730846 9272487.1789281368 0 9272487.1789281368 -67820392.201532364 0 0 0 0 20443271.771125317 13134140.817542553 0 13134140.817542553 -59277522.314092636 0 0 0 0 38042649.098976135 -6013306.978102684 0 -6013306.978102684 -81280235.32465744 0 0 0 0 1520813.239900589 -3185947.9223901033 0 -3185947.9223901033 -2361772.2718545198 0 0 0 0 1619494.0047779083 -3233034.8778115511 0 -3233034.8778115511 -2666838.9482491016 0 0 0 0 6062294.6968803406 335568.97465132177 0 335568.97465132177 -4649048.5603148937 0 0 0 0 2116605.4580450561 417384.79979150183 0 417384.79979150183 -1435722.6000405881 0 0 0 0 1366508.9366722051 386365.39953243174 0 386365.39953243174 -916377.86016811151 0 0 0 0 12680735.544345856 21533310.26415509 0 21533310.26415509 15926344.621138453 0 0 0 0 -1088944.2852172852 -4618208.3251099586 0 -4618208.3251099586 -657473.55421125889 0 0 0 0 20675372.034904003 -10681393.538006261 0 -10681393.538006261 -9279626.9157017767 0 0 0 0 711583.01582209999 472475.74001324922 0 472475.74001324922 -241840.98374661431 0 0 0 0 5792365.421453476 -599748.58157494664 0 -599748.58157494664 -89065615.294469118 0 0 0 0 33772949.293144226 -59794476.747729778 0 -59794476.747729778 -6162525.2531936169 0 0 0 0 -9780683.928894043 -33093324.842757225 0 -33093324.842757225 61950840.953823328 0 0 0 0 -4894789.5768127441 640713.28258085251 0 640713.28258085251 8777246.5788919926 0 0 0 0 -6703239.1233825684 -5865031.635471344 0 -5865031.635471344 5987003.2051575184 0 0 0 0 2202367.9369659424 -2894851.8480049372 0 -2894851.8480049372 -2814484.7603285313 0 0 0 0 47235455.297348022 87781110.406813025 0 87781110.406813025 26291307.088807881 0 0 0 0 563860.22130365111 239599.07165644085 0 239599.07165644085 -410964.08811091637 0 0 0 0 -4967939.4207420349 -11942808.503600597 0 -11942808.503600597 -4301120.3085789382 0 0 0 0 8886627.8846321106 -17175615.913970709 0 -17175615.913970709 -9906968.71474576 0 0 0 0 13610202.172139214 1739557.5503715856 0 1739557.5503715856 -1604949.9750581339 0 0 0 0 76919449.584180832 33986731.421517015 0 33986731.421517015 -49948317.272788048 0 0 0 0 -5983088.3638801575 -28909709.974871635 0 -28909709.974871635 10776817.075382471 0 0 0 0 33398697.163612366 -33954029.819282055 0 -33954029.819282055 1560879.1522965431 0 0 0 0 54796237.386175156 47241061.485177398 0 47241061.485177398 -4464924.3194446564 0 0 0 0 24179102.387985229 8601369.1520252228 0 8601369.1520252228 37525775.171692848 0 0 0 0 1707616.2825574875 140199899.64604917 0 140199899.64604917 -70016768.191227913 0 0 0 0 40425249.49263382 26283022.462030411 0 26283022.462030411 -34143888.765431404 0 0 0 0 -8446290.7965698242 14964142.790022373 0 14964142.790022373 9810307.4656381607 0 0 0 0 2509019.277946908 8155367.7771047549 0 8155367.7771047549 -5828710.4423279399 0 0 0 0 67754661.0337677 28315298.615697861 0 28315298.615697861 23219511.151355743 0 0 0 0 23915610.894699097 11893347.880626678 0 11893347.880626678 -3401963.8823738098 0 0 0 0 -14908529.403198242 -455120.79838180542 0 -455120.79838180542 4638478.4650096893 0 0 0 0 -1997767.200378418 -525532.21640515327 0 -525532.21640515327 -7909245.6252832413 0 0 0 0 7503393.1879119873 -3580386.1348544359 0 -3580386.1348544359 -21073850.595071316 0 0 0 0 13404799.679849988 4835919.965411 0 4835919.965411 -2472248.1494152672 0 0 0 0 9649857.7223720551 1978454.3523408175 0 1978454.3523408175 -6709313.3754827976 0 0 0 0 136952467.55174255 51794370.854278803 0 51794370.854278803 -39301151.353647709 0 0 0 0 5351589.5648899544 1676298.6596168643 0 1676298.6596168643 -3685182.1852057842 0 0 0 0 239455369.90515518 -28487610.411988497 0 -28487610.411988497 -4252726.966044426 0 0 0 0 147816715.50766754 -111293138.356462 0 -111293138.356462 -137076745.47084057 0 0 0 0 -746253.25724521093 1542014.4324532952 0 1542014.4324532952 287056.8057907105 0 0 0 0 -37133079.842750549 -33524254.914404869 0 -33524254.914404869 65460775.99361515 0 0 0 0 -27713938.652328491 -32261041.205201149 0 -32261041.205201149 47996101.302233696 0 0 0 0 12592640.619750977 -45436546.628067017 0 -45436546.628067017 812544.45666791499 0 0 0 0 8357503.9674758911 -20211755.353747606 0 -20211755.353747606 2408119.1589503288 0 0 0 0 382939.37787938863 -7239917.005897739 0 -7239917.005897739 -32207.488609839813 0 0 0 0 14977688.498542365 -6540032.4778051674 0 -6540032.4778051674 88744.097672511823 0 0 0 0 2222395.3174586017 7391090.0509216422 0 7391090.0509216422 -5094194.4651647881 0 0 0 0 63986381.617006302 1247314.2044383287 0 1247314.2044383287 -23286019.307066798 0 0 0 0 31195061.855613708 -1246456.6302585602 0 -1246456.6302585602 -10247714.910642147 0 0 0 0 39144755.965484619 1829692.7180252075 0 1829692.7180252075 -17886470.240991592 0 0 0 0 42230231.938514709 -72669522.120442152 0 -72669522.120442152 77015865.479846478 0 0 0 0 190769326.84472656 53102792.67120409 0 53102792.67120409 -63905821.174751282 0 0 0 0 -852642.13352534547 -1630644.2527195744 0 -1630644.2527195744 1183440.5087560958 0 0 0 0 13161172.261520386 -37395110.129858494 0 -37395110.129858494 -25985203.760352135 0 0 0 0 49552707.657859802 12273714.271826267 0 12273714.271826267 -30504334.658927917 0 0 0 0 16063522.75480238 -4293987.2070072647 0 -4293987.2070072647 -2031753.9642007567 0 0 0 0 401055.32667541504 -1097238.5160851479 0 -1097238.5160851479 3988005.2291688919 0 0 0 0 18410080.314910889 -10266301.221118212 0 -10266301.221118212 -32795191.079752922 0 0 0 0 19007777.191194057 5932076.467520386 0 5932076.467520386 -9744224.8330020905 0 0 0 0 66921494.742729187 -15563004.002403975 0 -15563004.002403975 -4157272.8121362925 0 0 0 0 17093765.068836212 -45454128.609078646 0 -45454128.609078646 72970404.638399124 0 0 0 0 -19121408.949565887 -10743085.452764869 0 -10743085.452764869 75088576.15159893 0 0 0 0 -9022636.755657196 1860943.5563958883 0 1860943.5563958883 64248359.608573437 0 0 0 0 -21926986.49772644 -12298291.679956198 0 -12298291.679956198 93337841.958242059 0 0 0 0 -27189901.627254486 -45048041.874940515 0 -45048041.874940515 46294030.112083673 0 0 0 0 39640947.714359283 -23250815.961231589 0 -23250815.961231589 -64252631.959189177 0 0 0 0 18580749.824890137 -53230551.461879492 0 -53230551.461879492 36113981.553420305 0 0 0 0 42142057.767894745 9899444.5667154789 0 9899444.5667154789 -2239491.3337116241 0 0 0 0 69457071.254844666 -7799033.1005417705 0 -7799033.1005417705 44711737.390955448 0 0 0 0 73749362.03767395 9287332.3833112717 0 9287332.3833112717 33757516.044660091 0 0 0 0 291108.76145087928 -348961.17859125789 0 -348961.17859125789 -132013.51590011356 0 0 0 0 88348931.775779724 55021401.688019037 0 55021401.688019037 -56658728.228689611 0 0 0 0 2238719.4435260687 59284.288886968046 0 59284.288886968046 -182280.19256015355 0 0 0 0 84471295.567905426 -36941751.556458116 0 -36941751.556458116 25515446.177783489 0 0 0 0 131578489.11265564 -444723.86593008041 0 -444723.86593008041 31715290.146774054 0 0 0 0 40134565.27387619 31249103.432982206 0 31249103.432982206 70469804.542478085 0 0 0 0 -4191635.3880157471 26508384.008826971 0 26508384.008826971 -12013784.048792362 0 0 0 0 103538031.29694366 -37812560.008090973 0 -37812560.008090973 24701237.673938513 0 0 0 0 1956710.926289659 1839261.9917258834 0 1839261.9917258834 -993470.82206124754 0 0 0 0 111175149.00003052 67641403.571120262 0 67641403.571120262 13287370.281028271 0 0 0 0 46442116.829311371 18351681.87607646 0 18351681.87607646 -16955909.325206757 0 0 0 0 76023059.1541996 14635487.485244334 0 14635487.485244334 -20276347.646231651 0 0 0 0 30995538.793414593 1806783.609923929 0 1806783.609923929 -8968582.074420929 0 0 0 0 62899257.678276062 -15858626.425517082 0 -15858626.425517082 -953932.26203632355 0 0 0 0 40101052.370597839 7585881.0003296137 0 7585881.0003296137 -9839826.0451869965 0 0 0 0 96585789.573600769 679809.95635867119 0 679809.95635867119 -57562014.065135002 0 0 0 0 -39287.547259263694 -179657.83050528914 0 -179657.83050528914 183304.86852652067 0 0 0 0 -76605.421514995396 -332760.88986166939 0 -332760.88986166939 336234.19788363739 0 0 0 0 447932.75492095947 -2414506.104827404 0 -2414506.104827404 -14726601.229628801 0 0 0 0 -1942591.9539413452 -29585596.612354517 0 -29585596.612354517 -26180711.799867988 0 0 0 0 -5823731.4590773582 3913900.9672623128 0 3913900.9672623128 -17589487.601437092 0 0 0 0 6315349.6967544556 -2075604.1000452042 0 -2075604.1000452042 1556099.2875806093 0 0 0 0 -9069737.2813085318 -64828966.210646063 0 -64828966.210646063 -20844161.68923378 0 0 0 0 11624024.588756561 -19127337.458038688 0 -19127337.458038688 37532313.983232975 0 0 0 0 3720474.6399154663 -12868966.62645483 0 -12868966.62645483 31555335.220073938 0 0 0 0 13564339.700248718 13604084.431953907 0 13604084.431953907 50659757.601550102 0 0 0 0 -26058091.301208496 -5636468.8049752712 0 -5636468.8049752712 34679693.945657969 0 0 0 0 139670.68798065186 20845037.094724417 0 20845037.094724417 43003828.544987679 0 0 0 0 4566740.8531799316 4916838.3385246992 0 4916838.3385246992 67901573.880212188 0 0 0 0 -13161304.4376297 6249642.7300782204 0 6249642.7300782204 5591939.8158807755 0 0 0 0 -7950138.6940765381 15135068.17047739 0 15135068.17047739 -8346603.5562380552 0 0 0 0 -21891103.689346313 10542082.701319098 0 10542082.701319098 11304287.732704222 0 0 0 0 -25525702.413776517 -19034013.94566109 0 -19034013.94566109 36244310.715387821 0 0 0 0 -554952.30062866211 -20828205.075035095 0 -20828205.075035095 24954365.668606639 0 0 0 0 18477418.777328491 9865048.6533973217 0 9865048.6533973217 -806983.39970970154 0 0 0 0 -20943239.117134094 17155860.625180006 0 17155860.625180006 37631075.688569546 0 0 0 0 -216107.27736249752 28420.103991115466 0 28420.103991115466 1159043.1071106072 0 0 0 0 80966307.082992554 49256329.569785595 0 49256329.569785595 11972582.271191597 0 0 0 0 -1766499.8510971069 -28977224.576140404 0 -28977224.576140404 -10139887.503787041 0 0 0 0 18595715.032653809 -36929779.066204548 0 -36929779.066204548 -8225808.2350656986 0 0 0 0 -87085.747194834054 -185244.13666264433 0 -185244.13666264433 205542.97086695326 0 0 0 0 20820419.154075623 -7411039.6132240295 0 -7411039.6132240295 -31144142.987854958 0 0 0 0 24237364.193369865 -14015858.256693721 0 -14015858.256693721 -18387499.302698135 0 0 0 0 17347448.006408691 -10893617.93976593 0 -10893617.93976593 -8490659.7906579971 0 0 0 0 467731.48913574219 -5223933.2856316566 0 -5223933.2856316566 -20573840.077960491 0 0 0 0 11513420.163730621 10111272.139503777 0 10111272.139503777 -5825193.8300580978 0 0 0 0 46872524.876483917 426174.84351992607 0 426174.84351992607 25926914.407267034 0 0 0 0 97792959.881134033 43027566.334581852 0 43027566.334581852 11881351.645017505 0 0 0 0 100144748.80812454 65917451.388177872 0 65917451.388177872 -10204481.513221741 0 0 0 0 1613529.8545491025 678434.80460601486 0 678434.80460601486 351624.68802203517 0 0 0 0 -18277854.067119598 5896724.6694023609 0 5896724.6694023609 41895285.574460983 0 0 0 0 9008975.8964555487 1213418.805614043 0 1213418.805614043 -1911663.9065818095 0 0 0 0 26796562.041412354 -41961438.988366127 0 -41961438.988366127 4530149.0242805481 0 0 0 0 59426416.93680954 9085653.8935523033 0 9085653.8935523033 -39150459.288663149 0 0 0 0 23625337.574737549 609094.51662421227 0 609094.51662421227 12450447.413878441 0 0 0 0 29247719.199012756 -8219397.2937746048 0 -8219397.2937746048 7133465.0502433777 0 0 0 0 30576059.708181381 687526.70201438665 0 687526.70201438665 7964642.2230739594 0 0 0 0 81566302.500427246 -72317108.033153534 0 -72317108.033153534 -2767678.1530265808 0 0 0 0 151461954.03250122 -2118304.8496589661 0 -2118304.8496589661 808315.71358680725 0 0 0 0 121415481.84588623 25168517.322348595 0 25168517.322348595 23426611.35478723 0 0 0 0 84411967.333648682 -35542490.372045517 0 -35542490.372045517 -5542853.3796691895 0 0 0 0 40653881.573471069 18802337.736415863 0 18802337.736415863 22932150.229978561 0 0 0 0 -164944.25541521236 80870.310487268493 0 80870.310487268493 473119.69203345478 0 0 0 0 30089959.89793396 3693733.6187605858 0 3693733.6187605858 -3899562.3535292149 0 0 0 0 31568701.970207214 24373615.379757404 0 24373615.379757404 53088248.268605232 0 0 0 0 8787661.3293914795 109663293.48556387 0 109663293.48556387 35606865.564239502 0 0 0 0 170562425.16529846 -94292839.414097786 0 -94292839.414097786 -12978041.972178459 0 0 0 0 23490238.587841034 -15193780.87540251 0 -15193780.87540251 29646807.065472603 0 0 0 0 4627210.206161499 2999513.8375401497 0 2999513.8375401497 13392245.738642931 0 0 0 0 216612.03098869324 -16039454.384632587 0 -16039454.384632587 18518905.026948452 0 0 0 0 15407781.94593811 4705580.36805439 0 4705580.36805439 -4848735.9545764923 0 0 0 0 7037145.7533874512 -4604733.759552002 0 -4604733.759552002 31493749.643301964 0 0 0 0 -15927474.551790237 -10992387.025438547 0 -10992387.025438547 8160460.8020372391 0 0 0 0 11117568.102035522 -10178335.828042746 0 -10178335.828042746 8143372.5359381288 0 0 0 0 1738234.8575325012 2532278.2442932129 0 2532278.2442932129 14318206.591768265 0 0 0 0 9231253.1651611328 9883556.1974639893 0 9883556.1974639893 1101246.3410420418 0 0 0 0 10975630.162811279 18615857.740810871 0 18615857.740810871 24317322.406282425 0 0 0 0 5520687.5660095215 18369221.913508415 0 18369221.913508415 651373.44427868724 0 0 0 0 -8972615.1043796539 12028924.083240598 0 12028924.083240598 -15850323.47455883 0 0 0 0 10408046.102859799 3730995.7968640402 0 3730995.7968640402 -851380.48905239941 0 0 0 0 13798551.926408183 -1541408.6899365236 0 -1541408.6899365236 -1781618.497172741 0 0 0 0 -23114135.011920929 -3751794.7868947685 0 -3751794.7868947685 -2485544.6427247524 0 0 0 0 17471269.820329666 -31108123.111603975 0 -31108123.111603975 -13726945.261635423 0 0 0 0 24263746.645713806 -27860134.941551447 0 -27860134.941551447 -29108432.300825834 0 0 0 0 8320659.3428065777 2782785.8811385492 0 2782785.8811385492 800070.82204984548 0 0 0 0 -5396967.5734195709 -12777084.094238162 0 -12777084.094238162 22735494.401648521 0 0 0 0 20126709.588691711 26675881.707388878 0 26675881.707388878 33302096.470308781 0 0 0 0 36347041.819972992 4632031.1404452324 0 4632031.1404452324 -26026975.07532835 0 0 0 0 38136380.231825829 17585874.849796951 0 17585874.849796951 -17206160.579960346 0 0 0 0 8035432.9797024373 539729.31561694061 0 539729.31561694061 -1381021.5803913637 0 0 0 0 164790937.80572891 51037470.776633888 0 51037470.776633888 273892362.19078052 0 0 0 0 378623645.64521408 167739341.22606045 0 167739341.22606045 28325820.217072368 0 0 0 0 415678684.99313593 366826417.32294703 0 366826417.32294703 383961267.80027211 0 0 0 0 -494840397.04297924 242507024.75061393 0 242507024.75061393 238277899.08576855 0 0 0 0 171983.32196664205 458161.19400626142 0 458161.19400626142 599669.72592518525 0 0 0 0 724555513.82978058 221321544.96454406 0 221321544.96454406 -17988391.624423355 0 0 0 0 94422700.02570343 115660946.37834167 0 115660946.37834167 517249001.02220345 0 0 0 0 192960278.85281754 332143000.39607555 0 332143000.39607555 243247411.31904891 0 0 0 0 -153862789.15904427 99633246.985104173 0 99633246.985104173 170115594.71168536 0 0 0 0 -87847505.48052597 103039393.7825425 0 103039393.7825425 194958620.85575402 0 0 0 0 -73467673.981652498 197726797.12572467 0 197726797.12572467 204834429.41101706 0 0 0 0 -30605545.560846329 74564502.550308734 0 74564502.550308734 173508016.2358447 0 0 0 0 56023267.688570023 140405926.9238649 0 140405926.9238649 201451792.54059923 0 0 0 0 16586163.516414072 -4685912.879438526 0 -4685912.879438526 1386569.3635469831 0 0 0 0 227155615.20828247 144058120.28037834 0 144058120.28037834 189858345.08456182 0 0 0 0 41020535.412660599 154155795.98243013 0 154155795.98243013 191384894.70610273 0 0 0 0 -9278075.9533691406 2884740.5675868988 0 2884740.5675868988 8745353.0826659203 0 0 0 0 1228786.3255041987 -2035232.880889284 0 -2035232.880889284 -657005.14504004654 0 0 0 0 117671438.08701897 182077174.81106201 0 182077174.81106201 266940708.12781549 0 0 0 0 281310773.03328323 107046664.44462615 0 107046664.44462615 152873325.12693369 0 0 0 0 214499074.97775841 299262687.72950733 0 299262687.72950733 -142276964.31573105 0 0 0 0 -6269900.8605089188 35322976.912233964 0 35322976.912233964 209211622.00353453 0 0 0 0 14017202.770864964 29922269.558450259 0 29922269.558450259 204988741.45966417 0 0 0 0 -71556971.588142395 47659156.778762951 0 47659156.778762951 201333386.31874958 0 0 0 0 -10503973.431316376 20438041.897414908 0 20438041.897414908 157570007.1433509 0 0 0 0 -112362357.53403139 -9866433.5611997247 0 -9866433.5611997247 154825550.89030719 0 0 0 0 92627114.03653717 -14677543.093640909 0 -14677543.093640909 141919646.91603723 0 0 0 0 446513439.48750448 140390181.71323049 0 140390181.71323049 150791766.81159729 0 0 0 0 391723560.12046051 29058598.453189999 0 29058598.453189999 108083190.60683641 0 0 0 0 287491880.38170242 165537316.22703722 0 165537316.22703722 207704127.5093945 0 0 0 0 182450852.97072411 14247787.291656302 0 14247787.291656302 167261957.77743289 0 0 0 0 139246978.74402618 63195274.961448863 0 63195274.961448863 200641385.90915447 0 0 0 0 61561356.673340797 76110081.266201109 0 76110081.266201109 184001131.67146602 0 0 0 0 278829014.68888855 79549471.107698917 0 79549471.107698917 156342806.70207161 0 0 0 0 205881868.04167175 207230045.62666795 0 207230045.62666795 109964653.56546736 0 0 0 0 31654437.658006907 127138654.42469013 0 127138654.42469013 225746224.34205124 0 0 0 0 13675662.695320729 -4258866.4467792334 0 -4258866.4467792334 1265690.417647033 0 0 0 0 60008245.942173123 -33973307.020841479 0 -33973307.020841479 80737812.775157094 0 0 0 0 16525908.533660889 -55330004.445311546 0 -55330004.445311546 -121867186.90859008 0 0 0 0 -23872195.698760986 -39087552.617109179 0 -39087552.617109179 -22466740.777430534 0 0 0 0 4436902.6989154816 9682269.3185763061 0 9682269.3185763061 199769383.87039721 0 0 0 0 15055682.852314524 -4661546.9051315486 0 -4661546.9051315486 1419899.6795192235 0 0 0 0 -7387819.224855423 26267365.097672462 0 26267365.097672462 207814736.47957107 0 0 0 0 44218524.62146759 -46154328.053323746 0 -46154328.053323746 -78720093.960532188 0 0 0 0 30484882.36441803 22956999.96022439 0 22956999.96022439 -45169289.152731061 0 0 0 0 79512471.554609299 -17600237.393189043 0 -17600237.393189043 -13065433.426544666 0 0 0 0 49043255.820152283 49100696.357199192 0 49100696.357199192 46425404.247417212 0 0 0 0 86241154.960300446 62313881.224830627 0 62313881.224830627 12989997.114043236 0 0 0 0 28764730.665588379 19802274.989240408 0 19802274.989240408 -26489570.588513494 0 0 0 0 30303298.670936584 6395387.7688970566 0 6395387.7688970566 7682431.6648864746 0 0 0 0 421593.90817642212 -15679155.034485579 0 -15679155.034485579 5095120.6205391884 0 0 0 0 86909796.5443573 30865714.82588315 0 30865714.82588315 2654081.7040812671 0 0 0 0 32880439.307250977 11150316.285133243 0 11150316.285133243 12412776.671377659 0 0 0 0 37688610.359516144 -22026534.074800983 0 -22026534.074800983 34183093.584448814 0 0 0 0 75258204.18560791 57282064.58485961 0 57282064.58485961 11571630.134162426 0 0 0 0 85034497.934679031 56078521.130401969 0 56078521.130401969 5440522.0601539612 0 0 0 0 -21569853.04725647 56269478.745705664 0 56269478.745705664 161230480.89904916 0 0 0 0 131129537.99034882 61952817.929653227 0 61952817.929653227 5789445.221313782 0 0 0 0 -31368720.887060165 -4880255.3658499718 0 -4880255.3658499718 8859603.6553931236 0 0 0 0 47863.814929196611 -209739.49311145209 0 -209739.49311145209 1498983.3997775812 0 0 0 0 55446707.790103912 -41982267.687267542 0 -41982267.687267542 43113697.847233891 0 0 0 0 729442.23511525244 -279144.65520801576 0 -279144.65520801576 -67387.606967511296 0 0 0 0 146051715.86063004 -3535470.6556084752 0 -3535470.6556084752 11326187.246708155 0 0 0 0 14777706.563209534 117805289.20204717 0 117805289.20204717 35720652.091702521 0 0 0 0 150522058.21391296 40450491.414019108 0 40450491.414019108 -1888575.7121353149 0 0 0 0 102315871.0904274 73185636.803754807 0 73185636.803754807 21191881.544549704 0 0 0 0 92641.885607561097 -250108.79186357558 0 -250108.79186357558 846464.10138792801 0 0 0 0 186942627.94269562 24417927.44434011 0 24417927.44434011 5167927.5022544861 0 0 0 0 2219361.2076816559 1574220.5164001584 0 1574220.5164001584 -1957982.6287965775 0 0 0 0 714723.87236253917 -100466.04611113295 0 -100466.04611113295 82559.634930991335 0 0 0 0 612155319.63320923 289117732.96464825 0 289117732.96464825 -407936078.03105354 0 0 0 0 -23264.365873452276 -146279.23755951971 0 -146279.23755951971 59153.307524210715 0 0 0 0 1524849.6309921984 -1626165.3402145002 0 -1626165.3402145002 882554.71063207695 0 0 0 0 -1951729.2983551025 -25010016.19502908 0 -25010016.19502908 17824725.365936756 0 0 0 0 -18231155.298126221 -8736883.7818942666 0 -8736883.7818942666 1691306.7388739586 0 0 0 0 12505930.467014313 18382073.245459259 0 18382073.245459259 37255844.503112078 0 0 0 0 28056287.227172852 -18884045.804968953 0 -18884045.804968953 -21128885.698977232 0 0 0 0 953459.59362792969 -2830174.5544039011 0 -2830174.5544039011 5229253.8371279836 0 0 0 0 -4350114.3926696777 -11984021.347688556 0 -11984021.347688556 43648404.099008799 0 0 0 0 2083183.2487163432 -1004237.1645686288 0 -1004237.1645686288 -245817.45591033471 0 0 0 0 18832008.74206543 -9828588.2459558249 0 -9828588.2459558249 -29498516.928679585 0 0 0 0 40615.277103882283 134411.90536439046 0 134411.90536439046 309668.67804221623 0 0 0 0 21316588.860406876 -25252582.220404148 0 -25252582.220404148 27821044.913972378 0 0 0 0 56947623.743249893 40447968.29018721 0 40447968.29018721 -8714071.2260725498 0 0 0 0 -11956147.759094238 -23793383.233644485 0 -23793383.233644485 43593273.609405279 0 0 0 0 -16356577.606063843 6434308.9575908184 0 6434308.9575908184 20017502.706720829 0 0 0 0 -29097147.731262207 21224260.42267859 0 21224260.42267859 10419473.823942184 0 0 0 0 2171315.037651062 23481382.593007326 0 23481382.593007326 -78725325.465662122 0 0 0 0 218249707.47557449 39017629.197909713 0 39017629.197909713 34336797.379038215 0 0 0 0 11823438.014222855 -3357961.5539143886 0 -3357961.5539143886 1048833.2749890725 0 0 0 0 60911203.185411453 -107204541.80241734 0 -107204541.80241734 -127533437.30412769 0 0 0 0 32387983.449474335 174305450.70794439 0 174305450.70794439 315178928.97994453 0 0 0 0 566638650.63243866 376617383.99724996 0 376617383.99724996 387220719.99434513 0 0 0 0 343826651.96511459 540358201.27429104 0 540358201.27429104 515314499.0884828 0 0 0 0 31172126.082149506 -82965315.800270557 0 -82965315.800270557 -194084777.78470922 0 0 0 0 8824529.7874379586 -1899622.548702029 0 -1899622.548702029 967218.93564807519 0 0 0 0 -76246629.864822388 -42995482.178946078 0 -42995482.178946078 -17558707.128423929 0 0 0 0 -26050571.167358398 53599838.128191113 0 53599838.128191113 5666872.3290115595 0 0 0 0 -12141353.212768555 28540611.592023313 0 28540611.592023313 83550146.124827668 0 0 0 0 -679124.94497311115 -2108592.716960106 0 -2108592.716960106 540729.10348281299 0 0 0 0 26532590.599121094 47691456.585351616 0 47691456.585351616 -25329739.333167203 0 0 0 0 -52723878.993787766 -18817394.067336556 0 -18817394.067336556 172707366.15594754 0 0 0 0 73189.452977191657 -1558166.1335359267 0 -1558166.1335359267 248005.82311750302 0 0 0 0 336848643.43569946 35906293.186997801 0 35906293.186997801 -267996142.42886841 0 0 0 0 -21776220.23940444 46692744.779491827 0 46692744.779491827 140021975.46480179 0 0 0 0 -180799338.11218262 67606762.835449845 0 67606762.835449845 75833560.983635545 0 0 0 0 -12854464.361061096 114427843.77041671 0 114427843.77041671 -103442212.29023825 0 0 0 0 2200944671.654026 -1142783342.8108537 0 -1142783342.8108537 -80730278.034461051 0 0 0 0 1931168188.1349659 -553373040.75910807 0 -553373040.75910807 -340632202.80450302 0 0 0 0 102525985.11250305 -311367308.48084319 0 -311367308.48084319 149661659.64944834 0 0 0 0 -56074267.941329956 137734009.24733377 0 137734009.24733377 -49713189.507253885 0 0 0 0 214349.78088995442 -890913.50959243323 0 -890913.50959243323 76987.300331210063 0 0 0 0 869394563.51456451 -960597430.25702214 0 -960597430.25702214 615717412.21398067 0 0 0 0 -60121185.585525513 -127332039.7560674 0 -127332039.7560674 94065050.596426681 0 0 0 0 4067124.0695421863 177012.88575300109 0 177012.88575300109 857348.7267623255 0 0 0 0 738833367.01020813 -745350766.36323833 0 -745350766.36323833 571843983.87413406 0 0 0 0 2202637999.3515625 1398607306.6073699 0 1398607306.6073699 848147584.68643093 0 0 0 0 1603622126.4335537 1657082398.4817908 0 1657082398.4817908 1510051556.732419 0 0 0 0 887019905.06642914 1188517380.9767389 0 1188517380.9767389 1421266568.9294646 0 0 0 0 405508328.08608818 490837349.33669609 0 490837349.33669609 723588127.48788941 0 0 0 0 1168056283.3636017 976578287.34070206 0 976578287.34070206 516772302.44480544 0 0 0 0 1875609806.4407253 936443744.41466928 0 936443744.41466928 202821735.3726576 0 0 0 0 2204709583.923418 1147204331.7310569 0 1147204331.7310569 212078759.73137903 0 0 0 0 1382013700.2589779 511142215.14149821 0 511142215.14149821 -139834030.29373926 0 0 0 0 1617314657.5939884 594062746.70438623 0 594062746.70438623 -111092819.87669879 0 0 0 0 733849120.93001747 523774815.62569511 0 523774815.62569511 183097963.14036518 0 0 0 0 902007903.48075199 518880294.12535274 0 518880294.12535274 134906801.28814578 0 0 0 0 712734799.54456902 294889405.39159739 0 294889405.39159739 87988536.062447876 0 0 0 0 410797335.22110748 391827658.92777836 0 391827658.92777836 264807976.04938745 0 0 0 0 280634624.38923645 144245072.54818261 0 144245072.54818261 146332521.43436036 0 0 0 0 469804186.20721626 204898274.84939814 0 204898274.84939814 125920287.77931356 0 0 0 0 421054119.69192123 258621742.8943212 0 258621742.8943212 174647739.34914538 0 0 0 0 1333945823.0043907 308155950.59642786 0 308155950.59642786 -58605392.978466213 0 0 0 0 834010763.63179207 231875976.97117978 0 231875976.97117978 -42375716.044346035 0 0 0 0 475190319.46946907 50359351.19197011 0 50359351.19197011 137356920.42917567 0 0 0 0 783176927.63520241 276913338.61847651 0 276913338.61847651 110066996.28762743 0 0 0 0 805731295.56444168 -45860287.873115599 0 -45860287.873115599 31696111.697808735 0 0 0 0 1416595204.054388 166832386.91613331 0 166832386.91613331 -113736934.85173476 0 0 0 0 831168807.68757248 13004301.087146997 0 13004301.087146997 -68063653.612257391 0 0 0 0 1416787025.3538055 153689666.79811376 0 153689666.79811376 -381853744.67008889 0 0 0 0 2204610726.1845169 412906154.50398457 0 412906154.50398457 -327021054.51249295 0 0 0 0 255560515.71205902 268759125.95942962 0 268759125.95942962 389237975.90653312 0 0 0 0 234458523.52147675 -35874945.914489791 0 -35874945.914489791 -151003435.65645796 0 0 0 0 1092348901.558754 -42487366.573250517 0 -42487366.573250517 -76429461.875855789 0 0 0 0 2201692986.3554726 470249682.45595968 0 470249682.45595968 -323955854.03450602 0 0 0 0 2185942937.413208 -49940065.388047636 0 -49940065.388047636 -93478003.405522108 0 0 0 0 1162088.0263096131 288073.55503337784 0 288073.55503337784 368419.814056659 0 0 0 0 614018202.05791092 699507914.64499855 0 699507914.64499855 352380977.54622483 0 0 0 0 48881225.223388672 -156245059.15064877 0 -156245059.15064877 72255552.292293251 0 0 0 0 89072274.513397217 -184383060.44579047 0 -184383060.44579047 -41566504.619330049 0 0 0 0 12454565.682502747 -29123410.180706978 0 -29123410.180706978 -167816784.23565578 0 0 0 0 -3287464.5521774292 -24033332.421560585 0 -24033332.421560585 -4844716.3986192942 0 0 0 0 490108.19859313965 789730.62871974707 0 789730.62871974707 -4625257.7540307045 0 0 0 0 -3341243.9672470093 -7401915.448320061 0 -7401915.448320061 6502378.2964231372 0 0 0 0 -319400.6137162745 -507927.50189544447 0 -507927.50189544447 -448747.70303369005 0 0 0 0 -3901079.2695298195 -18133237.612935446 0 -18133237.612935446 8079319.6691889763 0 0 0 0 4130110.9929702617 -26421.175659222528 0 -26421.175659222528 -572074.11886642035 0 0 0 0 -2142943.0428161621 4355300.8753450215 0 4355300.8753450215 -3929293.9164353609 0 0 0 0 271249.56455993652 36269161.120318294 0 36269161.120318294 -53652739.388962135 0 0 0 0 -137757685.91283417 -97532756.447042286 0 -97532756.447042286 39350292.307395488 0 0 0 0 -140740651.3738327 -67919591.063970104 0 -67919591.063970104 125236724.1107 0 0 0 0 -166870.08375228941 -145907.90610926878 0 -145907.90610926878 -110954.17366117935 0 0 0 0 -126883010.09364319 12214792.345085979 0 12214792.345085979 22398356.829232961 0 0 0 0 -69994925.276046753 -69175567.434453458 0 -69175567.434453458 -70308632.636537015 0 0 0 0 -32365422.038869858 61703278.397621982 0 61703278.397621982 -74264755.211918473 0 0 0 0 39301517.441329956 -15421219.729915693 0 -15421219.729915693 -79490677.804484025 0 0 0 0 3407025.4549839869 476983.27180230059 0 476983.27180230059 -48710.558524087894 0 0 0 0 38925493.296955109 6462042.5010738373 0 6462042.5010738373 -54517138.589842796 0 0 0 0 7195543.7497119904 -35517904.619667053 0 -35517904.619667053 74597124.48114723 0 0 0 0 389004245.90552139 -101531468.42709492 0 -101531468.42709492 -78870188.024293348 0 0 0 0 512867519.9324646 115410098.75475419 0 115410098.75475419 107974064.32926595 0 0 0 0 20188670.372833252 357018912.09624726 0 357018912.09624726 99619381.287489116 0 0 0 0 2545091.5963609368 -79554.55046120286 0 -79554.55046120286 -270029.39334573428 0 0 0 0 2202591823.8168907 -640134799.87396014 0 -640134799.87396014 17119172.270385284 0 0 0 0 951587395.01377106 438608920.25435531 0 438608920.25435531 -47090517.139784396 0 0 0 0 850763286.57277679 387763009.38739777 0 387763009.38739777 93439070.06204851 0 0 0 0 2093283153.7385614 -151736555.26396978 0 -151736555.26396978 258125274.33932447 0 0 0 0 -70523599.749279022 -55457370.634036973 0 -55457370.634036973 161406841.49006811 0 0 0 0 97532987.437660217 172127636.48392075 0 172127636.48392075 112375889.12132788 0 0 0 0 180365423.65285873 -31430829.989006102 0 -31430829.989006102 117404806.04861897 0 0 0 0 247894252.95470428 -115661917.54249781 0 -115661917.54249781 -17864172.536897719 0 0 0 0 1048085681.6609774 921168697.62692034 0 921168697.62692034 -59030135.269148171 0 0 0 0 -46382276.753433228 -46979778.942951232 0 -46979778.942951232 187509586.0070619 0 0 0 0 1370814.6926030889 -194386.83647694159 0 -194386.83647694159 -50866.131403552397 0 0 0 0 2660506.0478323344 -38345.649551717564 0 -38345.649551717564 -145669.26173970994 0 0 0 0 708095542.13595581 317860407.46718097 0 317860407.46718097 968462044.52950859 0 0 0 0 2204281025.3829117 847740831.84491217 0 847740831.84491217 252011208.8726424 0 0 0 0 984760977.52330017 143973941.89153075 0 143973941.89153075 -12094184.379339874 0 0 0 0 2355551.0323336348 -427769.87769360654 0 -427769.87769360654 -102036.93492723201 0 0 0 0 1256745429.4981003 253194893.69359815 0 253194893.69359815 -118807712.40608032 0 0 0 0 931734475.22528076 537266878.97870791 0 537266878.97870791 40515253.800467432 0 0 0 0 1155852552.4706631 458765718.16573757 0 458765718.16573757 104004722.50684607 0 0 0 0 617130745.34394073 -719159152.38703585 0 -719159152.38703585 -159712903.45166177 0 0 0 0 900663.24277082086 -172870.73342626356 0 -172870.73342626356 -59001.087663403363 0 0 0 0 869633849.09875202 -157173436.90349144 0 -157173436.90349144 -376061157.53049588 0 0 0 0 2204626775.0327835 234491639.06514972 0 234491639.06514972 -456658087.17080867 0 0 0 0 -216647566.20526505 -133272982.18739679 0 -133272982.18739679 191970216.15464532 0 0 0 0 110811240.85375214 69632526.476070583 0 69632526.476070583 -29911814.648956954 0 0 0 0 275682345.60276031 -198120532.47180921 0 -198120532.47180921 155933366.69924682 0 0 0 0 73462750.039058685 51484437.619265318 0 51484437.619265318 296311194.62453383 0 0 0 0 245638675.59037781 -63080263.212516665 0 -63080263.212516665 -221217346.121957 0 0 0 0 2843574.8085750639 -1142090.581762149 0 -1142090.581762149 80990.800263749523 0 0 0 0 1776502.151717945 -1957292.6693238877 0 -1957292.6693238877 1105182.8278604271 0 0 0 0 393740.55918985326 -158600.82298021577 0 -158600.82298021577 63382.539395577449 0 0 0 0 1977483.5733795166 14442616.333840251 0 14442616.333840251 69796108.486186028 0 0 0 0 877193.2195892334 1724223.2246035188 0 1724223.2246035188 -3130115.425957188 0 0 0 0 -54579048.786548138 9772723.7034738641 0 9772723.7034738641 123374383.32216492 0 0 0 0 -24526320.999290466 -96438342.301084504 0 -96438342.301084504 86483868.525691062 0 0 0 0 -10808047.241973877 4679611.5175421238 0 4679611.5175421238 93330980.851476252 0 0 0 0 18664783.144668579 16711424.102366164 0 16711424.102366164 63690268.734948397 0 0 0 0 26074687.390989304 -3063324.7619449794 0 -3063324.7619449794 109053691.30837047 0 0 0 0 91790707.403282166 30808560.649903327 0 30808560.649903327 45081135.109860599 0 0 0 0 144418182.63523483 -5102968.0709201097 0 -5102968.0709201097 37827668.059990466 0 0 0 0 -26527362.872413635 -845021.06784701347 0 -845021.06784701347 78042704.943947136 0 0 0 0 3779133.7245445251 -7232650.4973142743 0 -7232650.4973142743 -28946198.885098696 0 0 0 0 -15646226.588874817 4409098.8069661856 0 4409098.8069661856 -791681.07210421562 0 0 0 0 -1060566.2582948953 -952030.44702404737 0 -952030.44702404737 827351.19067810208 0 0 0 0 41286116.415328979 -22409100.151080251 0 -22409100.151080251 -27808674.319045067 0 0 0 0 -268329.33456162736 -234369.22597645968 0 -234369.22597645968 217925.46704911607 0 0 0 0 49707063.443107605 49662715.799302697 0 49662715.799302697 -24727478.304198265 0 0 0 0 57271193.900798798 25533916.945381105 0 25533916.945381105 51637136.898359299 0 0 0 0 109004006.50695801 -35402637.559746504 0 -35402637.559746504 -87391361.360953689 0 0 0 0 145063305.49395752 -111247689.31270123 0 -111247689.31270123 41626137.592865542 0 0 0 0 141712176.50469971 29549063.737629056 0 29549063.737629056 -3554118.1209361553 0 0 0 0 114232735.89438248 33063049.289884269 0 33063049.289884269 12545118.9227283 0 0 0 0 25814056.273803711 -2398089.6015609503 0 -2398089.6015609503 38382488.511795521 0 0 0 0 24928477.235496521 5486119.3131130934 0 5486119.3131130934 6957512.13915658 0 0 0 0 -14000912.639984131 12372455.286970437 0 12372455.286970437 21147178.854379892 0 0 0 0 36471.789308547974 -3162652.5686290562 0 -3162652.5686290562 -9081530.6273782253 0 0 0 0 12395413.04006958 556314.24853610992 0 556314.24853610992 -8761613.4637041464 0 0 0 0 119770336.65924072 15315944.848149478 0 15315944.848149478 59470022.826443195 0 0 0 0 126326751.63780499 90333484.889307529 0 90333484.889307529 64025783.34304285 0 0 0 0 323986260.88715744 105538782.64288107 0 105538782.64288107 -114525375.02565145 0 0 0 0 -8959969.6955299377 -20091136.921164572 0 -20091136.921164572 -15625341.385774851 0 0 0 0 62308.800063263625 -78260.586575705558 0 -78260.586575705558 236825.46245503856 0 0 0 0 69080271.617019653 -19250345.084106922 0 -19250345.084106922 -16958563.665278882 0 0 0 0 5473210.4921722412 8459008.7204256654 0 8459008.7204256654 -5757643.1831017733 0 0 0 0 -9660551.1335449219 841940.87746784091 0 841940.87746784091 -5091579.0343338251 0 0 0 0 2278555.4013977051 20346715.81994167 0 20346715.81994167 10446758.871974707 0 0 0 0 144852429.90018463 -552263.98839658499 0 -552263.98839658499 -32887009.244401813 0 0 0 0 68936271.459335327 26262581.574213445 0 26262581.574213445 -6033825.0680259466 0 0 0 0 214984.86488555744 -329194.7009581062 0 -329194.7009581062 56886.321631865299 0 0 0 0 14990230.547119141 -66236125.389878631 0 -66236125.389878631 106265646.17838997 0 0 0 0 131906194.44009399 -48720350.632105924 0 -48720350.632105924 28531670.072958618 0 0 0 0 -4894740.2107467651 -31333202.88654191 0 -31333202.88654191 51798534.741497189 0 0 0 0 7363985.8127937317 -73337595.188078821 0 -73337595.188078821 30552570.887515575 0 0 0 0 4482855.1360855103 -62478437.976315558 0 -62478437.976315558 15849747.751745686 0 0 0 0 -30383221.191848755 -71563288.987166822 0 -71563288.987166822 14021935.118920803 0 0 0 0 -3912873.4972724915 -21939229.709592372 0 -21939229.709592372 -32050563.7461375 0 0 0 0 15509866.008224487 -73666167.078071296 0 -73666167.078071296 -18360386.333204865 0 0 0 0 23468600.613868713 -25213112.559714556 0 -25213112.559714556 -30001168.141603172 0 0 0 0 37470834.984972 -12020438.09980455 0 -12020438.09980455 -24468227.29056567 0 0 0 0 14841914.003160477 -17922327.5683465 0 -17922327.5683465 -35259334.346470118 0 0 0 0 2122362.4020996094 -51086595.213282824 0 -51086595.213282824 -45558376.359465361 0 0 0 0 17590715.161071777 -49243334.648825817 0 -49243334.648825817 1225000.2249441445 0 0 0 0 28553857.783462524 -35354376.074543327 0 -35354376.074543327 26843246.141592056 0 0 0 0 39771393.66973877 -36844074.208790176 0 -36844074.208790176 5956118.206702441 0 0 0 0 39109494.179145813 6499498.5480331481 0 6499498.5480331481 36842415.515229598 0 0 0 0 73098464.48789978 -35634859.521728903 0 -35634859.521728903 -9549307.3634926081 0 0 0 0 41339760.249839783 -4537479.2139707804 0 -4537479.2139707804 -19473460.847402722 0 0 0 0 17584597.317886353 3139760.3401772976 0 3139760.3401772976 -17054706.704207137 0 0 0 0 42200756.906729698 2162469.8679909334 0 2162469.8679909334 -40116554.991757631 0 0 0 0 44528379.441519737 -14084598.767390177 0 -14084598.767390177 -39614513.847325563 0 0 0 0 28000492.874517441 2321754.9707314074 0 2321754.9707314074 -40044149.366752028 0 0 0 0 21836780.675134659 -15183341.963285759 0 -15183341.963285759 -39662781.387432098 0 0 0 0 16964490.355171204 -14978494.790267587 0 -14978494.790267587 -32417571.810424566 0 0 0 0 14148899.76259613 1831394.2531347275 0 1831394.2531347275 -33868121.654430389 0 0 0 0 4752211.9144744724 -88882.964836556464 0 -88882.964836556464 -1624429.9938128362 0 0 0 0 8523255.3534164429 -8975726.1241021752 0 -8975726.1241021752 -12165179.930976152 0 0 0 0 1279331.1210021973 1714541.2429013252 0 1714541.2429013252 -5622022.4152336121 0 0 0 0 2497072.2891318761 -2682163.7770489044 0 -2682163.7770489044 -1964303.7303509996 0 0 0 0 10221019.945709229 855425.77085387707 0 855425.77085387707 -32549200.895044565 0 0 0 0 9654090.3295288086 -5897250.587572217 0 -5897250.587572217 -20508853.014733791 0 0 0 0 2139463.4231872559 -110943.97939157486 0 -110943.97939157486 -2372256.1772766113 0 0 0 0 4691186.3546678759 46542.875398396514 0 46542.875398396514 -956386.96649105567 0 0 0 0 1162292.1737365723 -66160.503816604614 0 -66160.503816604614 -1398798.3661298752 0 0 0 0 726183.41459986847 1328141.1717471052 0 1328141.1717471052 68503.995593197411 0 0 0 0 1839868.6761700176 986645.09874083661 0 986645.09874083661 -360528.61384011956 0 0 0 0 1188622.1318511963 -72997.424472093582 0 -72997.424472093582 -1466423.1910409927 0 0 0 0 1364380.228925705 974170.25771099329 0 974170.25771099329 -262647.77920007706 0 0 0 0 2928726.6897964478 -16123115.150595784 0 -16123115.150595784 -31922277.151128769 0 0 0 0 2841014.3149952292 -103282.37368449755 0 -103282.37368449755 -593550.21940873587 0 0 0 0 2031557.7100982666 -11160344.761550903 0 -11160344.761550903 -19777809.548218727 0 0 0 0 4532801.7369308472 3921623.2352776527 0 3921623.2352776527 -3089041.1249284744 0 0 0 0 5785185.3785934448 5214986.3286643028 0 5214986.3286643028 -6026771.6486153603 0 0 0 0 4647396.7806015015 4892464.9458302259 0 4892464.9458302259 3399976.0070829391 0 0 0 0 -871251.95922851562 4615824.7910556793 0 4615824.7910556793 4715913.2789888382 0 0 0 0 6238254.866104126 3339402.616894722 0 3339402.616894722 1205412.1718635559 0 0 0 0 609858.74580259249 416891.68985341117 0 416891.68985341117 18013.915612314711 0 0 0 0 6960706.0040884018 -343945.97730252147 0 -343945.97730252147 9492132.7583582401 0 0 0 0 -46961028.624486923 -44960751.056145579 0 -44960751.056145579 -21042665.842091322 0 0 0 0 7395445.9189453125 9897012.1872031689 0 9897012.1872031689 9491587.7753636837 0 0 0 0 591548.78752364963 273482.44745900854 0 273482.44745900854 124568.98692427226 0 0 0 0 1753724.7808970585 1122793.585656519 0 1122793.585656519 -258209.06096179469 0 0 0 0 -2053248.6968994141 4471232.0737705231 0 4471232.0737705231 5379614.1243333817 0 0 0 0 138353.35871142894 93384.161941274069 0 93384.161941274069 -58095.930332548451 0 0 0 0 1556890.6177330017 8358471.6068123579 0 8358471.6068123579 5979641.6614427567 0 0 0 0 4006008.778793335 -29162518.794463158 0 -29162518.794463158 -38265238.443046689 0 0 0 0 -18030852.060523987 -18432294.678259611 0 -18432294.678259611 -22288956.319016457 0 0 0 0 13102044.593566895 -1713407.0147764683 0 -1713407.0147764683 6537257.5681116581 0 0 0 0 -9074771.6266937256 -5776435.9535891414 0 -5776435.9535891414 50664945.512320995 0 0 0 0 25402888.698692322 -26911246.211455941 0 -26911246.211455941 40481995.784348965 0 0 0 0 26674435.925109863 932721.50981587172 0 932721.50981587172 6599935.3628501371 0 0 0 0 -506292.05129785836 209916.63577516843 0 209916.63577516843 559826.88901696471 0 0 0 0 7719016.4122314453 9585179.2742496729 0 9585179.2742496729 1346561.6598734856 0 0 0 0 8676283.1241021156 -12608083.905203462 0 -12608083.905203462 -549967.7120206356 0 0 0 0 -26571181.581390381 48410444.362957239 0 48410444.362957239 80416587.822944403 0 0 0 0 -34704685.507751465 61236968.155938148 0 61236968.155938148 162566493.35561514 0 0 0 0 103090668.60965729 -28934412.085847378 0 -28934412.085847378 25279531.209828019 0 0 0 0 139770352.07711792 -164287346.35669351 0 -164287346.35669351 465432121.32906926 0 0 0 0 1188638.1837374233 -303665.29296908714 0 -303665.29296908714 -47274.796300641785 0 0 0 0 316519319.25097656 119428267.66955495 0 119428267.66955495 4556386.0259282589 0 0 0 0 164431787.93822479 -170071333.54162717 0 -170071333.54162717 124553961.97946882 0 0 0 0 35823457.250961304 80060950.608348966 0 80060950.608348966 245134989.1361233 0 0 0 0 269597364.03427124 131563980.72306728 0 131563980.72306728 43902019.409202099 0 0 0 0 101908324.77339172 32468201.273594022 0 32468201.273594022 10754455.6684587 0 0 0 0 -340534.37627822533 -83517.50233110413 0 -83517.50233110413 403292.73766671616 0 0 0 0 -1471663.0703735352 -36987402.039975345 0 -36987402.039975345 129668419.60665751 0 0 0 0 96202702.051280975 -88700689.956939906 0 -88700689.956939906 66478438.309141755 0 0 0 0 23144121.212768555 -48124439.757281482 0 -48124439.757281482 45139545.403226733 0 0 0 0 59362264.760360718 282235.47775327787 0 282235.47775327787 11929082.107058886 0 0 0 0 71216141.246936798 -44527118.521006331 0 -44527118.521006331 5988761.9707299471 0 0 0 0 67718601.739242554 -8927722.5046262145 0 -8927722.5046262145 20344139.370988965 0 0 0 0 169848416.73484802 2039688.8945911825 0 2039688.8945911825 14832730.519062519 0 0 0 0 93972206.123073578 19953696.51281254 0 19953696.51281254 8017220.3577196002 0 0 0 0 42014396.261482239 21184749.901544385 0 21184749.901544385 8737341.0575990081 0 0 0 0 41049831.89050293 11408610.456821263 0 11408610.456821263 -8058770.5942012072 0 0 0 0 62927558.954593658 -6688741.9017014876 0 -6688741.9017014876 -7088386.4332213327 0 0 0 0 18981831.973526001 -5000118.151443541 0 -5000118.151443541 -6911443.6177217588 0 0 0 0 36009721.897254944 22334287.389889263 0 22334287.389889263 -17011812.865471631 0 0 0 0 10991625.87412262 -24742085.494618297 0 -24742085.494618297 247593.56828778982 0 0 0 0 43560869.673454285 -12985284.870590732 0 -12985284.870590732 -38489797.785511971 0 0 0 0 24968798.073638916 -44961196.502884001 0 -44961196.502884001 -14593949.90716511 0 0 0 0 6032122.0653381348 -38073836.983108729 0 -38073836.983108729 20595079.244392693 0 0 0 0 3868682.805267334 -36823744.540195853 0 -36823744.540195853 67847014.433336824 0 0 0 0 23801318.560639381 -52963466.479040489 0 -52963466.479040489 28600191.263979435 0 0 0 0 6012710.0243606567 -28480671.977874458 0 -28480671.977874458 43688581.298227638 0 0 0 0 44923402.775836945 -37373925.971308008 0 -37373925.971308008 12376576.159143507 0 0 0 0 4376534.4684829712 -61331828.782820359 0 -61331828.782820359 11919204.584318357 0 0 0 0 11723966.011302948 -57714663.255464405 0 -57714663.255464405 11617707.810755849 0 0 0 0 6507215.5512886047 -41333116.503182054 0 -41333116.503182054 -27366113.987286329 0 0 0 0 -760576.99756240845 -28402825.165344059 0 -28402825.165344059 -4697761.4177523851 0 0 0 0 -12010230.79889679 -13829023.234313041 0 -13829023.234313041 -22607732.995687783 0 0 0 0 -4979124.7156562805 165064.47147613764 0 165064.47147613764 -12122329.413326025 0 0 0 0 -131647.48203277588 345885.01259446144 0 345885.01259446144 -24125727.190157443 0 0 0 0 636112.79034654424 -622376.020454732 0 -622376.020454732 69783.091810189158 0 0 0 0 1169177.413192749 7048777.0527004004 0 7048777.0527004004 -9312488.7875653505 0 0 0 0 -4256456.7754135132 19136250.491873622 0 19136250.491873622 -28430396.252179146 0 0 0 0 -2972675.7371482849 629486.30346822739 0 629486.30346822739 482905.18829262257 0 0 0 0 666933.61469960958 -87679.568919772282 0 -87679.568919772282 -139399.86144919391 0 0 0 0 -2294148.7981376648 5216671.9885251522 0 5216671.9885251522 -4681427.0589494705 0 0 0 0 40844390.11441803 28782292.942905664 0 28782292.942905664 875985.12900495529 0 0 0 0 -12819994.119024277 -2994359.2467815876 0 -2994359.2467815876 3719337.3922224045 0 0 0 0 -11008001.094825745 49871097.421306014 0 49871097.421306014 -24591247.241010964 0 0 0 0 -4485591.755906105 -6739832.7754493207 0 -6739832.7754493207 3908901.7104465961 0 0 0 0 572519.92389404774 -112875.72800693568 0 -112875.72800693568 -266223.73536254093 0 0 0 0 51006566.573623657 19866807.132035494 0 19866807.132035494 -50768498.965540171 0 0 0 0 11654501.183315277 -6228870.7874168754 0 -6228870.7874168754 -40334787.119916439 0 0 0 0 296561.76459065825 -88138.991152570583 0 -88138.991152570583 -197639.89653642068 0 0 0 0 -7335398.4573507309 -27567554.406337298 0 -27567554.406337298 -54989122.803464174 0 0 0 0 949746.67029967532 -671086.97608032986 0 -671086.97608032986 35576.344921339347 0 0 0 0 7905651.3113632202 2320559.040723443 0 2320559.040723443 -47265160.57471621 0 0 0 0 -5615815.2030029297 23661191.915441215 0 23661191.915441215 -12269008.174914002 0 0 0 0 24940103.179946899 -19924613.046456844 0 -19924613.046456844 -95858534.132105231 0 0 0 0 -6359182.3732948303 -23129195.976681381 0 -23129195.976681381 -39775687.593771696 0 0 0 0 21036598.220108032 6868642.4412859678 0 6868642.4412859678 -94051228.077126741 0 0 0 0 4249561.942984581 23154104.862362899 0 23154104.862362899 -52632985.058048129 0 0 0 0 13931118.209373474 -314712.18892145157 0 -314712.18892145157 -32093408.433866188 0 0 0 0 19858013.625137329 34287560.728835911 0 34287560.728835911 -9683159.9101675153 0 0 0 0 8625522.2895913124 12782008.09037764 0 12782008.09037764 -34319160.914018393 0 0 0 0 10090448.260437012 18829414.83191216 0 18829414.83191216 -37535110.419757962 0 0 0 0 7397834.9039752483 37694877.955106668 0 37694877.955106668 -5779528.0008333921 0 0 0 0 10215104.402397156 19459240.187847376 0 19459240.187847376 -31678363.330355763 0 0 0 0 3363559.9291095734 34000683.116719723 0 34000683.116719723 11271309.05419755 0 0 0 0 11793868.077781677 -41749393.661821246 0 -41749393.661821246 -61497966.82001555 0 0 0 0 786816.75227031857 -632465.3369709088 0 -632465.3369709088 54691.135247663427 0 0 0 0 14807894.563659668 13451826.309555769 0 13451826.309555769 -49393386.27156955 0 0 0 0 -9593051.3922576904 18822973.839313865 0 18822973.839313865 -29668762.475053251 0 0 0 0 1050733.8591109663 -670654.83231373411 0 -670654.83231373411 25585.73019403885 0 0 0 0 24275684.88999939 -7801976.418782711 0 -7801976.418782711 -103076145.73308009 0 0 0 0 94738234.141662598 20207072.634355068 0 20207072.634355068 -79706436.625797749 0 0 0 0 -10580428.124038696 -15874071.470938921 0 -15874071.470938921 -67113932.139778614 0 0 0 0 -20416993.928863525 70021679.772047997 0 70021679.772047997 -52990884.459913075 0 0 0 0 45376381.725669861 12620628.364465296 0 12620628.364465296 -44814862.170053005 0 0 0 0 21042815.683013916 12828274.241470575 0 12828274.241470575 -39151103.544592381 0 0 0 0 -45502408.704611778 -35792411.015663996 0 -35792411.015663996 -25058355.310073614 0 0 0 0 33994945.058647156 -40389372.104797602 0 -40389372.104797602 -25354637.854542315 0 0 0 0 1343958.8997116089 -23327728.792487115 0 -23327728.792487115 21874722.946754217 0 0 0 0 39299659.005050659 -71424852.250230432 0 -71424852.250230432 72221960.8777529 0 0 0 0 86586615.797370911 30930303.88051939 0 30930303.88051939 -680459.39798521996 0 0 0 0 107585716.65098763 -10445791.986520052 0 -10445791.986520052 -12582803.909413815 0 0 0 0 51660588.232592583 -18422711.932472348 0 -18422711.932472348 -10731220.427817345 0 0 0 0 -37211822.508262634 -15665732.703493834 0 -15665732.703493834 -19813465.955193043 0 0 0 0 567664.91161119938 -627953.85782611324 0 -627953.85782611324 -248112.18484671577 0 0 0 0 6914813.4243402481 -39303374.467570737 0 -39303374.467570737 -6862833.8567757607 0 0 0 0 20053152.109710693 -44953805.650261402 0 -44953805.650261402 -37250541.596361279 0 0 0 0 -6696588.0487289429 -24202698.140392125 0 -24202698.140392125 -16205104.809685528 0 0 0 0 -740677.9717540741 -49055267.926475257 0 -49055267.926475257 71996973.97047019 0 0 0 0 125065036.02041626 -60986732.287785769 0 -60986732.287785769 -18635530.9851528 0 0 0 0 265674.29006163031 -334803.60634713457 0 -334803.60634713457 52329.79337630434 0 0 0 0 51716832.415512085 46696655.358774781 0 46696655.358774781 29910290.563766837 0 0 0 0 -1751546.3461532593 34049266.223097295 0 34049266.223097295 38837043.394137084 0 0 0 0 79013.712287902832 2805544.1560889482 0 2805544.1560889482 -21179589.137243807 0 0 0 0 17947487.999816895 44597585.240500167 0 44597585.240500167 5472240.1784167141 0 0 0 0 22561669.94770813 51320411.893446922 0 51320411.893446922 24506349.266476765 0 0 0 0 52066056.560272217 42123525.240906119 0 42123525.240906119 11915028.030789703 0 0 0 0 40547151.247577667 44002480.95956865 0 44002480.95956865 27944113.915736079 0 0 0 0 36905198.8554039 49718285.187230304 0 49718285.187230304 22419620.479843855 0 0 0 0 21965154.759536743 48126966.026851624 0 48126966.026851624 30242850.948638201 0 0 0 0 36139131.201490402 49926716.757721864 0 49926716.757721864 26758686.221550155 0 0 0 0 55738163.612304688 36802968.181229591 0 36802968.181229591 19976721.203543477 0 0 0 0 18566705.905960083 43136461.241225988 0 43136461.241225988 33039308.639538169 0 0 0 0 34617998.856002808 45195200.168612212 0 45195200.168612212 30053652.299057871 0 0 0 0 24393298.684036255 39176148.446599126 0 39176148.446599126 35217632.98411727 0 0 0 0 30422469.475658417 28485591.206645429 0 28485591.206645429 26149709.926419735 0 0 0 0 39721758.537200928 33399534.970819354 0 33399534.970819354 19771002.083410844 0 0 0 0 9165102.4174346924 48362126.648302734 0 48362126.648302734 42882108.575629234 0 0 0 0 16624899.034786224 47382586.988407135 0 47382586.988407135 36327763.399368107 0 0 0 0 13735773.962928772 51319300.587205142 0 51319300.587205142 35232404.881704926 0 0 0 0 21545230.056413651 49789134.142866507 0 49789134.142866507 24006353.190577179 0 0 0 0 15315020.333572388 42529397.808498539 0 42529397.808498539 24490244.477478474 0 0 0 0 9106593.6167678833 46247008.294016346 0 46247008.294016346 22192333.041393101 0 0 0 0 13430135.525177002 34784511.678256974 0 34784511.678256974 -4439837.0920775384 0 0 0 0 21798873.202301025 51621955.349995464 0 51621955.349995464 16530147.872105837 0 0 0 0 10639522.527900696 46696168.201338038 0 46696168.201338038 32088824.831416696 0 0 0 0 16489854.071357727 49343044.351635456 0 49343044.351635456 21583516.122947808 0 0 0 0 21933123.320594788 27883862.598293677 0 27883862.598293677 -5397157.5477671325 0 0 0 0 30722668.987937927 43706342.029167026 0 43706342.029167026 17638057.685862064 0 0 0 0 55413543.911705017 42951321.885315478 0 42951321.885315478 17246216.638135135 0 0 0 0 23937592.279464722 63097082.644694835 0 63097082.644694835 59380271.261344075 0 0 0 0 55412775.841445923 47703989.903509974 0 47703989.903509974 36820040.458105326 0 0 0 0 20526381.360321045 53819424.503578901 0 53819424.503578901 35176208.202874392 0 0 0 0 9289818.3774261475 49616755.057623565 0 49616755.057623565 55499714.644058108 0 0 0 0 6561755.3789672852 41220508.346266747 0 41220508.346266747 51963943.747554779 0 0 0 0 10657676.377559662 50888542.925798833 0 50888542.925798833 74660086.020398855 0 0 0 0 581184.48608398438 20364340.234147549 0 20364340.234147549 83025380.287024319 0 0 0 0 117367701.67547989 54289451.452249199 0 54289451.452249199 33925586.433754444 0 0 0 0 44160847.329235077 89656702.566590548 0 89656702.566590548 118156344.34202981 0 0 0 0 15968614.584091187 47928308.108063459 0 47928308.108063459 59652852.076595783 0 0 0 0 1613189.7892379761 10313878.188014865 0 10313878.188014865 111172933.62031412 0 0 0 0 13945675.90512085 11423511.058857322 0 11423511.058857322 25348777.96354723 0 0 0 0 7594043.2088317871 11855542.842223883 0 11855542.842223883 25323988.894265592 0 0 0 0 6934374.7994861603 1588171.0187523365 0 1588171.0187523365 42332944.602840662 0 0 0 0 3727281.8422546387 9566506.7489072084 0 9566506.7489072084 38968376.812994719 0 0 0 0 2748447.4445075989 17627917.065444976 0 17627917.065444976 39998790.736279726 0 0 0 0 8326144.2332839966 13643857.031962991 0 13643857.031962991 24332693.750707626 0 0 0 0 -4674519.727432251 667907.8737885952 0 667907.8737885952 22280186.054796666 0 0 0 0 1512907.1090393066 10205564.556917191 0 10205564.556917191 28235006.455221802 0 0 0 0 7239733.1767120361 18612643.179064274 0 18612643.179064274 27733336.408115618 0 0 0 0 13686110.520935059 9063611.4565819502 0 9063611.4565819502 6541215.8174834251 0 0 0 0 22094952.794818878 5669522.8031821251 0 5669522.8031821251 -7259644.4077217579 0 0 0 0 15782822.442657471 15170651.416626811 0 15170651.416626811 13122158.715328604 0 0 0 0 13338261.756919861 10914577.876120985 0 10914577.876120985 14615693.669617414 0 0 0 0 24510155.326766968 25464712.652359366 0 25464712.652359366 24659468.335221291 0 0 0 0 21760507.741170883 11549353.720619991 0 11549353.720619991 6969946.3451900482 0 0 0 0 21906561.710746765 26116153.072579026 0 26116153.072579026 25685178.141431808 0 0 0 0 13732418.171852112 33764015.286546171 0 33764015.286546171 32628365.599404812 0 0 0 0 23311485.260467529 27457618.005779147 0 27457618.005779147 24122983.0668872 0 0 0 0 12134738.504226685 33575388.427081823 0 33575388.427081823 37739383.331886292 0 0 0 0 8062019.1806335449 38511779.487957716 0 38511779.487957716 46584020.086798579 0 0 0 0 7312566.0796852112 40257533.729659438 0 40257533.729659438 52805237.780685186 0 0 0 0 3578048.2365264893 23586447.765112936 0 23586447.765112936 53131209.5487988 0 0 0 0 10029110.9021492 23364894.697562218 0 23364894.697562218 35559617.884510517 0 0 0 0 -61846341.538053513 534090070.51123017 0 534090070.51123017 359807845.97097158 0 0 0 0 7273343.323059082 -9236009.5363934636 0 -9236009.5363934636 -15898438.577588826 0 0 0 0 11379597.488677979 -11883731.672616243 0 -11883731.672616243 -17458494.009906754 0 0 0 0 8345634.063835144 -9166511.2205282673 0 -9166511.2205282673 -15201060.330384195 0 0 0 0 9061228.8696200736 -2417266.7206455292 0 -2417266.7206455292 191384.78003236162 0 0 0 0 348085576.6953125 -632614334.27680111 0 -632614334.27680111 -284946701.87716579 0 0 0 0 6113523.0444377139 -2528542.1847984879 0 -2528542.1847984879 -185398.41713540035 0 0 0 0 692968198.5218811 370455571.15492821 0 370455571.15492821 -97269523.29671669 0 0 0 0 9810535.7779045105 211758.88805454969 0 211758.88805454969 -5115156.3290042877 0 0 0 0 16954381.57011795 4002570.4987237453 0 4002570.4987237453 -14564508.827206373 0 0 0 0 7657785.0825042725 -7691945.9349558353 0 -7691945.9349558353 -2270693.0197108984 0 0 0 0 -384648779.10631561 -66718185.716986656 0 -66718185.716986656 70077388.332508087 0 0 0 0 -6375927.5865325928 -106210202.6067915 0 -106210202.6067915 -116807531.18812919 0 0 0 0 61468838.014045715 -71315173.203405857 0 -71315173.203405857 -130015156.0415473 0 0 0 0 3359524.6336911432 -650196.45572262164 0 -650196.45572262164 158032.14695129247 0 0 0 0 14002353.033699036 -6580273.7328364849 0 -6580273.7328364849 18976657.291688442 0 0 0 0 89957389.308765411 -107632418.65381074 0 -107632418.65381074 -232521793.57530785 0 0 0 0 113436165.65468597 222755395.53190708 0 222755395.53190708 159580674.80304956 0 0 0 0 6116409.192062892 -1029242.2980217151 0 -1029242.2980217151 -157908.47630040348 0 0 0 0 -10007859.505523682 -124019604.18559408 0 -124019604.18559408 106395980.11446381 0 0 0 0 1839091.9250785783 -302760.37611450534 0 -302760.37611450534 16934.374885738012 0 0 0 0 320497895.20735931 99554945.299174786 0 99554945.299174786 -87813319.459483147 0 0 0 0 2240232.6421203613 -5604312.9234398901 0 -5604312.9234398901 -6138240.3525093198 0 0 0 0 12351689.898773193 5312191.8932962418 0 5312191.8932962418 34267521.192433357 0 0 0 0 4171495.9952408727 -3156321.1744481735 0 -3156321.1744481735 563184.14089703921 0 0 0 0 2537268.1551132202 -2847919.3648217916 0 -2847919.3648217916 -529177.85167378187 0 0 0 0 -27979336.052078247 -8713070.5738666654 0 -8713070.5738666654 24461028.257568061 0 0 0 0 445366.66579740908 -390437.36995656788 0 -390437.36995656788 -91783.474952947116 0 0 0 0 25308888.020843506 -43590270.252921104 0 -43590270.252921104 -90311178.985232562 0 0 0 0 -61545876.844146729 -42571534.689828396 0 -42571534.689828396 -26099622.389243126 0 0 0 0 86970773.867645264 -18270502.904541016 0 -18270502.904541016 -80936017.577618599 0 0 0 0 24508478.591491699 -8892091.1044340134 0 -8892091.1044340134 -36501553.081585407 0 0 0 0 -27166047.067687988 855595.64795827866 0 855595.64795827866 -28299005.084862709 0 0 0 0 -50778117.859191895 -19866112.148937225 0 -19866112.148937225 -6775954.784611702 0 0 0 0 -406990.70365876332 -247783.74718294851 0 -247783.74718294851 354812.91366826929 0 0 0 0 -30650633.260528564 8067234.3161416054 0 8067234.3161416054 -18391047.320863247 0 0 0 0 7741037.7995681763 -13546013.43276298 0 -13546013.43276298 7495755.3485813141 0 0 0 0 1599290.2435913086 -29630527.086193085 0 -29630527.086193085 -12135344.465605259 0 0 0 0 -1279781.5836791992 -4343355.1231030822 0 -4343355.1231030822 675476.57273471355 0 0 0 0 803807.89398193359 -3892754.2192269564 0 -3892754.2192269564 117203.37444847822 0 0 0 0 -253164.97940063477 -6573300.1139106452 0 -6573300.1139106452 -3614578.9142464995 0 0 0 0 1904903.1295166016 -4432321.9485132694 0 -4432321.9485132694 -4380670.865216136 0 0 0 0 34577209.66519165 98162359.958016634 0 98162359.958016634 135760603.59157896 0 0 0 0 146768560.09693241 116728575.18404917 0 116728575.18404917 37834890.73217535 0 0 0 0 133851712.26716614 19365957.191079855 0 19365957.191079855 -69414194.476181984 0 0 0 0 77079930.480133057 19717567.010132313 0 19717567.010132313 14368568.611289263 0 0 0 0 55994179.233139038 37021897.163478613 0 37021897.163478613 36846855.654000759 0 0 0 0 31817387.454864502 14143099.414190769 0 14143099.414190769 5959992.20794487 0 0 0 0 48914333.227264404 25000278.619106386 0 25000278.619106386 24079114.070131533 0 0 0 0 -13055954.44833374 -5927943.838339448 0 -5927943.838339448 5088487.2806215286 0 0 0 0 40795392.608963013 24229294.473817199 0 24229294.473817199 25950019.173818767 0 0 0 0 -7335102.9874267578 -9531098.328464672 0 -9531098.328464672 -9559851.8627239242 0 0 0 0 3018900.9514358342 -704471.44190153235 0 -704471.44190153235 -266333.05513283866 0 0 0 0 -22163909.230743408 -12296349.032444656 0 -12296349.032444656 1048372.223669529 0 0 0 0 -2012177.780670166 -2125503.0040499568 0 -2125503.0040499568 6120702.6234096885 0 0 0 0 820651.13833618164 -1739041.4403329194 0 -1739041.4403329194 3549848.185254097 0 0 0 0 -7342737.0420074463 8434932.0747358501 0 8434932.0747358501 22873003.261325121 0 0 0 0 11086379.649002075 2031427.9176207483 0 2031427.9176207483 -4374158.9456398487 0 0 0 0 4700625.6152280727 -2151761.7374021262 0 -2151761.7374021262 79763.795375845133 0 0 0 0 -3569837.7211914062 -5807317.5064139068 0 -5807317.5064139068 -2895445.2035167664 0 0 0 0 -3208312.9324061871 -1845611.0004181634 0 -1845611.0004181634 3166487.965690732 0 0 0 0 -350851.75164669007 -1382413.1709931837 0 -1382413.1709931837 546760.58789965115 0 0 0 0 20859076.854431152 -1181255.5010603666 0 -1181255.5010603666 -53514.160075306892 0 0 0 0 -6929126.391784668 -4412104.5793257952 0 -4412104.5793257952 8056810.8895384222 0 0 0 0 74741.965277455747 -1404834.6124755782 0 -1404834.6124755782 77031.729351680144 0 0 0 0 -81557.577696308494 -362581.14814794296 0 -362581.14814794296 144261.78083721781 0 0 0 0 -62145274.040435791 -6626649.1091396809 0 -6626649.1091396809 47225319.183083475 0 0 0 0 11211624.296813965 -9326344.7294338346 0 -9326344.7294338346 -17784738.620424837 0 0 0 0 -11151349.45854187 -6685714.1863121092 0 -6685714.1863121092 6864276.8588091135 0 0 0 0 -16301618.305297852 -9554345.5200002193 0 -9554345.5200002193 8161502.9084621072 0 0 0 0 -4988287.2484436035 -5601871.7496517897 0 -5601871.7496517897 4819812.409840405 0 0 0 0 -5017393.5962524414 -4847398.7382591963 0 -4847398.7382591963 4164502.4682890773 0 0 0 0 1783219.8520202637 -10277169.094459236 0 -10277169.094459236 -6564415.2400414944 0 0 0 0 -1562267.1623687744 -3999183.595643267 0 -3999183.595643267 2932981.8631556034 0 0 0 0 8342603.9358524904 -2347373.5119525641 0 -2347373.5119525641 -345812.54393991246 0 0 0 0 -277875.91467285156 -7080147.6076909304 0 -7080147.6076909304 299751.28315365314 0 0 0 0 -3516624.5154418945 -6504725.8349064589 0 -6504725.8349064589 387984.98608922958 0 0 0 0 -3324629.3928070068 -7337309.0353594571 0 -7337309.0353594571 3720064.835898757 0 0 0 0 -2656012.4880981445 -10503808.686006725 0 -10503808.686006725 829850.55098965764 0 0 0 0 -6366056.6891479492 -6787498.4501817822 0 -6787498.4501817822 4169125.9528082609 0 0 0 0 -8002207.145324707 -11471810.529070795 0 -11471810.529070795 6471914.249360621 0 0 0 0 -2236764.7538757324 -14394378.885912001 0 -14394378.885912001 5683498.7111483067 0 0 0 0 1133018.1066055298 -10922313.318789534 0 -10922313.318789534 -5042948.7931448817 0 0 0 0 2691808.246963501 -15146547.663447589 0 -15146547.663447589 -2397663.8515227437 0 0 0 0 1211292.6276702881 -11290345.974969193 0 -11290345.974969193 -3318586.5490868688 0 0 0 0 -1065933.7401123047 -9102525.7299315631 0 -9102525.7299315631 -3577148.4452694058 0 0 0 0 13980558.470011711 -9084481.6250536144 0 -9084481.6250536144 -15476399.555751652 0 0 0 0 14770569.155643463 -16287374.280205362 0 -16287374.280205362 -9700900.9027047753 0 0 0 0 3177736.793762207 -16101364.441837251 0 -16101364.441837251 -4434022.5400682986 0 0 0 0 18126398.022750854 -24247351.878122777 0 -24247351.878122777 -19388.631093114614 0 0 0 0 13872478.654891968 -13338243.941259533 0 -13338243.941259533 -1407059.8100146651 0 0 0 0 19217601.985618591 -15373515.923898265 0 -15373515.923898265 -10913593.49480921 0 0 0 0 43215617.725479126 -12285431.513172269 0 -12285431.513172269 -1903782.8824954033 0 0 0 0 17185376.941345215 -6578815.9714955688 0 -6578815.9714955688 20659916.124676824 0 0 0 0 -17271086.411738396 -26262241.354226474 0 -26262241.354226474 13351772.270504773 0 0 0 0 24315968.748504639 -50832179.786777526 0 -50832179.786777526 22081553.774597943 0 0 0 0 18362902.493240356 -18058802.75238014 0 -18058802.75238014 -7342778.1364366412 0 0 0 0 15277026.716564178 -25948442.960825521 0 -25948442.960825521 16690302.881546915 0 0 0 0 14149884.197158813 -17335529.241184369 0 -17335529.241184369 2896186.0383327603 0 0 0 0 10149064.666648865 -15838893.851036839 0 -15838893.851036839 3785665.0997464955 0 0 0 0 5131034.1388549805 -7632866.07900244 0 -7632866.07900244 -3686290.0901378691 0 0 0 0 12288464.769073486 -10312585.934191272 0 -10312585.934191272 -3501020.2913510203 0 0 0 0 3403287.6968994141 -9979018.4242644459 0 -9979018.4242644459 874972.93252922595 0 0 0 0 -3396672.7263946533 -6163313.3608357608 0 -6163313.3608357608 -2369132.4196665883 0 0 0 0 -3921689.8413543701 -5462342.659232527 0 -5462342.659232527 -1839820.8291045651 0 0 0 0 4841605.0266723633 -8427786.8200020194 0 -8427786.8200020194 -3144024.875615716 0 0 0 0 -2051364.0751228333 -2839573.9039851055 0 -2839573.9039851055 -7459845.2075389028 0 0 0 0 -1012941.594833374 -5506327.0228862911 0 -5506327.0228862911 -1184506.2600504905 0 0 0 0 -2029456.2436218262 -7143053.457199499 0 -7143053.457199499 -347402.45700275898 0 0 0 0 -5362370.7681274414 -5845975.2947170585 0 -5845975.2947170585 1618522.8160201982 0 0 0 0 -2062798.5470199585 -9168407.4129913859 0 -9168407.4129913859 1610927.4406826049 0 0 0 0 8416247.1635131836 -13516057.487831779 0 -13516057.487831779 2268590.265029788 0 0 0 0 2569019.9832763672 -7924889.4529055953 0 -7924889.4529055953 171946.17737136409 0 0 0 0 614580.66839599609 -6757962.0646168441 0 -6757962.0646168441 364563.81984002516 0 0 0 0 602961.534192577 -10028387.544526741 0 -10028387.544526741 3669461.4920687899 0 0 0 0 6931247.7062225342 -9289654.8488986678 0 -9289654.8488986678 194270.46538361907 0 0 0 0 -1876276.0105428696 -9307743.6647195946 0 -9307743.6647195946 2780008.8167089857 0 0 0 0 -7706384.0281219482 -8968322.5344829224 0 -8968322.5344829224 1169254.5337754339 0 0 0 0 -8915529.2081861496 -1791207.002072785 0 -1791207.002072785 -292343.65685612708 0 0 0 0 -2341479.2496490479 -5304194.7712857807 0 -5304194.7712857807 -2387739.0747704366 0 0 0 0 -4612782.1951675415 701176.94411729649 0 701176.94411729649 -8032015.2045895951 0 0 0 0 -9170192.6613807678 -7511570.1645486029 0 -7511570.1645486029 -2690017.8280390576 0 0 0 0 -23340793.464202881 -459430.21767553291 0 -459430.21767553291 -26095.396986403517 0 0 0 0 -192285.32917022705 -7364442.9517988907 0 -7364442.9517988907 3731.1675503449492 0 0 0 0 1895538.6063461304 31060183.928212039 0 31060183.928212039 -15421173.670346614 0 0 0 0 -12160794.880157471 19957025.757716548 0 19957025.757716548 21728.212955961713 0 0 0 0 -67023801.552093506 22852837.195886191 0 22852837.195886191 -12422264.406783395 0 0 0 0 -40186126.485366821 -1860201.551067475 0 -1860201.551067475 -15200942.733324032 0 0 0 0 -9614033.3823108673 -5515178.9785734629 0 -5515178.9785734629 -8785329.2468723115 0 0 0 0 -44707236.977333069 28579244.994049013 0 28579244.994049013 -4566639.7531794161 0 0 0 0 -17985941.694381714 -6226975.7789616548 0 -6226975.7789616548 -22044.737120814621 0 0 0 0 393663.06590985181 -30810.40003875643 0 -30810.40003875643 -70577.824709788722 0 0 0 0 -26162544.6444664 8255028.7298772037 0 8255028.7298772037 6989991.6938354969 0 0 0 0 -11967392.219435692 12810199.73500229 0 12810199.73500229 -4993329.1467115134 0 0 0 0 -7465745.1794433594 13306363.604339898 0 13306363.604339898 -4940797.5103062168 0 0 0 0 -4991868.6408233643 -5497214.3321905863 0 -5497214.3321905863 -6859.466691210866 0 0 0 0 -7106515.9443378448 10588510.916049935 0 10588510.916049935 -11417485.873048246 0 0 0 0 -5381885.1420974731 -5187814.2210566476 0 -5187814.2210566476 -67317.020103089511 0 0 0 0 1480461.7017870836 -336169.48026051 0 -336169.48026051 -225531.02095735905 0 0 0 0 -3891642.9485321045 -5394332.6581523418 0 -5394332.6581523418 -2566523.9962182641 0 0 0 0 -2958350.6084747314 11230217.456313565 0 11230217.456313565 -18783293.371505737 0 0 0 0 -3126591.9926528931 15042458.218976945 0 15042458.218976945 -13606154.830978543 0 0 0 0 3504069.9029392377 -306644.06605218537 0 -306644.06605218537 -592037.10049001395 0 0 0 0 2525113.235410288 -4279.5258208080195 0 -4279.5258208080195 -347735.31870475051 0 0 0 0 31650128.221481323 9293196.9105798304 0 9293196.9105798304 -84070083.175758451 0 0 0 0 75433210.001937866 -22854129.526973933 0 -22854129.526973933 -40327809.983979672 0 0 0 0 4993112.1582221985 -19908951.642581619 0 -19908951.642581619 20632586.489683658 0 0 0 0 24567294.024186134 47106166.054064453 0 47106166.054064453 -18999423.1550605 0 0 0 0 15061852.658302307 30246039.063034136 0 30246039.063034136 4318279.6580651551 0 0 0 0 55347361.917175293 -1954970.7944054455 0 -1954970.7944054455 -10123253.415459974 0 0 0 0 72000398.072357178 22799725.747268401 0 22799725.747268401 18649054.844530165 0 0 0 0 -4483582.7204666138 11806027.16036772 0 11806027.16036772 -15945634.985579193 0 0 0 0 10603894.844192505 21494355.460022882 0 21494355.460022882 -12858164.496783495 0 0 0 0 22527967.769851685 -3456240.8783249492 0 -3456240.8783249492 13141145.000096513 0 0 0 0 21746194.692245483 11738653.80620016 0 11738653.80620016 -9696937.4109412599 0 0 0 0 -10569657.055570602 20011422.845751684 0 20011422.845751684 8953485.9046320915 0 0 0 0 91578633.637901306 22562966.672305167 0 22562966.672305167 -31931.229309069327 0 0 0 0 44655095.953449249 18214669.318141997 0 18214669.318141997 12270357.028327413 0 0 0 0 101188066.67484379 24707654.076780394 0 24707654.076780394 5468179.3048560563 0 0 0 0 98210102.555633545 18762175.539936345 0 18762175.539936345 19273.817758342906 0 0 0 0 412723.39558204636 71186.409038688987 0 71186.409038688987 -212687.65421885645 0 0 0 0 48753669.13482666 21167222.942290425 0 21167222.942290425 19543033.066856541 0 0 0 0 91906104.371620178 20409839.143919554 0 20409839.143919554 4784004.6794449352 0 0 0 0 120162048.33253479 45043659.13413094 0 45043659.13413094 33465269.133624725 0 0 0 0 122153234.98573303 -892415.66464407742 0 -892415.66464407742 -5272683.8496976048 0 0 0 0 100428963.51882935 15933775.982323231 0 15933775.982323231 7085186.756480746 0 0 0 0 -7872627.2590942383 -263577266.4974888 0 -263577266.4974888 -89816403.952840388 0 0 0 0 119740457.69827843 135474379.86378399 0 135474379.86378399 38629174.658121705 0 0 0 0 153882.1177703701 -11518.988371603191 0 -11518.988371603191 -59178.658771916802 0 0 0 0 251443166.27075958 87042164.531504303 0 87042164.531504303 -11554422.866639078 0 0 0 0 214333671.27500916 -35125417.98925975 0 -35125417.98925975 -50615941.095792055 0 0 0 0 98032468.834594727 202814115.4897534 0 202814115.4897534 191944975.41199538 0 0 0 0 33967833.781768799 -50122516.922323644 0 -50122516.922323644 -105537964.46814364 0 0 0 0 995804.53904932737 75928.585894281045 0 75928.585894281045 -125908.50513916338 0 0 0 0 3332010.6512403488 -120004090.10828859 0 -120004090.10828859 -28108834.793109059 0 0 0 0 111211193.49153137 155389743.57166427 0 155389743.57166427 124553360.59339577 0 0 0 0 180570447.58171082 -129638765.3411341 0 -129638765.3411341 116359065.6330483 0 0 0 0 255381592.52079773 149462178.47283143 0 149462178.47283143 36961231.551451147 0 0 0 0 7206638.2504005432 83393294.367519543 0 83393294.367519543 -21994304.83351326 0 0 0 0 70785995.291442871 40900223.294159055 0 40900223.294159055 5245309.3762417436 0 0 0 0 13465477.781929448 -3205248.1753910924 0 -3205248.1753910924 -648492.79990475252 0 0 0 0 29467958.209018707 -18381091.152937889 0 -18381091.152937889 -117595555.81193352 0 0 0 0 69997071.617385864 -146164802.17284936 0 -146164802.17284936 -234727796.47718167 0 0 0 0 -17475368.352142334 -21596499.262434006 0 -21596499.262434006 -39039072.978141785 0 0 0 0 -111968424.39750671 -146901120.53287005 0 -146901120.53287005 291718974.45320153 0 0 0 0 126206628.48600769 244310253.98160547 0 244310253.98160547 187854749.94604194 0 0 0 0 37772365.58335495 168071483.17512214 0 168071483.17512214 122445334.61791033 0 0 0 0 917455.60406459868 602581.34890524554 0 602581.34890524554 40604.679177365208 0 0 0 0 -49005298.036911011 119307946.40813565 0 119307946.40813565 328316433.34561676 0 0 0 0 254138548.25260925 76362923.102760553 0 76362923.102760553 26434078.848902628 0 0 0 0 60062779.342475891 -14464723.4196648 0 -14464723.4196648 14503500.686186969 0 0 0 0 -21216755.667205811 15418209.703382432 0 15418209.703382432 8933104.2351583838 0 0 0 0 32699113.915416718 20380331.132557273 0 20380331.132557273 137721000.36569071 0 0 0 0 -10223172.279403687 69231019.971634388 0 69231019.971634388 126286755.11857653 0 0 0 0 10429707.191423662 -2117736.4835038353 0 -2117736.4835038353 -331720.53485385654 0 0 0 0 252604477.62532425 322253094.45367092 0 322253094.45367092 6766848.806122303 0 0 0 0 143569550.7845459 19119146.271716595 0 19119146.271716595 -161269444.55458379 0 0 0 0 62419713.491119385 23397422.11525321 0 23397422.11525321 -182560335.28544188 0 0 0 0 53824930.886066437 -45160599.496470213 0 -45160599.496470213 -222443488.29256248 0 0 0 0 32515256.944786072 -145664419.44310904 0 -145664419.44310904 -82720616.668856144 0 0 0 0 27125732.920408726 55592811.103828996 0 55592811.103828996 -50782609.767852306 0 0 0 0 90853886.669197083 14116682.147794724 0 14116682.147794724 -31912087.556363583 0 0 0 0 68259869.269341469 126890915.108145 0 126890915.108145 56225402.120615482 0 0 0 0 11015206.996925354 43844473.465236187 0 43844473.465236187 -1217682.3497040272 0 0 0 0 1766646.445022583 70677856.001411438 0 70677856.001411438 17630294.525314808 0 0 0 0 36577550.235206604 49287183.967110395 0 49287183.967110395 7074593.5042047501 0 0 0 0 15227592.035392761 25660745.756198406 0 25660745.756198406 68367357.009151459 0 0 0 0 -165024.99995040894 21322510.94326663 0 21322510.94326663 -24633400.354229927 0 0 0 0 38083838.4737854 30303074.500810862 0 30303074.500810862 -35105757.198579788 0 0 0 0 14054367.792762756 40764863.420190334 0 40764863.420190334 15202012.515323639 0 0 0 0 35906988.838119507 18642828.749307632 0 18642828.749307632 -56693029.369529724 0 0 0 0 31767186.046245575 76947302.946948826 0 76947302.946948826 -40355876.10872364 0 0 0 0 -18678990.718906403 -18976211.162748575 0 -18976211.162748575 -102013743.16478395 0 0 0 0 15247598.52154541 32882565.762025356 0 32882565.762025356 -82454649.861424923 0 0 0 0 1055168.4473007321 1637728.9066088181 0 1637728.9066088181 -1185442.3430003091 0 0 0 0 1070961.1137237549 1024136.3504631519 0 1024136.3504631519 -1644213.9828395844 0 0 0 0 1020185.2038879395 807517.74961686134 0 807517.74961686134 -2129614.9213857651 0 0 0 0 20145421.436721802 15068267.004025936 0 15068267.004025936 4848612.8804302216 0 0 0 0 4184934.421978455 2546740.6030546203 0 2546740.6030546203 -1381296.2519345963 0 0 0 0 34018074.708816528 11402914.999983788 0 11402914.999983788 -7881032.7428531647 0 0 0 0 29759487.362541199 24147144.038108826 0 24147144.038108826 7622532.7404098511 0 0 0 0 194092.427398175 117886.28825389128 0 117886.28825389128 -170213.00476324256 0 0 0 0 44350354.43762207 41650508.500390053 0 41650508.500390053 649746.0227355957 0 0 0 0 80236837.266616821 9828528.0276679993 0 9828528.0276679993 -11397555.461307526 0 0 0 0 -664016.94004536048 281719.50314036012 0 281719.50314036012 244282.20752245374 0 0 0 0 55680768.688308716 7829699.6896820068 0 7829699.6896820068 -18996213.533971786 0 0 0 0 44495644.390426636 25888230.265318871 0 25888230.265318871 9012909.6957111359 0 0 0 0 44295038.945770264 23212877.945995986 0 23212877.945995986 -12350497.44519043 0 0 0 0 42343736.630859375 38740826.035474777 0 38740826.035474777 -10744893.796960711 0 0 0 0 52288209.323364258 37442335.236581802 0 37442335.236581802 -2074930.5792236328 0 0 0 0 28513641.218917847 34825343.911496162 0 34825343.911496162 -20568341.346313477 0 0 0 0 17988848.797653198 16620488.598127365 0 16620488.598127365 -15159239.926962614 0 0 0 0 29407498.74168396 36999362.305890083 0 36999362.305890083 4605065.2077999115 0 0 0 0 32230871.779266357 35582950.74816227 0 35582950.74816227 -20829423.282102346 0 0 0 0 34776585.718414307 30827348.156622887 0 30827348.156622887 11342549.568702698 0 0 0 0 40519568.378753662 21823364.043794632 0 21823364.043794632 13680918.565699577 0 0 0 0 44286307.793426514 33107910.182211876 0 33107910.182211876 -3922022.8226395845 0 0 0 0 47067724.228302002 33027552.060355186 0 33027552.060355186 -3922768.4501800537 0 0 0 0 29999414.864990234 24628920.683755875 0 24628920.683755875 1098254.0391654968 0 0 0 0 48101099.658493042 28622557.216034412 0 28622557.216034412 -152477.36060333252 0 0 0 0 48925768.25378418 33558573.154489517 0 33558573.154489517 2427849.8143787384 0 0 0 0 5538211.4015808105 2606346.4173092842 0 2606346.4173092842 -6213027.2808195949 0 0 0 0 24585493.149505615 42533834.110393524 0 42533834.110393524 54277184.240959167 0 0 0 0 22533251.716583252 54214519.279987574 0 54214519.279987574 38592341.732486725 0 0 0 0 684541.61400769651 1445359.2110502087 0 1445359.2110502087 -571220.61426771735 0 0 0 0 13204756.301422119 37069249.210371017 0 37069249.210371017 31896500.151119232 0 0 0 0 -220140.19339581579 193035.29117844906 0 193035.29117844906 109591.42597559514 0 0 0 0 4043978.5117492676 1873067.7189397812 0 1873067.7189397812 3315921.7902965546 0 0 0 0 1027127.7769022435 2558973.5956542837 0 2558973.5956542837 -839892.83022674045 0 0 0 0 -471369.69428253174 975295.68665105104 0 975295.68665105104 -655394.82879924774 0 0 0 0 2105136.3699645996 3179967.2001667023 0 3179967.2001667023 -3710086.6138296127 0 0 0 0 -959510.72888382524 3340322.0670030499 0 3340322.0670030499 -243812.87134955707 0 0 0 0 766079.49613952637 1174357.4110071659 0 1174357.4110071659 -290647.78287315369 0 0 0 0 1858374.9871058743 1045560.6350723002 0 1045560.6350723002 -410922.16036458989 0 0 0 0 49793.843414306641 1387802.0603480339 0 1387802.0603480339 -679219.6244327426 0 0 0 0 11402.129293441772 1376433.1909999698 0 1376433.1909999698 -611744.80682659149 0 0 0 0 31138.570236206055 1521131.1263594627 0 1521131.1263594627 -313504.29072856903 0 0 0 0 -354439.30593720824 1475541.3082175562 0 1475541.3082175562 -897529.7626800884 0 0 0 0 2096608.1461791992 1069804.5651733875 0 1069804.5651733875 -1502710.1297035217 0 0 0 0 4896813.4230232239 1177762.7329674661 0 1177762.7329674661 -3602181.8104085326 0 0 0 0 4058477.4868982621 2423511.1101621557 0 2423511.1101621557 -1036540.5246953893 0 0 0 0 2445201.4951171875 682923.89723825455 0 682923.89723825455 -3464326.8591609597 0 0 0 0 2371564.5327758789 860465.59301137924 0 860465.59301137924 -3448759.7635419965 0 0 0 0 4752.7182019762695 29520.241020841524 0 29520.241020841524 3980.5769701372192 0 0 0 0 1693810.9420417994 111453.3741483409 0 111453.3741483409 -1965234.7549978166 0 0 0 0 3236589.7041168958 2893241.5607774751 0 2893241.5607774751 -1488208.5165115125 0 0 0 0 1001826.9377467446 1931297.6199454118 0 1931297.6199454118 -1383621.6482881205 0 0 0 0 1626034.2403564453 1684677.1585612297 0 1684677.1585612297 -4281557.3025984764 0 0 0 0 2355246.1840820312 771733.5793723464 0 771733.5793723464 -3209500.6481170654 0 0 0 0 6345643.5914846957 -166244.76912841573 0 -166244.76912841573 -1065578.9053489515 0 0 0 0 3029166.786765866 478130.2544098217 0 478130.2544098217 -1569332.2320581756 0 0 0 0 2418189.8560791016 599890.07236385345 0 599890.07236385345 -3210139.5831030309 0 0 0 0 -4831.8004379272461 1385481.3051686287 0 1385481.3051686287 -608293.47615289688 0 0 0 0 13225623.305709839 25787676.902634144 0 25787676.902634144 -621096.25691668689 0 0 0 0 24412020.980560303 17074342.954084635 0 17074342.954084635 -9252726.0676848888 0 0 0 0 1777698.5811093412 3394571.6240306105 0 3394571.6240306105 -1927607.4281615333 0 0 0 0 8248553.7787933201 577807.14569630451 0 577807.14569630451 -1500330.9165572636 0 0 0 0 1739992.5554199219 -1606962.6085577011 0 -1606962.6085577011 9638570.1336483955 0 0 0 0 5051121.4457778931 1038614.8260878548 0 1038614.8260878548 -3734060.6135431156 0 0 0 0 2384546.9260007888 -381153.12994548865 0 -381153.12994548865 -783828.77879532031 0 0 0 0 6156539.5897704884 2915013.3967735171 0 2915013.3967735171 -1836694.4670119784 0 0 0 0 3263440.0498542786 1454407.0989502668 0 1454407.0989502668 -1549371.2073799372 0 0 0 0 3036007.0415496826 3383541.4218589067 0 3383541.4218589067 -3219180.249557972 0 0 0 0 8227627.6216343045 2213043.7149190595 0 2213043.7149190595 -2760576.9476140309 0 0 0 0 5731336.1676781625 4426893.6784653421 0 4426893.6784653421 -1658827.3441343643 0 0 0 0 14971715.374473572 4227653.4567485452 0 4227653.4567485452 -8197900.1789999008 0 0 0 0 15740986.513523102 2511670.6086704731 0 2511670.6086704731 -6173165.7752225399 0 0 0 0 13357120.10974884 -2835950.6969596446 0 -2835950.6969596446 -14294048.440136909 0 0 0 0 13871961.599308014 4610832.1017934978 0 4610832.1017934978 -17019160.225031614 0 0 0 0 12846290.10194397 -4195307.4002969265 0 -4195307.4002969265 551820.02033734322 0 0 0 0 15187321.549926758 1348123.7008492947 0 1348123.7008492947 -11901793.598585129 0 0 0 0 15498392.296539307 10050653.48699522 0 10050653.48699522 -18144149.730708718 0 0 0 0 20653716.46064949 10759195.91172038 0 10759195.91172038 -18924443.894173384 0 0 0 0 13729981.310195923 24838470.496815205 0 24838470.496815205 -29298140.111052871 0 0 0 0 21041597.478210449 10868351.070194602 0 10868351.070194602 -47619274.437419176 0 0 0 0 16243873.253219604 8265210.5210677385 0 8265210.5210677385 -6364553.9467959404 0 0 0 0 18048864.662734985 7077230.8743755817 0 7077230.8743755817 -5696629.5794922113 0 0 0 0 16044551.250396729 7570185.0622258186 0 7570185.0622258186 -7730739.0111680031 0 0 0 0 14587840.143096924 19141690.011114836 0 19141690.011114836 -11736361.890789628 0 0 0 0 14720331.502910614 19127064.624688357 0 19127064.624688357 -11993342.185631752 0 0 0 0 16933015.418884277 12742799.4130826 0 12742799.4130826 -14267154.063644886 0 0 0 0 17658890.607635498 16849710.048939228 0 16849710.048939228 -10476861.730657101 0 0 0 0 16677703.332672119 13308224.536713123 0 13308224.536713123 -1247102.8219034672 0 0 0 0 18573041.473388672 14819550.52666235 0 14819550.52666235 -7223582.1020669937 0 0 0 0 17833913.643035889 17473236.982427359 0 17473236.982427359 -8288030.855122447 0 0 0 0 20071783.86401391 16142246.061486514 0 16142246.061486514 -9744258.1030235291 0 0 0 0 20032367.926544189 12808950.883578062 0 12808950.883578062 -3679036.5244059563 0 0 0 0 19202893.431747437 16505625.510134697 0 16505625.510134697 -2729224.5327177048 0 0 0 0 -64642080.162704468 -9334468.1622228026 0 -9334468.1622228026 -79562357.917548299 0 0 0 0 -63297720.743850708 -22707162.583084494 0 -22707162.583084494 -24298194.683273464 0 0 0 0 -20192685.902954102 -34091335.394717813 0 -34091335.394717813 -138422980.31988299 0 0 0 0 18232248.501373291 4763220.1114404202 0 4763220.1114404202 8108796.0008301735 0 0 0 0 34036777.397338867 161570.30012178421 0 161570.30012178421 7093187.0872440338 0 0 0 0 380452.6827236861 618459.91583714914 0 618459.91583714914 -300148.5671542217 0 0 0 0 23833950.055603027 14170725.699547768 0 14170725.699547768 -3042190.2638883591 0 0 0 0 7533955.2174055614 6355254.0616862737 0 6355254.0616862737 -6212334.6987818554 0 0 0 0 16768057.828170776 4242525.6743590832 0 4242525.6743590832 -3335174.10262537 0 0 0 0 1638645.1045532227 2469814.1796261072 0 2469814.1796261072 -2159083.9481803179 0 0 0 0 5529699.8551146872 3879342.295767419 0 3879342.295767419 -2643369.7327667288 0 0 0 0 13259103.822967529 6273039.0306869745 0 6273039.0306869745 -4235181.8315658569 0 0 0 0 22684546.150398254 8368989.219830513 0 8368989.219830513 -143613.33855438232 0 0 0 0 62407168.453109741 -17485149.458471298 0 -17485149.458471298 -3098163.2682261467 0 0 0 0 -1929204.4670939595 1831499.4613140887 0 1831499.4613140887 635414.67983966391 0 0 0 0 -15877924.728555679 -2082205.4192785025 0 -2082205.4192785025 -28913020.142168045 0 0 0 0 45347124.524688721 -1395138.7584962845 0 -1395138.7584962845 -12059326.553667068 0 0 0 0 58026127.08442688 18746447.989929199 0 18746447.989929199 -40320815.811450958 0 0 0 0 63760449.332382202 6232988.740023613 0 6232988.740023613 -18977650.566282272 0 0 0 0 67922073.474105835 1847855.8915710449 0 1847855.8915710449 -30545272.403832912 0 0 0 0 31683121.501121521 32476924.852666378 0 32476924.852666378 -47077411.384020805 0 0 0 0 9110847.6137084961 -99472949.238523483 0 -99472949.238523483 -149255538.15023667 0 0 0 0 -10608244.944763184 -128008534.17508018 0 -128008534.17508018 -104851230.51932859 0 0 0 0 55749766.332702637 -11011211.072212219 0 -11011211.072212219 -33700112.075164795 0 0 0 0 -69097317.525104523 -105514735.81775634 0 -105514735.81775634 -13226798.851039886 0 0 0 0 15917811.921638139 -3203494.5534140319 0 -3203494.5534140319 -2207534.4504470131 0 0 0 0 -14101359.538692474 -65787433.302583188 0 -65787433.302583188 -49359218.105654716 0 0 0 0 6337652.1310119629 -80637353.454463243 0 -80637353.454463243 -40359202.419062018 0 0 0 0 -9676741.9891052246 -72015581.738572836 0 -72015581.738572836 -89531168.336751461 0 0 0 0 -24650094.78276062 -27302400.70088771 0 -27302400.70088771 39948430.687336862 0 0 0 0 -68466500.202774048 40941569.340401709 0 40941569.340401709 -75953.967994446415 0 0 0 0 64733085.668228149 -8275562.6698291451 0 -8275562.6698291451 19484456.734645233 0 0 0 0 -6287761.9974822998 -86353760.846651673 0 -86353760.846651673 106875402.83528095 0 0 0 0 -53763602.465118408 -45183448.914189041 0 -45183448.914189041 29123362.68996799 0 0 0 0 -40842425.071624756 -31525161.659223676 0 -31525161.659223676 20954711.366193891 0 0 0 0 -68982685.789535522 41475578.003576338 0 41475578.003576338 155696408.76779079 0 0 0 0 -69411506.397979736 28706756.217920721 0 28706756.217920721 54346264.779997289 0 0 0 0 7021874.925965827 705273.75536896288 0 705273.75536896288 -1021468.4432255808 0 0 0 0 -112481863.9958725 -60353303.226125501 0 -60353303.226125501 30574216.157868952 0 0 0 0 18592988.983413696 15021202.884174228 0 15021202.884174228 -6426183.1285743713 0 0 0 0 -94430483.473388672 -28503826.727504406 0 -28503826.727504406 29471671.435526788 0 0 0 0 -51763885.332061768 -46592265.931516945 0 -46592265.931516945 1564159.9953406453 0 0 0 0 -83350516.16192627 -18586332.120962739 0 -18586332.120962739 14011936.344160795 0 0 0 0 -57108901.485076904 -47780814.231823146 0 -47780814.231823146 46430050.18466644 0 0 0 0 -80333472.000762939 26881259.661964446 0 26881259.661964446 79261450.906319261 0 0 0 0 -79987294.622779846 20945552.635665178 0 20945552.635665178 -19330796.630386382 0 0 0 0 52759369.313568115 -203473441.84016696 0 -203473441.84016696 133454060.15012228 0 0 0 0 135023160.91801453 67816227.913894564 0 67816227.913894564 -110262763.42163232 0 0 0 0 -112926895.81930542 83023143.107552677 0 83023143.107552677 68347603.04473877 0 0 0 0 40421.499103423208 84437.062621846795 0 84437.062621846795 200377.0860636094 0 0 0 0 7981733.5297317505 7953541.2163405176 0 7953541.2163405176 4901051.2999082729 0 0 0 0 -101078263.73845673 45531542.675731808 0 45531542.675731808 113775120.11846113 0 0 0 0 -115788428.18270874 76676408.484001875 0 76676408.484001875 109719019.22057539 0 0 0 0 -36013285.570404053 34217687.061846077 0 34217687.061846077 296336803.64954877 0 0 0 0 -35404032.965318203 47726065.041470043 0 47726065.041470043 88236724.157824636 0 0 0 0 566232.1107635498 7936235.164034009 0 7936235.164034009 -86740126.353152782 0 0 0 0 9172023.6899871826 17869393.205923356 0 17869393.205923356 -9218167.3963099625 0 0 0 0 54842590.901786804 43210227.11350289 0 43210227.11350289 -81786055.871383429 0 0 0 0 5053904.7516746521 6132859.4238585886 0 6132859.4238585886 4827941.7355419025 0 0 0 0 307203.29920525476 356551.83013331518 0 356551.83013331518 326590.4814132438 0 0 0 0 -885711.33260345459 16314137.342587119 0 16314137.342587119 608031.68035880802 0 0 0 0 -23627178.901062012 6832361.7683705315 0 6832361.7683705315 -2089276.7977936342 0 0 0 0 408929.42602978647 97135.703750584275 0 97135.703750584275 -159801.91939188098 0 0 0 0 255351.41619873047 -86128.721550911971 0 -86128.721550911971 -271.22597750759189 0 0 0 0 349926.8377841413 266824.16733603552 0 266824.16733603552 192506.28901224447 0 0 0 0 23460961.041477203 95889710.892045751 0 95889710.892045751 -18513772.30814039 0 0 0 0 30168356.936126709 12704243.1095051 0 12704243.1095051 -8380894.0336355437 0 0 0 0 -181306653.59649467 34345396.395304762 0 34345396.395304762 30105502.564481169 0 0 0 0 858446.39005898312 250096.14970520511 0 250096.14970520511 -71834.500682061422 0 0 0 0 -4843444.3390884399 49344766.2812047 0 49344766.2812047 -2629591.7608349919 0 0 0 0 25813338.568344116 63425251.825454772 0 63425251.825454772 -18849736.72383976 0 0 0 0 -41829281.037765503 48583817.455470204 0 48583817.455470204 5918129.1403594017 0 0 0 0 -55374573.012397766 12901728.1165272 0 12901728.1165272 7879403.5905227661 0 0 0 0 3093352.9513254501 634690.74712815508 0 634690.74712815508 -315739.03855034517 0 0 0 0 -21500202.693969727 64799030.524606645 0 64799030.524606645 10516340.006610513 0 0 0 0 10394348.943664551 16711724.474166393 0 16711724.474166393 7572724.1479859352 0 0 0 0 16485519.000274658 15241322.309283733 0 15241322.309283733 1903518.1422152519 0 0 0 0 8668783.599029541 21369323.682004452 0 21369323.682004452 2894455.2968010902 0 0 0 0 7393665.4518432617 36402905.594998837 0 36402905.594998837 -8661164.5368609428 0 0 0 0 14721623.642974854 20621700.259810686 0 20621700.259810686 -14525820.148518085 0 0 0 0 4334640.4450378418 31942515.703627348 0 31942515.703627348 -14206097.434056282 0 0 0 0 18699297.203128815 15883453.709335536 0 15883453.709335536 -5384993.8982906342 0 0 0 0 14324458.91986084 20227958.204455853 0 20227958.204455853 -8185820.3190927505 0 0 0 0 13052995.911911011 19593473.778970003 0 19593473.778970003 -10109421.231599331 0 0 0 0 17060376.588409424 16364056.913942337 0 16364056.913942337 -9101810.4839277267 0 0 0 0 17863928.8465271 17812777.124177217 0 17812777.124177217 -9840856.7620830387 0 0 0 0 5355351.3067111969 46612283.922255501 0 46612283.922255501 -32402405.427931309 0 0 0 0 20239205.854537964 31532809.426331758 0 31532809.426331758 -22933087.588016152 0 0 0 0 21428550.158168793 32689570.546184331 0 32689570.546184331 -46224603.625166178 0 0 0 0 28201803.522506714 36600461.476193666 0 36600461.476193666 -46973532.590295315 0 0 0 0 50128227.975227356 20669776.643075705 0 20669776.643075705 -94454203.543090701 0 0 0 0 2020219.981262207 3417211.1754568815 0 3417211.1754568815 -88237457.782795191 0 0 0 0 97478384.471450806 44986001.646632701 0 44986001.646632701 -118488957.68955043 0 0 0 0 90046119.737884521 139239103.06892586 0 139239103.06892586 73330431.45351094 0 0 0 0 71602120.347396851 114705345.9827379 0 114705345.9827379 12977989.148525119 0 0 0 0 26460538.275103092 56322822.862824783 0 56322822.862824783 -55272247.328554392 0 0 0 0 131393939.8425169 -109190997.14182462 0 -109190997.14182462 228976612.43579605 0 0 0 0 151911170.13819122 28121308.572808135 0 28121308.572808135 -34656046.352540426 0 0 0 0 -4988422.5560016632 51641700.499490298 0 51641700.499490298 48495833.317377627 0 0 0 0 615861639.71047211 -3965416.3418682208 0 -3965416.3418682208 615551.59541159763 0 0 0 0 2195455194.3332214 -752986252.18313384 0 -752986252.18313384 -7287322.0664630346 0 0 0 0 2202545353.0952873 1064782703.7007902 0 1064782703.7007902 309725495.57020491 0 0 0 0 -133466821.26106262 -444389104.28204715 0 -444389104.28204715 165226474.82809889 0 0 0 0 2784304.6539481021 -266389.7384403944 0 -266389.7384403944 314508.58051891701 0 0 0 0 260090205.04619598 41975981.620289892 0 41975981.620289892 -237730560.44621849 0 0 0 0 978935270.2303257 133918528.83030662 0 133918528.83030662 -62920841.241826653 0 0 0 0 -4080914.2863845825 -197162505.32405949 0 -197162505.32405949 -268711449.27311689 0 0 0 0 4517009.6734957471 -1677570.5269073471 0 -1677570.5269073471 1041017.849706196 0 0 0 0 1002354308.3330002 384788779.44854867 0 384788779.44854867 -57414299.663202047 0 0 0 0 2205212158.9784031 321176731.06666464 0 321176731.06666464 -350483277.28111047 0 0 0 0 1195191312.4930267 -199204905.03235298 0 -199204905.03235298 -268831758.54041505 0 0 0 0 1288234341.3839493 -217521819.66170174 0 -217521819.66170174 -274766121.68865067 0 0 0 0 815774342.95267868 358123311.06819969 0 358123311.06819969 31446161.330469847 0 0 0 0 5565740.821122814 -2102877.7106357757 0 -2102877.7106357757 1153789.9038563322 0 0 0 0 209436976.32622528 -177101845.23836377 0 -177101845.23836377 56643929.547919393 0 0 0 0 173882699.15454102 -50277627.593019843 0 -50277627.593019843 11423564.093629897 0 0 0 0 5894520.5710906982 -34387341.295284629 0 -34387341.295284629 -91854792.582899779 0 0 0 0 19291071.813117981 -2090990.1421823502 0 -2090990.1421823502 -24122435.102113605 0 0 0 0 7855213.3006685935 -1817727.99753711 0 -1817727.99753711 -48502.147940050199 0 0 0 0 -12582747.839416504 2051868.4302681983 0 2051868.4302681983 -3808730.9468429089 0 0 0 0 -17734893.38483429 20868969.87393634 0 20868969.87393634 -13817462.271827996 0 0 0 0 49169057.991821289 -102780191.56787618 0 -102780191.56787618 104953890.82892077 0 0 0 0 98112.73941809684 -1885.1210434138775 0 -1885.1210434138775 137007.63235270025 0 0 0 0 8344455.7615966797 47243824.278569221 0 47243824.278569221 12701432.306323025 0 0 0 0 -74911738.590539932 -54999457.75148049 0 -54999457.75148049 -3695712.9695379734 0 0 0 0 20439673.428398132 99807227.167975217 0 99807227.167975217 119990133.95908648 0 0 0 0 -2900198.9255523682 10519961.596787617 0 10519961.596787617 -13952954.066353632 0 0 0 0 194266.90478300303 285429.93243603781 0 285429.93243603781 121935.32951145766 0 0 0 0 2646983.2918701172 -10389190.405058518 0 -10389190.405058518 1013043.7912078276 0 0 0 0 13757598.86038208 -10902387.016718864 0 -10902387.016718864 -34846262.150644302 0 0 0 0 7403442.819693394 -29588.866198229836 0 -29588.866198229836 -810952.86036006617 0 0 0 0 9544957.8325958252 -15494492.739372909 0 -15494492.739372909 -41459556.066865325 0 0 0 0 31917157.115074158 23895762.408442736 0 23895762.408442736 -32201827.244614124 0 0 0 0 20983746.320625305 4258723.961575985 0 4258723.961575985 -65010738.913141251 0 0 0 0 467819.88566440344 -835516.88779520709 0 -835516.88779520709 -252970.92792258927 0 0 0 0 781357.55120849609 -8157435.8169054985 0 -8157435.8169054985 -35320084.510896027 0 0 0 0 -94922368.371292114 -62232353.339124382 0 -62232353.339124382 -58015218.949667931 0 0 0 0 26598531.578674316 72505557.882523298 0 72505557.882523298 295956.76346053556 0 0 0 0 290426090.81448364 158467989.34673977 0 158467989.34673977 -222470489.81943762 0 0 0 0 2975238.7535321862 -618143.92876680195 0 -618143.92876680195 -157123.54600472865 0 0 0 0 4050860.7823066115 193712.36417372804 0 193712.36417372804 -150987.37555881342 0 0 0 0 -19915.407845873386 155277.06051127892 0 155277.06051127892 -66865.11174068175 0 0 0 0 43705144.175682068 117623542.77274513 0 117623542.77274513 110426313.90877509 0 0 0 0 20929622.208404541 -8131247.5807694793 0 -8131247.5807694793 -5802190.5269443542 0 0 0 0 136044541.26171875 217627836.4976269 0 217627836.4976269 -200171072.92144752 0 0 0 0 -232778768.2142067 -116959310.69193846 0 -116959310.69193846 387797150.15327704 0 0 0 0 20929622.208448194 85241199.041894943 0 85241199.041894943 178465503.64720109 0 0 0 0 1587873.8938167095 -655260.12425399537 0 -655260.12425399537 224351.83519397367 0 0 0 0 766621783.771698 -889512530.14760244 0 -889512530.14760244 817286816.08161223 0 0 0 0 1427384726.691658 -273167963.10110164 0 -273167963.10110164 -252257900.78998238 0 0 0 0 2201336444.5317607 -941238138.06675339 0 -941238138.06675339 -135455708.95564008 0 0 0 0 747751758.47225952 -390806640.69996673 0 -390806640.69996673 -34818507.904129595 0 0 0 0 673886764.60902405 -49753710.819941521 0 -49753710.819941521 -51798487.675128356 0 0 0 0 253715576.87687683 95678210.124220267 0 95678210.124220267 59836707.289123192 0 0 0 0 323832547.23968506 -509393856.17363256 0 -509393856.17363256 506173526.64281356 0 0 0 0 1268662390.3981438 -601453560.15598404 0 -601453560.15598404 43981818.436333865 0 0 0 0 525416.58338298649 -367453.59775712714 0 -367453.59775712714 207582.99027176388 0 0 0 0 -130585649.6603775 134546643.25119001 0 134546643.25119001 124269733.66366029 0 0 0 0 3467591.0697631836 -273038353.58296192 0 -273038353.58296192 79088819.329558879 0 0 0 0 333149462.22175217 -228176711.28389376 0 -228176711.28389376 138600471.30899483 0 0 0 0 478433825.22279358 69425612.796041936 0 69425612.796041936 -6126047.9105094671 0 0 0 0 360655018.28617096 -339114012.21385765 0 -339114012.21385765 221679934.13050085 0 0 0 0 321442789.31756592 -256520257.21127445 0 -256520257.21127445 76199700.80930984 0 0 0 0 238921610.72225952 -113756526.97270644 0 -113756526.97270644 459762241.91308421 0 0 0 0 640399.63827669621 -610479.61219404079 0 -610479.61219404079 106962.78384049149 0 0 0 0 290552306.23391724 159443136.71887535 0 159443136.71887535 69464837.601051927 0 0 0 0 79820278.950531006 139734627.23562258 0 139734627.23562258 118962634.4865762 0 0 0 0 12605370.457672119 -1637071.5159316063 0 -1637071.5159316063 -36569205.113650501 0 0 0 0 294042459.25485229 20940681.681903958 0 20940681.681903958 58312295.449256182 0 0 0 0 -474754.42584228516 -11190296.119158268 0 -11190296.119158268 -13015841.308736086 0 0 0 0 46550813.000015259 -54039250.91812712 0 -54039250.91812712 -57164886.521141052 0 0 0 0 1800091.6380940601 -1407760.6330272136 0 -1407760.6330272136 98915.646445408318 0 0 0 0 13080762.587219238 -14682077.320234537 0 -14682077.320234537 -84335604.427699685 0 0 0 0 -1644401.6739425659 -26005809.509143353 0 -26005809.509143353 1562307.4066901207 0 0 0 0 374853.99212551117 -411278.1069981223 0 -411278.1069981223 -328673.98845959234 0 0 0 0 674852.38343684375 -43000.201760234311 0 -43000.201760234311 -67657.999907379417 0 0 0 0 99837964.004310608 -24088726.614646912 0 -24088726.614646912 39262111.599761009 0 0 0 0 -20624170.378341675 -34132928.174433827 0 -34132928.174433827 55893962.864919424 0 0 0 0 52917525.999530792 65436154.72135511 0 65436154.72135511 26167217.853488207 0 0 0 0 24364768.600738525 -57217655.780563056 0 -57217655.780563056 57200.911980390549 0 0 0 0 46749514.468429565 95290455.564379811 0 95290455.564379811 64507571.696968362 0 0 0 0 291130962.56925964 67781127.21900022 0 67781127.21900022 -7107815.0363103151 0 0 0 0 243629524.68061829 199309722.01802278 0 199309722.01802278 3604800.0382328033 0 0 0 0 22772354.543121338 236578264.75399643 0 236578264.75399643 49305237.156277299 0 0 0 0 230503379.06389618 -146045775.27453923 0 -146045775.27453923 -184140602.55470157 0 0 0 0 1072849.9954781905 -642291.56918889284 0 -642291.56918889284 244876.52542742935 0 0 0 0 61579957.570762634 -142633457.99695194 0 -142633457.99695194 -165323116.00881639 0 0 0 0 28723091.222686768 132560932.41129059 0 132560932.41129059 58823079.982483566 0 0 0 0 15595891.467292786 83892821.950131059 0 83892821.950131059 109507481.08129156 0 0 0 0 64685212.299819946 131838680.51975501 0 131838680.51975501 7531139.160834074 0 0 0 0 -57806915.308959961 -179036994.42961347 0 -179036994.42961347 -17195121.005213976 0 0 0 0 180893861.58117676 133605251.26655877 0 133605251.26655877 6930629.5859308764 0 0 0 0 504142.62704820931 -284497.40035659634 0 -284497.40035659634 98012.461906977274 0 0 0 0 -127727706.74021149 -94888936.051179677 0 -94888936.051179677 39591306.589047074 0 0 0 0 118704813.08534241 -3851522.0732544959 0 -3851522.0732544959 -152242449.90053812 0 0 0 0 272983660.94474792 59872906.088818997 0 59872906.088818997 -103387578.98388135 0 0 0 0 90613645.211212158 -16188193.059033647 0 -16188193.059033647 -19352064.399445474 0 0 0 0 11053632.028408051 46787575.022579953 0 46787575.022579953 -34965190.602898836 0 0 0 0 362798356.19380188 140912226.08483034 0 140912226.08483034 -38568857.834063888 0 0 0 0 480099436.98191071 -58286026.521184921 0 -58286026.521184921 -62936082.150654316 0 0 0 0 249794398.57550812 17935925.257504612 0 17935925.257504612 -87897949.760744631 0 0 0 0 271767764.85181808 48617698.717082426 0 48617698.717082426 -47371649.119891822 0 0 0 0 251115633.96781158 3104505.7170284986 0 3104505.7170284986 -182868.16661887616 0 0 0 0 119405699.34106445 16432047.888281524 0 16432047.888281524 -1519143.021957323 0 0 0 0 -3111435.0199050903 3354270.2819477022 0 3354270.2819477022 75653889.396208256 0 0 0 0 20813167.670082092 11926808.234653264 0 11926808.234653264 59148507.541750401 0 0 0 0 71910086.109035492 -68402558.406282991 0 -68402558.406282991 96147116.243908942 0 0 0 0 -9768387.269203186 10668457.636214033 0 10668457.636214033 30212973.159213781 0 0 0 0 -12688214.838125229 15108033.453094453 0 15108033.453094453 37856572.477979243 0 0 0 0 3845967.9111480713 10531617.731716514 0 10531617.731716514 39041397.528470635 0 0 0 0 -13670570.586639404 7457107.6879684925 0 7457107.6879684925 45734215.015899733 0 0 0 0 -6342674.0043945312 2068954.7832375765 0 2068954.7832375765 41762299.942055911 0 0 0 0 -10546122.847793579 3522012.7427445054 0 3522012.7427445054 50690270.316996574 0 0 0 0 -30132684.036026001 17940279.742040157 0 17940279.742040157 43843863.698053867 0 0 0 0 -4409179.3194274902 -829949.28836214542 0 -829949.28836214542 45883907.810864836 0 0 0 0 -4357494.5932159424 -7955967.2505401373 0 -7955967.2505401373 47628971.886412978 0 0 0 0 -8793807.4424743652 -4939155.6766483784 0 -4939155.6766483784 46443241.778697729 0 0 0 0 -19238030.425231934 -1790456.1497592777 0 -1790456.1497592777 70160734.184669495 0 0 0 0 -67896826.036682129 23577071.055674225 0 23577071.055674225 78989085.25296694 0 0 0 0 2043021.7737731934 -3050189.444945097 0 -3050189.444945097 64734148.013262391 0 0 0 0 -6536815.3612670898 22216436.556241214 0 22216436.556241214 25500481.63462773 0 0 0 0 1679333.3524932861 15389459.121283501 0 15389459.121283501 24344567.079924166 0 0 0 0 11886887.892715454 23528883.754186437 0 23528883.754186437 23569797.020111471 0 0 0 0 -10047307.193077087 57576908.984608814 0 57576908.984608814 -26500102.828768432 0 0 0 0 -124823501.15200043 181412881.77699235 0 181412881.77699235 -82804673.289738014 0 0 0 0 336110.32721152902 -17971.730258665979 0 -17971.730258665979 -243464.0284630651 0 0 0 0 79376730.45485878 -88922477.90858379 0 -88922477.90858379 77052821.79111068 0 0 0 0 28196010.858718872 11803630.234711014 0 11803630.234711014 75879636.589789912 0 0 0 0 165424722.14614868 -190784219.24700505 0 -190784219.24700505 262043117.91541094 0 0 0 0 16618699.862495422 -14232536.890614301 0 -14232536.890614301 17439935.966649994 0 0 0 0 -10534606.489646792 130706815.52786891 0 130706815.52786891 -194184788.10599911 0 0 0 0 -133389841.7142868 26755677.196983613 0 26755677.196983613 55554004.064874046 0 0 0 0 185557723.77803802 78240759.128484428 0 78240759.128484428 75922168.060536742 0 0 0 0 -3667179.6024057865 -44419826.609602243 0 -44419826.609602243 14898992.925410151 0 0 0 0 -194983554.04202843 140616676.93448579 0 140616676.93448579 -8854404.4952875376 0 0 0 0 -125599964.6505127 288397029.27243221 0 288397029.27243221 -197875575.34883752 0 0 0 0 973589.28972733021 -218637.95335664786 0 -218637.95335664786 -855826.31394664675 0 0 0 0 19457678.559379578 -74209694.313052118 0 -74209694.313052118 52150265.438945733 0 0 0 0 -12230901.478225708 6238788.761662662 0 6238788.761662662 -19337001.027699351 0 0 0 0 15791191.999603271 -14030549.088382266 0 -14030549.088382266 18985266.290193204 0 0 0 0 43030034.015220642 -24919938.555710614 0 -24919938.555710614 -40128292.771483421 0 0 0 0 31185960.374549866 -3454299.4172812104 0 -3454299.4172812104 23143362.752038427 0 0 0 0 59576215.987571716 -41316619.583519563 0 -41316619.583519563 -16085017.513599768 0 0 0 0 43334760.228126526 -27278910.5884507 0 -27278910.5884507 -37964260.635676026 0 0 0 0 33638511.415691376 30535135.906088714 0 30535135.906088714 -26997894.627364218 0 0 0 0 -2404988.4534759521 10393530.946330696 0 10393530.946330696 -49066957.226752222 0 0 0 0 1315805.7313275263 3790753.9551245291 0 3790753.9551245291 -981663.98350370908 0 0 0 0 8400151.9260291271 1545617.4221674465 0 1545617.4221674465 -305044.17329701525 0 0 0 0 23560670.508216858 33017936.129400603 0 33017936.129400603 -115110409.09318051 0 0 0 0 1254207.1258198619 3191583.7111878316 0 3191583.7111878316 -608367.90819348837 0 0 0 0 -5520993.5685577393 26142521.329731047 0 26142521.329731047 -3500502.6290354878 0 0 0 0 31224349.074302673 -10317717.819602191 0 -10317717.819602191 -91542986.897903234 0 0 0 0 92413500.133293152 36678973.083320916 0 36678973.083320916 -75542378.727867484 0 0 0 0 -8470060.5096359253 -9140923.6366573572 0 -9140923.6366573572 -38499510.101119995 0 0 0 0 7812072.7932094038 1122664.0506206146 0 1122664.0506206146 -1120201.6623533852 0 0 0 0 -6534999.3939819336 -35362368.704782784 0 -35362368.704782784 43486624.363029063 0 0 0 0 -7077424.7030029297 -13701436.113380432 0 -13701436.113380432 -38846916.219326019 0 0 0 0 -5252541.3822402954 -11183084.649115324 0 -11183084.649115324 -33724262.267626405 0 0 0 0 -6081930.7007446289 -13392036.268601894 0 -13392036.268601894 -36288450.205441236 0 0 0 0 -8431016.8314538002 -9739865.0988611728 0 -9739865.0988611728 -33236670.387136698 0 0 0 0 35769040.722808838 -46896870.864462286 0 -46896870.864462286 -57072912.884770274 0 0 0 0 259325.98817037791 433583.10569167137 0 433583.10569167137 -43125.69551487705 0 0 0 0 60531241.825408936 42302963.468261838 0 42302963.468261838 -10772243.284886956 0 0 0 0 15416217.745697021 39013169.700580299 0 39013169.700580299 56120194.23974821 0 0 0 0 -8182171.8107528687 -49120716.051988095 0 -49120716.051988095 -14417950.231485009 0 0 0 0 1252147.1023273468 -17525226.958227701 0 -17525226.958227701 -13349688.146640778 0 0 0 0 -42567571.005310059 19982826.004711509 0 19982826.004711509 -18820115.008307964 0 0 0 0 -52100399.484939575 9278095.9286063313 0 9278095.9286063313 35988054.51926136 0 0 0 0 35534933.237014771 38043788.187142253 0 38043788.187142253 -44807310.164151371 0 0 0 0 8215203.5472221933 -305948.48354529869 0 -305948.48354529869 -2827961.6939173439 0 0 0 0 -88238.095565795898 20045250.913759947 0 20045250.913759947 -18865071.622484684 0 0 0 0 -1698491.9034152031 -13035205.742982859 0 -13035205.742982859 -21416290.446471691 0 0 0 0 24920703.445114136 -21801636.48264575 0 -21801636.48264575 -53937451.853436232 0 0 0 0 23849809.22064209 -27299957.309036374 0 -27299957.309036374 -46028579.679373741 0 0 0 0 8756026.3612263948 3355775.0932113985 0 3355775.0932113985 -2803631.805057643 0 0 0 0 6890861.1184310913 -6673591.2798528671 0 -6673591.2798528671 -39145813.312812805 0 0 0 0 -925977.26077270508 -7834172.0781636238 0 -7834172.0781636238 -37798472.658558846 0 0 0 0 12714727.23008728 -29949949.687063456 0 -29949949.687063456 -10769799.965298295 0 0 0 0 7309900.8439114466 2659776.6287667155 0 2659776.6287667155 -1758248.2922426865 0 0 0 0 -5219697.6023979187 -7842146.6416384578 0 -7842146.6416384578 -6905518.5381243229 0 0 0 0 -6338874.2501831055 -11036064.742683053 0 -11036064.742683053 -8487083.842492342 0 0 0 0 14690483.758880615 -8852667.087597847 0 -8852667.087597847 -41506454.594770432 0 0 0 0 -14737036.943572998 5383876.4682598114 0 5383876.4682598114 -19771040.590858579 0 0 0 0 -3728943.1697921753 -8802991.6900305748 0 -8802991.6900305748 -11262103.037641525 0 0 0 0 63256102.617736816 58838835.68580246 0 58838835.68580246 -150877174.49676704 0 0 0 0 2631742.5344171263 -2550077.4786297791 0 -2550077.4786297791 -3753660.2604272971 0 0 0 0 130627426.75198364 15148598.499938011 0 15148598.499938011 -209583889.13695145 0 0 0 0 -8275454.8295440674 -13541701.325663328 0 -13541701.325663328 -11303083.634448336 0 0 0 0 138764910.81455994 -65330012.993753433 0 -65330012.993753433 -219799876.8481859 0 0 0 0 141704555.88544846 -18876773.755418539 0 -18876773.755418539 -225936925.32830286 0 0 0 0 130318608.37255859 -56759958.526293993 0 -56759958.526293993 -150322106.59590435 0 0 0 0 118138091.93153381 -29830380.585868359 0 -29830380.585868359 -141766689.99716568 0 0 0 0 166491598.72442627 -48558408.518894196 0 -48558408.518894196 -167993882.14564514 0 0 0 0 77636689.741668701 -14743583.384449661 0 -14743583.384449661 -32242901.523062229 0 0 0 0 29766560.46547699 -49978445.446826756 0 -49978445.446826756 12945968.240991354 0 0 0 0 -8771865.8849182129 -15632355.690704942 0 -15632355.690704942 -5914284.9783569276 0 0 0 0 -4099181.6907348633 274468144.69160712 0 274468144.69160712 -265485207.21485186 0 0 0 0 1474515.2816715948 -896402.97590444796 0 -896402.97590444796 -1753241.0303839119 0 0 0 0 58949618.779373169 6671047.3972060978 0 6671047.3972060978 20922962.868652403 0 0 0 0 -75381692.972234726 -21360978.658703387 0 -21360978.658703387 -118407036.95207691 0 0 0 0 140198859.09681702 -105121414.83029532 0 -105121414.83029532 -119381791.34481859 0 0 0 0 222730851.56256104 -71452004.98641634 0 -71452004.98641634 -182922534.65527201 0 0 0 0 334494056.16981506 -57812973.089272618 0 -57812973.089272618 -123119536.51242542 0 0 0 0 183993080.67349243 66909335.640957594 0 66909335.640957594 -157642278.14504576 0 0 0 0 287107566.1900177 -30831620.153925657 0 -30831620.153925657 -151211740.31382528 0 0 0 0 242916939.80882263 -99149923.243805766 0 -99149923.243805766 -6185427.1496185064 0 0 0 0 587102802.08060265 24864025.729202703 0 24864025.729202703 36335198.731977224 0 0 0 0 93827276.061813354 11291122.543960035 0 11291122.543960035 -237337452.80305591 0 0 0 0 79537027.241752625 80312423.819957793 0 80312423.819957793 81042677.452199042 0 0 0 0 261403875.25510406 -62929635.469034091 0 -62929635.469034091 -27155903.543631196 0 0 0 0 113088032.86994171 -186516886.55342972 0 -186516886.55342972 68826249.742825747 0 0 0 0 61879227.283096313 -127875927.84603465 0 -127875927.84603465 14360484.609258175 0 0 0 0 90716011.247299194 -73537614.190123379 0 -73537614.190123379 -58999575.925523758 0 0 0 0 -9939175.3362121582 8129676.7749302648 0 8129676.7749302648 -59231542.492548913 0 0 0 0 -12992059.480979919 -29299722.702341735 0 -29299722.702341735 49547814.020185351 0 0 0 0 86344162.154586792 -240612607.6795584 0 -240612607.6795584 383388786.92270517 0 0 0 0 481483978.43219376 -352226690.8774519 0 -352226690.8774519 90950097.898099542 0 0 0 0 196349985.6643219 -208218500.3082273 0 -208218500.3082273 20621663.814088345 0 0 0 0 191807273.733078 -191920664.23902011 0 -191920664.23902011 -20466757.994954586 0 0 0 0 202434754.39584351 -200892022.86353827 0 -200892022.86353827 -18733462.686929405 0 0 0 0 296057759.41095543 -240185443.37420887 0 -240185443.37420887 -34320918.313496113 0 0 0 0 216822940.63179016 -162002868.54876828 0 -162002868.54876828 -110020202.29661512 0 0 0 0 200815164.41123962 -148108103.92277527 0 -148108103.92277527 -96435912.91638279 0 0 0 0 142988868.79154205 -111376911.01769018 0 -111376911.01769018 -52713003.128008842 0 0 0 0 179605842.74546814 -167407288.88084555 0 -167407288.88084555 -67846214.505014896 0 0 0 0 186626884.9022789 -144581422.48697066 0 -144581422.48697066 -41120630.62713623 0 0 0 0 239265686.47971725 -91357912.073018909 0 -91357912.073018909 -48585923.366234303 0 0 0 0 197499067.07601929 -149528669.90048623 0 -149528669.90048623 -55120766.880702972 0 0 0 0 213128762.98484802 -106061861.06293297 0 -106061861.06293297 -27128850.31690836 0 0 0 0 179630229.49160767 -113480970.19851208 0 -113480970.19851208 -130242824.85570145 0 0 0 0 164746555.72817993 -99888346.326233864 0 -99888346.326233864 -98016057.196624756 0 0 0 0 197985204.36700439 -147418625.74317646 0 -147418625.74317646 -63452285.639498949 0 0 0 0 198205209.84397125 -151543484.21588755 0 -151543484.21588755 -83168632.107248306 0 0 0 0 192854846.33257294 -142340749.60990763 0 -142340749.60990763 -35855558.624602318 0 0 0 0 144899446.53637695 -97511029.545834541 0 -97511029.545834541 -73188758.026871443 0 0 0 0 105948012.13270569 -51902246.782752991 0 -51902246.782752991 -113944674.81786537 0 0 0 0 142111236.80488586 -99919807.671595573 0 -99919807.671595573 -67119345.589899063 0 0 0 0 61228883.896484375 -57664421.338798523 0 -57664421.338798523 -42289999.889025688 0 0 0 0 73917284.082458496 -63081935.556081772 0 -63081935.556081772 -39980247.370956421 0 0 0 0 51816374.041412354 7213282.0602149963 0 7213282.0602149963 -95732550.745675087 0 0 0 0 98038325.259979248 -30915122.345726967 0 -30915122.345726967 -66347403.801593781 0 0 0 0 145508141.65032959 -30490145.724279404 0 -30490145.724279404 -144367614.6881628 0 0 0 0 138229718.02766418 -189254771.62340736 0 -189254771.62340736 156686755.00406075 0 0 0 0 4781956.149928797 2009493.4691170882 0 2009493.4691170882 -1229229.5895353975 0 0 0 0 24452438.892929077 43596597.556495667 0 43596597.556495667 -66192418.351972818 0 0 0 0 -6452505.951965332 18623457.717025757 0 18623457.717025757 -32934351.93762207 0 0 0 0 -35514116.038635254 18041673.928598404 0 18041673.928598404 -668930.73498535156 0 0 0 0 30006605.787658691 -2838114.2760772705 0 -2838114.2760772705 -65647560.944442928 0 0 0 0 54727026.757171631 -58738744.445092201 0 -58738744.445092201 -266271.90141296387 0 0 0 0 4671405.6627807617 -24770803.533121109 0 -24770803.533121109 1050203.3182651997 0 0 0 0 2304829.5113601685 -23677572.728253841 0 -23677572.728253841 9352871.5089645386 0 0 0 0 -49453471.460632324 -13779747.434015274 0 -13779747.434015274 24770688.738246918 0 0 0 0 122409307.79399109 -101824999.98007727 0 -101824999.98007727 25861455.352134705 0 0 0 0 -20309307.590698242 -45856973.032221794 0 -45856973.032221794 28648341.081623077 0 0 0 0 120481471.28622437 -110143944.33286476 0 -110143944.33286476 -8778680.7377548218 0 0 0 0 17073332.619438171 -76343962.534306526 0 -76343962.534306526 44189896.859371185 0 0 0 0 -6938727.4740905762 -3241730.0138063431 0 -3241730.0138063431 -30400643.699150085 0 0 0 0 251411974.31156921 -154191630.74757242 0 -154191630.74757242 36937233.961523056 0 0 0 0 262163369.12889481 -80201757.789876223 0 -80201757.789876223 48561602.229174614 0 0 0 0 280184008.6815033 -97386451.783320189 0 -97386451.783320189 27915115.82845211 0 0 0 0 243123380.32624054 -133967125.33680773 0 -133967125.33680773 -1169953.8300819397 0 0 0 0 250210929.0673542 -100465876.22094303 0 -100465876.22094303 43436266.711815834 0 0 0 0 284852109.16054535 -121570687.14036131 0 -121570687.14036131 -30870710.788018227 0 0 0 0 322868259.56810665 66099871.571518034 0 66099871.571518034 -21812998.830885887 0 0 0 0 93489932.655761719 2031708.1643800735 0 2031708.1643800735 -29027649.784598827 0 0 0 0 60654403.244960785 251291307.82287097 0 251291307.82287097 -143604549.90007591 0 0 0 0 33529693.393836975 175698803.56037521 0 175698803.56037521 126036996.54643321 0 0 0 0 599421.51000955701 -260902.53145446628 0 -260902.53145446628 -227682.69000780908 0 0 0 0 -376712.44258117676 -13772636.679820061 0 -13772636.679820061 72737639.588355064 0 0 0 0 -21546604.690109253 11474502.982012749 0 11474502.982012749 72935012.157138228 0 0 0 0 -1375196.9090118408 20333134.175101757 0 20333134.175101757 56914508.799124718 0 0 0 0 -18348636.28042984 27923714.412131071 0 27923714.412131071 53877981.791559219 0 0 0 0 -31164818.201843262 17774444.820065975 0 17774444.820065975 68826202.387422562 0 0 0 0 -11320250.051437378 45546631.596340179 0 45546631.596340179 69899690.521246791 0 0 0 0 -1607420.3907775879 -56062565.255093336 0 -56062565.255093336 228309361.77963424 0 0 0 0 -22811615.933029175 126567200.80263495 0 126567200.80263495 158254025.57571518 0 0 0 0 62938982.352111816 78055963.415163755 0 78055963.415163755 -99584571.899538279 0 0 0 0 -38854809.340705872 13919210.669386506 0 13919210.669386506 41232018.315241694 0 0 0 0 584956.04533365369 -578865.18287453987 0 -578865.18287453987 -465823.65599573846 0 0 0 0 -32688174.432307005 89918403.281025618 0 89918403.281025618 13625380.288622856 0 0 0 0 -1454028.8762207031 -5208125.4775686562 0 -5208125.4775686562 3330004.5068774819 0 0 0 0 -21606911.386756897 4703374.2496205568 0 4703374.2496205568 243535.62705278397 0 0 0 0 -118887.82373046875 -2549533.6232844591 0 -2549533.6232844591 -64362.339641034603 0 0 0 0 -51703637.239776611 103386362.58560681 0 103386362.58560681 -103850354.4650197 0 0 0 0 1636503.9762213714 -1738873.0492454516 0 -1738873.0492454516 -1310960.734702562 0 0 0 0 38097832.5496521 89255456.774841964 0 89255456.774841964 -193617660.96994868 0 0 0 0 2674112.1699245796 -357684.19611920044 0 -357684.19611920044 -824690.29808523529 0 0 0 0 1009930.7484893799 -518182.88169378042 0 -518182.88169378042 -272676.15139441192 0 0 0 0 34379506.680847168 17896456.957074165 0 17896456.957074165 -158740188.68582296 0 0 0 0 34379506.680725098 17896456.957130909 0 17896456.957130909 -158740188.68580389 0 0 0 0 34379506.68081665 17896456.957133293 0 17896456.957133293 -158740188.6858027 0 0 0 0 51825977.854476929 -13637523.523668647 0 -13637523.523668647 -116093012.29036099 0 0 0 0 -39947238.891296387 38953978.243817031 0 38953978.243817031 -95485850.511182785 0 0 0 0 18566021.700668335 -46908958.028697491 0 -46908958.028697491 -25810390.572779059 0 0 0 0 70279359.364059448 -18199024.766340256 0 -18199024.766340256 -83279131.876832664 0 0 0 0 74117227.074527502 1555857.4261892959 0 1555857.4261892959 -46468555.293628216 0 0 0 0 76730724.849609375 -82675740.410473824 0 -82675740.410473824 -34499233.261263371 0 0 0 0 161699245.07144165 -94472980.554278851 0 -94472980.554278851 -39063748.532647133 0 0 0 0 154318617.28670883 -12347439.397550941 0 -12347439.397550941 -49336057.585384846 0 0 0 0 -37475427.907852173 24933519.034204364 0 24933519.034204364 -17033942.700654984 0 0 0 0 137788359.40385437 86480005.177535176 0 86480005.177535176 445169.99099969864 0 0 0 0 25523445.039627075 57868538.013465405 0 57868538.013465405 -68182333.485376358 0 0 0 0 119774606.22946167 62680528.139794469 0 62680528.139794469 -34784682.59580344 0 0 0 0 310102.91219272092 -375256.38342012139 0 -375256.38342012139 -147066.85000206137 0 0 0 0 42564816.839996338 -76590775.431866527 0 -76590775.431866527 54218793.715494394 0 0 0 0 101795318.27245331 42068609.834927201 0 42068609.834927201 -111397291.43317866 0 0 0 0 58950427.215921402 -48249562.490611255 0 -48249562.490611255 16565012.033839226 0 0 0 0 136497671.69094849 -56118017.479415178 0 -56118017.479415178 -12004419.331840873 0 0 0 0 90711133.705936432 37496459.376411438 0 37496459.376411438 -46917431.614476204 0 0 0 0 45979285.580253601 12516184.128800392 0 12516184.128800392 -63584981.60750854 0 0 0 0 -40072100.529624939 9535372.5702248216 0 9535372.5702248216 44607699.512742519 0 0 0 0 272339.94367394224 716733.39013404213 0 716733.39013404213 1629891.2327480523 0 0 0 0 27359302.34753418 25223381.666381598 0 25223381.666381598 19761434.323518515 0 0 0 0 14698331.480333328 33590661.710701883 0 33590661.710701883 23634860.878698826 0 0 0 0 11001293.651573181 2817206.5715227127 0 2817206.5715227127 -9196877.8002996445 0 0 0 0 12845257.573932648 12146780.92556107 0 12146780.92556107 17108337.080114365 0 0 0 0 3492691.107093811 18220704.871154666 0 18220704.871154666 31041390.069571495 0 0 0 0 1950570.056427002 19955020.295753479 0 19955020.295753479 44853982.376485586 0 0 0 0 5107016.4245891571 -7844702.8693227768 0 -7844702.8693227768 24616990.510181427 0 0 0 0 -9678734.4566268921 54306279.878865361 0 54306279.878865361 34727318.463196754 0 0 0 0 15188408.169549942 36884687.214845538 0 36884687.214845538 41665169.399751663 0 0 0 0 40151869.720832825 68794537.536462545 0 68794537.536462545 25237111.040062666 0 0 0 0 -7305703.6528015137 42971740.108233631 0 42971740.108233631 83619139.437333107 0 0 0 0 -60407370.881202698 -22297088.743887305 0 -22297088.743887305 32863630.86728251 0 0 0 0 -4964832.2867736816 74557092.17237626 0 74557092.17237626 146138567.04111013 0 0 0 0 160004716.76768875 101201462.4032039 0 101201462.4032039 38936741.608833075 0 0 0 0 43689232.088972569 31442006.492971167 0 31442006.492971167 23738731.633525848 0 0 0 0 51215.914456568193 430606.86073866673 0 430606.86073866673 621442.05551890074 0 0 0 0 59415636.972064972 6065697.0764632821 0 6065697.0764632821 -29365237.574606836 0 0 0 0 29238129.833361149 -58667578.372753605 0 -58667578.372753605 77715006.504931569 0 0 0 0 45836016.943435669 1388159.1401417181 0 1388159.1401417181 166305528.59320217 0 0 0 0 43933539.603424072 29823661.909084544 0 29823661.909084544 33006253.21350652 0 0 0 0 47354069.762197495 29562472.474455811 0 29562472.474455811 30416476.390068054 0 0 0 0 76155692.562107086 -44344489.515785813 0 -44344489.515785813 121932328.07192016 0 0 0 0 140968085.14378357 317528.72597420216 0 317528.72597420216 28532207.43475958 0 0 0 0 51883376.305557251 20230451.848219872 0 20230451.848219872 35200931.958971679 0 0 0 0 49080037.100517273 15329638.135938168 0 15329638.135938168 27441205.473318815 0 0 0 0 105771877.55739355 -1688057.3742219415 0 -1688057.3742219415 1199240.3718224764 0 0 0 0 61675663.798530579 51299104.761057869 0 51299104.761057869 -3562176.5412129089 0 0 0 0 70552524.19670105 47079896.4236857 0 47079896.4236857 -32674094.006886438 0 0 0 0 55072064.192771912 69358621.601047426 0 69358621.601047426 33814201.717104524 0 0 0 0 41684256.570533752 50336492.545675293 0 50336492.545675293 51904793.458808064 0 0 0 0 65229812.967536926 69974389.200945944 0 69974389.200945944 -1508456.8845797181 0 0 0 0 65348830.081329346 118247909.93671498 0 118247909.93671498 56270321.081655763 0 0 0 0 62637285.804012299 50390642.559830889 0 50390642.559830889 -24559645.013970181 0 0 0 0 -349102.7515264973 -2729517.1166409384 0 -2729517.1166409384 -255958.25905062782 0 0 0 0 46269734.955563545 -48231987.808842696 0 -48231987.808842696 -112814111.53053147 0 0 0 0 574176.03403451294 -408990.3660409227 0 -408990.3660409227 -266314.3578648846 0 0 0 0 30957381.750450134 121963716.97517478 0 121963716.97517478 -95547063.004859447 0 0 0 0 105947708.70763206 -4371961.9292064011 0 -4371961.9292064011 1142610.4148545265 0 0 0 0 -215094.81901136413 -681976.53565523727 0 -681976.53565523727 308078.21670160274 0 0 0 0 10610858.836120605 -29331502.11243403 0 -29331502.11243403 38850538.958133012 0 0 0 0 4300764.3285675049 -4809402.7926146686 0 -4809402.7926146686 -3836816.4675790519 0 0 0 0 3090502.6950490251 -1481044.0001635044 0 -1481044.0001635044 -349547.99043078569 0 0 0 0 1284394.8802185059 -816181.94545832276 0 -816181.94545832276 -2162142.4265754223 0 0 0 0 3805371.1788597107 -92330389.945170835 0 -92330389.945170835 49203330.309090346 0 0 0 0 174724180.76721573 11695396.676441036 0 11695396.676441036 -85082875.573908687 0 0 0 0 382771.36191593483 -797007.51378987264 0 -797007.51378987264 -304497.93218422646 0 0 0 0 -27433643.177253723 -40376281.27146329 0 -40376281.27146329 -37197881.636633039 0 0 0 0 3003628.2514281943 -1697540.174629041 0 -1697540.174629041 -148515.06485980842 0 0 0 0 4501986.8724899292 -3418443.6057063043 0 -3418443.6057063043 -7297991.7800426483 0 0 0 0 1313424.5452675857 -4021793.5054792296 0 -4021793.5054792296 -1267188.6918635212 0 0 0 0 4243685.8432612419 -4348494.1097273193 0 -4348494.1097273193 -313825.41356301308 0 0 0 0 3579857.6810035706 139371.15300998837 0 139371.15300998837 159022.52657353878 0 0 0 0 8982266.6870956421 -8924632.1631213129 0 -8924632.1631213129 3775463.9779455662 0 0 0 0 9374423.6629542187 -3283589.5222662054 0 -3283589.5222662054 716910.14143031999 0 0 0 0 9625300.9905853271 -6318428.3422641456 0 -6318428.3422641456 -9897823.8606159091 0 0 0 0 -1289223.7944078445 -9571231.2969856635 0 -9571231.2969856635 5159416.8221157789 0 0 0 0 860222.26472473145 -16624854.908472538 0 -16624854.908472538 -3731737.4250181317 0 0 0 0 531566.13259887695 -2354364.2242170572 0 -2354364.2242170572 13980711.976631522 0 0 0 0 14268598.542037964 -18960952.358270884 0 -18960952.358270884 10514583.153798729 0 0 0 0 14502023.355981827 -9276696.9456580728 0 -9276696.9456580728 11229397.538341999 0 0 0 0 6889958.2368621826 -24889189.471209526 0 -24889189.471209526 -19477901.963294744 0 0 0 0 10012422.886879884 -3285611.371879179 0 -3285611.371879179 820126.86674830015 0 0 0 0 22052981.97277832 -12950895.835654855 0 -12950895.835654855 -17298623.397609711 0 0 0 0 12159943.95192337 -5032770.5246603787 0 -5032770.5246603787 653458.87818050385 0 0 0 0 29031598.721260071 -5021419.6558995247 0 -5021419.6558995247 -10056198.677062213 0 0 0 0 7822817.4010314941 -1695369.3486253023 0 -1695369.3486253023 -9616959.7214564085 0 0 0 0 23215548.757247925 12418465.669522583 0 12418465.669522583 6320314.8311014175 0 0 0 0 38235422.612243652 24223480.42972362 0 24223480.42972362 15201872.64882195 0 0 0 0 52356905.251907349 -4467495.93201828 0 -4467495.93201828 -94362.439538836479 0 0 0 0 65882203.921844482 28877636.638443351 0 28877636.638443351 25268933.274593949 0 0 0 0 86688998.434844971 -21761506.801994324 0 -21761506.801994324 13096262.550473213 0 0 0 0 60663542.8801651 21775650.966508448 0 21775650.966508448 15615408.968595505 0 0 0 0 29508192.591278076 14812385.500084817 0 14812385.500084817 14071328.263008833 0 0 0 0 -121444.7590637207 -21901099.15656352 0 -21901099.15656352 -18337845.595987082 0 0 0 0 -110165.95569870621 -87944.275393780321 0 -87944.275393780321 96649.374684103415 0 0 0 0 1331553.8818983361 -2587517.9182608258 0 -2587517.9182608258 -805961.22612963605 0 0 0 0 -5592185.724609375 -6570621.5118549466 0 -6570621.5118549466 -18667336.54424715 0 0 0 0 26372170.451042175 8721670.4733868837 0 8721670.4733868837 -50065246.914666414 0 0 0 0 39026981.887924194 -12594238.617847204 0 -12594238.617847204 -34008564.541137218 0 0 0 0 1560953.6894989014 -1482150.2781772017 0 -1482150.2781772017 -409529.37686342001 0 0 0 0 2129667.8078314662 -501541.94704722334 0 -501541.94704722334 -444077.53787145694 0 0 0 0 -15875765.12224865 -11053476.233768184 0 -11053476.233768184 -1046855.8195847273 0 0 0 0 -16461825.670379639 -18471679.864629507 0 -18471679.864629507 4496155.0960435867 0 0 0 0 31571709.238586426 36762157.565016642 0 36762157.565016642 -137430350.05120128 0 0 0 0 2194844.8674717993 -1244150.6592915896 0 -1244150.6592915896 -1077937.1225070665 0 0 0 0 1436807.5835876465 -1637043.4763688743 0 -1637043.4763688743 -2158436.9221775606 0 0 0 0 1881258.709873423 -469989.10014591133 0 -469989.10014591133 -12832.788945811928 0 0 0 0 20092307.589996338 -4483314.8752673268 0 -4483314.8752673268 -21956933.992563903 0 0 0 0 -7355829.7030601501 -17655472.430863902 0 -17655472.430863902 -4253086.4359520674 0 0 0 0 2008111.1482543945 -6247561.0531842411 0 -6247561.0531842411 -7221733.9448471665 0 0 0 0 622435.54281997681 -28543.344471521676 0 -28543.344471521676 -571654.14291165769 0 0 0 0 1365766.4407162592 -1035486.0899303923 0 -1035486.0899303923 84940.810610916247 0 0 0 0 1311995.0689697266 -148719.82541895658 0 -148719.82541895658 -1277609.1044960618 0 0 0 0 -17851639.086700439 5483688.47726053 0 5483688.47726053 6972572.6179421544 0 0 0 0 1978256.2285270691 -5226250.9095097035 0 -5226250.9095097035 -1758327.4726224393 0 0 0 0 1365453.2346878052 -354406.65347870439 0 -354406.65347870439 -927808.53405842185 0 0 0 0 2132766.5002746582 -3471036.9402081072 0 -3471036.9402081072 86907.559054076672 0 0 0 0 2479776.9358805856 -225018.02556053922 0 -225018.02556053922 141999.92909439752 0 0 0 0 4819596.6287994385 -1595634.7218137383 0 -1595634.7218137383 -185263.78765916824 0 0 0 0 673016.54304763675 -6638178.4078892786 0 -6638178.4078892786 360613.25433619687 0 0 0 0 1244298.3796660602 -2512392.1463109441 0 -2512392.1463109441 -949921.61908329348 0 0 0 0 -3057933.2735519409 -19889418.978995424 0 -19889418.978995424 -29919633.089832738 0 0 0 0 5402180.191192627 -14393874.060506344 0 -14393874.060506344 -9473582.8032607734 0 0 0 0 -13940835.897628784 -7902354.1964568496 0 -7902354.1964568496 21822146.641700238 0 0 0 0 2183665.5580062866 -7087403.9042941332 0 -7087403.9042941332 914786.31826743484 0 0 0 0 2704753.1885681152 -145597.93636006117 0 -145597.93636006117 -1948434.6108519733 0 0 0 0 1205538.0907516479 -2816835.7254285067 0 -2816835.7254285067 -2090163.1892793179 0 0 0 0 2697518.0168150738 -2227372.9455193505 0 -2227372.9455193505 -57791.447486518999 0 0 0 0 2436754.1894607544 -2633423.5722391792 0 -2633423.5722391792 -4422432.3013449684 0 0 0 0 1494408.2001419067 -1329141.595272243 0 -1329141.595272243 -1268754.6723137796 0 0 0 0 2434210.2454015091 -1091425.4089199472 0 -1091425.4089199472 -335507.23883190658 0 0 0 0 4856139.899366457 480497.99141890556 0 480497.99141890556 -758206.2657199807 0 0 0 0 2253108.5643234253 -448640.48779448122 0 -448640.48779448122 -2312174.4874063227 0 0 0 0 -22681963.833587646 -21629168.53021428 0 -21629168.53021428 2707289.2297451496 0 0 0 0 -6378237.5683059692 -12918588.221781909 0 -12918588.221781909 -11984926.078692198 0 0 0 0 4141855.8579529226 -362350.67190525308 0 -362350.67190525308 -230565.76802204218 0 0 0 0 2436324.3697395325 -528749.3643014431 0 -528749.3643014431 -841170.08623337746 0 0 0 0 -27900194.212860107 -4988125.9653981924 0 -4988125.9653981924 2423463.9626560211 0 0 0 0 1829433.4461246654 -652523.58389335126 0 -652523.58389335126 196452.26325970615 0 0 0 0 2720047.1837614402 -672422.90646288171 0 -672422.90646288171 199568.22837475175 0 0 0 0 3075844.62915802 22651.154678910971 0 22651.154678910971 -405477.71684268117 0 0 0 0 5808320.6383863911 -735299.29466710612 0 -735299.29466710612 -291242.68542419025 0 0 0 0 2166517.9894104004 -1326510.8509021699 0 -1326510.8509021699 -715856.90207020938 0 0 0 0 15692602.443664551 10080833.274462432 0 10080833.274462432 -4725173.7055234313 0 0 0 0 -26760856.836425781 2510766.8696110249 0 2510766.8696110249 -3854373.6648049355 0 0 0 0 -36293921.682800293 -5200695.692905426 0 -5200695.692905426 8424202.8398399353 0 0 0 0 3682251.7954776622 -276064.07431945205 0 -276064.07431945205 -40025.939946269267 0 0 0 0 -20276918.836959839 -40091071.056269407 0 -40091071.056269407 67781313.987934649 0 0 0 0 26543823.456573486 -5254095.6297847033 0 -5254095.6297847033 29399611.275240839 0 0 0 0 59744000.098831177 -54928544.238395452 0 -54928544.238395452 16445420.942965746 0 0 0 0 -38901810.44682312 6076211.8530234098 0 6076211.8530234098 21670681.94017005 0 0 0 0 -13516485.66355896 -27115313.799595118 0 -27115313.799595118 30939493.861251831 0 0 0 0 12856282.507354736 -20014172.480807841 0 -20014172.480807841 5217016.1232738495 0 0 0 0 3536215.66355896 -28309745.403000355 0 -28309745.403000355 6717539.6647673547 0 0 0 0 34026277.046047211 -12969433.454820931 0 -12969433.454820931 -17744725.43521452 0 0 0 0 65353478.522415161 -26813.13768351078 0 -26813.13768351078 -3948366.438744247 0 0 0 0 -9363294.7982635498 33189238.404048562 0 33189238.404048562 11170543.360922813 0 0 0 0 22008618.735900879 4231068.5658067763 0 4231068.5658067763 2184720.2362315655 0 0 0 0 121492964.81893921 86573161.575974047 0 86573161.575974047 23536075.349785805 0 0 0 0 275403999.73275757 -42825967.39831385 0 -42825967.39831385 1648971.2803953588 0 0 0 0 81449625.662614822 10654143.920093298 0 10654143.920093298 1569712.9197738171 0 0 0 0 25325517.915893555 -71351089.839301407 0 -71351089.839301407 162587119.47381097 0 0 0 0 39357704.002939224 -160414112.05974343 0 -160414112.05974343 -13786387.1732862 0 0 0 0 126355485.95751381 215985696.42592436 0 215985696.42592436 56269276.801725626 0 0 0 0 -11317585.041931152 -2579878.3157454729 0 -2579878.3157454729 -41429667.787569642 0 0 0 0 3293710.270362854 -15467079.044356883 0 -15467079.044356883 -78299063.068580389 0 0 0 0 28270973.901443481 14209223.916842937 0 14209223.916842937 -56700137.217955709 0 0 0 0 -8218177.4812927246 10121502.404143095 0 10121502.404143095 -24326631.491459489 0 0 0 0 24948059.920013428 -15433348.572178125 0 -15433348.572178125 -53494640.373540163 0 0 0 0 28167303.299789429 8709356.5589007437 0 8709356.5589007437 -42719773.738326997 0 0 0 0 24548257.153594971 -9296205.8894255683 0 -9296205.8894255683 -63536916.410984278 0 0 0 0 6938269.5026702881 14180768.631703019 0 14180768.631703019 -71008429.988648146 0 0 0 0 123525762.12173462 89322994.082197905 0 89322994.082197905 -170479264.6175597 0 0 0 0 28855249.155914307 4821135.4172621369 0 4821135.4172621369 -104975144.7575056 0 0 0 0 2204820.814011991 -118913.11128208321 0 -118913.11128208321 101672.81208045923 0 0 0 0 8642573.7078261375 -7982897.9360859394 0 -7982897.9360859394 -53247861.99628818 0 0 0 0 -64553007.224214792 -36415283.794761173 0 -36415283.794761173 23183451.70254457 0 0 0 0 905855.30363357812 -710194.16328768805 0 -710194.16328768805 427439.25934800436 0 0 0 0 1061605.2521057129 -437131.81093275547 0 -437131.81093275547 -503778.52063202858 0 0 0 0 2188154.1947428584 100553.44955232833 0 100553.44955232833 -613880.76789163693 0 0 0 0 -4374621.368347168 -19272600.041287959 0 -19272600.041287959 -35419306.535702884 0 0 0 0 -63228467.640335083 46611493.345767409 0 46611493.345767409 -649829.49846541509 0 0 0 0 -313973.61877386272 931652.25415246794 0 931652.25415246794 206475.61900712713 0 0 0 0 12332170.341247559 -10027799.176647723 0 -10027799.176647723 8440760.8007229567 0 0 0 0 1742757.3170433044 12345399.632258855 0 12345399.632258855 -14624914.565946341 0 0 0 0 -2910255.9116039276 1402524.2462758198 0 1402524.2462758198 550754.1311943531 0 0 0 0 4549447.091132002 807302.98687018827 0 807302.98687018827 -872183.40747319348 0 0 0 0 -22382835.59041214 -35726344.211163431 0 -35726344.211163431 -49626215.787144423 0 0 0 0 773651.05526300147 -62710.940261330456 0 -62710.940261330456 -204165.61903598456 0 0 0 0 28918711.799705505 6491512.0958022773 0 6491512.0958022773 -73510519.288222492 0 0 0 0 15220521.028533936 -10420312.416969657 0 -10420312.416969657 -55695376.641163856 0 0 0 0 11974197.070007324 -30681011.765505493 0 -30681011.765505493 -73659872.404294133 0 0 0 0 12907908.441272736 5479748.6648709327 0 5479748.6648709327 -22038695.586381257 0 0 0 0 21139519.437728882 1728405.4509425759 0 1728405.4509425759 -68956017.950110614 0 0 0 0 22099694.292808533 -12513633.512116149 0 -12513633.512116149 -14383662.159153551 0 0 0 0 -28128106.706886292 -19599399.081992164 0 -19599399.081992164 -15125095.741741121 0 0 0 0 16899672.02142334 -35643976.850082874 0 -35643976.850082874 -62528776.420575783 0 0 0 0 21934548.44480896 -25001903.065439336 0 -25001903.065439336 10332804.996258773 0 0 0 0 29076898.855033875 16948223.400326651 0 16948223.400326651 12942752.050244533 0 0 0 0 80986485.9830513 -3312375.9202381121 0 -3312375.9202381121 19556685.981899269 0 0 0 0 39654912.575363159 31100093.547329873 0 31100093.547329873 15885431.68415571 0 0 0 0 117875494.47873688 41926434.620125264 0 41926434.620125264 14148350.642569454 0 0 0 0 92398730.666213989 74203721.752157018 0 74203721.752157018 20482881.192719042 0 0 0 0 23327746.097297668 35194120.778884664 0 35194120.778884664 10039305.471695632 0 0 0 0 47138358.609283447 33856438.054632485 0 33856438.054632485 -24138791.301687349 0 0 0 0 35526037.958526611 -9432558.5785119236 0 -9432558.5785119236 -13070035.648954779 0 0 0 0 22568397.78811264 -1540924.5528487563 0 -1540924.5528487563 -24189722.366942704 0 0 0 0 54465279.199226379 31341428.963027149 0 31341428.963027149 -6560017.7368381023 0 0 0 0 17692533.480606079 -2289042.8395584822 0 -2289042.8395584822 -33262328.627668828 0 0 0 0 2100065.3833832815 -2630344.3779494893 0 -2630344.3779494893 -877465.8500563259 0 0 0 0 17375472.121742249 -9557734.2651525438 0 -9557734.2651525438 -22181879.604335546 0 0 0 0 10506751.917196926 -3285653.1767392745 0 -3285653.1767392745 1121184.5315499275 0 0 0 0 8139449.5506591797 -22541065.341338545 0 -22541065.341338545 3467327.8300459832 0 0 0 0 8854197.5781707764 -10788592.391393811 0 -10788592.391393811 -15428666.559082597 0 0 0 0 11776958.137428284 -7312085.7667602487 0 -7312085.7667602487 -13509624.35653311 0 0 0 0 17897217.610797882 -15165221.577549055 0 -15165221.577549055 -16379963.568301409 0 0 0 0 20335455.486724854 -12897632.095444709 0 -12897632.095444709 -16084063.610642545 0 0 0 0 13006763.972686768 -5987588.006511122 0 -5987588.006511122 -18037266.378246889 0 0 0 0 5852950.4748344421 -6930845.7184745297 0 -6930845.7184745297 -5457598.2667156458 0 0 0 0 18868559.751777649 1518.0176812708378 0 1518.0176812708378 -11949849.004911602 0 0 0 0 18558443.270885468 1836527.5300738774 0 1836527.5300738774 -22264971.349898577 0 0 0 0 28067455.811889648 17332182.382643223 0 17332182.382643223 -8028645.4514113814 0 0 0 0 22365583.28225708 -12389160.16706568 0 -12389160.16706568 -39331413.752713084 0 0 0 0 24512039.695068359 2075141.0372500122 0 2075141.0372500122 -22919616.591384321 0 0 0 0 20946826.474674225 -21745985.749680825 0 -21745985.749680825 -19005889.334718376 0 0 0 0 17965952.152389526 -25669450.730859756 0 -25669450.730859756 -19249309.213401139 0 0 0 0 2714898.143787384 -23019378.185721315 0 -23019378.185721315 10221619.008795485 0 0 0 0 24907714.554710388 -17051925.969381586 0 -17051925.969381586 8918277.4825982712 0 0 0 0 15010743.514278412 -23673181.324126642 0 -23673181.324126642 3248660.8386063129 0 0 0 0 17650412.81489563 -17717441.479071334 0 -17717441.479071334 -14460826.655467048 0 0 0 0 21544152.032589912 -14694313.520989645 0 -14694313.520989645 -13482203.942914009 0 0 0 0 17591957.530656099 -18676271.100924175 0 -18676271.100924175 -2609026.9899506569 0 0 0 0 11781398.55557251 -16479044.990699679 0 -16479044.990699679 5203346.264215529 0 0 0 0 11742550.706789017 -16703631.094601134 0 -16703631.094601134 8315396.6231954694 0 0 0 0 14187889.582427979 -20209879.041050732 0 -20209879.041050732 6717402.2363397181 0 0 0 0 15170841.786987305 -13219404.095700219 0 -13219404.095700219 180060.43406872451 0 0 0 0 17584048.058792114 -10495820.218308344 0 -10495820.218308344 -14100322.533208221 0 0 0 0 13106736.9246521 -10895630.27229327 0 -10895630.27229327 367717.40837684646 0 0 0 0 12140255.90411377 -9316674.2379701715 0 -9316674.2379701715 5780726.2646847935 0 0 0 0 10969707.27400589 -17012124.013104409 0 -17012124.013104409 9582262.5437295809 0 0 0 0 8886671.4757919312 -13131347.005769886 0 -13131347.005769886 2465372.5166503191 0 0 0 0 12907685.087493896 -17930613.020784542 0 -17930613.020784542 4444292.2696513385 0 0 0 0 12527250.046600342 -17861248.687203795 0 -17861248.687203795 4617066.9532057792 0 0 0 0 13228424.669769287 -18507260.731863827 0 -18507260.731863827 5208234.8751083836 0 0 0 0 12673466.007095337 -18332477.366740465 0 -18332477.366740465 5283529.5061927419 0 0 0 0 17549908.709976196 -16453793.228245728 0 -16453793.228245728 11768073.776562467 0 0 0 0 17209831.938804626 -5892192.7981522847 0 -5892192.7981522847 18301810.025987513 0 0 0 0 18425700.436203003 -20758859.472798645 0 -20758859.472798645 2558804.1992854774 0 0 0 0 12574189.202095032 -16253990.076236138 0 -16253990.076236138 13840189.191737786 0 0 0 0 11876278.948478699 -21088651.94915691 0 -21088651.94915691 22085527.562667169 0 0 0 0 20159311.049075127 -5697710.0870307125 0 -5697710.0870307125 24470149.152888983 0 0 0 0 30332044.667007446 -8818040.2333308514 0 -8818040.2333308514 21772850.034486942 0 0 0 0 25563647.091003418 4376384.518179955 0 4376384.518179955 33770675.31717255 0 0 0 0 38774165.759746552 2485083.3020166126 0 2485083.3020166126 29045.027086230384 0 0 0 0 53275599.943809509 14166797.443203555 0 14166797.443203555 9424992.214197278 0 0 0 0 30670008.695297241 7360306.3360125273 0 7360306.3360125273 15010853.185344461 0 0 0 0 23093749.912397385 -4972756.8090363806 0 -4972756.8090363806 10213345.038184607 0 0 0 0 14863238.387802124 -11908016.467910253 0 -11908016.467910253 6613657.4457984045 0 0 0 0 11985038.220191956 -3314861.7588600935 0 -3314861.7588600935 10198748.590416297 0 0 0 0 22785780.362823486 -4607492.1090487847 0 -4607492.1090487847 1699.5586330052897 0 0 0 0 12158049.248565674 -3497462.4517941186 0 -3497462.4517941186 1094863.0140677728 0 0 0 0 9445363.595703125 -7015894.0626153285 0 -7015894.0626153285 -2506696.3853326328 0 0 0 0 7632042.8302154541 -11872575.694725038 0 -11872575.694725038 6192312.2343377303 0 0 0 0 67440629.04813385 1459475.3997993581 0 1459475.3997993581 71600312.105497956 0 0 0 0 116465094.41590118 55185571.306026235 0 55185571.306026235 64312618.912770599 0 0 0 0 184823069.85974884 237861.6173055023 0 237861.6173055023 78460528.188766271 0 0 0 0 115267319.64628458 63279687.028634287 0 63279687.028634287 165123550.43178225 0 0 0 0 148411912.10494232 40349479.535302222 0 40349479.535302222 36606526.872502923 0 0 0 0 63840674.602088928 33841547.424864165 0 33841547.424864165 39236233.809434369 0 0 0 0 47854215.62310791 22505507.072876278 0 22505507.072876278 48988589.320689283 0 0 0 0 14245231.704139709 -4635125.0752059929 0 -4635125.0752059929 33896133.84795545 0 0 0 0 42113015.643310547 -7765872.8047897648 0 -7765872.8047897648 29922451.975382607 0 0 0 0 31745781.407974243 11731909.449308205 0 11731909.449308205 51456542.066903681 0 0 0 0 70973285.63308239 30920039.175400443 0 30920039.175400443 56339943.873710118 0 0 0 0 73507386.72278595 19143920.736374401 0 19143920.736374401 25069477.364663746 0 0 0 0 57064131.979957581 29098509.633865729 0 29098509.633865729 38316365.819812678 0 0 0 0 89171887.280384064 26507206.280154649 0 26507206.280154649 16130.282754679163 0 0 0 0 133551380.25761414 72454160.653485999 0 72454160.653485999 41612733.596187994 0 0 0 0 285675237.55348206 120688910.61584067 0 120688910.61584067 19942083.745544348 0 0 0 0 176604441.81298065 63548711.886757173 0 63548711.886757173 11215561.925938234 0 0 0 0 166039314.90867233 52373612.880411647 0 52373612.880411647 63664.101738722529 0 0 0 0 199231443.87965393 21638585.841741934 0 21638585.841741934 13466132.124791071 0 0 0 0 203087.47251000255 148431.81153049693 0 148431.81153049693 58246.852356667347 0 0 0 0 -8278569.3471946716 -9576313.3782576956 0 -9576313.3782576956 -10114211.282648159 0 0 0 0 -7880376.7318344116 -7249416.9514864571 0 -7249416.9514864571 -15246.789002117754 0 0 0 0 -9564601.7290344238 23326187.732091784 0 23326187.732091784 19287313.376049593 0 0 0 0 -7821780.8419036865 2082883.947655499 0 2082883.947655499 -1143341.8675588071 0 0 0 0 195734107.80883217 -34430375.614246488 0 -34430375.614246488 -26544050.084767938 0 0 0 0 -7360601.6024017334 -17572843.03869541 0 -17572843.03869541 -10066191.15823232 0 0 0 0 -7721829.6251540184 -13629775.994707169 0 -13629775.994707169 -13783473.92466259 0 0 0 0 -9367069.3292541504 -13826612.20629341 0 -13826612.20629341 -6565.2759484188164 0 0 0 0 -4907596.7158432007 -11257944.227197364 0 -11257944.227197364 -10657234.486452673 0 0 0 0 500346.02772817016 321263.04994850233 0 321263.04994850233 -201132.78231355728 0 0 0 0 -5069638.041885376 -10081245.738079254 0 -10081245.738079254 -16812026.479296837 0 0 0 0 -4570084.2543792725 -15735358.615280569 0 -15735358.615280569 -29435608.651980102 0 0 0 0 -7521171.7105941772 8399355.1564902365 0 8399355.1564902365 -5688530.9300829172 0 0 0 0 369023.43602167815 559071.37304682098 0 559071.37304682098 -503737.48275376309 0 0 0 0 30849633.853513718 -38904562.69355806 0 -38904562.69355806 -93838369.770837814 0 0 0 0 1526097.1808675677 -114973.65468610486 0 -114973.65468610486 -194960.4357992915 0 0 0 0 998755.21330218762 162018.91283111798 0 162018.91283111798 -216551.44474442219 0 0 0 0 12825199.438037872 30494380.418613661 0 30494380.418613661 2758151.7108401656 0 0 0 0 58865794.506225586 42440020.409089074 0 42440020.409089074 -31309786.479981534 0 0 0 0 101080308.80938721 47689915.064241037 0 47689915.064241037 -32991858.078731216 0 0 0 0 -49573521.511169434 2575036.8217412829 0 2575036.8217412829 -24039004.217693582 0 0 0 0 383601.49139174074 84370.944888506434 0 84370.944888506434 -58372.482586060374 0 0 0 0 91780599.41594696 169733376.7373507 0 169733376.7373507 172595777.93662235 0 0 0 0 32482735.690376282 49212764.20745077 0 49212764.20745077 11682382.45859462 0 0 0 0 99213162.656318665 125758642.26843967 0 125758642.26843967 53549593.493271902 0 0 0 0 244707062.56325531 125086058.57652378 0 125086058.57652378 25775459.027057633 0 0 0 0 121228403.1177597 111818483.13811038 0 111818483.13811038 25748595.10648293 0 0 0 0 58361636.190933228 88806486.037937075 0 88806486.037937075 26499920.78222467 0 0 0 0 114270558.26737475 109400245.59621976 0 109400245.59621976 32769475.958493635 0 0 0 0 19216117.17930603 90053974.645059109 0 90053974.645059109 89975397.224087834 0 0 0 0 112225236.17088699 141748774.95704389 0 141748774.95704389 58352256.930451661 0 0 0 0 57161923.549972534 73398136.128057212 0 73398136.128057212 4320825.0880389214 0 0 0 0 140393222.55596924 128822407.45309609 0 128822407.45309609 26426476.986707523 0 0 0 0 127604303.63739014 127618413.06491642 0 127618413.06491642 26342351.034491159 0 0 0 0 68231987.433746338 63837589.708747119 0 63837589.708747119 19678551.683687188 0 0 0 0 222781075.64325714 48303518.699390694 0 48303518.699390694 19227077.657428987 0 0 0 0 151677414.87094116 -25772599.627041936 0 -25772599.627041936 -31293547.010622378 0 0 0 0 30835319.071647644 -60629928.342306532 0 -60629928.342306532 44898147.882838413 0 0 0 0 166121798.60790634 62763947.142851576 0 62763947.142851576 112171445.30887607 0 0 0 0 249046961.14446449 -90278180.867162168 0 -90278180.867162168 37049392.285202362 0 0 0 0 325239805.81971741 71138039.772930145 0 71138039.772930145 37705595.871929973 0 0 0 0 134091874.29151154 127645582.68185174 0 127645582.68185174 59942498.836696953 0 0 0 0 247475229.0728302 -60586921.06743589 0 -60586921.06743589 212851734.62568238 0 0 0 0 277468874.08412933 4154748.0617857426 0 4154748.0617857426 4592777.1160291433 0 0 0 0 239101531.83863068 -4684289.3338080347 0 -4684289.3338080347 266264046.03579938 0 0 0 0 294994293.1217804 65303585.249528378 0 65303585.249528378 -55379709.548556939 0 0 0 0 227639487.04151535 87770668.862585992 0 87770668.862585992 29701112.725527883 0 0 0 0 199398351.67330933 16442727.560055286 0 16442727.560055286 49462315.609385997 0 0 0 0 362483986.16451263 -13916292.418450885 0 -13916292.418450885 -34664091.723745406 0 0 0 0 296851598.1913414 116982939.19748768 0 116982939.19748768 59492321.554912269 0 0 0 0 111442448.55745697 -158210581.20583746 0 -158210581.20583746 211212959.9459123 0 0 0 0 47860932.854125977 -48853393.782460749 0 -48853393.782460749 25940123.358055323 0 0 0 0 -18720840.842155457 -124196324.39542979 0 -124196324.39542979 -36248000.092404664 0 0 0 0 1578339.6882848218 72475.319874987938 0 72475.319874987938 79501.353747076399 0 0 0 0 36049985.16456604 13620423.139168978 0 13620423.139168978 -30717339.637562633 0 0 0 0 23706016.238121033 49138929.296060935 0 49138929.296060935 -70471037.809114337 0 0 0 0 558079.25254997611 46479.123610996641 0 46479.123610996641 47601.582635474013 0 0 0 0 115916090.99971771 182139739.14336184 0 182139739.14336184 136343915.51722711 0 0 0 0 11489474.316703796 41380616.615708441 0 41380616.615708441 43946404.934402347 0 0 0 0 -30374235.696159363 -8644546.9678378403 0 -8644546.9678378403 -5022356.6471553594 0 0 0 0 661858.89939586818 236981.1184685491 0 236981.1184685491 161200.13315222671 0 0 0 0 1212441.3272361755 4345517.0098970532 0 4345517.0098970532 8449533.2424348146 0 0 0 0 -24552392.930023193 -17797949.043940306 0 -17797949.043940306 8076248.8280555606 0 0 0 0 -9153367.6801605225 -25326373.850277245 0 -25326373.850277245 -8334300.4088936448 0 0 0 0 -16143376.985145569 -17614247.066695169 0 -17614247.066695169 -9741301.0974335 0 0 0 0 -874625.80903244019 -2447306.0321834013 0 -2447306.0321834013 36220069.051036686 0 0 0 0 -6321936.4309692383 6242862.5826425552 0 6242862.5826425552 38461313.843713999 0 0 0 0 239845.59846143425 96429.313880675472 0 96429.313880675472 57419.312990955346 0 0 0 0 -14203141.153747559 -17870496.898647994 0 -17870496.898647994 -13527774.183751851 0 0 0 0 91979.390273015946 -60608.660242348909 0 -60608.660242348909 11404.464833201229 0 0 0 0 5224983.7797164917 -10138086.588607505 0 -10138086.588607505 44533043.435456991 0 0 0 0 3229381.5514678955 -11672799.135895476 0 -11672799.135895476 28619273.119085263 0 0 0 0 37492370.487854004 -20929327.155269504 0 -20929327.155269504 36429466.311978012 0 0 0 0 81505893.457775116 44643672.285078913 0 44643672.285078913 44496194.724919021 0 0 0 0 -28176730.109619141 14926480.227730602 0 14926480.227730602 26204913.87744987 0 0 0 0 333725.0412606746 -115634.45682103839 0 -115634.45682103839 50766.773385300643 0 0 0 0 225205648.223629 74483301.908669472 0 74483301.908669472 19729113.828711838 0 0 0 0 70482669.178108215 86194668.537235737 0 86194668.537235737 48305735.425626963 0 0 0 0 820092.16798461974 -273172.5939182071 0 -273172.5939182071 76100.221378559741 0 0 0 0 27713030.289428711 -27222555.359844394 0 -27222555.359844394 17676741.829259679 0 0 0 0 18892845.693382263 -18966576.482138127 0 -18966576.482138127 -13927766.940469369 0 0 0 0 42503848.922134399 -80317158.154422641 0 -80317158.154422641 76567816.832115442 0 0 0 0 1579763.5041885376 -32080548.229599323 0 -32080548.229599323 34735855.689581268 0 0 0 0 31532933.925521851 -110123804.06296676 0 -110123804.06296676 216808763.06078196 0 0 0 0 78139909.834938049 -78827110.761197686 0 -78827110.761197686 -30585078.463149764 0 0 0 0 55858138.349845886 -140620103.0789941 0 -140620103.0789941 29844668.844565842 0 0 0 0 103359030.41316223 -14842139.326398719 0 -14842139.326398719 -6560405.875472473 0 0 0 0 10587741.346687317 -639001.32899206225 0 -639001.32899206225 12152931.353136132 0 0 0 0 67928806.821989059 -29005492.683599982 0 -29005492.683599982 -4086189.8864432275 0 0 0 0 -13456528.808319092 -18491311.217090428 0 -18491311.217090428 5120444.7355775088 0 0 0 0 818034.59163869172 413905.07222455367 0 413905.07222455367 220581.981737561 0 0 0 0 -75752142.048069 18630265.24847848 0 18630265.24847848 30484654.714277506 0 0 0 0 -15728039.430679321 -6328338.8734345678 0 -6328338.8734345678 -2513944.8170871884 0 0 0 0 -58965364.749183655 49186869.635887176 0 49186869.635887176 -308012.13336402178 0 0 0 0 1221831.1003071405 463135.20645077899 0 463135.20645077899 109941.85072908216 0 0 0 0 -8491545.4121856689 -20024270.868663821 0 -20024270.868663821 20468826.383663204 0 0 0 0 188056519.21624756 35680838.393596262 0 35680838.393596262 -33320236.339961004 0 0 0 0 340793.32438729703 64085.769741620868 0 64085.769741620868 26786.278348172695 0 0 0 0 268517123.33761597 -248462382.20656541 0 -248462382.20656541 73802938.497436315 0 0 0 0 64385707.994293213 51473887.979856059 0 51473887.979856059 698589.6264378652 0 0 0 0 503852.09896083176 -141993.27928258188 0 -141993.27928258188 -22631.442741314353 0 0 0 0 209305279.45053101 -288752598.99148947 0 -288752598.99148947 103914778.15045807 0 0 0 0 243229645.84091949 -246345329.5999504 0 -246345329.5999504 155214291.22804275 0 0 0 0 146741926.95863342 40369435.523618132 0 40369435.523618132 -85899720.886212066 0 0 0 0 311134302.41960144 -188917975.78867862 0 -188917975.78867862 28111132.13440761 0 0 0 0 41507304.089820862 7728245.7835465595 0 7728245.7835465595 345337212.91408801 0 0 0 0 8162626.4917221069 -37601348.213143468 0 -37601348.213143468 108636916.45938092 0 0 0 0 85835793.513595581 -12959166.378169067 0 -12959166.378169067 -33615110.241004795 0 0 0 0 650681.4289085418 265512.75441592 0 265512.75441592 163310.17615153009 0 0 0 0 53016.364228859544 132955.59236918017 0 132955.59236918017 -78205.154378788895 0 0 0 0 18281122.656219482 -24576948.035260856 0 -24576948.035260856 7294690.6185091138 0 0 0 0 6343360.420589447 -144898918.0381403 0 -144898918.0381403 -37691014.8927022 0 0 0 0 16927600.229187012 -68771325.362167686 0 -68771325.362167686 148340082.54991898 0 0 0 0 200750348.11544132 -171521966.63510826 0 -171521966.63510826 21017606.392844614 0 0 0 0 13125123.760818481 42911200.076890886 0 42911200.076890886 76871553.128526688 0 0 0 0 286787436.13838196 -221292872.74878994 0 -221292872.74878994 114074237.475761 0 0 0 0 1193634.5951560289 -231257.93396824703 0 -231257.93396824703 -95332.527975409321 0 0 0 0 44002544.255661011 5727540.8808172941 0 5727540.8808172941 -38317405.11871542 0 0 0 0 -12043142.195137024 6374279.539294295 0 6374279.539294295 12201241.110806018 0 0 0 0 9108681.2936248779 -27974649.366034973 0 -27974649.366034973 -72058073.965452626 0 0 0 0 -9020054.322517395 -15940766.224627135 0 -15940766.224627135 -14077434.77207274 0 0 0 0 78947884.308578491 -11215380.282171182 0 -11215380.282171182 -19438222.417747956 0 0 0 0 -45628302.299377441 11936727.908603095 0 11936727.908603095 -12431117.283636123 0 0 0 0 25156181.356651306 7982925.736987303 0 7982925.736987303 -11208593.502792165 0 0 0 0 3205563.8320236206 -26231396.114439771 0 -26231396.114439771 11284.735280828958 0 0 0 0 124121938.72734833 -77378383.288216785 0 -77378383.288216785 -558541.75880144536 0 0 0 0 116055520.39380646 -61031014.832408585 0 -61031014.832408585 -4780916.720285207 0 0 0 0 125591069.63882828 -85490250.169605613 0 -85490250.169605613 -29444821.085947335 0 0 0 0 193666612.41163635 -51243459.401097432 0 -51243459.401097432 -29847033.823829569 0 0 0 0 285905669.69476414 -20323591.279122144 0 -20323591.279122144 -73141244.482412755 0 0 0 0 92821427.704467773 24438418.574665591 0 24438418.574665591 -55107681.658081613 0 0 0 0 120960733.60865021 -28914156.978198405 0 -28914156.978198405 -34750181.049515702 0 0 0 0 89952760.539733887 -32955248.80491871 0 -32955248.80491871 -43072.400371168093 0 0 0 0 129293844.18541527 -55440044.084638678 0 -55440044.084638678 -5306837.8276799172 0 0 0 0 115130587.28658295 -53577400.438930072 0 -53577400.438930072 13990.461518492819 0 0 0 0 104980911.14022827 -55429212.15932139 0 -55429212.15932139 1928094.5585269779 0 0 0 0 -2052697.901350975 1144367.9445331595 0 1144367.9445331595 13427517.89370919 0 0 0 0 620674.63729277067 -176340.41584496573 0 -176340.41584496573 65331.923134383265 0 0 0 0 1162926.7022018433 -1493942.4923329279 0 -1493942.4923329279 -3351404.4325444028 0 0 0 0 966009.38032029197 -73577.646079771221 0 -73577.646079771221 -52826.814597626202 0 0 0 0 9272543.9893722534 1480000.5256829895 0 1480000.5256829895 -4497872.9321814105 0 0 0 0 5266351.1417045593 6895420.2353856247 0 6895420.2353856247 5023719.531641731 0 0 0 0 -1110027.7185211182 959072.4075531736 0 959072.4075531736 1245577.8355723508 0 0 0 0 -17800003.630805969 -14558642.364369763 0 -14558642.364369763 59759.175482631093 0 0 0 0 92222.743575423956 113761.08579692058 0 113761.08579692058 -31780.809170994959 0 0 0 0 -454581.13655996323 -15049362.698636038 0 -15049362.698636038 -10810092.610826494 0 0 0 0 13492345.193595886 13062698.252033714 0 13062698.252033714 -24077926.510110289 0 0 0 0 110128827.59631348 25970197.646720625 0 25970197.646720625 -29835.16457520274 0 0 0 0 11600548.982666016 -35924091.264729969 0 -35924091.264729969 136886102.80755103 0 0 0 0 140075777.73210144 30770574.156313196 0 30770574.156313196 -13443483.43423593 0 0 0 0 93267195.462535858 127618114.86763565 0 127618114.86763565 2007154.515669778 0 0 0 0 79781829.5987854 51491043.213437617 0 51491043.213437617 -55200228.451586038 0 0 0 0 1141510.5656006187 -144498.63718544692 0 -144498.63718544692 -100727.90076885966 0 0 0 0 37296076.40158844 -58953389.386779606 0 -58953389.386779606 -58533895.398667037 0 0 0 0 28004450.03099823 104556399.46957757 0 104556399.46957757 6224344.8053437918 0 0 0 0 -58817091.112976074 7173960.8490387201 0 7173960.8490387201 -8797292.1982014813 0 0 0 0 -49269912.134037018 30206785.637134984 0 30206785.637134984 -16904288.967205822 0 0 0 0 -24739278.394744873 26443372.871730447 0 26443372.871730447 -28616825.95802775 0 0 0 0 -2858991.4291687012 -14547405.849524707 0 -14547405.849524707 -15208659.258434296 0 0 0 0 -65496095.001792908 -8952717.9355634004 0 -8952717.9355634004 -8704307.059491992 0 0 0 0 153143643.98538208 -35714252.30138427 0 -35714252.30138427 -59993222.726927876 0 0 0 0 -44155513.811035156 -43850005.142874897 0 -43850005.142874897 -8463923.6044579744 0 0 0 0 1411487.157371521 2718406.2538493015 0 2718406.2538493015 -2000999.517967578 0 0 0 0 4469321.0127716064 39368277.601050749 0 39368277.601050749 -70296105.167014942 0 0 0 0 17675154.196308136 -107285834.13046107 0 -107285834.13046107 -38641325.342352048 0 0 0 0 1713241.9865818694 108667.37076007295 0 108667.37076007295 -158867.37960515756 0 0 0 0 325589.67291667312 493261.0919388663 0 493261.0919388663 -165960.35409746756 0 0 0 0 18745885.774803162 1583534.6946715787 0 1583534.6946715787 -69704795.100292102 0 0 0 0 757784.68687057495 16698728.847544624 0 16698728.847544624 -25124352.073624969 0 0 0 0 10487481.324737549 -19920140.380489618 0 -19920140.380489618 15410968.648413301 0 0 0 0 25806266.922561646 -20055602.377734423 0 -20055602.377734423 -24993764.184968926 0 0 0 0 74815858.69581604 -1950244.606860619 0 -1950244.606860619 7485257.9804038331 0 0 0 0 33225796.033233643 -43996905.429032736 0 -43996905.429032736 -16753023.015370004 0 0 0 0 12273257.397293091 -78777.229888744652 0 -78777.229888744652 -26788287.603120565 0 0 0 0 -1503982.0581359863 417767.3661608398 0 417767.3661608398 1568735.1099177748 0 0 0 0 31882625.77671814 -27037025.245451808 0 -27037025.245451808 -930739.17405672558 0 0 0 0 26634444.974197388 -39366131.260923982 0 -39366131.260923982 8731116.7368050814 0 0 0 0 1053996.8885942791 722182.65283503756 0 722182.65283503756 -304557.89917821158 0 0 0 0 18691170.496917725 -27869137.415949583 0 -27869137.415949583 36290690.050814569 0 0 0 0 51834898.11125946 -30467278.442062616 0 -30467278.442062616 6479863.7310287878 0 0 0 0 29246147.873886108 -16073806.903389215 0 -16073806.903389215 29304707.748794079 0 0 0 0 14232381.192008972 -15617442.854658753 0 -15617442.854658753 40724331.928911209 0 0 0 0 17705652.770492554 -31806820.170266449 0 -31806820.170266449 26724600.305514455 0 0 0 0 3278019.8723373413 11012349.482300036 0 11012349.482300036 -13095387.42334199 0 0 0 0 26933708.352828979 -22744367.979346409 0 -22744367.979346409 12998246.702248096 0 0 0 0 60009568.37487793 -21391779.370067269 0 -21391779.370067269 -6234210.8632739782 0 0 0 0 11509175.242607117 14299592.112278923 0 14299592.112278923 22668074.959054589 0 0 0 0 -15824439.634109497 58070974.838360041 0 58070974.838360041 -4783574.1266852617 0 0 0 0 -20604142.746932983 12457896.112726003 0 12457896.112726003 -25711267.772566974 0 0 0 0 29840895.110015869 18986711.170483142 0 18986711.170483142 -28527124.172248155 0 0 0 0 4542027.2024230957 24422.143030509353 0 24422.143030509353 -3741151.7100142986 0 0 0 0 1826505.3462325409 471662.04365700204 0 471662.04365700204 -71891.571294734196 0 0 0 0 8943993.4110717773 40128046.067332074 0 40128046.067332074 -51399214.693340398 0 0 0 0 -19741512.626602173 -6336213.108556591 0 -6336213.108556591 -25987765.595031805 0 0 0 0 12942051.634307861 2118658.0914952755 0 2118658.0914952755 374036.28611451387 0 0 0 0 5485612.9386329651 2374855.0499652028 0 2374855.0499652028 385526.30267190933 0 0 0 0 7310130.0830383301 -2051271.9460859299 0 -2051271.9460859299 -1395955.010178566 0 0 0 0 7498481.9614105225 -1124264.9176778793 0 -1124264.9176778793 1088843.325633049 0 0 0 0 4812876.9081420898 1377805.8253474236 0 1377805.8253474236 -474992.77737188339 0 0 0 0 1907029.3781433105 1927614.3668560982 0 1927614.3668560982 15178.651776313782 0 0 0 0 5416322.1695213318 3773796.1441955566 0 3773796.1441955566 -4933116.4204220772 0 0 0 0 4699274.7227429301 2110464.6548658954 0 2110464.6548658954 -365082.01059522782 0 0 0 0 5408030.0627288818 1276234.9126725197 0 1276234.9126725197 -1747132.3913397789 0 0 0 0 -8379140.5559692383 8104061.405038286 0 8104061.405038286 507065.16585131409 0 0 0 0 3779857.4671058655 3995554.0464144349 0 3995554.0464144349 1913463.0339784622 0 0 0 0 687116.8661133945 1945441.7361118272 0 1945441.7361118272 1563007.2009246154 0 0 0 0 342805.93567487597 -74017.835390740074 0 -74017.835390740074 -583.03471763338166 0 0 0 0 -109073514.21917725 229959503.65743166 0 229959503.65743166 197405218.18241689 0 0 0 0 8074352.634185791 -18324433.092996731 0 -18324433.092996731 30616188.905322373 0 0 0 0 -141925321.37304688 388509936.7163294 0 388509936.7163294 -24346304.250075564 0 0 0 0 20772111.3699646 54288393.513041213 0 54288393.513041213 -62379065.344918407 0 0 0 0 468076.75231933594 1922211.1862241141 0 1922211.1862241141 -2234236.7083075121 0 0 0 0 4356563.863807708 1761573.1702549602 0 1761573.1702549602 -439732.72859529726 0 0 0 0 4514002.4288635254 3821487.4474722147 0 3821487.4474722147 -951755.55149555206 0 0 0 0 24629259.164451599 -3773052.9470951133 0 -3773052.9470951133 -8278363.1056815423 0 0 0 0 44005065.388031006 -3590795.255629397 0 -3590795.255629397 -10793418.88905042 0 0 0 0 6040666.3006744385 35284454.135043085 0 35284454.135043085 36731742.060712323 0 0 0 0 -41443.731244914234 1151387.117105775 0 1151387.117105775 706375.74046092143 0 0 0 0 3105563.8670654297 3776337.5303035956 0 3776337.5303035956 -1145219.6648291058 0 0 0 0 23886816.132614136 79026252.406623378 0 79026252.406623378 101405645.06948084 0 0 0 0 -17705123.711120605 9673836.8355883453 0 9673836.8355883453 -677.48101248985722 0 0 0 0 141545.0131085366 104130.29984077811 0 104130.29984077811 67845.124300931493 0 0 0 0 87891991.181930542 15242318.111139715 0 15242318.111139715 41318527.609620288 0 0 0 0 31697724.607345581 -21418825.102532774 0 -21418825.102532774 127692419.28600937 0 0 0 0 1365817.012860395 716586.94662370533 0 716586.94662370533 483559.8138432845 0 0 0 0 83935431.90788269 -18978958.185934424 0 -18978958.185934424 -3720017.5474820137 0 0 0 0 -21582069.562911987 -27871375.773729086 0 -27871375.773729086 -6905304.8112064004 0 0 0 0 -48152277.560577393 -647435.09701918066 0 -647435.09701918066 -32559047.144597903 0 0 0 0 52434172.309745789 17275136.360662401 0 17275136.360662401 1043977.4067816734 0 0 0 0 2894192.5285494179 4174561.0910312617 0 4174561.0910312617 2718711.1502988948 0 0 0 0 4994660.586730957 2597763.0598306656 0 2597763.0598306656 -15739751.210776329 0 0 0 0 32846146.788314819 -30824837.35819912 0 -30824837.35819912 -1632423.9270706177 0 0 0 0 6302568.1063398719 3143633.8318511285 0 3143633.8318511285 604919.20805800101 0 0 0 0 1982132.1201782227 1063840.2347705364 0 1063840.2347705364 -4331342.6078948975 0 0 0 0 4175011.676007174 2503649.8408518201 0 2503649.8408518201 588046.19565294287 0 0 0 0 1351053.8764190674 1825215.59588027 0 1825215.59588027 239010.02749562263 0 0 0 0 986483.61094665527 2289356.1531591415 0 2289356.1531591415 -14124.47492313385 0 0 0 0 -21488988.307006836 -39337398.48086302 0 -39337398.48086302 9768966.1819926351 0 0 0 0 150221698.51515198 -27525631.855922088 0 -27525631.855922088 -52741225.764893383 0 0 0 0 1356221.2623564079 2562949.3156092875 0 2562949.3156092875 1521967.430151297 0 0 0 0 17000481.772670746 11689072.8214963 0 11689072.8214963 -62229834.249757409 0 0 0 0 193312093.36164093 -158266353.61684912 0 -158266353.61684912 203301356.29900765 0 0 0 0 4831803.8777084351 5528928.4377137423 0 5528928.4377137423 6618948.3583621979 0 0 0 0 3394376.2901077271 2580046.9245941639 0 2580046.9245941639 1947574.2123041674 0 0 0 0 4405794.9523162842 -3258975.2734029293 0 -3258975.2734029293 302023.93044781685 0 0 0 0 172189.3299863115 -150667.44995639566 0 -150667.44995639566 -140666.98693307792 0 0 0 0 1481595.7389907837 1870969.8457713127 0 1870969.8457713127 -233635.85967636108 0 0 0 0 4113118.5549807847 2616345.0162502946 0 2616345.0162502946 226207.80702568381 0 0 0 0 6154261.0769036934 3220373.3382281791 0 3220373.3382281791 1231569.6399186221 0 0 0 0 5723853.4442779608 3547515.6442334107 0 3547515.6442334107 655302.92302535672 0 0 0 0 11319007.886787415 4828295.0715310574 0 4828295.0715310574 -5757225.0608837605 0 0 0 0 81579319.974700928 47557410.576573372 0 47557410.576573372 -85997131.054334402 0 0 0 0 62581634.446151733 -21060192.888160706 0 -21060192.888160706 -59757503.185967445 0 0 0 0 2040414.2466049194 3419150.8322007656 0 3419150.8322007656 6386441.1068940163 0 0 0 0 6857095.0343475342 -1835119.8489320278 0 -1835119.8489320278 5477047.5588388443 0 0 0 0 29520164.781629562 -3460954.1504356861 0 -3460954.1504356861 77398638.551095963 0 0 0 0 1123961.248343572 467347.7515002396 0 467347.7515002396 -69314.755566371139 0 0 0 0 48401553.4425354 -64499819.226672649 0 -64499819.226672649 -15075322.014665723 0 0 0 0 -3596201.7895584106 7033681.6759638786 0 7033681.6759638786 42390984.530667782 0 0 0 0 17607048.946746826 36695329.855021477 0 36695329.855021477 18871270.800856113 0 0 0 0 -114891399.7281189 -80662856.975580215 0 -80662856.975580215 262279164.90255356 0 0 0 0 178419.40840632096 -172483.95657856949 0 -172483.95657856949 -209817.7127613225 0 0 0 0 80723970.698892593 525927510.66369033 0 525927510.66369033 178076226.41186523 0 0 0 0 3073314.3064630777 2095688.1203261483 0 2095688.1203261483 -77744.172672225162 0 0 0 0 -4412248.1803436279 -22079860.889120102 0 -22079860.889120102 -5063086.9770021439 0 0 0 0 60705112.722192764 -26495866.158924818 0 -26495866.158924818 -16658157.188434601 0 0 0 0 11206104.775230408 17955898.228897572 0 17955898.228897572 -13053873.827072144 0 0 0 0 9588772.5598068237 4305986.1357736588 0 4305986.1357736588 -6889892.281999588 0 0 0 0 4922879.0297927856 6997048.3223357201 0 6997048.3223357201 876053.01640224457 0 0 0 0 9739401.1378631592 5471822.7346458435 0 5471822.7346458435 553197.43031549454 0 0 0 0 797508.79489707947 5395666.6757444739 0 5395666.6757444739 9348685.0759615898 0 0 0 0 -1123053.9745330811 7740471.1669592857 0 7740471.1669592857 14296248.363713503 0 0 0 0 -157325.38853760436 1299933.5695603155 0 1299933.5695603155 686896.25232251291 0 0 0 0 6592171.6473579407 12703614.860115528 0 12703614.860115528 15365110.916544914 0 0 0 0 896336.37112461962 -659870.67582910135 0 -659870.67582910135 -53235.413635777775 0 0 0 0 -1504696.9205169678 2569594.5259339809 0 2569594.5259339809 3452768.0981969833 0 0 0 0 3218344.9268341064 1012954.7319145203 0 1012954.7319145203 -842453.22463512421 0 0 0 0 300381.45849560574 1876409.54687481 0 1876409.54687481 1019288.2868580036 0 0 0 0 4271953.7297306061 7815030.9407316446 0 7815030.9407316446 6738063.1742038727 0 0 0 0 2623370.9231566861 3568312.1928000264 0 3568312.1928000264 1519055.4293844984 0 0 0 0 4005029.6797485352 4996753.2235889435 0 4996753.2235889435 3008460.4782028198 0 0 0 0 11115123.528244019 9946691.4103651047 0 9946691.4103651047 13085611.430963993 0 0 0 0 1394801.8210144043 2157672.9421200752 0 2157672.9421200752 7651424.3982448578 0 0 0 0 2133405.4118255079 1520802.6946200542 0 1520802.6946200542 1959090.2917725006 0 0 0 0 1087734.791441597 227003.27935983986 0 227003.27935983986 -217386.733747344 0 0 0 0 647211.81343078613 -337135.49133872986 0 -337135.49133872986 -889230.44731140137 0 0 0 0 318323.76038073003 -914106.50561110489 0 -914106.50561110489 -472007.74215060612 0 0 0 0 -347300.49325561523 -1675299.4384365082 0 -1675299.4384365082 1104164.2408313751 0 0 0 0 4211168.4965515137 -272287.40661096573 0 -272287.40661096573 -440947.33032512665 0 0 0 0 -1268658.7933654785 1077882.5078830719 0 1077882.5078830719 -5845907.3642095327 0 0 0 0 41576.751522049308 -14355.714683318511 0 -14355.714683318511 -86553.644954977091 0 0 0 0 36243.498879045248 -16358.394777480513 0 -16358.394777480513 -16205.535238900338 0 0 0 0 12692300.883636475 21090916.224912643 0 21090916.224912643 18011877.245298386 0 0 0 0 4484547.8195877075 10848661.598711729 0 10848661.598711729 31624911.040048599 0 0 0 0 11641459.34197998 9791650.4628210068 0 9791650.4628210068 -1474358.8742294312 0 0 0 0 4870137.2498626709 6140762.9191865921 0 6140762.9191865921 7700515.5460381508 0 0 0 0 18257281.404121399 16385215.173672199 0 16385215.173672199 6433414.2633419037 0 0 0 0 -1412053.9578475952 9891428.524620533 0 9891428.524620533 18873192.960885763 0 0 0 0 -782533.80244779587 -3204376.7864108384 0 -3204376.7864108384 748246.23429489136 0 0 0 0 336457.67790222168 2519155.4308290482 0 2519155.4308290482 1788816.647454083 0 0 0 0 5537990.8751678467 -8780237.8943338394 0 -8780237.8943338394 -6342045.6308720112 0 0 0 0 284170.99750518799 2908323.4015690088 0 2908323.4015690088 -3192432.3126263618 0 0 0 0 1122545.3573716693 2526802.140628757 0 2526802.140628757 600268.99229147856 0 0 0 0 46024.574259139597 17124.436751339585 0 17124.436751339585 -12939.191951700253 0 0 0 0 -285638.26216125488 2584463.4653158188 0 2584463.4653158188 1785111.0234122276 0 0 0 0 -2027768.2313088551 2658725.7572758626 0 2658725.7572758626 1577741.9369969307 0 0 0 0 1682039.4771728516 3450080.8734443188 0 3450080.8734443188 2165910.2232568264 0 0 0 0 -7336618.2563171387 6969810.8632597923 0 6969810.8632597923 33728691.783099055 0 0 0 0 -16725442.972793579 19194672.999641377 0 19194672.999641377 19096331.073307581 0 0 0 0 2151633.0520116091 2400993.9494337346 0 2400993.9494337346 -299656.05258844711 0 0 0 0 1652209.7103729248 3439290.8647480011 0 3439290.8647480011 2038743.8396873474 0 0 0 0 -581719.68901258335 816697.40473770909 0 816697.40473770909 580776.70444289781 0 0 0 0 4237817.9522084743 4190152.9017202314 0 4190152.9017202314 -385657.29753334244 0 0 0 0 17586440.588226318 -84889257.152006149 0 -84889257.152006149 39531852.292187691 0 0 0 0 -47801204.181549072 -41526258.780560017 0 -41526258.780560017 84899966.558817327 0 0 0 0 -45736577.413970947 22163369.831137657 0 22163369.831137657 127541634.04144859 0 0 0 0 430456.21853783727 -397939.44496480003 0 -397939.44496480003 -169698.32213861821 0 0 0 0 1314496.7004089355 -6849744.3314172029 0 -6849744.3314172029 4484755.8771038055 0 0 0 0 35758331.035175323 29081937.63810271 0 29081937.63810271 -11905916.871372223 0 0 0 0 -2831004.6220245361 -4178286.7312214375 0 -4178286.7312214375 3909398.8049464226 0 0 0 0 -5760346.0888671875 3840594.0486441851 0 3840594.0486441851 9107701.2241663933 0 0 0 0 -2553510.3315658569 -1672821.5265891552 0 -1672821.5265891552 17750522.852437019 0 0 0 0 3981144.0256794207 2451777.9766034214 0 2451777.9766034214 -795032.27215817559 0 0 0 0 2177789.46925354 4208902.1078925133 0 4208902.1078925133 -357667.47625118494 0 0 0 0 7811037.7791452408 55590681.427568614 0 55590681.427568614 -608385.29415178299 0 0 0 0 1952192.5925739929 2043752.1760543436 0 2043752.1760543436 -211298.60143477737 0 0 0 0 602122.3946685791 14091576.855549812 0 14091576.855549812 -21935980.010391712 0 0 0 0 -18656230.638916016 26857449.052504063 0 26857449.052504063 986222.14895534515 0 0 0 0 3147508.1692504883 3157165.1016178131 0 3157165.1016178131 2115595.1757049561 0 0 0 0 1806893.1121914797 2193928.6887165653 0 2193928.6887165653 -90229.544550998398 0 0 0 0 -1431562.6504821777 2660739.9411108494 0 2660739.9411108494 1340234.9337339401 0 0 0 0 3114221.699947834 -81426.253668040037 0 -81426.253668040037 -1536178.643954277 0 0 0 0 2556180.0320053101 6875852.3959589005 0 6875852.3959589005 4045583.5813784599 0 0 0 0 -218239.16571851075 1123972.3375696354 0 1123972.3375696354 658153.7096749919 0 0 0 0 -3298921.2276115417 -2699618.911867857 0 -2699618.911867857 40661.363451004028 0 0 0 0 3018544.3755187988 8560637.2909156084 0 8560637.2909156084 5552122.2916111946 0 0 0 0 4448218.2866668701 6637841.6360111237 0 6637841.6360111237 1604716.154881686 0 0 0 0 92928856.439750671 6934207.8040912747 0 6934207.8040912747 339376.99617432803 0 0 0 0 60463881.611228943 45944486.609164968 0 45944486.609164968 17101819.848189592 0 0 0 0 -12725936.957519531 -12967624.657397747 0 -12967624.657397747 22651974.519770801 0 0 0 0 42452186.243019104 -53583118.768233299 0 -53583118.768233299 49092000.05018568 0 0 0 0 -9298365.9311218262 23701984.738064677 0 23701984.738064677 94751247.54219389 0 0 0 0 -22277526.219085693 -9070474.6218793392 0 -9070474.6218793392 16208542.639647961 0 0 0 0 -26350.534019514918 276462.13914476242 0 276462.13914476242 319001.76649811468 0 0 0 0 129636120.20445251 15583428.538408995 0 15583428.538408995 12087907.105420977 0 0 0 0 57148739.840747833 -63958013.948711708 0 -63958013.948711708 74846770.105307341 0 0 0 0 10348680.193054199 26445334.488810033 0 26445334.488810033 57301747.704912424 0 0 0 0 -523261.88563528657 1248981.4551403821 0 1248981.4551403821 1386502.0319886084 0 0 0 0 1806838.9782679342 2178943.3126541115 0 2178943.3126541115 2521381.3791487878 0 0 0 0 -5439450.7515716553 622041.31486177444 0 622041.31486177444 3750421.7331121564 0 0 0 0 -7293045.374332428 16225786.094329834 0 16225786.094329834 28869099.287548065 0 0 0 0 8542784.3650360107 -22880894.247259617 0 -22880894.247259617 13048891.369874954 0 0 0 0 2469854.3074035645 1527436.137430191 0 1527436.137430191 -1251789.2872059941 0 0 0 0 17476615.886508942 13088339.692387104 0 13088339.692387104 -12099065.979423523 0 0 0 0 -4561874.6139450073 10542794.896123469 0 10542794.896123469 10182933.594154149 0 0 0 0 -9973524.3577651978 -2426572.7510925531 0 -2426572.7510925531 2766494.0828375816 0 0 0 0 1587179.8605284225 1886384.5750273727 0 1886384.5750273727 2001658.9746491662 0 0 0 0 -926092.98080444336 -7547997.6333212852 0 -7547997.6333212852 -6180325.9510316849 0 0 0 0 3268882.386844635 6150007.7257020772 0 6150007.7257020772 -11720102.983144164 0 0 0 0 -211528.92222976685 1800895.7573778331 0 1800895.7573778331 17649717.466807365 0 0 0 0 12866395.056808472 26826979.528504848 0 26826979.528504848 22535528.776466265 0 0 0 0 31068831.528152466 28098532.776798308 0 28098532.776798308 -4680395.5482263565 0 0 0 0 30907739.495574951 29491270.338436455 0 29491270.338436455 10510086.922632515 0 0 0 0 29876023.259963989 36640975.255586863 0 36640975.255586863 4717793.6573315859 0 0 0 0 33022319.362991333 40042380.02706331 0 40042380.02706331 8388062.6335445642 0 0 0 0 28693782.966217041 38284237.726292253 0 38284237.726292253 3332181.6570631862 0 0 0 0 26421360.157973289 18238144.295553684 0 18238144.295553684 7077601.6836719513 0 0 0 0 36767315.972839355 34241420.491154075 0 34241420.491154075 5336243.0710264444 0 0 0 0 47208525.639404297 7395322.3666531146 0 7395322.3666531146 1444615.2709670663 0 0 0 0 33231660.372894287 31102423.491783589 0 31102423.491783589 2806435.5260902643 0 0 0 0 74468374.81578064 30515965.83599171 0 30515965.83599171 2697823.6545300484 0 0 0 0 36566042.636932373 45730416.554147005 0 45730416.554147005 14053315.452091217 0 0 0 0 36475522.735687256 44988478.957102478 0 44988478.957102478 11991970.700871348 0 0 0 0 17247852.731563568 38878060.161867127 0 38878060.161867127 12610456.62319231 0 0 0 0 1048882.421295166 2167515.9203894138 0 2167515.9203894138 1504645.64666605 0 0 0 0 42754505.568847656 13462511.081414342 0 13462511.081414342 6418700.3650374413 0 0 0 0 -1937813.7339248657 -1293451.2861232758 0 -1293451.2861232758 -2190968.2929906845 0 0 0 0 -433211.16272502765 816510.32800424844 0 816510.32800424844 1672811.0112076341 0 0 0 0 49371074.228981018 16875113.181538582 0 16875113.181538582 5451109.4582599401 0 0 0 0 442713.52885711938 459426.91979498602 0 459426.91979498602 -80727.996039993042 0 0 0 0 -2977618.7130126953 -9468753.8549774885 0 -9468753.8549774885 24757722.561980218 0 0 0 0 -2309502.1203490719 1305592.4682386729 0 1305592.4682386729 1410811.8952462357 0 0 0 0 546620.09636688232 2102807.1171958447 0 2102807.1171958447 1533875.1737594604 0 0 0 0 198943412.09727478 16880654.818114758 0 16880654.818114758 3189558.4993146528 0 0 0 0 45885.556619688869 209946.1766440256 0 209946.1766440256 25772.919744473733 0 0 0 0 13568284.788879395 -27860777.815865293 0 -27860777.815865293 45200726.108081803 0 0 0 0 -18263264.334320068 -6389170.0873022303 0 -6389170.0873022303 71815511.806509033 0 0 0 0 -478525.06769106723 -321759.42144955322 0 -321759.42144955322 274616.67865000427 0 0 0 0 -13334977.142105103 -2936437.2140985727 0 -2936437.2140985727 37755227.523024537 0 0 0 0 -15256085.913566589 4964731.7379402425 0 4964731.7379402425 27307306.430394389 0 0 0 0 71485615.056518555 43612116.215423495 0 43612116.215423495 15132455.212508589 0 0 0 0 2664818.5333099365 23774028.842493214 0 23774028.842493214 13071613.854965389 0 0 0 0 -4557696.656539917 37362186.238046542 0 37362186.238046542 25566583.836829543 0 0 0 0 25760866.135284424 61135747.151306391 0 61135747.151306391 30941518.931710958 0 0 0 0 59892562.61340332 42425512.196299791 0 42425512.196299791 9157910.6178356409 0 0 0 0 171453909.07574463 -20056314.280815601 0 -20056314.280815601 -37232178.338715076 0 0 0 0 62823887.839187622 56570588.90601185 0 56570588.90601185 53722142.794894576 0 0 0 0 67599647.432556152 14532628.335476518 0 14532628.335476518 38616866.417334825 0 0 0 0 133049647.42932129 -43831236.30507046 0 -43831236.30507046 143953893.81018797 0 0 0 0 117216799.94754028 37444405.145511091 0 37444405.145511091 -59073141.035989456 0 0 0 0 193888288.5019989 53704077.345890656 0 53704077.345890656 -58866932.33201395 0 0 0 0 -43226042.816894531 67709425.704933643 0 67709425.704933643 33062608.312946081 0 0 0 0 -25932039.017982483 12017331.23808321 0 12017331.23808321 6739058.7464326024 0 0 0 0 -158468032.14303589 -24150.449245058 0 -24150.449245058 20318974.700006228 0 0 0 0 -88748110.794570923 -80357254.934551522 0 -80357254.934551522 -54362452.388438836 0 0 0 0 -30485717.848937988 -32127907.593404114 0 -32127907.593404114 -16286569.705633163 0 0 0 0 -29429540.000305176 -28443412.031578481 0 -28443412.031578481 -18286291.807916909 0 0 0 0 -13389823.551330566 -26710085.517209597 0 -26710085.517209597 -51545663.014164351 0 0 0 0 -16782958.940696716 -41565705.945402175 0 -41565705.945402175 -38395369.275164545 0 0 0 0 -22590817.303955078 -17186271.370246232 0 -17186271.370246232 -954448.27589017153 0 0 0 0 -1573263.7037963867 -25121101.244561374 0 -25121101.244561374 -36025292.562710762 0 0 0 0 -58311489.211578369 8150368.4886709154 0 8150368.4886709154 27965258.01091361 0 0 0 0 -13383904.272186279 17766476.371949345 0 17766476.371949345 15762904.257909834 0 0 0 0 22280387.906829834 23975078.274505295 0 23975078.274505295 2120173.7328840494 0 0 0 0 -2479838.0273590088 -5727329.0601626039 0 -5727329.0601626039 90504.205619573593 0 0 0 0 2800852.1918334961 -4492482.8218920231 0 -4492482.8218920231 -6819449.5040019006 0 0 0 0 23304035.4115448 4339412.1591727436 0 4339412.1591727436 -1248673.3297283649 0 0 0 0 22736555.392272949 4117120.1510182321 0 4117120.1510182321 270158.34583798796 0 0 0 0 37137783.207351685 29336766.050068259 0 29336766.050068259 4008177.01537323 0 0 0 0 19501444.929260254 -27443087.436688006 0 -27443087.436688006 1639828.2776172161 0 0 0 0 10771808.652084351 -16732985.533036113 0 -16732985.533036113 -22081564.849110782 0 0 0 0 -8280533.7051696777 -20409547.213468224 0 -20409547.213468224 62117.227898210287 0 0 0 0 -7284464.7259597778 -17430693.323922381 0 -17430693.323922381 -12513381.888058126 0 0 0 0 -13483964.747543335 -9372121.2680669427 0 -9372121.2680669427 -31740334.392525196 0 0 0 0 482592.24234008789 -31181209.169382401 0 -31181209.169382401 -55031874.985800073 0 0 0 0 -9798819.6725158691 -21639776.60412544 0 -21639776.60412544 -12200132.670604706 0 0 0 0 -4099964.0277404785 -24112627.654683769 0 -24112627.654683769 -19825104.030735515 0 0 0 0 1584284.1650619507 -21399569.002018765 0 -21399569.002018765 -43097160.076186657 0 0 0 0 2682748.1720123291 -12813039.494350553 0 -12813039.494350553 -52108916.009850025 0 0 0 0 51291.68046168983 -3437.0438386388123 0 -3437.0438386388123 62894.237998337092 0 0 0 0 734747.02574729919 26314332.153362475 0 26314332.153362475 54863513.422388256 0 0 0 0 7019029.9950866699 22526803.14395754 0 22526803.14395754 56687814.438162923 0 0 0 0 10125189.52104187 24400518.317765713 0 24400518.317765713 55237042.851664893 0 0 0 0 -3605.4198806360364 10659.256652453914 0 10659.256652453914 10627.168544314482 0 0 0 0 -3397985.5224456787 2511688.6927852631 0 2511688.6927852631 16806291.359177828 0 0 0 0 6662802.6342926025 -42861519.43728967 0 -42861519.43728967 -117698854.00250231 0 0 0 0 13188700.696456909 23694735.522124648 0 23694735.522124648 49445332.071353525 0 0 0 0 10217661.424316406 18074869.689478338 0 18074869.689478338 55498271.745441422 0 0 0 0 15206292.832855225 16402676.620476574 0 16402676.620476574 44436681.438370228 0 0 0 0 14681219.606491089 26112382.278837115 0 26112382.278837115 35272140.89854306 0 0 0 0 12768104.466033936 14999248.119803317 0 14999248.119803317 25417776.775406748 0 0 0 0 4958629.4081802368 13819965.301481955 0 13819965.301481955 28054802.469923764 0 0 0 0 6419117.1195373535 13097161.903308913 0 13097161.903308913 21426650.643226534 0 0 0 0 5088298.0106506348 10305943.329482973 0 10305943.329482973 16691176.099435108 0 0 0 0 -2634062.6666870117 11312860.523399636 0 11312860.523399636 23325467.572088093 0 0 0 0 7185587.4329948425 13407200.8116799 0 13407200.8116799 20552679.481798589 0 0 0 0 3827399.2253723145 13000960.491302341 0 13000960.491302341 23483726.255677834 0 0 0 0 6528353.2827911377 8363314.4249578416 0 8363314.4249578416 20234889.954952657 0 0 0 0 5190603.8877868652 9655629.3039931655 0 9655629.3039931655 24282866.221848264 0 0 0 0 6674195.604309082 18421358.34842515 0 18421358.34842515 6821369.8358757645 0 0 0 0 -4942275.2857131958 12804373.831547529 0 12804373.831547529 18979721.515985042 0 0 0 0 15182581.912322998 10316251.92605298 0 10316251.92605298 -1768928.5651669949 0 0 0 0 102933037.3824892 12076388.285312846 0 12076388.285312846 -9965476.674226284 0 0 0 0 21563991.415794373 27852205.260969609 0 27852205.260969609 28656130.764385544 0 0 0 0 24972072.758216858 10509267.84634535 0 10509267.84634535 -17619299.950277656 0 0 0 0 -1835880.2660827637 25682280.210892886 0 25682280.210892886 -20459742.079793684 0 0 0 0 -9278277.6096191406 10474715.0594844 0 10474715.0594844 27360910.417116746 0 0 0 0 10886740.316879272 7914629.9443034083 0 7914629.9443034083 -6849122.113426961 0 0 0 0 -14620630.550689697 13620422.126718849 0 13620422.126718849 -7777925.7797492668 0 0 0 0 4481402.9214782715 5691082.7922023684 0 5691082.7922023684 27686037.207311273 0 0 0 0 2579668.7174377441 6988934.0612842739 0 6988934.0612842739 16029942.650829166 0 0 0 0 -20668.791687563062 54529.307293787599 0 54529.307293787599 -21001.371941572921 0 0 0 0 7076039.6369843483 28637594.456624631 0 28637594.456624631 29244456.248191744 0 0 0 0 2132219.8721923828 7403412.1433933116 0 7403412.1433933116 18056276.579258919 0 0 0 0 -1203948.2661972046 5769009.1854079291 0 5769009.1854079291 17991129.705587834 0 0 0 0 5746762.0539922714 5801413.1589570511 0 5801413.1589570511 14521133.899213135 0 0 0 0 -170559.91786193848 8724158.9336352497 0 8724158.9336352497 25074962.395092726 0 0 0 0 6093991.495513916 11107205.103057325 0 11107205.103057325 16479343.082278792 0 0 0 0 -4431053.9073791504 9103360.8459492773 0 9103360.8459492773 49416181.011075497 0 0 0 0 -7324893.0656280518 -1966109.055065304 0 -1966109.055065304 23307202.694589585 0 0 0 0 4758611.1060180664 -1789329.5869827867 0 -1789329.5869827867 -14998128.011182547 0 0 0 0 -16010.305895425379 33378.06877268292 0 33378.06877268292 8769.769509373742 0 0 0 0 5442061.0137786865 15902373.397259817 0 15902373.397259817 39162840.933929801 0 0 0 0 5528915.0529327393 16715195.489694312 0 16715195.489694312 28064368.292200178 0 0 0 0 1407835.772644043 11140666.014820188 0 11140666.014820188 35323096.46463275 0 0 0 0 94456306.518554688 -55914376.315644205 0 -55914376.315644205 -60883385.444642052 0 0 0 0 -15442109.504089355 -13723025.037438262 0 -13723025.037438262 -52013637.188807309 0 0 0 0 -20115.768647283316 397445.15835504793 0 397445.15835504793 -16931.541824122181 0 0 0 0 2245.733983039856 6319.1952180285007 0 6319.1952180285007 12779.71081401367 0 0 0 0 335877.24530029297 19215694.861667752 0 19215694.861667752 49534748.199734375 0 0 0 0 13542935.664352417 21203221.612875007 0 21203221.612875007 32565188.406582594 0 0 0 0 6019360.9605712891 20007998.903960317 0 20007998.903960317 45560655.93611604 0 0 0 0 17518536.604278564 80469303.854792923 0 80469303.854792923 -76121653.546864986 0 0 0 0 -23859499.906738281 -29848313.216733187 0 -29848313.216733187 -28222273.09142682 0 0 0 0 -73471238.621124268 12688696.427385926 0 12688696.427385926 12737220.199605048 0 0 0 0 -35721837.009002686 -25020957.489904344 0 -25020957.489904344 -2404068.8612794876 0 0 0 0 138808044.50469494 44760293.771366976 0 44760293.771366976 -7669136.0723310262 0 0 0 0 -4267714.0354919434 -27427219.183754325 0 -27427219.183754325 -7564043.4009865737 0 0 0 0 -26417681.25958252 14100214.479828238 0 14100214.479828238 9885908.330971241 0 0 0 0 -41761356.371047974 8082366.0391170271 0 8082366.0391170271 27378083.152234294 0 0 0 0 -32406128.178672791 38706586.694928169 0 38706586.694928169 -18953833.208161473 0 0 0 0 -10311750.784675598 27218065.657784134 0 27218065.657784134 -13127323.754413962 0 0 0 0 -9585735.6568756104 22376078.434284002 0 22376078.434284002 -287545.70361840725 0 0 0 0 6575280.033996582 9003314.3564704061 0 9003314.3564704061 9617723.5556194782 0 0 0 0 574065.66554260254 23603182.674472935 0 23603182.674472935 2110803.8211561441 0 0 0 0 11213338.097583771 17652451.783105224 0 17652451.783105224 5030150.1193253398 0 0 0 0 -3227013.2948086821 2173308.4583861567 0 2173308.4583861567 1866760.7045568745 0 0 0 0 125561.33511352539 9204429.5756312013 0 9204429.5756312013 10857643.558791399 0 0 0 0 -61415613.448364258 14963962.780288696 0 14963962.780288696 -35821446.622056961 0 0 0 0 6999769.4407043457 19816304.530392408 0 19816304.530392408 -13595945.895667434 0 0 0 0 1273474.6962738037 -543402.61714982986 0 -543402.61714982986 -2723085.4258955717 0 0 0 0 1279248.1071343571 1879465.0239131274 0 1879465.0239131274 8738232.8287838697 0 0 0 0 1060858.8589401245 9972462.2355431318 0 9972462.2355431318 -25239189.592032641 0 0 0 0 -1880380.0993804932 9201179.9745014608 0 9201179.9745014608 23882047.274881542 0 0 0 0 -69912.978182926774 1376792.9030039869 0 1376792.9030039869 124401.8478020667 0 0 0 0 18242943.148540497 5357403.0602282286 0 5357403.0602282286 -2686470.3343057632 0 0 0 0 18583899.956384659 8451027.247355938 0 8451027.247355938 -20878261.899662495 0 0 0 0 3165068.5624703988 1548889.6906511514 0 1548889.6906511514 -970806.16829934344 0 0 0 0 21903771.201225281 11355381.709384203 0 11355381.709384203 1665100.1898006797 0 0 0 0 68498.30505105108 -329586.63131128065 0 -329586.63131128065 -751506.86385244597 0 0 0 0 -20975106.419067383 -37374668.325138092 0 -37374668.325138092 19623638.02986145 0 0 0 0 16014504.510772705 8175088.5756058693 0 8175088.5756058693 3691361.4838101864 0 0 0 0 -3596478.637218345 2362236.3994517419 0 2362236.3994517419 1818613.7525684773 0 0 0 0 -20446376.178375244 -5758687.0204365253 0 -5758687.0204365253 -33873507.784555912 0 0 0 0 9444627.2680511475 19654843.284263372 0 19654843.284263372 16980688.330869436 0 0 0 0 9423588.3062593937 20433922.749967799 0 20433922.749967799 -1747219.0992279053 0 0 0 0 -1157836.429900486 -859970.2242897395 0 -859970.2242897395 -1254798.3194994058 0 0 0 0 8689611.265586853 23524883.064086199 0 23524883.064086199 12860701.37528801 0 0 0 0 -19378605.814193726 -13322837.309808731 0 -13322837.309808731 -3756836.4354887009 0 0 0 0 3538758.5022583008 4070857.3112955093 0 4070857.3112955093 -162701.27370667458 0 0 0 0 1812920.979658898 4948211.0811518198 0 4948211.0811518198 531913.33956021792 0 0 0 0 10785963.593040466 18196685.712840676 0 18196685.712840676 21501780.975052834 0 0 0 0 -967266.28662075102 2843968.0126059186 0 2843968.0126059186 -911649.42546749057 0 0 0 0 1453284.9602871537 3972611.2489049118 0 3972611.2489049118 -469687.74137754878 0 0 0 0 -1636393.1692810059 21753680.396275356 0 21753680.396275356 8851586.5800922215 0 0 0 0 4041008.7438049316 11543770.335188895 0 11543770.335188895 3327858.3426482081 0 0 0 0 4501446.2966826968 3705886.1617416479 0 3705886.1617416479 749336.16662465455 0 0 0 0 7624014.192527771 10637795.70171468 0 10637795.70171468 -5308189.716467768 0 0 0 0 -1806194.3848266602 2859830.9656138122 0 2859830.9656138122 -2708482.5314800739 0 0 0 0 3343222.8847503662 5856866.4754164219 0 5856866.4754164219 -10220638.183641136 0 0 0 0 -3004770.3025772311 5063310.4602483204 0 5063310.4602483204 3018007.0547546949 0 0 0 0 2488769.8622360229 2297312.7471067309 0 2297312.7471067309 2371446.526163578 0 0 0 0 -829676.76225460321 698572.21526293643 0 698572.21526293643 -771432.01302064094 0 0 0 0 941162.60115814209 4026216.5308871418 0 4026216.5308871418 9667461.3309461474 0 0 0 0 -7174188.7109069824 2856600.7869298905 0 2856600.7869298905 21929052.892523959 0 0 0 0 4127153.3398513794 11319254.150804207 0 11319254.150804207 8486111.0142207742 0 0 0 0 1327568.3605155945 20584530.696503699 0 20584530.696503699 -26080421.952824086 0 0 0 0 -18668882.044067383 22526067.011997864 0 22526067.011997864 3555810.3149031699 0 0 0 0 -15001433.864936829 1148875.2243783772 0 1148875.2243783772 9162057.2228305712 0 0 0 0 -1569.9105884730816 34006.141028255224 0 34006.141028255224 -27530.200599957781 0 0 0 0 10808728.060241699 34364865.01354152 0 34364865.01354152 -14832766.675632387 0 0 0 0 15626912.116500854 14931656.351458922 0 14931656.351458922 -48293388.190374732 0 0 0 0 -3721378.6653747559 20303023.265604675 0 20303023.265604675 -18353424.452042952 0 0 0 0 5343170.8208636828 973926.9378041476 0 973926.9378041476 -655191.26016891142 0 0 0 0 2498575.473815918 8337291.7915418148 0 8337291.7915418148 -19154136.497902513 0 0 0 0 8087893.4841842651 -4859126.616016522 0 -4859126.616016522 10404555.642903702 0 0 0 0 -11783904.31300354 12290443.962399989 0 12290443.962399989 -21140803.310541332 0 0 0 0 4003266.6738595553 4664513.2073025126 0 4664513.2073025126 626798.58979506767 0 0 0 0 9375259.9753417969 -8027418.0842996761 0 -8027418.0842996761 -428773.15523917973 0 0 0 0 10615055.783111572 -5578063.2519785166 0 -5578063.2519785166 -2306448.658975035 0 0 0 0 15670576.518350601 -3441332.7750108466 0 -3441332.7750108466 -16010073.953244716 0 0 0 0 14173678.303268433 -3905832.7253800705 0 -3905832.7253800705 -4689756.7975922525 0 0 0 0 11712716.122909546 -10764690.794431269 0 -10764690.794431269 -11056469.876239121 0 0 0 0 6396868.4609222412 -6146573.4361391068 0 -6146573.4361391068 34346418.593094945 0 0 0 0 3631767.8161476925 1154681.0639101029 0 1154681.0639101029 -337633.46391964384 0 0 0 0 7857436.6261940002 -1285574.9906171262 0 -1285574.9906171262 17219730.90663299 0 0 0 0 -2736964.0580596924 5680710.9734305739 0 5680710.9734305739 -10014369.132954061 0 0 0 0 3984191.6273358315 2384991.7899423069 0 2384991.7899423069 79950.114928013179 0 0 0 0 3568209.28465271 -7596104.3892855644 0 -7596104.3892855644 24412806.991764836 0 0 0 0 7579136.6188545227 -667545.29428072087 0 -667545.29428072087 11731214.619552702 0 0 0 0 6346780.1139297485 -11796039.77415815 0 -11796039.77415815 -2095342.4983566403 0 0 0 0 6546237.1918487549 -509552.76570817828 0 -509552.76570817828 -2660764.7276693881 0 0 0 0 11353814.386734009 -12518061.356226355 0 -12518061.356226355 10806957.345007312 0 0 0 0 -8797921.1351165771 -253930.03076693416 0 -253930.03076693416 -21392974.841142833 0 0 0 0 1695904.7431869507 -6658490.6316949129 0 -6658490.6316949129 -37845028.817260981 0 0 0 0 11095660.108661652 4546298.3294540346 0 4546298.3294540346 -20436145.273462653 0 0 0 0 2893961.2814941406 -8452071.7512307838 0 -8452071.7512307838 -10187651.072740018 0 0 0 0 1373563.3671340942 2033846.0995060802 0 2033846.0995060802 -20311856.804319024 0 0 0 0 4460092.6039428711 -8117014.8582332432 0 -8117014.8582332432 -19513044.138792157 0 0 0 0 4240685.0959777832 -2367083.9352114797 0 -2367083.9352114797 -10719799.609771669 0 0 0 0 -4887988.6891784668 7600547.3117926121 0 7600547.3117926121 -27933741.08526206 0 0 0 0 555825.22595405579 -5780717.7285616249 0 -5780717.7285616249 -18741181.482707739 0 0 0 0 7588611.4746208191 6525452.674744904 0 6525452.674744904 -49505819.741687179 0 0 0 0 -1566241.3549575806 -7189449.2377560139 0 -7189449.2377560139 -26084671.114491701 0 0 0 0 -50494.740470327437 408215.81103696488 0 408215.81103696488 174582.44181593778 0 0 0 0 14963968.666900635 -10794807.062815905 0 -10794807.062815905 -11639612.64861089 0 0 0 0 16061448.392551422 -12318156.607610494 0 -12318156.607610494 -12517238.707037807 0 0 0 0 7000816.2487239838 -12187086.530185468 0 -12187086.530185468 -10534153.123719633 0 0 0 0 4469344.8212280273 -2886138.1392685175 0 -2886138.1392685175 -16609426.424129248 0 0 0 0 8690011.7497825623 -12385674.679553509 0 -12385674.679553509 -8447003.7600318193 0 0 0 0 -571401.82062530518 1077598.1953295469 0 1077598.1953295469 -13861639.964168847 0 0 0 0 6049027.0624237061 1153129.9087145329 0 1153129.9087145329 -26590985.432848334 0 0 0 0 2565.268700838089 423581.09492585668 0 423581.09492585668 179078.86459974915 0 0 0 0 6968557.8338775635 -14429152.706061959 0 -14429152.706061959 3905767.4625669718 0 0 0 0 35419880.985313416 -12160889.070773602 0 -12160889.070773602 -12899348.50714004 0 0 0 0 29211323.307678223 -347092.34508082271 0 -347092.34508082271 -8509454.4349547625 0 0 0 0 72848015.809051514 2636720.0571229458 0 2636720.0571229458 -8947774.1963744611 0 0 0 0 24989638.437438965 -2840984.6265300214 0 -2840984.6265300214 -14057826.917178452 0 0 0 0 25558840.602027893 -4341480.700558424 0 -4341480.700558424 -12511599.846464396 0 0 0 0 46241504.14956665 15783345.17726472 0 15783345.17726472 -9339079.4442871809 0 0 0 0 -10605412.445732117 7489943.6324913148 0 7489943.6324913148 -10126761.749002567 0 0 0 0 22669055.738754272 16168067.496152878 0 16168067.496152878 16415350.021892071 0 0 0 0 29771221.505325317 27794808.891679645 0 27794808.891679645 2549302.7463953495 0 0 0 0 15091702.36743927 8810275.3267878294 0 8810275.3267878294 -7925254.6200531721 0 0 0 0 -2610103.1028289795 -3255669.2860791683 0 -3255669.2860791683 -14497617.064930201 0 0 0 0 316256.77203958854 891185.36851828126 0 891185.36851828126 -224448.19675003091 0 0 0 0 25832932.849135399 4246378.3775037006 0 4246378.3775037006 -20613008.632820129 0 0 0 0 4254843.0223236084 -1728275.1971232891 0 -1728275.1971232891 -19694568.677340448 0 0 0 0 -6077087.6327438354 -13197255.17329514 0 -13197255.17329514 -30043759.519705772 0 0 0 0 -5592555.8981704712 -12288361.863468647 0 -12288361.863468647 -34106790.287608624 0 0 0 0 -746552.64126586914 -11366028.415645242 0 -11366028.415645242 -31375275.38010788 0 0 0 0 -6262562.9278717041 -9532784.4579055309 0 -9532784.4579055309 -22062643.691277862 0 0 0 0 2867773.8042144775 405744.05719357729 0 405744.05719357729 -22714019.57694383 0 0 0 0 1401497.9170074463 -7761744.3920374513 0 -7761744.3920374513 -32370488.171244651 0 0 0 0 -4294412.7421569824 25398912.639765114 0 25398912.639765114 -4479781.5481454879 0 0 0 0 3727496.4688034058 -14174058.818417352 0 -14174058.818417352 -8673501.4450640678 0 0 0 0 -8834579.0178985596 27396022.036632717 0 27396022.036632717 41823315.223179966 0 0 0 0 25395520.4141922 35344572.312314376 0 35344572.312314376 -38477068.94297827 0 0 0 0 8832405.9781448916 1969510.6298041195 0 1969510.6298041195 2775.6135771350582 0 0 0 0 89389116.88117981 78016877.149704725 0 78016877.149704725 -139308562.29565302 0 0 0 0 -25657919.776100159 32952161.963607267 0 32952161.963607267 -17007533.89700374 0 0 0 0 -4090321.7314758301 -11421662.211789275 0 -11421662.211789275 -67088095.403124087 0 0 0 0 24849678.904586792 35585373.511783518 0 35585373.511783518 -16992885.341946594 0 0 0 0 4709020.9191589355 10430656.096738368 0 10430656.096738368 11127285.234557495 0 0 0 0 13603756.671882629 50642293.060266107 0 50642293.060266107 -37614292.329109341 0 0 0 0 9744874.3915100098 48436057.524605446 0 48436057.524605446 -11410357.113717973 0 0 0 0 11971423.600372314 11743683.545667477 0 11743683.545667477 -46434100.657356113 0 0 0 0 -38119.940041236579 634574.83846073598 0 634574.83846073598 -10355.285581422761 0 0 0 0 16627148.618339539 16955099.314913541 0 16955099.314913541 -95557511.098061979 0 0 0 0 -3057119.3598022461 3350354.424859345 0 3350354.424859345 -28290583.01774919 0 0 0 0 -20618868.459823608 6832802.0813576281 0 6832802.0813576281 -28698382.353869677 0 0 0 0 -576213.51905532181 3416408.0925197462 0 3416408.0925197462 374082.32238230977 0 0 0 0 -46943353.68347168 24166606.369715579 0 24166606.369715579 11134886.24284322 0 0 0 0 -19701707.246214628 30126528.100937724 0 30126528.100937724 -34965464.222630739 0 0 0 0 9751450.8008880615 31603570.308143944 0 31603570.308143944 -58220744.834969178 0 0 0 0 9780265.3458483294 1480388.500716283 0 1480388.500716283 -395324.03742294922 0 0 0 0 8644859.9823226929 26913405.035480574 0 26913405.035480574 -35173001.815666258 0 0 0 0 11047413.89339447 -3617798.8338285983 0 -3617798.8338285983 -12648512.949556932 0 0 0 0 -92475829.639823914 34655515.821311913 0 34655515.821311913 68987015.12655893 0 0 0 0 80739092.476638794 15563558.284779917 0 15563558.284779917 -68100062.620970696 0 0 0 0 25207846.01008606 10876457.296417594 0 10876457.296417594 -40412362.310917184 0 0 0 0 9177692.3187740929 2038138.6336394576 0 2038138.6336394576 68606.827454351907 0 0 0 0 42019345.382705688 6788208.1852903962 0 6788208.1852903962 -19659289.686378509 0 0 0 0 62582774.234703064 18579432.430068433 0 18579432.430068433 -13437109.762296021 0 0 0 0 399561.53638437763 -77198.48046213761 0 -77198.48046213761 -293188.75159540027 0 0 0 0 -2719773.3792572021 -540427.52968513966 0 -540427.52968513966 -18003941.174894899 0 0 0 0 62564871.751504898 19780379.469141617 0 19780379.469141617 3527520.6068447232 0 0 0 0 37784900.050430298 21199330.079940498 0 21199330.079940498 -731653.55197036266 0 0 0 0 36132058.814620972 16515985.243142307 0 16515985.243142307 -4220714.6454190388 0 0 0 0 14314201.309169769 24390672.529766798 0 24390672.529766798 14447274.068383813 0 0 0 0 895763.34186553955 8533537.895575583 0 8533537.895575583 6697737.5880316496 0 0 0 0 7780804.7937574387 8604483.0086161606 0 8604483.0086161606 1461884.7151481807 0 0 0 0 7255670.9200973511 14416813.028721109 0 14416813.028721109 2929617.018717289 0 0 0 0 36185680.44203186 18621316.76056689 0 18621316.76056689 -4348931.9839206506 0 0 0 0 20707585.02652359 7175756.8577100337 0 7175756.8577100337 -7691127.2369266152 0 0 0 0 8148412.4945144653 9011660.3269857764 0 9011660.3269857764 -7499016.6180586666 0 0 0 0 38661652.262241364 -7552474.5782501101 0 -7552474.5782501101 -14786739.193612576 0 0 0 0 11017921.120121002 10470524.950800359 0 10470524.950800359 -12833599.304116845 0 0 0 0 -2418037.7396183982 6492073.647053943 0 6492073.647053943 414731.07286054292 0 0 0 0 10213282.706403201 6308308.4002905134 0 6308308.4002905134 -1358386.9757003384 0 0 0 0 -21590736.320404053 23744762.732100487 0 23744762.732100487 1006782.4790897369 0 0 0 0 -575063.29415644333 1593569.3366827141 0 1593569.3366827141 -19939.243724218075 0 0 0 0 2990056.6175765991 26993742.742012978 0 26993742.742012978 38325317.53129822 0 0 0 0 -10879613.531398773 2357481.6433741748 0 2357481.6433741748 -5325509.8840954304 0 0 0 0 39325825.758178711 16525764.396990061 0 16525764.396990061 22362411.66425794 0 0 0 0 47868483.239276886 7486497.5350675583 0 7486497.5350675583 -20160672.620392799 0 0 0 0 52532497.604618073 -9363725.9671683311 0 -9363725.9671683311 22499693.507180333 0 0 0 0 68039438.435511589 33023696.37036074 0 33023696.37036074 -23038209.992757916 0 0 0 0 47760568.913414001 -28722810.103811145 0 -28722810.103811145 -5706976.3008508682 0 0 0 0 9040810.0909423828 42191533.16374445 0 42191533.16374445 6408147.4791574627 0 0 0 0 47236.838495917618 283469.44086322421 0 283469.44086322421 79857.264934357663 0 0 0 0 512438.4994354248 4381524.5659751892 0 4381524.5659751892 -18909998.698013425 0 0 0 0 165594.1260971576 515842.75468250224 0 515842.75468250224 125885.38863258134 0 0 0 0 9531795.0211029053 27864094.520450264 0 27864094.520450264 -2272159.7566888034 0 0 0 0 -12891241.718471527 18050008.89568013 0 18050008.89568013 -3267184.1430926323 0 0 0 0 5915598.1416397095 16870247.84010677 0 16870247.84010677 -12849600.961542428 0 0 0 0 15818770.183586121 12466890.937937021 0 12466890.937937021 -48144442.572708249 0 0 0 0 -66916.627682633698 231834.96177606238 0 231834.96177606238 105996.77283219734 0 0 0 0 -10737599.710914612 -25464687.280384481 0 -25464687.280384481 -2414135.2642950416 0 0 0 0 26110928.113960266 29367726.778388381 0 29367726.778388381 -57866681.394619316 0 0 0 0 16734247.451263428 13570328.252399623 0 13570328.252399623 -14197554.10390906 0 0 0 0 15682607.458198547 7534841.5509833992 0 7534841.5509833992 -27348202.133908987 0 0 0 0 -1604659.6974487305 19318019.436063766 0 19318019.436063766 -28589303.88342756 0 0 0 0 19484089.979957581 18483601.364532113 0 18483601.364532113 -54584220.442463815 0 0 0 0 21972611.831466675 9866217.291246146 0 9866217.291246146 -27341573.560048703 0 0 0 0 11102995.441550136 1044055.0959822312 0 1044055.0959822312 5981742.9856292009 0 0 0 0 22689242.667251587 -3993319.067976594 0 -3993319.067976594 -7048467.5429545268 0 0 0 0 5992336.8508453369 3397365.0349173844 0 3397365.0349173844 -8255544.8855924904 0 0 0 0 16293111.822792053 7361029.029866349 0 7361029.029866349 -13646165.912737899 0 0 0 0 33424502.187164307 5878120.3754338026 0 5878120.3754338026 -2999999.0118938088 0 0 0 0 25130350.155081749 14349882.858969174 0 14349882.858969174 -9442204.6713264212 0 0 0 0 26068785.814056396 21049512.522768945 0 21049512.522768945 -164854.53916144371 0 0 0 0 23218670.068744659 18972561.761622138 0 18972561.761622138 -19159241.043162346 0 0 0 0 16965753.493431091 17775157.589309052 0 17775157.589309052 -8127385.193782568 0 0 0 0 29054635.881835938 21597121.27996701 0 21597121.27996701 -6927069.1253550053 0 0 0 0 21750396.49430275 17882949.170047425 0 17882949.170047425 1450786.6028274298 0 0 0 0 31330298.372093201 24211392.16195792 0 24211392.16195792 4386685.1827646494 0 0 0 0 24497815.425652742 17990923.621094834 0 17990923.621094834 14333703.775114775 0 0 0 0 45441282.655288696 11949816.832795978 0 11949816.832795978 741935.21047091484 0 0 0 0 48473095.521987915 -3266522.0001637936 0 -3266522.0001637936 33539894.038641453 0 0 0 0 41181757.177207947 18119689.63186866 0 18119689.63186866 12633939.571553946 0 0 0 0 54834436.623931885 711054.65227901936 0 711054.65227901936 16320865.592489481 0 0 0 0 36656538.591175079 12126046.720572397 0 12126046.720572397 5232286.5069367886 0 0 0 0 17769467.732780457 -12092761.400123239 0 -12092761.400123239 37193809.434470594 0 0 0 0 27722301.559669495 -8030158.8481341302 0 -8030158.8481341302 17119027.421870708 0 0 0 0 52111667.621780396 265655.45524740219 0 265655.45524740219 9353265.8605587482 0 0 0 0 40953631.017120361 11015447.307201505 0 11015447.307201505 440195.90565741062 0 0 0 0 47447824.824905396 485035.07005631924 0 485035.07005631924 21310824.729856968 0 0 0 0 19611377.073516846 -8327999.2245323658 0 -8327999.2245323658 44883831.748181581 0 0 0 0 61112966.845214844 -9917251.91690588 0 -9917251.91690588 86818782.194719315 0 0 0 0 55796498.876602173 7414502.0694681406 0 7414502.0694681406 39344790.869437695 0 0 0 0 81542401.268188477 6429072.6967866421 0 6429072.6967866421 19379000.418523788 0 0 0 0 47465115.628852844 -93167071.115634918 0 -93167071.115634918 104900549.16543865 0 0 0 0 54926701.801261902 -17291090.190084457 0 -17291090.190084457 20013641.511253834 0 0 0 0 31361448.085510254 -10558538.595693827 0 -10558538.595693827 10945053.86414957 0 0 0 0 19191595.552382946 27699354.344882231 0 27699354.344882231 -8768955.9234903455 0 0 0 0 20357006.890838623 14463338.518103076 0 14463338.518103076 -29173764.813262768 0 0 0 0 11321474.942253113 21093644.146477193 0 21093644.146477193 -2148468.5330566764 0 0 0 0 11426798.093673706 21001373.943444759 0 21001373.943444759 -12994225.728778899 0 0 0 0 20322082.08572197 23511403.744479395 0 23511403.744479395 -10551490.288385749 0 0 0 0 2007978.9713287354 12210988.100676179 0 12210988.100676179 1147878.5177531242 0 0 0 0 19996901.15109539 27244746.439467676 0 27244746.439467676 1607327.1071493626 0 0 0 0 -1624422.1213912964 25890665.06768477 0 25890665.06768477 12759958.200516701 0 0 0 0 24550070.812167645 20271469.857447963 0 20271469.857447963 2068417.3731037378 0 0 0 0 5541900.2076416016 14157526.477890432 0 14157526.477890432 1878756.9316942096 0 0 0 0 -54203350.920219421 8007833.6153593063 0 8007833.6153593063 16558247.929467559 0 0 0 0 28211989.22428894 2413061.6313633919 0 2413061.6313633919 2063296.7326073647 0 0 0 0 921682.77200239524 -32787.990015946329 0 -32787.990015946329 -534306.66112590488 0 0 0 0 31079779.289253235 19737006.829510391 0 19737006.829510391 7497521.9311766624 0 0 0 0 16451947.51877594 50643594.14605248 0 50643594.14605248 -9635614.4496865273 0 0 0 0 1518415.3977709617 288280.22779868357 0 288280.22779868357 -682173.28074106108 0 0 0 0 -25173777.731624603 -91294073.609273195 0 -91294073.609273195 2776338.0412682891 0 0 0 0 5526063.8452606201 969105.45561611652 0 969105.45561611652 -421574.02406728268 0 0 0 0 -25293280.407051086 37430049.70975244 0 37430049.70975244 77467775.190352201 0 0 0 0 16834547.884117126 7345093.5104267597 0 7345093.5104267597 577022.24466216564 0 0 0 0 64961462.413787842 -35463078.455502987 0 -35463078.455502987 28769192.861491203 0 0 0 0 1082863.6833496094 2268349.0531860888 0 2268349.0531860888 -3113758.1922167838 0 0 0 0 -2668776.8983001709 12235101.828038931 0 12235101.828038931 -2117830.685982585 0 0 0 0 1295126.9513397217 2286160.2982103825 0 2286160.2982103825 836109.48854398727 0 0 0 0 351491.73856896907 4540531.7778728148 0 4540531.7778728148 1652863.7660012832 0 0 0 0 407124.370821964 1526881.3000951502 0 1526881.3000951502 -578579.177490726 0 0 0 0 19868277.802017212 -6687536.1350326538 0 -6687536.1350326538 12924072.081708908 0 0 0 0 16404763.830474854 48459317.929450512 0 48459317.929450512 -9988034.6760959625 0 0 0 0 157733714.12316513 11527716.735452712 0 11527716.735452712 1249435.5574989319 0 0 0 0 -57175.441159196198 164079.87480744068 0 164079.87480744068 68973.229242850095 0 0 0 0 201575.73789545894 28303.941107820719 0 28303.941107820719 -39432.720878863882 0 0 0 0 76743578.76739502 -32854126.745016098 0 -32854126.745016098 48636729.766936064 0 0 0 0 87123273.717346191 -10166381.076994658 0 -10166381.076994658 -2716849.4936351776 0 0 0 0 162472835.75316811 -74385822.767708153 0 -74385822.767708153 50226359.491809845 0 0 0 0 53475972.642478943 -14114642.116001606 0 -14114642.116001606 6938899.0757436752 0 0 0 0 72364395.573913574 -17687371.468157291 0 -17687371.468157291 3196075.691365242 0 0 0 0 862014.16613469273 805713.33086489607 0 805713.33086489607 -475883.21031184564 0 0 0 0 30775495.375732422 -15495396.265331745 0 -15495396.265331745 7459161.7849559784 0 0 0 0 114826183.34616852 -13467778.794331789 0 -13467778.794331789 -9108525.2253755927 0 0 0 0 63249180.445625305 -4238553.8980631828 0 -4238553.8980631828 -7491630.1370944977 0 0 0 0 72958631.328960419 -16004924.204986274 0 -16004924.204986274 6760822.4033150673 0 0 0 0 63344835.534912109 -8756368.370324254 0 -8756368.370324254 5323312.0753998756 0 0 0 0 57528243.353088379 751575.42987132072 0 751575.42987132072 9300517.192306757 0 0 0 0 45247628.872634888 31713171.494993448 0 31713171.494993448 -6084776.7917163372 0 0 0 0 -33423047.629974365 -56280350.769854307 0 -56280350.769854307 129955290.14040804 0 0 0 0 98524380.618553162 53241124.601882696 0 53241124.601882696 -5899913.755671978 0 0 0 0 22685814.075469971 68610347.374296665 0 68610347.374296665 69469313.987402081 0 0 0 0 -9290398.5197296143 11878428.250194311 0 11878428.250194311 95838345.8580935 0 0 0 0 -997936.40083083883 1430199.4503654526 0 1430199.4503654526 1104526.1873356593 0 0 0 0 -123164.90966796875 33027962.320617199 0 33027962.320617199 60070347.377524376 0 0 0 0 17311050.129020691 36513778.663447261 0 36513778.663447261 -2911196.725976944 0 0 0 0 9897606.8769683838 23306284.724775553 0 23306284.724775553 11957095.943306923 0 0 0 0 -150374.88298034668 25849729.303701878 0 25849729.303701878 21984363.190886974 0 0 0 0 7153476.7312240601 14164885.142189264 0 14164885.142189264 34900928.126131058 0 0 0 0 2329840.4380340576 1088468.0298540592 0 1088468.0298540592 40308729.423025131 0 0 0 0 2630770.8774414062 -3078987.6501097679 0 -3078987.6501097679 12603640.025038719 0 0 0 0 -499336.63445453718 2564990.8924608147 0 2564990.8924608147 -1421.0522926307749 0 0 0 0 8513904.8845062256 27005888.544047117 0 27005888.544047117 -12065303.467738152 0 0 0 0 1244600.2004699707 27655558.967512369 0 27655558.967512369 -222414.34180927277 0 0 0 0 -2578234.9344406128 6653413.7930259705 0 6653413.7930259705 -11118155.296872914 0 0 0 0 1766418.2755661011 22316611.0699687 0 22316611.0699687 11936796.561902523 0 0 0 0 46452832.930942535 -11488642.067391276 0 -11488642.067391276 -96907073.155403137 0 0 0 0 63830207.408836365 50747919.553921938 0 50747919.553921938 -34830762.933352947 0 0 0 0 2882840.5891132765 1234531.8693370456 0 1234531.8693370456 -1209419.1326017878 0 0 0 0 9881062.1702041626 2827532.7134680748 0 2827532.7134680748 -1954249.412853241 0 0 0 0 2193024.5247993469 1425158.2463907003 0 1425158.2463907003 1412478.8087707758 0 0 0 0 2648016.1321321987 624482.87051283568 0 624482.87051283568 -363753.23116814322 0 0 0 0 1427473.8998223636 817423.73559580557 0 817423.73559580557 -22191.95292567031 0 0 0 0 2471503.1276321411 437800.75795769691 0 437800.75795769691 -801912.28103351593 0 0 0 0 1921784.5590133667 2902719.1375246048 0 2902719.1375246048 887732.88340544701 0 0 0 0 59552733.510639191 16747792.04007864 0 16747792.04007864 -60284103.243110418 0 0 0 0 58878252.890853882 83569420.420182705 0 83569420.420182705 62789972.680832863 0 0 0 0 1657086.4338517375 339843.46751940995 0 339843.46751940995 -439371.40982055757 0 0 0 0 34966287.921630859 59627306.633330822 0 59627306.633330822 78955724.753862143 0 0 0 0 59994427.404220581 55736957.671674728 0 55736957.671674728 42918205.796491623 0 0 0 0 52838296.175613403 63986858.476504803 0 63986858.476504803 43557838.379621983 0 0 0 0 65610907.17137146 40531234.219674587 0 40531234.219674587 11835317.763507843 0 0 0 0 74665135.782287598 75034708.317079544 0 75034708.317079544 39340442.939910412 0 0 0 0 89861929.120559692 64670449.735507488 0 64670449.735507488 46403819.033391476 0 0 0 0 94889155.49634552 33779258.703442216 0 33779258.703442216 61023975.292356491 0 0 0 0 68761554.198507309 43897496.821003616 0 43897496.821003616 57416559.543304443 0 0 0 0 780296.04514495283 580240.18063178565 0 580240.18063178565 -303649.30055433826 0 0 0 0 -1475091.2341918945 9786242.6643643379 0 9786242.6643643379 13116730.801751614 0 0 0 0 41538613.774841309 26763277.371231794 0 26763277.371231794 41141518.624296188 0 0 0 0 39720503.959671021 33977268.084032536 0 33977268.084032536 22324963.386466503 0 0 0 0 41560610.430328369 41542407.574742794 0 41542407.574742794 23512611.436171055 0 0 0 0 46162978.075246811 23011407.842541516 0 23011407.842541516 9104219.526512146 0 0 0 0 53464678.473999023 52525434.004075289 0 52525434.004075289 21288942.746076584 0 0 0 0 43432343.840103149 47751943.578895092 0 47751943.578895092 27299556.598190308 0 0 0 0 32655658.169803619 14846603.397697926 0 14846603.397697926 -6010661.9487257004 0 0 0 0 56103605.883300781 47058357.186938286 0 47058357.186938286 7628947.8929157257 0 0 0 0 23794997.901901245 27555949.043274403 0 27555949.043274403 11145241.129274368 0 0 0 0 12162806.476028442 -14808518.684725285 0 -14808518.684725285 -16573849.08234179 0 0 0 0 -2818928.5631866455 -10250949.086776733 0 -10250949.086776733 -11812279.441714287 0 0 0 0 5526129.9086901769 -646539.28894234449 0 -646539.28894234449 -1458551.436043256 0 0 0 0 -70964584.838786125 -41156768.534480587 0 -41156768.534480587 -1477983.3741123676 0 0 0 0 -7290762.2626037598 34222275.627248764 0 34222275.627248764 -28732685.987632751 0 0 0 0 -176784.40439182892 -150621.44173040241 0 -150621.44173040241 94079.178997464944 0 0 0 0 -12556454.055236816 -26296834.68001318 0 -26296834.68001318 -126501176.61488056 0 0 0 0 5271316.8051071167 22792935.163491964 0 22792935.163491964 -13804748.437355042 0 0 0 0 45243808.009277344 19958464.489264488 0 19958464.489264488 -27464467.537127972 0 0 0 0 126359592.00049591 -50716384.663695455 0 -50716384.663695455 -73317302.225092411 0 0 0 0 -53649417.246200562 57525927.897542238 0 57525927.897542238 58523245.521361828 0 0 0 0 1264415.528254088 502822.20583078824 0 502822.20583078824 -807739.70775777753 0 0 0 0 5245796.8633936308 -1032346.8436183939 0 -1032346.8436183939 -604078.5560996742 0 0 0 0 20987625.76146698 -64468969.213133574 0 -64468969.213133574 -40563992.827188492 0 0 0 0 26015909.634246826 2526797.1257846355 0 2526797.1257846355 -16580668.723635674 0 0 0 0 -8467061.0005340576 -49586017.027425289 0 -49586017.027425289 -10199193.353587151 0 0 0 0 56247197.893875122 14425703.804294348 0 14425703.804294348 2634864.532109201 0 0 0 0 37931484.858215332 14656971.841114759 0 14656971.841114759 37326640.165063381 0 0 0 0 70333708.460165024 -11807160.38978821 0 -11807160.38978821 -70547490.394185066 0 0 0 0 66188609.894393921 39917606.285892487 0 39917606.285892487 14668209.370077133 0 0 0 0 37002021.775863647 35130471.230092764 0 35130471.230092764 24494469.864879608 0 0 0 0 43345571.964141846 37403451.996281147 0 37403451.996281147 -25288873.535241127 0 0 0 0 -36184100.534404755 3967440.6390836239 0 3967440.6390836239 21489006.105940819 0 0 0 0 -2646518.6344604492 19334239.288248062 0 19334239.288248062 17289661.528572083 0 0 0 0 7641411.299407959 -13558102.605017185 0 -13558102.605017185 19237623.195046425 0 0 0 0 46326960.044708252 41163320.941757202 0 41163320.941757202 20808505.968377352 0 0 0 0 84020937.770507812 25981179.731051922 0 25981179.731051922 17775162.735654756 0 0 0 0 37483579.189231873 46952312.679168463 0 46952312.679168463 137273605.20418024 0 0 0 0 53853094.284912109 83906046.767307281 0 83906046.767307281 78673370.922276616 0 0 0 0 34930228.766662598 34679409.252565622 0 34679409.252565622 68507716.816634178 0 0 0 0 83078162.082481384 134628791.92620337 0 134628791.92620337 119710732.02068201 0 0 0 0 667186.87176209688 143154.98456343077 0 143154.98456343077 -266690.25190637505 0 0 0 0 7118890.244468689 -24198598.632532358 0 -24198598.632532358 -10061645.672496319 0 0 0 0 -6745157.4736022949 17428374.666495562 0 17428374.666495562 32591201.504338026 0 0 0 0 46256189.812309265 -19351271.691621184 0 -19351271.691621184 52066994.33480382 0 0 0 0 186828792.59153748 53404430.534686923 0 53404430.534686923 11250647.837594688 0 0 0 0 19491198.845504761 38071857.439964414 0 38071857.439964414 62258707.787434816 0 0 0 0 80823116.017697811 35983814.503454328 0 35983814.503454328 4336798.5984634161 0 0 0 0 31543802.736022949 13230604.118856549 0 13230604.118856549 2818545.75986211 0 0 0 0 75715987.326383114 -10407347.459469192 0 -10407347.459469192 -7310547.205650568 0 0 0 0 -2794936.4174110889 -1533560.4797428437 0 -1533560.4797428437 1578565.2483658791 0 0 0 0 445030.43795013428 3210354.0987393856 0 3210354.0987393856 7400090.2338751554 0 0 0 0 -3873409.3030166626 11445024.475258827 0 11445024.475258827 16026517.644923061 0 0 0 0 19292473.069704533 22313131.089356162 0 22313131.089356162 15052510.243173122 0 0 0 0 -15946053.189277649 -13378649.819432497 0 -13378649.819432497 22529300.152804613 0 0 0 0 -10929594.688865662 -23728822.248683929 0 -23728822.248683929 3350613.5858726501 0 0 0 0 -14459503.77338028 -7576411.8562048078 0 -7576411.8562048078 -6835129.7442235947 0 0 0 0 -9232527.4282341003 -16719885.006063819 0 -16719885.006063819 -6291222.7021300793 0 0 0 0 653137.22970246524 -446887.24508076627 0 -446887.24508076627 -369354.36345284467 0 0 0 0 2989966.9599533081 581282.96590793133 0 581282.96590793133 -601501.07212603092 0 0 0 0 10436602.827774048 -7817239.8749448061 0 -7817239.8749448061 -27988305.327046275 0 0 0 0 18804642.913284302 2729544.0396599174 0 2729544.0396599174 -32006131.125793219 0 0 0 0 22700754.715484619 24914182.780546427 0 24914182.780546427 -22857791.454084754 0 0 0 0 6346633.8129216321 -186638.98577813525 0 -186638.98577813525 -936049.25754824793 0 0 0 0 -12394440.915084839 -11012592.700297356 0 -11012592.700297356 -14715109.594995975 0 0 0 0 -37863234.30223465 8648990.0548658371 0 8648990.0548658371 50012724.618960857 0 0 0 0 317226.11664135754 139906.96443327749 0 139906.96443327749 -93812.416337011906 0 0 0 0 22171917.074478149 -22340615.511176109 0 -22340615.511176109 27423226.679759026 0 0 0 0 72044661.358703613 -30670005.991608143 0 -30670005.991608143 6081999.6770496368 0 0 0 0 1258685.1681060791 18596905.404974699 0 18596905.404974699 19126909.559398651 0 0 0 0 975445.76061465964 380193.10698186792 0 380193.10698186792 -313039.36686010333 0 0 0 0 -4130595.3020153046 -4227805.5518015623 0 -4227805.5518015623 17390577.099387646 0 0 0 0 -891062.62659263611 3952112.7940919697 0 3952112.7940919697 417086.33814382553 0 0 0 0 3613641.7332072258 -6963670.4366427958 0 -6963670.4366427958 780413.85048627853 0 0 0 0 -34070.302032470703 -1674937.2387001514 0 -1674937.2387001514 5542107.9938819408 0 0 0 0 3666408.7040424347 -6462311.7009332478 0 -6462311.7009332478 4854826.4968137741 0 0 0 0 27715990.238754272 -2719839.9431111813 0 -2719839.9431111813 -7716950.5130618215 0 0 0 0 29524258.521102905 8631464.64811939 0 8631464.64811939 -15127860.059280157 0 0 0 0 4002392.3909454346 409157.76676630974 0 409157.76676630974 -7518043.6183019578 0 0 0 0 42795241.148368835 -12838237.935041189 0 -12838237.935041189 -5935190.8083534241 0 0 0 0 26749054.927215576 -14535485.340879917 0 -14535485.340879917 7343832.0565185547 0 0 0 0 27683112.544717789 -11977780.884724528 0 -11977780.884724528 -1751674.6540970802 0 0 0 0 107861684.33569336 29516466.92879945 0 29516466.92879945 -6660358.3143930435 0 0 0 0 51479693.366224289 9251006.3457520604 0 9251006.3457520604 -14654718.710647583 0 0 0 0 3782013.8526687622 22641732.559876204 0 22641732.559876204 -6261266.8892951012 0 0 0 0 -7177212.7331619263 3040177.4470059872 0 3040177.4470059872 -185648.70894646645 0 0 0 0 -6211420.0342617035 2686469.6393278241 0 2686469.6393278241 -452604.59528064728 0 0 0 0 -5603568.1717071533 6707138.7250721455 0 6707138.7250721455 191458.46632239223 0 0 0 0 35668964.205528259 -4587636.8148977757 0 -4587636.8148977757 -8994307.8275774717 0 0 0 0 9842755.1844787598 1793895.4458998442 0 1793895.4458998442 -10554400.814825654 0 0 0 0 -2422863.5607147217 10932202.281944752 0 10932202.281944752 7909137.6649596691 0 0 0 0 32688489.349756241 15650002.725679845 0 15650002.725679845 -8482438.2793316841 0 0 0 0 -7042942.6386604309 3575356.1900167465 0 3575356.1900167465 -2154492.8898730278 0 0 0 0 -1971767.3912200928 4196303.8388950825 0 4196303.8388950825 -2181591.6994554996 0 0 0 0 8964697.9600524902 -2734301.2489862442 0 -2734301.2489862442 -881740.21601295471 0 0 0 0 5245298.1416662857 -198993.86677952763 0 -198993.86677952763 -2123349.197811259 0 0 0 0 3773000.374961853 12137511.192466617 0 12137511.192466617 -12799625.516848803 0 0 0 0 6917383.4461364746 -856270.9026927948 0 -856270.9026927948 -3123833.8202490807 0 0 0 0 4790943.3964233398 -5449747.3037953377 0 -5449747.3037953377 -2402169.9644036293 0 0 0 0 6208788.5939712524 -3092601.2772883177 0 -3092601.2772883177 -5244098.3688926697 0 0 0 0 -848915.07404327393 3734832.779958725 0 3734832.779958725 -12484590.264047265 0 0 0 0 29939643.389442444 -8293480.2301080227 0 -8293480.2301080227 -24895946.550945759 0 0 0 0 3599572.680411391 -1039957.1310685426 0 -1039957.1310685426 -1280979.2866721256 0 0 0 0 544273.47521972656 -1434780.3974766731 0 -1434780.3974766731 -3394952.83773458 0 0 0 0 3308107.4585217908 -2228801.1908316016 0 -2228801.1908316016 -2051528.0175193227 0 0 0 0 112626.88146457076 221885.10274205729 0 221885.10274205729 -146340.1218316076 0 0 0 0 12767169.950714111 -7202614.0186252594 0 -7202614.0186252594 -6752046.9967765808 0 0 0 0 2540792.9249575511 -15107.475465320051 0 -15107.475465320051 -990355.61741883471 0 0 0 0 5242204.3356018066 -339884.1292694062 0 -339884.1292694062 -2663264.1105035245 0 0 0 0 -17793968.862297058 -19132576.14569509 0 -19132576.14569509 -19148007.470116317 0 0 0 0 551202.89611816406 -7603454.8320016861 0 -7603454.8320016861 -13771380.118442267 0 0 0 0 -601222.21730419993 -1644550.3246485079 0 -1644550.3246485079 -490756.70295314246 0 0 0 0 -24597310.787101746 -5777819.2709106803 0 -5777819.2709106803 1950801.7781778574 0 0 0 0 9348445.6386528015 -5160617.1648353934 0 -5160617.1648353934 -12993290.374444485 0 0 0 0 -3746252.0936431885 -20870386.09410423 0 -20870386.09410423 -866422.26080107689 0 0 0 0 6145127.1461866647 -290215.84721902758 0 -290215.84721902758 -1175804.9185374603 0 0 0 0 1870733.7414703369 -13272473.770600796 0 -13272473.770600796 -8702961.0530970097 0 0 0 0 505563.30281509086 -2585978.9261120115 0 -2585978.9261120115 -1012668.445730742 0 0 0 0 24862353.376912117 -25175587.150280416 0 -25175587.150280416 13282160.483691454 0 0 0 0 -6087776.9076309204 -968358.00474846363 0 -968358.00474846363 -4773812.6744440794 0 0 0 0 134000.86047841609 -584316.66610700847 0 -584316.66610700847 -280015.93921527121 0 0 0 0 183099.46220131218 -495030.74702834524 0 -495030.74702834524 -574017.57902816404 0 0 0 0 38763984.284645081 1272900.2711243629 0 1272900.2711243629 725346.57051467896 0 0 0 0 4125058.5196075439 61658351.959727287 0 61658351.959727287 -1454546.4367866516 0 0 0 0 50787240.58895874 22377518.195140839 0 22377518.195140839 32497902.117570877 0 0 0 0 61805193.876953125 11234272.182646751 0 11234272.182646751 16014333.407719135 0 0 0 0 4613625.7635955811 6137321.9469349384 0 6137321.9469349384 7919516.5699155331 0 0 0 0 5168227.7322387695 4945793.1377191544 0 4945793.1377191544 5440436.8234717697 0 0 0 0 9566705.5762329102 2682473.214263916 0 2682473.214263916 4007463.3104438782 0 0 0 0 733658.50783680566 -78196.321316482499 0 -78196.321316482499 454827.71198417479 0 0 0 0 287263.17622336745 170750.46447769366 0 170750.46447769366 -73899.893242757418 0 0 0 0 3681219.7424795702 1791957.7714957539 0 1791957.7714957539 -697400.15012618725 0 0 0 0 11892322.38571167 3418336.0802097321 0 3418336.0802097321 -1742488.8599090576 0 0 0 0 -20639.838757514954 -167682.41007536161 0 -167682.41007536161 -71200.560826988847 0 0 0 0 4614581.6809711456 6091410.7484148219 0 6091410.7484148219 10116255.59558773 0 0 0 0 38464459.458465576 35381934.229397297 0 35381934.229397297 21907238.614709854 0 0 0 0 31689835.732032776 6945577.6091365814 0 6945577.6091365814 19953274.005281448 0 0 0 0 35113117.012341022 32773320.927575022 0 32773320.927575022 19981769.8695755 0 0 0 0 41702114.754188538 30518227.035530567 0 30518227.035530567 20301141.700145721 0 0 0 0 73488012.140594482 39132077.917397499 0 39132077.917397499 22226299.959973812 0 0 0 0 61350150.077102661 6866590.058318615 0 6866590.058318615 33006722.3385849 0 0 0 0 50625882.207565308 19375336.037462711 0 19375336.037462711 52655915.119350433 0 0 0 0 21620349.102478027 50508456.094344139 0 50508456.094344139 70141929.935930252 0 0 0 0 441831.22455366701 -249538.05537900794 0 -249538.05537900794 -414679.82538498077 0 0 0 0 27498832.741235733 21878603.549354494 0 21878603.549354494 27079519.14094162 0 0 0 0 3943742.1997584999 62298.215361870825 0 62298.215361870825 -2268239.0327986721 0 0 0 0 -461089.38826751709 -3424790.6778403521 0 -3424790.6778403521 -5223065.1776230335 0 0 0 0 -807958.98239517212 -2037405.8621549606 0 -2037405.8621549606 -4326399.8813352585 0 0 0 0 26955774.87165451 29584356.17815882 0 29584356.17815882 20495828.625570297 0 0 0 0 38053238.738998413 36076040.482522488 0 36076040.482522488 23629867.085988402 0 0 0 0 42854651.787452698 31232667.685782433 0 31232667.685782433 14772420.150105953 0 0 0 0 32216699.113188744 14515915.411683023 0 14515915.411683023 4619464.5556697845 0 0 0 0 -15849400.866241455 -3728984.4807617664 0 -3728984.4807617664 -3038768.4307082891 0 0 0 0 4472630.1229922548 -386903.64762494713 0 -386903.64762494713 -1677689.0323266052 0 0 0 0 -6832802.1940097809 551815.53637380898 0 551815.53637380898 -4559833.5776154995 0 0 0 0 -28888.918426513672 -1650791.6709592342 0 -1650791.6709592342 -7564091.2149355412 0 0 0 0 197115.25777516142 178624.34317012597 0 178624.34317012597 -551855.40807162761 0 0 0 0 -4087248.6306381226 1354878.716445446 0 1354878.716445446 -2399934.7628827095 0 0 0 0 -2515078.7380504608 2645898.7338470817 0 2645898.7338470817 -5081506.1621637344 0 0 0 0 4285742.0649541132 -566783.84941717423 0 -566783.84941717423 -2323822.3559418255 0 0 0 0 625397.373046875 -1111471.2675175667 0 -1111471.2675175667 -1736923.0199985504 0 0 0 0 2327217.2420349121 400405.86070728302 0 400405.86070728302 -4662705.3757696152 0 0 0 0 150723.98875012994 -1460420.0597438049 0 -1460420.0597438049 -604488.20860761846 0 0 0 0 1730963.9940073229 845283.70147049055 0 845283.70147049055 -1595389.6328718874 0 0 0 0 2797561.4409790039 -1980533.7437195778 0 -1980533.7437195778 1577855.7711107731 0 0 0 0 2238825.3475570679 1830328.3972369432 0 1830328.3972369432 -3370567.3967580795 0 0 0 0 4756876.5049991608 1825529.1590731144 0 1825529.1590731144 -1747660.3028783798 0 0 0 0 2870952.0509945713 -2191.9708573948592 0 -2191.9708573948592 -2375559.2495350577 0 0 0 0 1688932.2614059448 -1912462.5653311014 0 -1912462.5653311014 -3375110.2138466835 0 0 0 0 2611838.0203396566 622276.4923253227 0 622276.4923253227 -2213949.4780237544 0 0 0 0 -66466.327054955065 -1786405.3142906809 0 -1786405.3142906809 -339664.05539783486 0 0 0 0 1620580.2558460236 -4409844.6319910288 0 -4409844.6319910288 -9936475.341422081 0 0 0 0 -407782.3189239502 -1300566.3067464828 0 -1300566.3067464828 -5942210.8845672607 0 0 0 0 1507601.132075917 -3153886.7009251006 0 -3153886.7009251006 -1830172.0165210874 0 0 0 0 1151653.1347971335 -2663009.0404951638 0 -2663009.0404951638 -1280417.5187439867 0 0 0 0 704816.98900604248 -1676044.812068224 0 -1676044.812068224 -2461498.0016584396 0 0 0 0 1560217.218617782 -357443.10586152785 0 -357443.10586152785 -1367538.3065757465 0 0 0 0 96023065.546073914 45266488.232601166 0 45266488.232601166 20992355.235738754 0 0 0 0 85791608.006088257 58678790.091427803 0 58678790.091427803 7484309.1470298767 0 0 0 0 143471.412940979 -1125604.7467899323 0 -1125604.7467899323 -2134100.8781757355 0 0 0 0 -1288046.5636138916 -1307237.8455610275 0 -1307237.8455610275 -4838941.1170492172 0 0 0 0 4024105.9198608398 1698736.3113708496 0 1698736.3113708496 -6719490.8574471474 0 0 0 0 -1442779.0638504028 -1875839.1386833191 0 -1875839.1386833191 -6587051.5162687302 0 0 0 0 -4081473.5655937195 -7741512.2876739502 0 -7741512.2876739502 -8744055.0267028809 0 0 0 0 -499373.696984604 -1324219.743597432 0 -1324219.743597432 300547.98242931394 0 0 0 0 1371502.3427545242 254792.72372989915 0 254792.72372989915 -1353805.6000453585 0 0 0 0 913170.96325683594 -7944847.4814300537 0 -7944847.4814300537 -17159429.833321571 0 0 0 0 207326.4493560791 -4574784.6779241562 0 -4574784.6779241562 -9259966.4290108681 0 0 0 0 2292523.031829834 476152.31627845764 0 476152.31627845764 -13101455.409205437 0 0 0 0 -408985.16728210449 -1758287.361779213 0 -1758287.361779213 -2664602.8789463043 0 0 0 0 20900065.04813385 101645309.33806419 0 101645309.33806419 76535008.694958687 0 0 0 0 81572237.227422714 44126038.610924721 0 44126038.610924721 -23356881.134191513 0 0 0 0 5450210.3413879797 2516575.7253562617 0 2516575.7253562617 -88542.32894419739 0 0 0 0 5016766.9439544678 3084860.9963641167 0 3084860.9963641167 1429585.3120989799 0 0 0 0 1210323.1906131729 251104.86531280167 0 251104.86531280167 -242988.4340160368 0 0 0 0 6219249.9165458679 722847.73977673054 0 722847.73977673054 -2060275.3721609116 0 0 0 0 2913193.0243711472 6618895.2790820599 0 6618895.2790820599 -906433.61754870415 0 0 0 0 206145.36326590553 -710826.51785511035 0 -710826.51785511035 -520336.57263219368 0 0 0 0 14221733.72832489 -1234719.6150808334 0 -1234719.6150808334 -28399500.64756012 0 0 0 0 -44004477.830257416 -19830393.170583725 0 -19830393.170583725 24953974.349707603 0 0 0 0 12850622.273880005 -4466358.8872661591 0 -4466358.8872661591 -22371875.127420425 0 0 0 0 692895.66622788087 -2417055.0218896791 0 -2417055.0218896791 -1704332.2740145873 0 0 0 0 1600629.7727203369 -4217002.3713598251 0 -4217002.3713598251 -4802352.9259729385 0 0 0 0 4291236.4216123633 -58656.322207883 0 -58656.322207883 -1591003.0790766682 0 0 0 0 783851.90878295898 -6591390.1332015991 0 -6591390.1332015991 -3711855.8452583551 0 0 0 0 4788072.8303184509 40643.519716739655 0 40643.519716739655 -1650804.086183548 0 0 0 0 4076469.0830078125 -1540605.3459434509 0 -1540605.3459434509 -98744.845598220825 0 0 0 0 5303809.2199935913 -2676225.6152615547 0 -2676225.6152615547 -3407801.6865460575 0 0 0 0 6318778.6693267822 -2378501.448117733 0 -2378501.448117733 -1870167.5478067398 0 0 0 0 276639.55125864595 -343515.47306219675 0 -343515.47306219675 -270296.37866867438 0 0 0 0 8523531.8201761246 -49184.450801178813 0 -49184.450801178813 -2250835.5724210739 0 0 0 0 6103040.8548126221 915748.00878000259 0 915748.00878000259 1284069.5840411186 0 0 0 0 8459482.3410840034 -3095051.1297719777 0 -3095051.1297719777 -2792099.5716161728 0 0 0 0 222116.7452545166 -647434.69304227829 0 -647434.69304227829 -688928.31565546989 0 0 0 0 3160013.5922088623 552028.92832159996 0 552028.92832159996 -3020417.3664923906 0 0 0 0 3417520.3684005737 167761.273239851 0 167761.273239851 -6173993.7728545666 0 0 0 0 3084418.6883773804 -1339698.4338489771 0 -1339698.4338489771 -1584825.0945997238 0 0 0 0 2855198.4827605337 -2274663.7451792844 0 -2274663.7451792844 -2312827.7713253107 0 0 0 0 1722070.3454856873 -2351741.7512811893 0 -2351741.7512811893 -1802859.5242639901 0 0 0 0 1050371.7941951752 -2853989.8861183226 0 -2853989.8861183226 -2180511.357755661 0 0 0 0 3927203.4165115356 -881722.5979872942 0 -881722.5979872942 -10758648.683425665 0 0 0 0 1446757.5871200562 430788.83881604671 0 430788.83881604671 -19501198.832175255 0 0 0 0 1909917.1657867432 -2099696.224241972 0 -2099696.224241972 -6924639.1024360657 0 0 0 0 281765.72691938654 79281.617831302807 0 79281.617831302807 -204072.55023965321 0 0 0 0 -6701.5590896606445 -3513632.2940803468 0 -3513632.2940803468 -3919482.1640388966 0 0 0 0 3379465.4219833389 -376140.06581473164 0 -376140.06581473164 -749834.17734374141 0 0 0 0 2785368.1905016229 90538.883236186579 0 90538.883236186579 5075.3366189977387 0 0 0 0 185710944.34716797 -146079039.63775074 0 -146079039.63775074 -10511914.240103722 0 0 0 0 2110355.1758651733 -1409860.4070398808 0 -1409860.4070398808 -4682694.2662014961 0 0 0 0 59273450.216716766 -52896177.120447338 0 -52896177.120447338 -33824576.100546792 0 0 0 0 36400814.630886078 -6368615.8126147371 0 -6368615.8126147371 -87202290.875587434 0 0 0 0 5291534.864408493 -16107120.62527144 0 -16107120.62527144 -13719986.464763448 0 0 0 0 3700930.8088989258 -19567896.480164569 0 -19567896.480164569 -16261081.711912639 0 0 0 0 -28605682.914901733 -18652125.690298155 0 -18652125.690298155 -114810.60292121299 0 0 0 0 2355441.8888566941 -1338992.1969453357 0 -1338992.1969453357 -624778.5626642413 0 0 0 0 -33755884.040145874 -33074191.112203196 0 -33074191.112203196 -28278151.523312278 0 0 0 0 468732.16142463684 -3079255.5359750986 0 -3079255.5359750986 -5333309.8578350544 0 0 0 0 -56538128.601150513 -1445297.4960066602 0 -1445297.4960066602 -21369705.028772287 0 0 0 0 4837271.4620819092 -2674056.3313400745 0 -2674056.3313400745 -2061632.7647433281 0 0 0 0 3003955.0825317353 364288.04643493518 0 364288.04643493518 -338136.2668434463 0 0 0 0 4093975.4761047363 -227138.42259526253 0 -227138.42259526253 -1985567.0581227541 0 0 0 0 -21549221.72441864 -6158802.7532976083 0 -6158802.7532976083 82524.793797343867 0 0 0 0 -7383459.9546203613 -16417503.80227801 0 -16417503.80227801 -19702860.948096011 0 0 0 0 -26689367.283470154 -17739161.252735611 0 -17739161.252735611 -16373079.727702651 0 0 0 0 -9056382.8424301147 -8820511.4586288445 0 -8820511.4586288445 -19873703.149256665 0 0 0 0 -20163428.50012207 -13674371.526802063 0 -13674371.526802063 5279618.6870632172 0 0 0 0 -25046373.049316406 9337704.5465549137 0 9337704.5465549137 -15044099.078041563 0 0 0 0 7999351.6480560303 -7149600.4819703102 0 -7149600.4819703102 -12984598.810400963 0 0 0 0 4085031.6666705012 -584218.41295907088 0 -584218.41295907088 -660127.15711482195 0 0 0 0 153246708.22781372 -122985820.01949196 0 -122985820.01949196 -119622.52262267756 0 0 0 0 35977003.594848633 16591845.900519371 0 16591845.900519371 -8927991.0400543213 0 0 0 0 3399742.0768318176 -982236.62695658207 0 -982236.62695658207 10447091.574204445 0 0 0 0 5239390.389465332 1188470.0758562088 0 1188470.0758562088 -2245452.6324634552 0 0 0 0 12758852.175628662 3759185.6402485371 0 3759185.6402485371 -1552043.5305421352 0 0 0 0 9632340.0465393066 -5759929.78353405 0 -5759929.78353405 3643032.559923172 0 0 0 0 -564062.92118990421 -597440.46895677038 0 -597440.46895677038 170546.25479936646 0 0 0 0 4895608.3873555586 -508679.18349206448 0 -508679.18349206448 -955877.74803270213 0 0 0 0 4193097.5661315918 1697258.8896639347 0 1697258.8896639347 793280.25585985184 0 0 0 0 6068434.6757202148 6080895.870803535 0 6080895.870803535 -69871575.574447632 0 0 0 0 2217813.7412605286 972669.90369427204 0 972669.90369427204 -53407836.453802109 0 0 0 0 13137460.164474487 7785279.5694514662 0 7785279.5694514662 -43643170.931953624 0 0 0 0 -12234263.718984127 27289374.084193878 0 27289374.084193878 -46579473.458362669 0 0 0 0 -10256080.899612427 -1319701.781960547 0 -1319701.781960547 -47010931.751680732 0 0 0 0 -18498108.273292542 10122716.318360418 0 10122716.318360418 -1936276.6649985313 0 0 0 0 -24052677.683883667 -6809074.8078462929 0 -6809074.8078462929 -5647443.1101698279 0 0 0 0 3255466.8617858887 -2813785.2459348142 0 -2813785.2459348142 -5180417.4938632846 0 0 0 0 1970872.8236999512 -2644647.043274641 0 -2644647.043274641 -5875883.7204931974 0 0 0 0 1849890.4423999935 -2591236.3713327907 0 -2591236.3713327907 -1620441.5886072873 0 0 0 0 3240530.0774671957 866980.73333839211 0 866980.73333839211 -907025.65454638936 0 0 0 0 -1032336.6551132202 -8830657.6454574168 0 -8830657.6454574168 -2956878.4134645462 0 0 0 0 210185.88654144108 56585.860103746876 0 56585.860103746876 -240744.90128843463 0 0 0 0 4460075.8112106323 -5268377.7539118528 0 -5268377.7539118528 -17334853.86888504 0 0 0 0 4579066.1076485962 472430.07509757904 0 472430.07509757904 -1128281.6257865878 0 0 0 0 12693576.133651733 2704172.8406604528 0 2704172.8406604528 -63688335.585768774 0 0 0 0 7917016.0197868347 -4356117.9332736433 0 -4356117.9332736433 -5967874.2628097534 0 0 0 0 -6076008.3177185059 -5263061.6470246315 0 -5263061.6470246315 13121508.840473175 0 0 0 0 8463111.5680389404 3313600.5493955612 0 3313600.5493955612 -4327203.4784419537 0 0 0 0 8838402.4271240234 19692597.902891457 0 19692597.902891457 -5496613.6660943031 0 0 0 0 10593701.480834961 4773471.3063893318 0 4773471.3063893318 -20593688.093274474 0 0 0 0 2779147.2128141001 -1803748.3025267196 0 -1803748.3025267196 -1137696.1449761419 0 0 0 0 994083.61161804199 -2869217.1775759459 0 -2869217.1775759459 -3881563.9803932905 0 0 0 0 6751590.4370422363 -3986982.7892618179 0 -3986982.7892618179 -17485053.998902798 0 0 0 0 -3901183.2462921143 128631.53968882561 0 128631.53968882561 -17490420.70741272 0 0 0 0 2017301.3391113281 -1316632.6175198555 0 -1316632.6175198555 -5693600.8314042091 0 0 0 0 -4100379.2022399902 -5700512.9508707523 0 -5700512.9508707523 -8527873.9924974442 0 0 0 0 3223982.23620224 -5687346.7278056741 0 -5687346.7278056741 -8357202.9612483978 0 0 0 0 10645451.589996338 -2989822.1881856918 0 -2989822.1881856918 -5521842.5706127612 0 0 0 0 8329163.0433349609 923419.39231014252 0 923419.39231014252 -11601171.065107346 0 0 0 0 8270127.3307290077 -773866.29684402794 0 -773866.29684402794 -7562520.7802219391 0 0 0 0 13936901.355865479 -1648642.4906625748 0 -1648642.4906625748 -7919866.6208200455 0 0 0 0 137539.86540029943 176435.12880536169 0 176435.12880536169 63551.935690841703 0 0 0 0 -34681489.423492432 -14515235.543006986 0 -14515235.543006986 -46851868.912440956 0 0 0 0 -201571547.30819702 67979609.634823352 0 67979609.634823352 -73103146.761414111 0 0 0 0 3980704.3057899401 471878.54816760309 0 471878.54816760309 -773733.52187180496 0 0 0 0 14645895.049560547 -23792422.134371042 0 -23792422.134371042 -89485620.265894532 0 0 0 0 8764244.9433441162 22341365.104972631 0 22341365.104972631 -41170994.025224067 0 0 0 0 -6306823.374420166 -14684322.546690375 0 -14684322.546690375 -73268406.540582538 0 0 0 0 29710376.256774902 9980204.5074101835 0 9980204.5074101835 -79390118.967481077 0 0 0 0 -41589818.713996887 -33073378.395578101 0 -33073378.395578101 7952375.7622156516 0 0 0 0 31710070.750061035 -60867426.615147814 0 -60867426.615147814 -1903638.9404550903 0 0 0 0 24352086.047874451 -34853041.004457124 0 -34853041.004457124 322236.17684385047 0 0 0 0 93181906.942581177 6284482.8236271264 0 6284482.8236271264 10410833.856616145 0 0 0 0 942823.56832885742 532001.91406661773 0 532001.91406661773 541.9062591346152 0 0 0 0 252943.39198759198 318404.54119108804 0 318404.54119108804 163339.03722222842 0 0 0 0 53375205.05581665 87907714.385925189 0 87907714.385925189 134552808.50690511 0 0 0 0 32111007.794910431 98367325.49426119 0 98367325.49426119 130178584.56856401 0 0 0 0 103170140.21929932 41212635.258269481 0 41212635.258269481 -124844877.19854316 0 0 0 0 373194.78032452613 469268.28016356938 0 469268.28016356938 176307.42992518036 0 0 0 0 -3002709.3193054199 586044.01959684491 0 586044.01959684491 -20287591.890466657 0 0 0 0 94834586.953842163 -171692942.82909715 0 -171692942.82909715 22483119.129683957 0 0 0 0 -2236882.854598999 -23318184.104197204 0 -23318184.104197204 16429161.22353892 0 0 0 0 -158496844.31526947 164183290.66713575 0 164183290.66713575 400541238.33016884 0 0 0 0 179941.89435400069 399706.14446059708 0 399706.14446059708 179535.90086209658 0 0 0 0 28441072.258300781 63725870.488069385 0 63725870.488069385 103513377.74307367 0 0 0 0 17909856.096420288 202715.45933130383 0 202715.45933130383 -65190589.200979948 0 0 0 0 -1556288.1721038818 20085530.056645319 0 20085530.056645319 -4550298.4484413564 0 0 0 0 247654.82696621865 302789.54484864604 0 302789.54484864604 61604.636590982489 0 0 0 0 942684.73572540283 532420.975998624 0 532420.975998624 -92.261253918585112 0 0 0 0 8879818.4062576294 5091841.5013277009 0 5091841.5013277009 -7824980.1691747308 0 0 0 0 2028407.0585632324 505291.3534647628 0 505291.3534647628 -50065.459220691642 0 0 0 0 695979.70674924552 797144.43485029321 0 797144.43485029321 74759.573542286846 0 0 0 0 75677421.268096924 76226099.803759873 0 76226099.803759873 85951300.102675825 0 0 0 0 828705.45499272645 658315.42381211766 0 658315.42381211766 73960.776166721043 0 0 0 0 -2265359.9192504883 2158173.1117331535 0 2158173.1117331535 1366155.7434607595 0 0 0 0 2889331.1509598866 238648.73308243789 0 238648.73308243789 -42201.431889269741 0 0 0 0 2068998.5862169266 395967.15067376086 0 395967.15067376086 -608.55006821345842 0 0 0 0 -33271790.871192932 33403776.253265738 0 33403776.253265738 34704889.947479963 0 0 0 0 -38225908.618103027 82863050.539346457 0 82863050.539346457 -132927915.66585141 0 0 0 0 -327155.78061807156 1416370.2692024624 0 1416370.2692024624 -113549.20117007157 0 0 0 0 28118898.659179688 -9222861.1827748418 0 -9222861.1827748418 8468335.7012848072 0 0 0 0 63914.386678144336 186069.61963537708 0 186069.61963537708 263380.15096631949 0 0 0 0 -32934029.349143982 85242840.430215389 0 85242840.430215389 15276351.04287827 0 0 0 0 -24453835.278778076 19250413.425490618 0 19250413.425490618 55934466.439236075 0 0 0 0 -40182712.773712158 104749119.15789342 0 104749119.15789342 98185643.473833174 0 0 0 0 -24334149.2174505 54534208.110823072 0 54534208.110823072 315950627.5796783 0 0 0 0 98305219.893844604 104936826.16646367 0 104936826.16646367 38025855.312438801 0 0 0 0 -45362881.192550659 3375880.6217778921 0 3375880.6217778921 -27130192.526962399 0 0 0 0 27060413.691757202 -46802695.722520411 0 -46802695.722520411 -77186299.010667533 0 0 0 0 83152848.121911049 -16244634.103437165 0 -16244634.103437165 -61089266.764175177 0 0 0 0 22409948.562164307 -32867989.533002108 0 -32867989.533002108 -4821930.9537934661 0 0 0 0 1149945.4598190114 -273421.76583381742 0 -273421.76583381742 -318229.49173608428 0 0 0 0 25268875.326255798 33865721.288461924 0 33865721.288461924 -114050093.29229814 0 0 0 0 1956847.0958954319 249607.51629064372 0 249607.51629064372 -325837.88272724242 0 0 0 0 -4792170.2835845947 -7088471.6849445254 0 -7088471.6849445254 -2809504.2730605304 0 0 0 0 1463803.388577871 294606.94909385638 0 294606.94909385638 -136451.6758754231 0 0 0 0 -1909134.6203937531 1057108.8956451342 0 1057108.8956451342 8384309.593645364 0 0 0 0 10480811.854827881 -29548349.784038275 0 -29548349.784038275 -36093005.499218598 0 0 0 0 176082568.74075317 151593852.51005742 0 151593852.51005742 67658390.337048247 0 0 0 0 79465270.941066742 3457543.2069416493 0 3457543.2069416493 -104639150.01351166 0 0 0 0 116514939.63964844 -128789873.47556081 0 -128789873.47556081 85448541.610938072 0 0 0 0 -19708821.750671387 34905881.61032933 0 34905881.61032933 -20670921.354081005 0 0 0 0 -22846931.680038452 -25067370.200207472 0 -25067370.200207472 46602981.558874846 0 0 0 0 -41611566.475967407 487354.7314157486 0 487354.7314157486 70583846.291219652 0 0 0 0 -37339739.279998779 -6143129.2226555347 0 -6143129.2226555347 25697264.468410254 0 0 0 0 -45835400.498260498 16441887.995975316 0 16441887.995975316 15366619.441063792 0 0 0 0 -43979023.986412048 52736579.92126976 0 52736579.92126976 51634364.407873929 0 0 0 0 5438755.1430969238 14359611.348349661 0 14359611.348349661 25058250.693212152 0 0 0 0 11207196.230819702 -111453512.87999642 0 -111453512.87999642 -50874459.338655047 0 0 0 0 2482921.598526001 50689042.344165087 0 50689042.344165087 161579467.32892871 0 0 0 0 548981.26443168521 211281.41292029992 0 211281.41292029992 6966.3845701714481 0 0 0 0 67296652.337745667 81829568.797604442 0 81829568.797604442 50330882.601268768 0 0 0 0 -30185084.055664062 -106203.40377021581 0 -106203.40377021581 33539051.317877769 0 0 0 0 69445458.684692383 43094888.108427159 0 43094888.108427159 31302168.210172184 0 0 0 0 31791515.715011597 -198864445.38579592 0 -198864445.38579592 28391998.208300769 0 0 0 0 143900281.17314148 88166862.795502111 0 88166862.795502111 29549307.652715679 0 0 0 0 583868.75823991746 127614.64022388798 0 127614.64022388798 -29132.489903623788 0 0 0 0 212645185.53297424 40963152.623272412 0 40963152.623272412 -2839181.114213828 0 0 0 0 72099985.444999695 8960175.9155868292 0 8960175.9155868292 122353434.02176654 0 0 0 0 120898091.25798798 16357016.442949241 0 16357016.442949241 -522527.73956499621 0 0 0 0 72990068.268936157 79917335.324975938 0 79917335.324975938 49799013.523706615 0 0 0 0 120099139.66119385 36692888.852222145 0 36692888.852222145 71166512.505856693 0 0 0 0 38294813.053619385 53032583.12091887 0 53032583.12091887 71116147.79555805 0 0 0 0 118549479.46351624 -18801036.812928468 0 -18801036.812928468 60050086.104365431 0 0 0 0 -36014811.145477295 20771336.493259311 0 20771336.493259311 13573536.675163355 0 0 0 0 104414595.73452759 57628535.394945383 0 57628535.394945383 36749399.772481799 0 0 0 0 76212557.614624023 85062828.770208478 0 85062828.770208478 48559835.221523568 0 0 0 0 87775187.138565063 95037526.397129864 0 95037526.397129864 65059238.455046415 0 0 0 0 36527092.987426758 109459387.15923047 0 109459387.15923047 62578952.511381924 0 0 0 0 2049863.2043151855 -8570.1616158182696 0 -8570.1616158182696 -318572.81522860378 0 0 0 0 184254581.20005798 26233612.160362601 0 26233612.160362601 -105382609.97973788 0 0 0 0 -52245.091479599476 439176.83564617718 0 439176.83564617718 -41791.535757902486 0 0 0 0 560525123.54447937 51372084.663986325 0 51372084.663986325 -88058775.19024539 0 0 0 0 737974325.24298096 792514412.15917599 0 792514412.15917599 454650028.04251587 0 0 0 0 1139107.0263404548 -288469.52913820324 0 -288469.52913820324 32098.767427199171 0 0 0 0 1246462.9258422852 -443883.3080740989 0 -443883.3080740989 -157428.18129494417 0 0 0 0 -49891734.103515625 131158654.70284283 0 131158654.70284283 128263040.83215612 0 0 0 0 -256270783.35545731 -292966930.95884627 0 -292966930.95884627 -62071403.90020752 0 0 0 0 -27391424.281448364 -182609291.30208266 0 -182609291.30208266 -163283857.11210465 0 0 0 0 1973416.5480083302 -370502.63602650631 0 -370502.63602650631 -134578.27906663925 0 0 0 0 2048508.2601881027 -35972.87312405034 0 -35972.87312405034 -390.59008425956432 0 0 0 0 1206363.3116416931 -355904.62168889644 0 -355904.62168889644 -74.255760026775022 0 0 0 0 13670258.871262074 204989691.67505568 0 204989691.67505568 -137530200.23835069 0 0 0 0 -42245068.522781372 -139749543.73614234 0 -139749543.73614234 225687997.61582792 0 0 0 0 94813521.513641357 -264814250.82516247 0 -264814250.82516247 -113944324.5434972 0 0 0 0 205167236.40959167 -156835439.41376126 0 -156835439.41376126 -377507712.47833836 0 0 0 0 615974.98255868256 -538259.16030258685 0 -538259.16030258685 -79951.04836992218 0 0 0 0 3295730.9102608562 -338133.4957899889 0 -338133.4957899889 -105897.47007171606 0 0 0 0 40492992.753211975 -10017258.319321454 0 -10017258.319321454 67638927.081629246 0 0 0 0 -118564032.46931458 40467448.92809242 0 40467448.92809242 134232320.45327389 0 0 0 0 113873964.23967743 -38613834.294589087 0 -38613834.294589087 -5693855.0471770056 0 0 0 0 -18812226.724784851 53893048.879860885 0 53893048.879860885 -24398674.808766652 0 0 0 0 83167798.070134521 102108997.32508518 0 102108997.32508518 -211852050.48227328 0 0 0 0 4916938.0131221935 -157212.49962827144 0 -157212.49962827144 -252743.24723709299 0 0 0 0 26522830.638523102 53870262.637739182 0 53870262.637739182 46435713.69051975 0 0 0 0 8783984.3186645508 43517614.184623063 0 43517614.184623063 82530309.797797397 0 0 0 0 -4366218.4942169189 32845821.142684996 0 32845821.142684996 91961528.209371448 0 0 0 0 15631005.235582352 32753928.995655999 0 32753928.995655999 55200897.546764851 0 0 0 0 10352231.651290894 26654692.312831759 0 26654692.312831759 58861734.284998357 0 0 0 0 401159.86263433844 1017152.4744428396 0 1017152.4744428396 -656134.551956943 0 0 0 0 -18044436.120620728 17631546.579597473 0 17631546.579597473 -11175059.965797693 0 0 0 0 18343634.253471375 17172868.258129954 0 17172868.258129954 34065435.969792664 0 0 0 0 7157305.3154907227 1326639.2148510069 0 1326639.2148510069 -8445953.9862903655 0 0 0 0 1477122.167770721 1080665.4752652391 0 1080665.4752652391 -88469.946348176396 0 0 0 0 843566.94342312962 957647.4121244601 0 957647.4121244601 -83871.949889489711 0 0 0 0 1709233.4426574707 -1050059.4832242131 0 -1050059.4832242131 -4320054.3612930179 0 0 0 0 528838.22740754858 975756.73376189731 0 975756.73376189731 -565333.52321318863 0 0 0 0 -1856782.4484977722 -723933.18556603789 0 -723933.18556603789 1198322.7029441595 0 0 0 0 96349205.766534805 241220481.30204594 0 241220481.30204594 142860737.71433681 0 0 0 0 125223603.3661232 -79750640.120258272 0 -79750640.120258272 87736845.193719447 0 0 0 0 -54879732.911346436 51724031.641050965 0 51724031.641050965 32472344.123191208 0 0 0 0 -102536431.22827148 -57846913.722771809 0 -57846913.722771809 23549911.320631266 0 0 0 0 -42041726.764282227 14219841.034622729 0 14219841.034622729 38553951.221982926 0 0 0 0 171514.45436576009 344907.88803249225 0 344907.88803249225 -268921.59309001325 0 0 0 0 218508.38246721029 299613.53254149668 0 299613.53254149668 -148009.80910352845 0 0 0 0 -11566423.807434082 -3333724.5847174823 0 -3333724.5847174823 11502255.357995942 0 0 0 0 33972438.209640503 70980632.66557014 0 70980632.66557014 -129645435.87224099 0 0 0 0 25481368.216308594 32304293.040963084 0 32304293.040963084 40432121.496297829 0 0 0 0 1250005.5873560235 663163.57678387524 0 663163.57678387524 -15789.474085899918 0 0 0 0 -10723157.823852539 19452511.109562069 0 19452511.109562069 50528669.155467138 0 0 0 0 28531337.69682312 4121341.9896224141 0 4121341.9896224141 -41580607.014724255 0 0 0 0 -3048105.8238372803 41058024.034289837 0 41058024.034289837 -16666658.192112386 0 0 0 0 36591304.414413452 6816770.8922591209 0 6816770.8922591209 9520966.2754734159 0 0 0 0 33802259.987017632 37032038.375185266 0 37032038.375185266 1830548.7899053097 0 0 0 0 2191456.2944107056 35845955.978035398 0 35845955.978035398 41050351.13748917 0 0 0 0 -3580838.3040485382 12764623.658787457 0 12764623.658787457 27491914.24040173 0 0 0 0 4165096.7236862183 -903832.13351035118 0 -903832.13351035118 -3080009.4094441682 0 0 0 0 -8610790.9452362061 34369480.779022276 0 34369480.779022276 33784889.103435755 0 0 0 0 52188568.482597351 -18799671.925677717 0 -18799671.925677717 -16119488.411024868 0 0 0 0 -6802.0242621302605 414580.1641793279 0 414580.1641793279 -167470.22822979378 0 0 0 0 65846653.48399353 45628257.637769103 0 45628257.637769103 -9955378.8098281026 0 0 0 0 79708080.74017334 -95673897.582982659 0 -95673897.582982659 124580987.35542202 0 0 0 0 16351143.455238342 25535528.092390597 0 25535528.092390597 -39014480.995120466 0 0 0 0 478714.69239364564 442739.11660373956 0 442739.11660373956 -275242.81715145969 0 0 0 0 -20297217.788787842 59244633.555570841 0 59244633.555570841 -3350502.6236035228 0 0 0 0 2613741.5210876465 10405146.286839098 0 10405146.286839098 8574754.189750433 0 0 0 0 78852.569274038076 1483232.8890334228 0 1483232.8890334228 -585157.38438598718 0 0 0 0 8048425.1033401489 17813164.202251792 0 17813164.202251792 12318977.962515175 0 0 0 0 -13612929.235191345 2049089.3974810839 0 2049089.3974810839 -1252999.385240674 0 0 0 0 -33916326.08000946 -17889573.298092186 0 -17889573.298092186 100612956.99180698 0 0 0 0 8969226.1603255272 -4397342.6757484749 0 -4397342.6757484749 43668431.845113039 0 0 0 0 315220.45397372544 24721.941181503236 0 24721.941181503236 11273.232913900632 0 0 0 0 4158738.7994432449 -3825567.0775758177 0 -3825567.0775758177 -6075810.4921474457 0 0 0 0 2183149.4631329849 -240268.10015965439 0 -240268.10015965439 -137924.53967498144 0 0 0 0 17137164.03616333 -2460771.7138977051 0 -2460771.7138977051 -6411021.3287043571 0 0 0 0 4182619.7562962547 428675.99810694903 0 428675.99810694903 -388613.07743960014 0 0 0 0 6569795.6385326385 5062555.3080950975 0 5062555.3080950975 -7012194.4996640682 0 0 0 0 4919312.0236968994 282677.52600002289 0 282677.52600002289 -4604703.6983571351 0 0 0 0 4164644.9019737244 1134109.9499970078 0 1134109.9499970078 -177909.31957870722 0 0 0 0 29353621.47202301 5095518.0331853032 0 5095518.0331853032 -31491355.5404284 0 0 0 0 -1581164.8733062744 21966333.572773278 0 21966333.572773278 -7531281.717165526 0 0 0 0 27555142.893592834 17709655.420108616 0 17709655.420108616 -7795444.1006503105 0 0 0 0 -21633729.842308044 12207080.752247214 0 12207080.752247214 1370101.2275006771 0 0 0 0 2872849.8757324219 31155406.155501068 0 31155406.155501068 -15863464.527223229 0 0 0 0 5017026.9709041715 576898.97525808774 0 576898.97525808774 -598093.04156374373 0 0 0 0 2952233.1867218018 5156462.4725087583 0 5156462.4725087583 -4835826.0747804642 0 0 0 0 13631855.406570435 11230338.220220625 0 11230338.220220625 -32990139.223350793 0 0 0 0 6576568.9376208931 265446.8416228313 0 265446.8416228313 -1408785.3227961229 0 0 0 0 8859735.6523284912 202581.11159306765 0 202581.11159306765 -23496049.436776042 0 0 0 0 8148577.8807678223 -1531442.9088054895 0 -1531442.9088054895 -25792628.941938996 0 0 0 0 2116968.3070373535 -1661479.4027609825 0 -1661479.4027609825 -3669325.274841547 0 0 0 0 2000667.2097167969 -562506.7972291708 0 -562506.7972291708 -3247427.0964229107 0 0 0 0 5985275.4376158491 -45800.88548806496 0 -45800.88548806496 -1715496.4109947225 0 0 0 0 5392479.9898900986 1792675.1543168463 0 1792675.1543168463 -1600708.7694247316 0 0 0 0 16889576.22127533 -7948061.0849197209 0 -7948061.0849197209 -15226063.168952227 0 0 0 0 24985658.578552246 -37073717.623329282 0 -37073717.623329282 12529126.162241578 0 0 0 0 38250532.598007202 -4713128.751429081 0 -4713128.751429081 -15111295.141408086 0 0 0 0 18096848.237861633 -17794739.845245004 0 -17794739.845245004 -19534076.699988604 0 0 0 0 4736230.2988414764 -31639957.430287145 0 -31639957.430287145 -17129197.583613873 0 0 0 0 36842136.722824097 2058614.9036910534 0 2058614.9036910534 -11174115.446102381 0 0 0 0 6575121.8062286377 -2821312.266244173 0 -2821312.266244173 1182264.9954991341 0 0 0 0 6654645.6540222168 -6495900.937202692 0 -6495900.937202692 3587164.6484832764 0 0 0 0 5624694.4523442239 -112711.41273229569 0 -112711.41273229569 -1166994.2115459528 0 0 0 0 3120770.5409317017 -2210403.0797321796 0 -2210403.0797321796 -4496143.5376665592 0 0 0 0 2038552.0458087325 641017.16074777395 0 641017.16074777395 -457398.6518562705 0 0 0 0 2184255.5689353943 -1590992.7524812818 0 -1590992.7524812818 -3009207.6142129898 0 0 0 0 2179399.4483718872 -1467281.6344960928 0 -1467281.6344960928 -2215975.9127106667 0 0 0 0 547335.76803588867 -1401114.2146177292 0 -1401114.2146177292 -1390072.8706727028 0 0 0 0 2735883.8251876831 -4916039.3100445271 0 -4916039.3100445271 -3213236.1871734262 0 0 0 0 2927513.2806315422 -4179698.6948397905 0 -4179698.6948397905 -4608090.6074807644 0 0 0 0 2840129.5900497437 -5005237.341801405 0 -5005237.341801405 -4446485.1686080098 0 0 0 0 2978872.2079315186 -3856165.6110692024 0 -3856165.6110692024 -3069849.7176651955 0 0 0 0 -10158786.952227592 -13709141.027685344 0 -13709141.027685344 -4421320.3083714247 0 0 0 0 5110733.1487687938 -312451.91705605015 0 -312451.91705605015 -964834.16315836599 0 0 0 0 -14077334.450668335 6731500.8074132204 0 6731500.8074132204 -944872.64178258181 0 0 0 0 -988170.53413772583 -8336792.2727301866 0 -8336792.2727301866 -8702152.6066762209 0 0 0 0 -8406476.3611373901 1129734.9735103548 0 1129734.9735103548 4812068.4566764832 0 0 0 0 -82687015.051940918 24240450.110673547 0 24240450.110673547 -20011203.779981852 0 0 0 0 77162366.546524048 -41286761.759461641 0 -41286761.759461641 -72471626.521531522 0 0 0 0 -34090.145433664322 -222938.54245720292 0 -222938.54245720292 -252887.5969856297 0 0 0 0 1152645.7702499107 -2353188.1525665363 0 -2353188.1525665363 -1098158.8575409479 0 0 0 0 19779010.773513794 13568350.335310578 0 13568350.335310578 -35375377.047529623 0 0 0 0 -38498645.548828125 -20681601.874271929 0 -20681601.874271929 773793.61764037609 0 0 0 0 -45334973.287841797 -6221770.8629944324 0 -6221770.8629944324 7467959.231618166 0 0 0 0 -20119283.298324585 8674710.2024853528 0 8674710.2024853528 -14308559.185939908 0 0 0 0 -29106114.454177856 -8745694.7997043133 0 -8745694.7997043133 7844501.3669430017 0 0 0 0 73560765.526367188 -32600431.941510677 0 -32600431.941510677 -71096801.207751647 0 0 0 0 71660140.952083588 -33419018.462366045 0 -33419018.462366045 -46801034.010123253 0 0 0 0 70366369.602020264 -48460847.412626863 0 -48460847.412626863 -57176492.304820538 0 0 0 0 8919403.6363067627 -16456204.588363886 0 -16456204.588363886 -2575379.8173422813 0 0 0 0 22672850.338512421 -63042477.505681328 0 -63042477.505681328 45825467.39690721 0 0 0 0 169766191.79402161 -56057877.791151404 0 -56057877.791151404 -41592190.761893988 0 0 0 0 74027503.040496826 18099351.904522821 0 18099351.904522821 4864796.0160036087 0 0 0 0 244872016.19597244 39577399.217634298 0 39577399.217634298 -1424055.8292990327 0 0 0 0 65672061.606109619 8354392.0000181794 0 8354392.0000181794 -46311218.836063325 0 0 0 0 50661924.561037064 63440354.623102024 0 63440354.623102024 -21658657.453150511 0 0 0 0 33450225.871780396 -16531537.167102695 0 -16531537.167102695 -23178800.084464818 0 0 0 0 -603777.88040161133 49615007.577907681 0 49615007.577907681 53741177.463277891 0 0 0 0 -9370274.0549621582 -19941056.620408207 0 -19941056.620408207 56145453.977565944 0 0 0 0 -40522812.514266968 2137377.2804504633 0 2137377.2804504633 21821005.96243763 0 0 0 0 -56299582.662197113 142788611.92617589 0 142788611.92617589 -52597442.789344907 0 0 0 0 2840028.0037078857 15800653.261659205 0 15800653.261659205 -88561163.2657094 0 0 0 0 -25522414.81640625 91193128.712721229 0 91193128.712721229 3327188.8541454077 0 0 0 0 261908.98955759406 -77454.382655878086 0 -77454.382655878086 -123822.33889246362 0 0 0 0 21756718.657714844 -35788850.774922788 0 -35788850.774922788 55975020.4722085 0 0 0 0 89076642.331029892 -34052160.673401326 0 -34052160.673401326 1345264.9898186922 0 0 0 0 3850269.9202728271 -6579594.6096898317 0 -6579594.6096898317 21384497.087204158 0 0 0 0 215696654.07873535 -56068240.349842072 0 -56068240.349842072 -79000477.06431222 0 0 0 0 3860322.7287902832 -5667886.4359483719 0 -5667886.4359483719 3381145.2065359652 0 0 0 0 397661.33570861816 -4164622.3297483921 0 -4164622.3297483921 7994296.2237014771 0 0 0 0 706394.2708946839 -599925.39166606741 0 -599925.39166606741 -466493.50608216302 0 0 0 0 -57612277.631896973 61000685.93107903 0 61000685.93107903 -20188514.551969081 0 0 0 0 -3355970.6677398682 -41443934.192023635 0 -41443934.192023635 -79694306.049646139 0 0 0 0 250267360.59072113 812038817.09306967 0 812038817.09306967 915576967.88678288 0 0 0 0 994425004.45707703 -992477150.90455413 0 -992477150.90455413 495890094.20776343 0 0 0 0 2883346.3304267302 110020.30709649762 0 110020.30709649762 376390.87324142363 0 0 0 0 -313245271.06038666 92676991.755584493 0 92676991.755584493 384800728.06019777 0 0 0 0 2199023856.9467301 478175053.94938463 0 478175053.94938463 -132838781.30921635 0 0 0 0 691099214.24597549 105254637.51567078 0 105254637.51567078 595611.21831501764 0 0 0 0 199426206.25708771 242521637.12136739 0 242521637.12136739 203080903.43960422 0 0 0 0 -9785891.3529205322 -46333462.594574988 0 -46333462.594574988 164166620.55683643 0 0 0 0 6347236.1407912821 -269316.41483053891 0 -269316.41483053891 23833.392250108984 0 0 0 0 695170042.02488708 204160490.45221353 0 204160490.45221353 -129282514.45458192 0 0 0 0 49404470.561340332 127916161.7527546 0 127916161.7527546 -334847365.24334401 0 0 0 0 -56013568.346546173 72974038.749166787 0 72974038.749166787 113899659.00699455 0 0 0 0 -17021036.151916504 17060397.657442033 0 17060397.657442033 50346006.375348628 0 0 0 0 -30270604.798574448 91693991.948445067 0 91693991.948445067 -10332488.450249851 0 0 0 0 -33973591.551445007 45571897.303611308 0 45571897.303611308 48031907.218532085 0 0 0 0 -4995778.8246307373 69439022.821462035 0 69439022.821462035 29262850.135104895 0 0 0 0 29374233.822971344 58899747.290691316 0 58899747.290691316 10407944.449485779 0 0 0 0 36367058.55317688 82076994.517812967 0 82076994.517812967 31980652.313515186 0 0 0 0 -40044958.726608276 41557529.968934089 0 41557529.968934089 53357466.674005583 0 0 0 0 6856408.75132709 -434614.51557147736 0 -434614.51557147736 -227375.07088778514 0 0 0 0 -2273626.7312240601 76052993.802914709 0 76052993.802914709 77011179.273545027 0 0 0 0 7078377.914324455 -459768.01336778142 0 -459768.01336778142 -160482.31368756923 0 0 0 0 -22484200.649391174 -18660114.766047567 0 -18660114.766047567 -109464854.70585808 0 0 0 0 108414331.62250519 -87469642.685187176 0 -87469642.685187176 -183548855.34482044 0 0 0 0 -10657790.529212952 -12510907.127854681 0 -12510907.127854681 -37915.878237152647 0 0 0 0 -52310754.323013306 -19840538.246908963 0 -19840538.246908963 8761938.5560437478 0 0 0 0 97756262.056446075 5277983.5194303617 0 5277983.5194303617 -14362123.075566566 0 0 0 0 -19097724.223199844 -48368075.436440118 0 -48368075.436440118 -83854601.520546541 0 0 0 0 -36136300.917251587 21965898.737613413 0 21965898.737613413 48210.288054023338 0 0 0 0 -14265687.36580658 -12089066.243246539 0 -12089066.243246539 -33252241.350832261 0 0 0 0 -20601214.334186554 7787384.5941186193 0 7787384.5941186193 -36223047.643196985 0 0 0 0 -7115158.2516021729 4355726.6801814549 0 4355726.6801814549 -99612051.777668759 0 0 0 0 6098967.2459228411 -218156.40734337224 0 -218156.40734337224 -281436.47677647416 0 0 0 0 25405088.52735424 15636296.166072352 0 15636296.166072352 -4459531.1988293529 0 0 0 0 32751774.835098267 60983405.212950349 0 60983405.212950349 25662461.347918987 0 0 0 0 261575.92719531804 356898.10944894864 0 356898.10944894864 -565.12568273932266 0 0 0 0 137927897.23866272 -78218373.673270285 0 -78218373.673270285 -96367071.441720605 0 0 0 0 -74983013.083381653 72286559.231162101 0 72286559.231162101 229498764.9246664 0 0 0 0 100160267.00015259 9936641.4868565798 0 9936641.4868565798 -13237532.290979862 0 0 0 0 48126952.532295227 -8287645.018992424 0 -8287645.018992424 -6140427.0784841776 0 0 0 0 118838942.39990234 100210725.87213755 0 100210725.87213755 27580728.814321339 0 0 0 0 47096242.26461792 53081890.18377161 0 53081890.18377161 12222508.291516185 0 0 0 0 71180473.548309326 26405140.682019949 0 26405140.682019949 2349083.5829153061 0 0 0 0 37940686.097595215 12207563.039207935 0 12207563.039207935 -748902.73248517513 0 0 0 0 38503580.732208252 4520456.522163868 0 4520456.522163868 -3760888.9105653763 0 0 0 0 48762451.626922607 5971585.8170800209 0 5971585.8170800209 -3939962.7946090698 0 0 0 0 -9822259.3766708374 3171206.0133444667 0 3171206.0133444667 -789784.93167388439 0 0 0 0 34669835.287101746 12669207.508327067 0 12669207.508327067 -54785.498689889908 0 0 0 0 -8633838.5217514038 -3231965.7044926286 0 -3231965.7044926286 11947667.614032984 0 0 0 0 -1056143.4901618958 -1095406.5933624953 0 -1095406.5933624953 140687.86495882273 0 0 0 0 85191416.345062256 -105384535.81268656 0 -105384535.81268656 20733439.001174688 0 0 0 0 -66304339.103622437 51168121.358701527 0 51168121.358701527 90051724.11224103 0 0 0 0 39481675.831481934 8956000.2160775661 0 8956000.2160775661 -153094.5678666234 0 0 0 0 22169853.775665283 5709940.4236078262 0 5709940.4236078262 5744645.6647555828 0 0 0 0 60252312.104660034 -33002446.251186728 0 -33002446.251186728 -75326478.406820714 0 0 0 0 358077.05663599819 481635.97001425549 0 481635.97001425549 -274377.34320753231 0 0 0 0 380258.3604606092 220817.40920055984 0 220817.40920055984 -268185.68097081798 0 0 0 0 25010102.770874023 17832269.838607073 0 17832269.838607073 1308076.9396479428 0 0 0 0 36020551.913063049 38867475.839928746 0 38867475.839928746 19703410.69030571 0 0 0 0 9690790.1237182617 29790398.98236084 0 29790398.98236084 16601860.765535831 0 0 0 0 -11285043.816223145 23600113.574224949 0 23600113.574224949 30452953.233832359 0 0 0 0 24923421.881256104 42924483.871995211 0 42924483.871995211 22984754.798442125 0 0 0 0 -13248077.208000183 36479702.135096759 0 36479702.135096759 35407971.925285339 0 0 0 0 26090718.819396973 65785991.669656754 0 65785991.669656754 40597080.874668121 0 0 0 0 10891.970148190856 14262.251164459158 0 14262.251164459158 -9304.4878848739027 0 0 0 0 8088132.1142120361 35043534.405412793 0 35043534.405412793 -15179982.015014529 0 0 0 0 -37145871.739105225 26389416.37830019 0 26389416.37830019 -8611698.5779366493 0 0 0 0 -73662614.669616699 -17730375.046615422 0 -17730375.046615422 -20541712.262497902 0 0 0 0 -3545291.6696777344 14298581.2210958 0 14298581.2210958 -16358152.394314051 0 0 0 0 -24818654.624664307 15599538.295889258 0 15599538.295889258 -1463399.8761689663 0 0 0 0 16212183.716827393 39762650.220313668 0 39762650.220313668 5415706.1907501221 0 0 0 0 11275802.386482239 24622278.777143955 0 24622278.777143955 12985005.799337387 0 0 0 0 18357701.232421875 16968888.931016445 0 16968888.931016445 3567001.7254631519 0 0 0 0 64463183.586143494 27907138.331620991 0 27907138.331620991 5661874.6300671101 0 0 0 0 48490029.494628906 -749219.65168559551 0 -749219.65168559551 -796790.87309503555 0 0 0 0 26879166.292984009 33861447.222846389 0 33861447.222846389 10997924.928614765 0 0 0 0 34422196.026931763 48412210.648261845 0 48412210.648261845 30053214.502772331 0 0 0 0 34688690.836914062 -2771772.6841852665 0 -2771772.6841852665 -1080640.6813029945 0 0 0 0 32469762.223861694 -16945613.741293788 0 -16945613.741293788 -1852497.3876781762 0 0 0 0 342334.49580383301 -10879544.155727446 0 -10879544.155727446 1612599.898113966 0 0 0 0 14701055.194190979 -38437123.150850594 0 -38437123.150850594 -17286995.655112863 0 0 0 0 -2165166.429523468 -52051007.422080904 0 -52051007.422080904 -29879828.20221144 0 0 0 0 -9719787.7275085449 -37633812.206287444 0 -37633812.206287444 25983216.960878849 0 0 0 0 -2101165.1830406189 -14364694.418776602 0 -14364694.418776602 42259626.176625013 0 0 0 0 1016394.6590521932 -357124.38740829937 0 -357124.38740829937 156912.01158632376 0 0 0 0 1300839.644744873 31760756.804474831 0 31760756.804474831 26736829.242330313 0 0 0 0 36790568.613571167 56972854.392316461 0 56972854.392316461 36431277.742798448 0 0 0 0 2510339.355430603 -14904939.38790518 0 -14904939.38790518 23760325.829943657 0 0 0 0 32226356.955111504 -2518717.8851078451 0 -2518717.8851078451 8803176.6578724384 0 0 0 0 264039.99587640911 -144139.75626622606 0 -144139.75626622606 102421.06292038521 0 0 0 0 156639701.94178772 114909072.80900037 0 114909072.80900037 79927405.227022588 0 0 0 0 -84790204.317092896 41487654.153117418 0 41487654.153117418 101620789.74223673 0 0 0 0 255463960.52942944 131379192.72750208 0 131379192.72750208 -39358738.481942892 0 0 0 0 218145968.1227417 155044416.4754039 0 155044416.4754039 68352661.466121197 0 0 0 0 169852932.23559952 -44622825.770493269 0 -44622825.770493269 167313998.78155959 0 0 0 0 6492137.3775623776 1686592.2090951987 0 1686592.2090951987 255163.92272279033 0 0 0 0 158911887.8999939 -110246124.3787086 0 -110246124.3787086 -169972666.5678376 0 0 0 0 77807359.874794006 -21634584.878256142 0 -21634584.878256142 -9812153.5656894445 0 0 0 0 -121261934.78907013 -91820762.540010273 0 -91820762.540010273 -9475514.0762050152 0 0 0 0 51460715.446975708 -49385177.340591192 0 -49385177.340591192 -1867532.6574292183 0 0 0 0 46997137.445360184 -35823243.088742614 0 -35823243.088742614 34636091.543843746 0 0 0 0 6785544.8778991699 21973754.332699895 0 21973754.332699895 55087084.995273173 0 0 0 0 52500160.460102081 20674474.702740964 0 20674474.702740964 51580395.865192771 0 0 0 0 143293.50499954447 44048.099250122905 0 44048.099250122905 -81357.612447804189 0 0 0 0 -16959264.95526123 -48206571.995668054 0 -48206571.995668054 -17255151.012845457 0 0 0 0 5146727.6097640991 3881562.2618655562 0 3881562.2618655562 -29202760.109591603 0 0 0 0 -7418108.0073547363 -9652056.5355865955 0 -9652056.5355865955 8378887.5163823366 0 0 0 0 404477.48675885051 147273.71581409499 0 147273.71581409499 -248101.48477306904 0 0 0 0 25928073.266235352 37276669.251890182 0 37276669.251890182 52153270.281049728 0 0 0 0 -36137158.374649048 -53885758.89270699 0 -53885758.89270699 -54403070.376704693 0 0 0 0 -15009365.223924637 -35318513.925843403 0 -35318513.925843403 -58511664.29666853 0 0 0 0 16156215.075233459 40421916.902275473 0 40421916.902275473 43818063.955764771 0 0 0 0 3223954.2252197266 40761096.229788303 0 40761096.229788303 43828235.300157413 0 0 0 0 12288408.298553467 41536549.231002808 0 41536549.231002808 52903451.770834208 0 0 0 0 24645122.394927979 41590779.769703388 0 41590779.769703388 31497028.331162214 0 0 0 0 32551182.423095703 28486874.480745554 0 28486874.480745554 33647951.586899519 0 0 0 0 17656954.549942017 47874508.698597193 0 47874508.698597193 25938651.763026714 0 0 0 0 26378470.805419922 47535459.728319764 0 47535459.728319764 13065266.340769649 0 0 0 0 28814266.689907074 53855357.221542031 0 53855357.221542031 28216799.86544013 0 0 0 0 4291841.7002334595 38353525.211839527 0 38353525.211839527 49255136.020699024 0 0 0 0 1322690.8517475128 -9422646.1169468611 0 -9422646.1169468611 85249226.872306108 0 0 0 0 -20207098.248443604 30002497.047985315 0 30002497.047985315 54692241.501600266 0 0 0 0 -30841264.891376495 -22812463.286601052 0 -22812463.286601052 157584595.03790057 0 0 0 0 -53900554.758735657 25047351.021558225 0 25047351.021558225 66035704.151161313 0 0 0 0 37515694.174308777 -62833784.835372806 0 -62833784.835372806 74880765.34301722 0 0 0 0 58889877.507986546 91992348.500497147 0 91992348.500497147 128189628.19066 0 0 0 0 11544933.218494415 -22167878.450135261 0 -22167878.450135261 11206571.460215688 0 0 0 0 -8604988.6680450439 -36054018.420068502 0 -36054018.420068502 69066380.004851937 0 0 0 0 -34191384.373977661 -41372556.689711928 0 -41372556.689711928 39639314.33229208 0 0 0 0 -50639592.842735291 35075455.213472858 0 35075455.213472858 -9443420.8114197254 0 0 0 0 5103980.9584008604 1065571.9546276275 0 1065571.9546276275 -48203.677879096882 0 0 0 0 -7350637.3104972839 16821368.841098621 0 16821368.841098621 -16523392.692278981 0 0 0 0 673179609.37464523 -568871357.79206657 0 -568871357.79206657 156725367.59314746 0 0 0 0 639279198.86920929 -439103356.95211613 0 -439103356.95211613 74214376.721676499 0 0 0 0 679663059.36326027 -410639652.84228033 0 -410639652.84228033 317307967.60117149 0 0 0 0 1129366028.5589561 -798448206.97797441 0 -798448206.97797441 612637551.2405659 0 0 0 0 2199533868.5077667 -65127053.416445591 0 -65127053.416445591 -398517731.20728534 0 0 0 0 1581144518.8999176 63874098.031941876 0 63874098.031941876 -224428468.75646091 0 0 0 0 2206919913.2365799 -461464159.21073586 0 -461464159.21073586 213567074.33093736 0 0 0 0 1856182938.9126892 -518910284.88488573 0 -518910284.88488573 463144531.96354491 0 0 0 0 2107009.7853604369 216926.16138287634 0 216926.16138287634 -117139.84594610654 0 0 0 0 1914123392.1831055 -1057072222.5054158 0 -1057072222.5054158 653584787.03830087 0 0 0 0 1352645343.8118973 -336863200.35402888 0 -336863200.35402888 181434971.65857741 0 0 0 0 1420488470.9938431 -792011123.79765737 0 -792011123.79765737 615364856.36612213 0 0 0 0 2199986861.1013107 -1045511031.485333 0 -1045511031.485333 139153969.12501973 0 0 0 0 304368414.1760788 -500433778.14848483 0 -500433778.14848483 44461727.062009692 0 0 0 0 1498960568.4869614 -56299269.247983366 0 -56299269.247983366 -386141647.81811661 0 0 0 0 2205971107.1931801 269458277.27838409 0 269458277.27838409 -506567872.80979121 0 0 0 0 856756658.01575089 213789559.45692897 0 213789559.45692897 -104203407.46164352 0 0 0 0 1179491600.4366226 -230351678.72762477 0 -230351678.72762477 -417063574.22635293 0 0 0 0 1192243054.1587181 -983174229.15764427 0 -983174229.15764427 -177154144.45045471 0 0 0 0 2200595754.4987411 -607629915.18446171 0 -607629915.18446171 -612382031.99141514 0 0 0 0 1046327147.0383949 676643439.52397323 0 676643439.52397323 -640205129.44150221 0 0 0 0 1869603.1700472236 -685256.31042690156 0 -685256.31042690156 -471425.38463119289 0 0 0 0 242524000.10006714 -655260118.03263283 0 -655260118.03263283 284706094.72780192 0 0 0 0 1851241.6840093434 -401744.41582863062 0 -401744.41582863062 -234276.00432986114 0 0 0 0 954593469.99407959 304751099.12684077 0 304751099.12684077 -674967158.88965106 0 0 0 0 776466597.2852211 -885141173.87913489 0 -885141173.87913489 -187071274.95934808 0 0 0 0 937867918.01630783 -36340876.512510315 0 -36340876.512510315 61141706.225719929 0 0 0 0 1167601432.4398651 -487328321.06996119 0 -487328321.06996119 -44461252.400592923 0 0 0 0 1123629883.5682259 -176938195.78146771 0 -176938195.78146771 -190296733.95499682 0 0 0 0 454395845.91634989 345542332.85690284 0 345542332.85690284 -224859358.95997554 0 0 0 0 728347340.90280342 56011695.699188381 0 56011695.699188381 -142720197.974581 0 0 0 0 615080795.95553589 -36225090.397387624 0 -36225090.397387624 -214967716.61862898 0 0 0 0 762672356.50182343 124971023.85773802 0 124971023.85773802 -70661364.645132005 0 0 0 0 741642475.37490845 75474003.542017758 0 75474003.542017758 -92179696.31503886 0 0 0 0 846545590.87562943 155346937.50239646 0 155346937.50239646 -47224664.147220731 0 0 0 0 648762102.52292633 68432503.549889639 0 68432503.549889639 13090996.973320723 0 0 0 0 644542231.08538055 47451544.281712413 0 47451544.281712413 -86926459.68788451 0 0 0 0 437847692.14146042 -58310764.867563069 0 -58310764.867563069 -58238655.071332932 0 0 0 0 515009088.40471649 38581691.715825677 0 38581691.715825677 -63310421.729751706 0 0 0 0 5797615.0893554688 -507617.27020418644 0 -507617.27020418644 -9974788.454638049 0 0 0 0 2109663.2455735076 -1566831.9068283252 0 -1566831.9068283252 692937.35461332696 0 0 0 0 121690196.4609375 74239120.803729296 0 74239120.803729296 60886857.603207588 0 0 0 0 -3240459.8959541321 19330796.920681059 0 19330796.920681059 -20713131.50443387 0 0 0 0 68574468.364807129 5332393.2670530081 0 5332393.2670530081 -32233450.584568083 0 0 0 0 26128656.743476868 -6517236.3233008981 0 -6517236.3233008981 -9302341.0576665401 0 0 0 0 603494295.25763702 -59009060.545944095 0 -59009060.545944095 -64851947.951030493 0 0 0 0 712276.7719007507 -432665.07316256315 0 -432665.07316256315 196526.36316612607 0 0 0 0 377840031.04932404 -236823568.55460197 0 -236823568.55460197 210960993.08783948 0 0 0 0 245127182.90850449 -164251486.64733613 0 -164251486.64733613 5501416.1508853436 0 0 0 0 404108979.10462952 36912213.867539585 0 36912213.867539585 225674822.03532949 0 0 0 0 -68527634.092559814 -70837590.236329496 0 -70837590.236329496 130395259.75634336 0 0 0 0 339495146.55383778 -90197661.683175698 0 -90197661.683175698 -12062255.937814951 0 0 0 0 -72371805.229919195 38042341.410999872 0 38042341.410999872 60127690.897642136 0 0 0 0 31766818.805967331 -61753816.730306953 0 -61753816.730306953 38685446.686615229 0 0 0 0 -8623712.5536422729 -14472887.677814245 0 -14472887.677814245 16196119.691124856 0 0 0 0 -33270034.358058929 56183563.671050191 0 56183563.671050191 -27376900.500652313 0 0 0 0 -29102022.089950562 39141368.470076114 0 39141368.470076114 -35486207.040050775 0 0 0 0 6818813.3555501029 1378239.5001261923 0 1378239.5001261923 584983.00379328371 0 0 0 0 9853043.8282318115 -10962643.804019153 0 -10962643.804019153 -58871835.113813251 0 0 0 0 -5825390.9753875732 -25982130.678394109 0 -25982130.678394109 -4824529.8524702787 0 0 0 0 62017112.613227844 -47672123.710232958 0 -47672123.710232958 -2426848.7803985905 0 0 0 0 -76908890.841598511 -30411577.869904846 0 -30411577.869904846 83943984.86410895 0 0 0 0 78145776.00488472 10094456.495157771 0 10094456.495157771 -4057730.857368052 0 0 0 0 7741901.1365655027 -202793.99743518606 0 -202793.99743518606 552608.10084607382 0 0 0 0 93613194.710849762 19739522.712689638 0 19739522.712689638 -57115995.5491032 0 0 0 0 -2842121.3008623123 569562.51956196129 0 569562.51956196129 1766735.6316125393 0 0 0 0 -9294073.5817508698 2649314.5160582066 0 2649314.5160582066 1910313.3390507698 0 0 0 0 -14079006.254867554 -4511348.7865041494 0 -4511348.7865041494 4497304.2494928837 0 0 0 0 51267.904418945312 -7608580.6560411453 0 -7608580.6560411453 4688137.1736323163 0 0 0 0 593592.36067581177 -8985714.6317734122 0 -8985714.6317734122 -2287783.229770422 0 0 0 0 -7217806.9401054382 -18395221.49173218 0 -18395221.49173218 282521.77948760986 0 0 0 0 11663604.733474731 -17107514.633304715 0 -17107514.633304715 279138.63612526422 0 0 0 0 76866413.992660522 -41399327.033135891 0 -41399327.033135891 15980539.123955727 0 0 0 0 8775299.384223938 -7432914.310552597 0 -7432914.310552597 -1993399.6296676397 0 0 0 0 4785817.7870843858 -1573755.0117502771 0 -1573755.0117502771 671917.29351799807 0 0 0 0 -59258567.316577911 31034798.939567804 0 31034798.939567804 9253388.482606411 0 0 0 0 60266.011961314827 -252038.31092279498 0 -252038.31092279498 13224.494675819122 0 0 0 0 -67213640.132915497 -13283420.370987296 0 -13283420.370987296 31965631.048779249 0 0 0 0 6189087.9391349554 -11780280.560723856 0 -11780280.560723856 2377819.6297769547 0 0 0 0 99375773.146266937 -17664622.552290559 0 -17664622.552290559 -56708539.469811201 0 0 0 0 5701679.5796985626 -5592344.3071110249 0 -5592344.3071110249 8547853.5046653748 0 0 0 0 5557361.1029806882 -6557717.0214683358 0 -6557717.0214683358 2719701.8572326172 0 0 0 0 19995530.517112732 -4836952.616361618 0 -4836952.616361618 7234206.9537267685 0 0 0 0 -37873541.43421936 16995896.254407406 0 16995896.254407406 -13667446.236264229 0 0 0 0 7147593.090452902 -4651271.478035056 0 -4651271.478035056 1675082.0692647952 0 0 0 0 1093335.1240174081 -4136669.2792378599 0 -4136669.2792378599 3027122.1532607554 0 0 0 0 -6128178.0805854797 -8824752.3158405721 0 -8824752.3158405721 -4398409.1824390888 0 0 0 0 6654898.7857894897 -23427365.63497901 0 -23427365.63497901 3661653.337212801 0 0 0 0 -16816905.013008118 -19726005.079628944 0 -19726005.079628944 4249149.5141592026 0 0 0 0 -383015.18382263184 -10713303.325063705 0 -10713303.325063705 14915534.318307877 0 0 0 0 1364735.7961978912 -10430002.071834564 0 -10430002.071834564 3621276.444355011 0 0 0 0 -17943827.850601196 -19056877.00395298 0 -19056877.00395298 3878193.060238421 0 0 0 0 2004284.7015711144 -3274217.9075145386 0 -3274217.9075145386 2030446.3271676803 0 0 0 0 10660475.367740631 -17552576.003997326 0 -17552576.003997326 -11069029.789951801 0 0 0 0 -36888837.152540207 12402867.600249052 0 12402867.600249052 48680411.718895912 0 0 0 0 -766615.75641536713 -1736402.3011989822 0 -1736402.3011989822 977694.17822438362 0 0 0 0 -151717793.07824326 -232111718.75624871 0 -232111718.75624871 -323420529.65787697 0 0 0 0 -161816669.41247559 -235561758.48571825 0 -235561758.48571825 -229135471.26158357 0 0 0 0 295051.70598096773 -257400.82425755914 0 -257400.82425755914 1480.447928186506 0 0 0 0 -33392305.004364014 45202349.419228554 0 45202349.419228554 -512658123.59349918 0 0 0 0 3691566.5114740469 -3136708.4745306242 0 -3136708.4745306242 35511.549209403369 0 0 0 0 56047214.070243835 37037784.112920046 0 37037784.112920046 -354535978.51877367 0 0 0 0 55876736.695493698 -53005561.366304874 0 -53005561.366304874 -406618830.85892916 0 0 0 0 1796892.5203781128 -2638126.536266923 0 -2638126.536266923 -505196.53184604645 0 0 0 0 2051448.0862236023 -3073873.850675106 0 -3073873.850675106 -965624.65827274323 0 0 0 0 2048305.9595985413 -3020303.4041065276 0 -3020303.4041065276 -1438762.028678894 0 0 0 0 1704433.8268814087 -2253082.8052165508 0 -2253082.8052165508 -1476148.9336859435 0 0 0 0 -107054144.09995842 -115263515.23238528 0 -115263515.23238528 -173943690.16995788 0 0 0 0 -784978.28473472595 -4578599.5575958788 0 -4578599.5575958788 -2224949.9893652201 0 0 0 0 5412583.5748291016 -163061878.82572794 0 -163061878.82572794 -295925762.9714613 0 0 0 0 3526904.9134186246 -1871291.6265201597 0 -1871291.6265201597 92396.672833866993 0 0 0 0 250674312.90171814 -166642607.99365759 0 -166642607.99365759 -387501612.9916153 0 0 0 0 1001661.8774036802 -3871789.8109812848 0 -3871789.8109812848 1327500.9515528488 0 0 0 0 -165235534.29113007 -164749482.66512489 0 -164749482.66512489 -231917349.03905869 0 0 0 0 818019728.63203049 391076604.47638392 0 391076604.47638392 62824083.451316416 0 0 0 0 71266362.906112671 -105819617.54798935 0 -105819617.54798935 566351170.91721058 0 0 0 0 199669094.70482635 -241322986.90082663 0 -241322986.90082663 2040849.6358226538 0 0 0 0 14113764.809837341 214053800.7095055 0 214053800.7095055 43941185.890151806 0 0 0 0 684891104.18453979 230794972.18776724 0 230794972.18776724 90351359.684362859 0 0 0 0 -470763.42345546186 -472429.6080986131 0 -472429.6080986131 1093652.5419877509 0 0 0 0 50373637.711038589 -21658289.618758231 0 -21658289.618758231 -100748146.62580425 0 0 0 0 456125213.42830658 -132349.38928309083 0 -132349.38928309083 -99947203.904855102 0 0 0 0 1989606.3038396053 -2952380.4704084052 0 -2952380.4704084052 1995910.0388910803 0 0 0 0 -138971748.58697128 42813699.72295019 0 42813699.72295019 44422296.642097414 0 0 0 0 -86854912.004760742 -33361446.1294083 0 -33361446.1294083 -3850288.7469912767 0 0 0 0 -14398908.970306396 41309826.959482104 0 41309826.959482104 9780932.1402154863 0 0 0 0 35025576.989112854 -12401421.686677396 0 -12401421.686677396 24719430.791825891 0 0 0 0 -3076078.3548319153 -1652249.3441856531 0 -1652249.3441856531 2594258.9604320778 0 0 0 0 -1635588.7933959961 -2526810.5865325928 0 -2526810.5865325928 1537797.5436944962 0 0 0 0 -34617750.562423706 17495863.09388192 0 17495863.09388192 3128781.5634768009 0 0 0 0 101505.00436870381 -2691661.314017226 0 -2691661.314017226 2910097.173144185 0 0 0 0 -425483.88111489639 -802043.89297761815 0 -802043.89297761815 744373.63683082478 0 0 0 0 623534924.49714279 2961719.6883350909 0 2961719.6883350909 -40111520.633988857 0 0 0 0 439984442.39212418 210586284.73838425 0 210586284.73838425 81185579.635656565 0 0 0 0 599747266.05477142 17566929.354039967 0 17566929.354039967 -21191660.18352738 0 0 0 0 638759895.0883255 5619115.2705199718 0 5619115.2705199718 -23882701.088201582 0 0 0 0 634312309.85323334 26221290.615311176 0 26221290.615311176 -6586692.751067102 0 0 0 0 629424993.90230465 118153859.15609401 0 118153859.15609401 83077585.545294166 0 0 0 0 477579769.94578552 5995322.3569080532 0 5995322.3569080532 15271954.684347451 0 0 0 0 584771551.03150177 27148125.957355879 0 27148125.957355879 -96468172.113792598 0 0 0 0 573085071.74538422 -6254146.1099541783 0 -6254146.1099541783 -24978100.08082968 0 0 0 0 806278881.98986816 84343813.146998525 0 84343813.146998525 -49141502.498476982 0 0 0 0 673924778.89234924 -23135984.641824484 0 -23135984.641824484 -129101302.60790524 0 0 0 0 939941440.32483673 230758823.60848689 0 230758823.60848689 -226803894.92818207 0 0 0 0 845697623.63291931 619655459.60004926 0 619655459.60004926 -157090004.58645558 0 0 0 0 1007979322.6019745 261597582.78791046 0 261597582.78791046 72374146.047118664 0 0 0 0 -49241.410621412098 -912599.43003057525 0 -912599.43003057525 306961.73868951877 0 0 0 0 -191870162.53867722 368648599.53720915 0 368648599.53720915 361619863.17901921 0 0 0 0 733519631.57424545 650360654.22319114 0 650360654.22319114 246213346.55545872 0 0 0 0 116873023.63581848 -270810983.52915156 0 -270810983.52915156 -172829356.58112156 0 0 0 0 742795658.31019974 -95825678.975753933 0 -95825678.975753933 -754763381.5200417 0 0 0 0 1694931.8182477802 945007.01250927744 0 945007.01250927744 -58225.854974033748 0 0 0 0 -268749622.71245575 267480758.13313508 0 267480758.13313508 715365936.52136576 0 0 0 0 1004255951.4306526 -132637031.86310731 0 -132637031.86310731 -548150443.39027071 0 0 0 0 2198081223.6209106 740270061.24509883 0 740270061.24509883 -94589622.256926388 0 0 0 0 940727380.28830719 1175978775.3961661 0 1175978775.3961661 469419357.50363052 0 0 0 0 1672310.6065559834 1717546.5432950596 0 1717546.5432950596 -70016.278441118702 0 0 0 0 2200387963.0036049 899228676.90392256 0 899228676.90392256 -329459381.56315327 0 0 0 0 584291043.72102356 570367865.88796282 0 570367865.88796282 239922480.29505947 0 0 0 0 -177303977.01346016 270562862.7121383 0 270562862.7121383 177356328.49029106 0 0 0 0 1331640666.3773279 358833958.01040864 0 358833958.01040864 -106389000.58999622 0 0 0 0 1330075799.3995781 513949457.45101553 0 513949457.45101553 -419555919.19667816 0 0 0 0 4787850.959174864 1685882.5319812316 0 1685882.5319812316 -1517540.0665089779 0 0 0 0 5997231.895614624 1335632.3062821031 0 1335632.3062821031 -5031877.8610877991 0 0 0 0 5927764.1904602051 519225.02089715004 0 519225.02089715004 -5118480.7109876871 0 0 0 0 3813230.7794189453 1512127.3961702585 0 1512127.3961702585 -4200268.6200318336 0 0 0 0 6964902.6014556885 -360997.58502483368 0 -360997.58502483368 -4372390.1067744493 0 0 0 0 5238614.1142349243 -2315180.9874534607 0 -2315180.9874534607 -2840602.7483208179 0 0 0 0 7094680.2338064685 -2271341.2574355789 0 -2271341.2574355789 -633580.86792375438 0 0 0 0 6898715.0732421875 5032741.7535829544 0 5032741.7535829544 -14160984.52085042 0 0 0 0 6340432.8075757362 -434424.6260168564 0 -434424.6260168564 -1228444.4636372225 0 0 0 0 6478546.0916213989 1198234.2225762606 0 1198234.2225762606 -6452587.2485041618 0 0 0 0 7239293.4120368958 75960.94575971365 0 75960.94575971365 -7828761.4553718567 0 0 0 0 12887273.919670165 -119242.29325315298 0 -119242.29325315298 -3744788.3058935506 0 0 0 0 9843958.8346825875 -2601190.3906500917 0 -2601190.3906500917 -1202121.0104279215 0 0 0 0 3002008.2059724741 3964822.2575944932 0 3964822.2575944932 -1943280.4175936123 0 0 0 0 1859674.259727478 4849115.2724097967 0 4849115.2724097967 -2453386.7770197392 0 0 0 0 427710.89126586914 3108344.2797269821 0 3108344.2797269821 -516473.24264550209 0 0 0 0 757089.92719268799 2652176.7991994023 0 2652176.7991994023 -60909.247405052185 0 0 0 0 2223498.6816062927 2222086.8531392813 0 2222086.8531392813 -2532288.1804737449 0 0 0 0 3342989.440314807 2682988.3571723541 0 2682988.3571723541 -998811.6251563332 0 0 0 0 3331472.0657000542 2351686.4538134485 0 2351686.4538134485 -1047351.2037777901 0 0 0 0 -1647045.1551208496 5072713.5376155376 0 5072713.5376155376 -4097627.0756483078 0 0 0 0 92194.725198693573 241085.01135809813 0 241085.01135809813 -57512.255607100728 0 0 0 0 9393148.7116699219 12492565.991379738 0 12492565.991379738 -7428709.8317439556 0 0 0 0 5700258.3891382739 792866.21013748646 0 792866.21013748646 -1151873.2319755857 0 0 0 0 5206861.523727417 2745153.855846405 0 2745153.855846405 -4749098.2200446129 0 0 0 0 2431788.4362869263 2281259.9221682549 0 2281259.9221682549 -1746865.3763151169 0 0 0 0 2728043.6817016602 1448768.1558971405 0 1448768.1558971405 -5657419.4497175515 0 0 0 0 2799709.6196995452 1951360.5625921949 0 1951360.5625921949 -1259915.3020396957 0 0 0 0 1750863.0231132507 4363244.7359666228 0 4363244.7359666228 -2292533.2714157104 0 0 0 0 2977089.4752922058 868731.83197849989 0 868731.83197849989 -4403394.0752588511 0 0 0 0 4696867.1232993528 -863588.29505959339 0 -863588.29505959339 -547955.21262252179 0 0 0 0 3912820.5002670288 2532087.5983816385 0 2532087.5983816385 -5136390.8362101316 0 0 0 0 9012620.8531112671 10047495.214349508 0 10047495.214349508 -6347617.5081343651 0 0 0 0 6425481.2989654541 1558272.5947823524 0 1558272.5947823524 -9933103.9272676706 0 0 0 0 6625340.3952789307 1767243.0004788637 0 1767243.0004788637 -11224107.569238663 0 0 0 0 5319238.7152830139 -870350.62724618986 0 -870350.62724618986 -733072.79456778779 0 0 0 0 6891285.0326690674 5625272.4210939407 0 5625272.4210939407 -7281516.9584140778 0 0 0 0 6991017.9870223999 2699726.6436293125 0 2699726.6436293125 -7412724.910683915 0 0 0 0 5323274.6238250732 2787835.0019571781 0 2787835.0019571781 3840953.0938453674 0 0 0 0 2087560.2521514893 820316.99546456337 0 820316.99546456337 -3640442.9599750638 0 0 0 0 1785763.0905990601 184053.22222685814 0 184053.22222685814 -1169972.6574833393 0 0 0 0 1807542.6830707565 1056654.1951139346 0 1056654.1951139346 -764760.21813981328 0 0 0 0 2293833.4597473145 148675.15979886055 0 148675.15979886055 -2031554.8129618168 0 0 0 0 3734266.715785291 -1897487.7894714959 0 -1897487.7894714959 -1019160.5059307365 0 0 0 0 3329232.6452045441 -1547213.8590838909 0 -1547213.8590838909 -3665414.1028106213 0 0 0 0 4064926.829788208 -403137.9174489975 0 -403137.9174489975 -3367251.0369055867 0 0 0 0 3985108.3464289233 1477376.4356558877 0 1477376.4356558877 -1478854.4653880375 0 0 0 0 7889136.2287445068 5490994.3850408792 0 5490994.3850408792 -9089466.1053473949 0 0 0 0 5317820.0216217041 -19536.135868012905 0 -19536.135868012905 -2642261.7554402351 0 0 0 0 3923812.2242629528 2294463.8417457435 0 2294463.8417457435 -2133257.7965376377 0 0 0 0 6335906.688079834 3981958.4845540524 0 3981958.4845540524 -2870798.6402394772 0 0 0 0 37182.815330758691 -92276.485348123126 0 -92276.485348123126 -186446.67522586783 0 0 0 0 5083709.18019104 -5731394.0451337099 0 -5731394.0451337099 -3243843.0561926961 0 0 0 0 3679556.6702137254 1399140.602024483 0 1399140.602024483 -1564456.8218622331 0 0 0 0 2620890.6680908203 -577941.85465979576 0 -577941.85465979576 -8141459.7905406952 0 0 0 0 5456802.0699996948 -416634.37252354622 0 -416634.37252354622 -7803597.5048912764 0 0 0 0 3438886.7449645996 -1567358.4733588696 0 -1567358.4733588696 -4251225.4275558293 0 0 0 0 5136963.1105182245 -2516555.9641698813 0 -2516555.9641698813 -2119374.0079883561 0 0 0 0 2922847.9136458747 1435456.5539860316 0 1435456.5539860316 -921518.78721367195 0 0 0 0 3292658.9899520874 -205094.60057270527 0 -205094.60057270527 -2484105.5301460773 0 0 0 0 4327897.5506362915 566785.56506733596 0 566785.56506733596 -5023375.3145693541 0 0 0 0 5837408.3927088901 1599068.3848699722 0 1599068.3848699722 -1196088.7832670885 0 0 0 0 3121903.8022460938 245182.20533037186 0 245182.20533037186 -2915141.5520009995 0 0 0 0 2649418.9280014038 2798030.8588184565 0 2798030.8588184565 -4096388.1602809578 0 0 0 0 1942271.1412096024 399110.78110245243 0 399110.78110245243 -35392.022875547409 0 0 0 0 4501994.7911643982 -514405.73661288619 0 -514405.73661288619 -1247467.2024501562 0 0 0 0 4132365.3781512454 524014.14592487365 0 524014.14592487365 -190062.49786359881 0 0 0 0 4126321.2664561868 -2231753.229120628 0 -2231753.229120628 85414.282371652851 0 0 0 0 13615995.17666626 462364.19137120247 0 462364.19137120247 -15521893.277068138 0 0 0 0 3347720.9557151794 -1840656.6533031464 0 -1840656.6533031464 -3469257.5550310612 0 0 0 0 11967059.495368958 11912404.149701148 0 11912404.149701148 -7710446.8666217029 0 0 0 0 121042.12719009072 409034.84936564625 0 409034.84936564625 -87750.893172642929 0 0 0 0 9303907.914024353 10161912.546119303 0 10161912.546119303 4978733.042036958 0 0 0 0 1180559.5619414113 185765.48580916971 0 185765.48580916971 -538935.48709393258 0 0 0 0 12693967.414428711 9533681.3542155027 0 9533681.3542155027 -412514.91394143552 0 0 0 0 1891814.1020584106 -2491149.3196012974 0 -2491149.3196012974 1201611.9962792993 0 0 0 0 2242788.8846387938 -2340941.9645501217 0 -2340941.9645501217 -323936.17455113732 0 0 0 0 533884.93740844727 -2163213.287060082 0 -2163213.287060082 -778724.85603618622 0 0 0 0 1144175.1865898557 -2393219.0232319334 0 -2393219.0232319334 -26978.995874988439 0 0 0 0 4225163.7533437535 -2144193.3310833145 0 -2144193.3310833145 -1132190.2476918481 0 0 0 0 3943844.7712249756 -2733669.3467121124 0 -2733669.3467121124 -2920040.873046875 0 0 0 0 4283354.7895239964 -877448.16671327781 0 -877448.16671327781 143707.75815836867 0 0 0 0 22316377.842670441 5644213.885853067 0 5644213.885853067 803769.51083683968 0 0 0 0 22572314.979675293 15381731.824639536 0 15381731.824639536 16469780.249935776 0 0 0 0 18493270.160949707 -6918332.1283823848 0 -6918332.1283823848 -8631700.0451861024 0 0 0 0 -774873.50196075439 -1731947.5180963948 0 -1731947.5180963948 9409656.6643585935 0 0 0 0 2688146.7882995605 -2048658.6901454926 0 -2048658.6901454926 195028.11142896116 0 0 0 0 871236.1156539917 -13444570.42254281 0 -13444570.42254281 -3982091.8767926395 0 0 0 0 7819911.1572144888 -244395.59774266277 0 -244395.59774266277 -322130.08177124918 0 0 0 0 1243108.5952670053 -2455932.9770184038 0 -2455932.9770184038 -50037.56805693038 0 0 0 0 159580.26258850098 -14234956.608162165 0 -14234956.608162165 19995121.196964443 0 0 0 0 396774.9803718999 -737816.42007976677 0 -737816.42007976677 -15157.122346653456 0 0 0 0 4916177.7522059083 -1235812.3023079121 0 -1235812.3023079121 1287774.2272030716 0 0 0 0 11404828.95879364 -7728898.0878477097 0 -7728898.0878477097 -2909920.2349125743 0 0 0 0 1587390.4387741089 7967813.9708669782 0 7967813.9708669782 -2920625.2684539557 0 0 0 0 9170102.296881061 -4707617.3503729766 0 -4707617.3503729766 471819.4116900987 0 0 0 0 38408962.895965576 -15306073.232549667 0 -15306073.232549667 -29749868.819454193 0 0 0 0 9578067.5632006824 -2455774.6409240821 0 -2455774.6409240821 -1129533.3158639758 0 0 0 0 -14482021.761245728 -7743236.7369351387 0 -7743236.7369351387 -2178633.602846384 0 0 0 0 5415057.7004547119 -3430416.4883232117 0 -3430416.4883232117 -12372409.55674696 0 0 0 0 228995.41842897609 -823627.33084674552 0 -823627.33084674552 15641.667259722599 0 0 0 0 4887859.4123840332 3782325.6201648712 0 3782325.6201648712 -2565346.0316948891 0 0 0 0 35357126.609176636 -6264893.0362820625 0 -6264893.0362820625 -24832013.854882717 0 0 0 0 7792867.2012914754 -4203873.7332725879 0 -4203873.7332725879 794367.23083920358 0 0 0 0 14549041.807907104 -12323762.843764782 0 -12323762.843764782 -4685782.2578265667 0 0 0 0 3278009.8035049438 -4963750.516620338 0 -4963750.516620338 -4607365.3004821986 0 0 0 0 1288822.9548530579 -526015.09127283841 0 -526015.09127283841 -565706.87473100424 0 0 0 0 4512866.7166938782 -602360.13137218356 0 -602360.13137218356 -661599.25802367926 0 0 0 0 22643404.478065491 -9590107.383837074 0 -9590107.383837074 -15463553.704275444 0 0 0 0 64647.408651016653 21419.994158581831 0 21419.994158581831 -133760.65861888463 0 0 0 0 11047802.050843451 -3454937.4948780229 0 -3454937.4948780229 -317794.97891841596 0 0 0 0 6837781.129307732 -194660.23870045063 0 -194660.23870045063 -1443150.9250459333 0 0 0 0 16043180.319442749 1293044.6566436291 0 1293044.6566436291 -3950915.5748388767 0 0 0 0 18271643.004211426 -22588218.360947609 0 -22588218.360947609 -11871955.032876015 0 0 0 0 3826582.7246856689 -6012162.6411428452 0 -6012162.6411428452 -23083225.063952684 0 0 0 0 9258883.6147186086 -8984846.4988884479 0 -8984846.4988884479 -541412.79190613842 0 0 0 0 8833448.7734298706 1418270.6575424671 0 1418270.6575424671 -3660256.457775116 0 0 0 0 8494825.976398468 -6600470.8493132591 0 -6600470.8493132591 3644232.6084280014 0 0 0 0 -22489742.433803558 20016339.529915094 0 20016339.529915094 17582796.602040768 0 0 0 0 2117619.1649017334 -356795.69524335861 0 -356795.69524335861 -2456666.3284317255 0 0 0 0 7993940.8635864258 -3600246.5358257294 0 -3600246.5358257294 -4628449.0104081631 0 0 0 0 19756733.922348022 -80548601.057822704 0 -80548601.057822704 -186589436.28722334 0 0 0 0 3304235.3906411715 -2499620.9801253341 0 -2499620.9801253341 -935080.49176240433 0 0 0 0 61891829.028971195 132357560.18272555 0 132357560.18272555 -198711071.95389748 0 0 0 0 2635649.8829193749 1988111.018459281 0 1988111.018459281 -2669361.4091051198 0 0 0 0 10961763.226940155 11135551.944424152 0 11135551.944424152 -11736555.779640198 0 0 0 0 7574965.7401676178 5031056.2394216061 0 5031056.2394216061 -8591893.2157402039 0 0 0 0 12070567.305072799 1518786.6671659108 0 1518786.6671659108 -131625941.46015739 0 0 0 0 13038941.150140934 -171534685.67717284 0 -171534685.67717284 -160310947.60889244 0 0 0 0 495615.26530811749 325994.44464376569 0 325994.44464376569 -477294.60479488038 0 0 0 0 265587821.04421997 -104658545.67647743 0 -104658545.67647743 -92518468.339373589 0 0 0 0 77811187.072096825 196673215.48085499 0 196673215.48085499 74413745.104514122 0 0 0 0 -935036.85308074951 -17074693.572990417 0 -17074693.572990417 -1524375.7890079021 0 0 0 0 1135729.7679347992 -19004202.663067579 0 -19004202.663067579 -14626199.557006836 0 0 0 0 63017100.474349976 -30974262.184022903 0 -30974262.184022903 -15703155.491464615 0 0 0 0 55636100.660614014 34611736.035326958 0 34611736.035326958 9248844.0358624458 0 0 0 0 15823171.515148163 -56805274.293384075 0 -56805274.293384075 -48340891.54108429 0 0 0 0 21536678.409908295 -85093732.053176165 0 -85093732.053176165 -79342471.757000685 0 0 0 0 -15606196.179718018 -18025103.178625107 0 -18025103.178625107 -1563367.6948356628 0 0 0 0 -28891433.773563385 -61705365.922242165 0 -61705365.922242165 -24023953.184092045 0 0 0 0 -17909482.913690619 -30114440.662730083 0 -30114440.662730083 -13745449.32681942 0 0 0 0 -48105551.219332695 -130728536.50347531 0 -130728536.50347531 -129711373.83930969 0 0 0 0 27018467.432365417 -15327485.695353031 0 -15327485.695353031 -171993209.01293015 0 0 0 0 -111958807.76414871 -54607865.794181347 0 -54607865.794181347 9944289.3829066753 0 0 0 0 22560403.976886749 -26735574.848855138 0 -26735574.848855138 -143749582.01368332 0 0 0 0 18096890.335922241 -18325086.628077507 0 -18325086.628077507 -62359996.94179821 0 0 0 0 -118730146.82381439 -202882099.04784298 0 -202882099.04784298 -380144199.26514626 0 0 0 0 -40649271.73015213 61672344.530155897 0 61672344.530155897 -39963689.958571911 0 0 0 0 118762721.46680832 69282353.182068348 0 69282353.182068348 -331575207.0145247 0 0 0 0 208222093.07508659 -51498370.033289552 0 -51498370.033289552 -96036859.863843679 0 0 0 0 41900977.843921661 -85094121.606134415 0 -85094121.606134415 -89456433.374093533 0 0 0 0 52077988.599178314 -2532818.9439206123 0 -2532818.9439206123 -30047853.913338184 0 0 0 0 504980.2835819982 -658400.74894251628 0 -658400.74894251628 95652.197304449015 0 0 0 0 79066696.886891365 -73044335.969184518 0 -73044335.969184518 -46680881.501475334 0 0 0 0 279390593.20294571 108608562.99776673 0 108608562.99776673 -174111279.49599648 0 0 0 0 45743550.992202759 23979792.364001036 0 23979792.364001036 -82198741.543954372 0 0 0 0 6430189.1243019104 -3956813.1328896284 0 -3956813.1328896284 142391195.74134517 0 0 0 0 -34522637.591499329 101562994.04473925 0 101562994.04473925 12477633.55311203 0 0 0 0 632189.12184533849 1646188.4902813784 0 1646188.4902813784 -836699.47439670784 0 0 0 0 18584551.872696877 117516268.78294969 0 117516268.78294969 -250274573.47576046 0 0 0 0 -41311607.179935455 36350526.132147312 0 36350526.132147312 76074821.841370583 0 0 0 0 9626637.3155822754 14919722.907695293 0 14919722.907695293 -13823249.312070131 0 0 0 0 -111529561.12928772 516632.11384391785 0 516632.11384391785 265948115.35202789 0 0 0 0 134909626.71454239 -48761212.287911177 0 -48761212.287911177 -345113805.55416679 0 0 0 0 382296.02711589448 186962.97709752852 0 186962.97709752852 -369421.65788609709 0 0 0 0 107024748.73054314 -184380.54291629791 0 -184380.54291629791 -93093767.125019073 0 0 0 0 -92213784.468626499 203444558.35073793 0 203444558.35073793 -90532618.525547028 0 0 0 0 41077352.236167908 -35113194.14435482 0 -35113194.14435482 21499010.151608467 0 0 0 0 -18640593.091506958 -53369.302143096924 0 -53369.302143096924 -128046566.0511837 0 0 0 0 945543.11675762013 -707476.01633717772 0 -707476.01633717772 -181628.74589169584 0 0 0 0 8673866.3916816711 20734982.41160202 0 20734982.41160202 -12445755.439053535 0 0 0 0 19108649.013121605 10209550.853986382 0 10209550.853986382 -14368913.718653679 0 0 0 0 10380245.765857559 2535253.4439679179 0 2535253.4439679179 -2522116.3700226592 0 0 0 0 26743990.470981598 -7487400.4444460869 0 -7487400.4444460869 -15080936.479448795 0 0 0 0 51660721.085372925 -4234389.863730669 0 -4234389.863730669 -16548767.38005352 0 0 0 0 13517995.194966435 -6848048.4107088596 0 -6848048.4107088596 -3929550.0198383331 0 0 0 0 13909674.170463562 -14816576.367419243 0 -14816576.367419243 -1686954.1516056061 0 0 0 0 10412614.916981865 -1660076.6998167105 0 -1660076.6998167105 -1613895.8816930945 0 0 0 0 1053491.5982971191 7666114.0628600121 0 7666114.0628600121 1926811.9293355942 0 0 0 0 1234295.5010147095 5813228.5479963422 0 5813228.5479963422 -2975788.4220765829 0 0 0 0 -1929513.2633056641 6662376.013846457 0 6662376.013846457 -1430787.8603921682 0 0 0 0 9431056.0144098941 3507686.509150669 0 3507686.509150669 -2475593.204745919 0 0 0 0 8648557.7879415154 21546664.553501926 0 21546664.553501926 -18142046.796401024 0 0 0 0 -2426279.334854126 11188872.84775126 0 11188872.84775126 -1373956.8824233562 0 0 0 0 4619384.7946891785 9358717.4331498668 0 9358717.4331498668 -6699879.2471120954 0 0 0 0 -13761884.859771729 21479406.960274935 0 21479406.960274935 4640078.439620018 0 0 0 0 -589955.44209680147 6477236.756203115 0 6477236.756203115 -532337.14748408983 0 0 0 0 2952085.8772201538 13418140.590095758 0 13418140.590095758 -5332144.4351865947 0 0 0 0 9486303.3147216495 4174372.1510560829 0 4174372.1510560829 -2569168.8818595582 0 0 0 0 9862910.0684280396 15269756.74950695 0 15269756.74950695 -18016754.40884608 0 0 0 0 -39830800.274028778 59152498.93637681 0 59152498.93637681 -61281146.691630363 0 0 0 0 -21289800.423856735 90933290.355895519 0 90933290.355895519 -119607088.13393319 0 0 0 0 -43664232.461593628 86379539.154667437 0 86379539.154667437 -59241039.139302015 0 0 0 0 -26987241.353597641 59272325.094498277 0 59272325.094498277 -73507681.085263491 0 0 0 0 -31182662.368531704 58143568.751991928 0 58143568.751991928 -47992976.162828445 0 0 0 0 -25126143.990335464 78048512.550718427 0 78048512.550718427 -31944472.840483427 0 0 0 0 29277148.563710213 27970156.988647759 0 27970156.988647759 -10342658.256307602 0 0 0 0 -23072432.796118736 77090715.890137345 0 77090715.890137345 -15111459.169430971 0 0 0 0 -11513459.600411177 49896847.754641809 0 49896847.754641809 886747.577064991 0 0 0 0 -16497739.251197338 82918014.967067257 0 82918014.967067257 -15744921.537674427 0 0 0 0 59429282.246421695 10108760.332130034 0 10108760.332130034 13009928.318115234 0 0 0 0 62641087.217258453 62201445.619767189 0 62201445.619767189 -15797119.191715598 0 0 0 0 72297624.800600052 49749685.624967694 0 49749685.624967694 11706224.126608372 0 0 0 0 12369194.495351791 93143463.160352364 0 93143463.160352364 -9809343.1731039286 0 0 0 0 50377166.433263779 30106026.862060666 0 30106026.862060666 4331387.7007339895 0 0 0 0 168716917.70943642 -50262370.291634858 0 -50262370.291634858 19878522.71735549 0 0 0 0 144313910.85897541 -64909558.419886485 0 -64909558.419886485 60323586.864144742 0 0 0 0 148165836.73758888 11194968.621422589 0 11194968.621422589 -11530848.190499067 0 0 0 0 129930782.94690132 -6161770.5134388208 0 -6161770.5134388208 36068198.294694461 0 0 0 0 137255905.91463479 -38832147.498397298 0 -38832147.498397298 46360095.521633148 0 0 0 0 137363902.97096443 -9807570.5690253973 0 -9807570.5690253973 -7267854.8449254036 0 0 0 0 89463657.452386856 -21452692.427719235 0 -21452692.427719235 9481621.170886755 0 0 0 0 53730097.41283226 46705709.621348381 0 46705709.621348381 -11939814.597900987 0 0 0 0 -4776843.1918182373 26439956.500997901 0 26439956.500997901 41841966.698534489 0 0 0 0 89811249.335342407 6413170.0542607307 0 6413170.0542607307 -12078793.636347055 0 0 0 0 23827552.202199936 48486608.531648278 0 48486608.531648278 -63325798.825969219 0 0 0 0 167254981.14076424 -83758644.078659415 0 -83758644.078659415 4815159.447865963 0 0 0 0 230522606.72516823 -1462797.3863899112 0 -1462797.3863899112 -8033389.482973814 0 0 0 0 146783459.15918922 101391001.85451293 0 101391001.85451293 36457694.871832311 0 0 0 0 5640626.173122406 27821228.077252746 0 27821228.077252746 53000241.700891495 0 0 0 0 43819564.98412323 46146102.512435198 0 46146102.512435198 57035858.620928615 0 0 0 0 133617307.91624832 -8728764.8568282127 0 -8728764.8568282127 -8552666.7347593307 0 0 0 0 -276450414.15806389 61951873.146127939 0 61951873.146127939 232513511.7835269 0 0 0 0 -168466058.51633072 181480562.86742234 0 181480562.86742234 5130774.0353825092 0 0 0 0 1453666.1696208548 -1515639.9004443539 0 -1515639.9004443539 181026.26874762774 0 0 0 0 5043751.8347568512 -2842575.8489202261 0 -2842575.8489202261 -16121347.951022625 0 0 0 0 10525171.265697479 88411357.661006927 0 88411357.661006927 -196020373.27168792 0 0 0 0 12822705.303638458 -7758061.2039167881 0 -7758061.2039167881 134227935.45872378 0 0 0 0 -80291755.86173439 20103970.388272703 0 20103970.388272703 167237445.31736279 0 0 0 0 -30738652.116703033 56802107.917996168 0 56802107.917996168 47902290.317459583 0 0 0 0 -67275910.767881393 3113702.9105305672 0 3113702.9105305672 160622307.84413576 0 0 0 0 -113428777.47873306 -26939842.014619112 0 -26939842.014619112 243752790.62465262 0 0 0 0 8739879.1215553284 -135914602.74607253 0 -135914602.74607253 274446863.08989865 0 0 0 0 -3138034.1030111313 -94638875.785894737 0 -94638875.785894737 193553776.92844534 0 0 0 0 -29508469.995885849 -113508958.83223504 0 -113508958.83223504 279674322.72025752 0 0 0 0 57732731.901916504 -128026229.00067466 0 -128026229.00067466 211610014.70522952 0 0 0 0 -59431102.499406815 -57169406.21378389 0 -57169406.21378389 217412575.58801007 0 0 0 0 -2453422.926574707 -92284241.57786423 0 -92284241.57786423 199832156.00965881 0 0 0 0 2597978.5321350098 -91908902.816150069 0 -91908902.816150069 198098900.31712818 0 0 0 0 -11999574.754901886 -45232861.420510173 0 -45232861.420510173 170850946.3523401 0 0 0 0 -19002487.110237122 -13305774.476460308 0 -13305774.476460308 139186542.90101314 0 0 0 0 52823678.947231293 -53461494.300101936 0 -53461494.300101936 160573899.14198488 0 0 0 0 30163910.252536774 -64065282.187791616 0 -64065282.187791616 156394463.87331486 0 0 0 0 61900827.519695282 -97056356.615772039 0 -97056356.615772039 181907702.27096027 0 0 0 0 35064683.977787018 -102015551.77429341 0 -102015551.77429341 203473203.78459728 0 0 0 0 82933043.088775635 -125052758.24086839 0 -125052758.24086839 202756966.75690997 0 0 0 0 13156.01309967041 -98952971.09368068 0 -98952971.09368068 198755077.50201362 0 0 0 0 9092211.646686554 -98422753.337611228 0 -98422753.337611228 195335760.59626102 0 0 0 0 -9983756.1839828491 -91278138.720675528 0 -91278138.720675528 199994108.56382209 0 0 0 0 5247350.2758178711 -80747657.694970012 0 -80747657.694970012 170277902.5592494 0 0 0 0 -104724424.4894371 -132752664.25706002 0 -132752664.25706002 170702498.10553601 0 0 0 0 28408483.097309113 -100128621.5843457 0 -100128621.5843457 186452030.63056695 0 0 0 0 133626515.13952911 -6875754.040057037 0 -6875754.040057037 83295908.05223918 0 0 0 0 52007690.275341034 -19941179.080226541 0 -19941179.080226541 88189009.647039056 0 0 0 0 97360809.144035339 -70229628.478786409 0 -70229628.478786409 122696503.4053871 0 0 0 0 56405069.38482666 -76787322.132331252 0 -76787322.132331252 152309810.89389241 0 0 0 0 141157355.19738388 -55750895.078107953 0 -55750895.078107953 41849712.852309689 0 0 0 0 116610699.28357315 -90753901.096538052 0 -90753901.096538052 125991119.81700593 0 0 0 0 100941820.53954315 -114551844.80518749 0 -114551844.80518749 130414877.1633838 0 0 0 0 109615740.62264156 -128449348.37225808 0 -128449348.37225808 133926550.11426842 0 0 0 0 82276047.714530945 -126042084.06917092 0 -126042084.06917092 142609176.26480392 0 0 0 0 93138323.528709412 -122429960.27946071 0 -122429960.27946071 122929763.73799717 0 0 0 0 85514977.847938538 -102214348.35153979 0 -102214348.35153979 121811435.88667086 0 0 0 0 85721428.10105896 -105432140.72481395 0 -105432140.72481395 170313836.546143 0 0 0 0 3732477.6385140494 -828247.8647505613 0 -828247.8647505613 -1788175.5258679304 0 0 0 0 15460736.692862511 -5199353.8692002296 0 -5199353.8692002296 -2943451.8803988695 0 0 0 0 26966919.832801819 -23412572.866619766 0 -23412572.866619766 129502876.93497927 0 0 0 0 35051566.36016643 -105380182.87867101 0 -105380182.87867101 290423172.16841382 0 0 0 0 1304280.8288000543 982129.45843517198 0 982129.45843517198 -152740.6919887657 0 0 0 0 237947670.35062027 -201171739.53934979 0 -201171739.53934979 172636396.44666582 0 0 0 0 -126965184.54336548 12401073.589006603 0 12401073.589006603 55932269.318591297 0 0 0 0 39280259.468875885 -55007548.168287426 0 -55007548.168287426 74230287.609861195 0 0 0 0 875587.4527067577 147138.34981507156 0 147138.34981507156 -56984.325669962345 0 0 0 0 -209111533.65584373 -39263549.564664304 0 -39263549.564664304 147044035.40984404 0 0 0 0 22775450.805797577 -19849889.662871152 0 -19849889.662871152 -48729387.891165137 0 0 0 0 89509202.208667755 -137034547.20071802 0 -137034547.20071802 119737020.71653819 0 0 0 0 79497266.592079163 -149581468.62890679 0 -149581468.62890679 200752503.43084547 0 0 0 0 1004876.3714923188 -247010.48526351713 0 -247010.48526351713 -400215.80685495649 0 0 0 0 79566149.479345322 -21631769.551773369 0 -21631769.551773369 2540337.3138674498 0 0 0 0 10893970.2376194 264190.06218588352 0 264190.06218588352 -2968057.327727437 0 0 0 0 10574267.547269821 277711.73789453506 0 277711.73789453506 -2714532.6857199669 0 0 0 0 16955907.956581116 -50285628.005194545 0 -50285628.005194545 -45176361.87894772 0 0 0 0 12101595.716758728 -15918261.693392277 0 -15918261.693392277 -15496827.59142828 0 0 0 0 -47035411.734100342 -39554865.365195453 0 -39554865.365195453 -14391471.930737615 0 0 0 0 3120925.361988964 -15404.410642379895 0 -15404.410642379895 -270484.1056965146 0 0 0 0 11911661.398950577 -571860.00948989391 0 -571860.00948989391 -3903100.8752880096 0 0 0 0 10567232.233591199 -2394609.3469227478 0 -2394609.3469227478 -2605752.2618436245 0 0 0 0 20510073.668600321 -717781.46220874786 0 -717781.46220874786 -3195442.5663785934 0 0 0 0 -6268450.5645427704 -3748529.0181447268 0 -3748529.0181447268 1965685.0489275455 0 0 0 0 35234815.56842947 3997858.4507887363 0 3997858.4507887363 -3988757.3273715973 0 0 0 0 8594791.4756572451 -5981358.8092034077 0 -5981358.8092034077 -2857472.0840814733 0 0 0 0 -1734845.9561484195 -2839960.1159490524 0 -2839960.1159490524 1433153.5387274507 0 0 0 0 -3132809.6998291016 -6775198.6229888797 0 -6775198.6229888797 3602348.3740384579 0 0 0 0 -3631946.8515281677 -9194125.2562627792 0 -9194125.2562627792 363691.15272712708 0 0 0 0 219601751.15081024 -28708636.910991699 0 -28708636.910991699 -8941816.7390306741 0 0 0 0 -93960757.138256073 8263347.6717835367 0 8263347.6717835367 25024687.5378685 0 0 0 0 12903864.847826481 5090124.9462170601 0 5090124.9462170601 1198492.9654626846 0 0 0 0 9061226.2855246253 4422055.9587264452 0 4422055.9587264452 986021.90087443916 0 0 0 0 12542467.637093544 5729806.6658325195 0 5729806.6658325195 1319739.405251503 0 0 0 0 6086286.2978286743 -5243427.877614975 0 -5243427.877614975 -2609217.2545420527 0 0 0 0 9833331.4022972099 50012.080661626998 0 50012.080661626998 -2334887.6639893474 0 0 0 0 17840758.399106145 6547779.3410904408 0 6547779.3410904408 906446.9337387085 0 0 0 0 11151345.354447365 7707695.796775341 0 7707695.796775341 2229723.911128521 0 0 0 0 2930147.3976297379 7204470.582723856 0 7204470.582723856 4699969.561978817 0 0 0 0 3171937.2618084829 -143590.65530907223 0 -143590.65530907223 -569298.36088872515 0 0 0 0 11251687.103740692 3753214.8091011047 0 3753214.8091011047 1657380.3303515911 0 0 0 0 1801942.5298515735 3255827.7079784353 0 3255827.7079784353 3675828.5314572705 0 0 0 0 14721277.754199505 15866601.661541104 0 15866601.661541104 5505547.7544491291 0 0 0 0 235961558.69318581 -961556.92489182949 0 -961556.92489182949 52326462.882872134 0 0 0 0 266390761.44614029 -215614214.60000402 0 -215614214.60000402 142015243.29427853 0 0 0 0 284583672.10957336 -99673893.280458212 0 -99673893.280458212 9862542.1480195522 0 0 0 0 242025035.59825134 -61163986.927012339 0 -61163986.927012339 117925303.54104672 0 0 0 0 218080520.28260994 -53826471.693354785 0 -53826471.693354785 123416057.68261862 0 0 0 0 235900275.70399094 887529.3900642395 0 887529.3900642395 198089047.0433923 0 0 0 0 246417549.71952057 60833896.74177891 0 60833896.74177891 166790355.20910072 0 0 0 0 381164276.41973877 -47390285.260074645 0 -47390285.260074645 89225666.900679469 0 0 0 0 254794.91250584787 -385667.701786777 0 -385667.701786777 658900.81347976625 0 0 0 0 125430172.40720749 -204433350.38165563 0 -204433350.38165563 283123473.50468117 0 0 0 0 -16573656.26619339 -94219279.829341799 0 -94219279.829341799 171626679.0251472 0 0 0 0 16805971.608760834 684818.10336972773 0 684818.10336972773 400846650.27544534 0 0 0 0 503880574.53356934 -67229597.985366642 0 -67229597.985366642 122346477.89537323 0 0 0 0 218706874.17717409 -38191889.336736858 0 -38191889.336736858 417511525.44567001 0 0 0 0 238552519.99927139 -42628982.694570482 0 -42628982.694570482 45144999.403478339 0 0 0 0 149407043.71103287 -56529012.372598588 0 -56529012.372598588 123124715.37937421 0 0 0 0 187110525.70921469 14449925.722466076 0 14449925.722466076 -6800125.4397879094 0 0 0 0 -14023462.021385193 15018576.169658758 0 15018576.169658758 16573578.358751446 0 0 0 0 113099486.11176652 62704128.098206691 0 62704128.098206691 -64510706.393373251 0 0 0 0 109802836.2494117 -1255004.9039711575 0 -1255004.9039711575 63365810.888798788 0 0 0 0 185639081.91025734 14803546.047605842 0 14803546.047605842 25656.737802483141 0 0 0 0 200034147.86256599 -67001183.171111628 0 -67001183.171111628 32670109.241627343 0 0 0 0 251763399.24887848 -106997445.96366966 0 -106997445.96366966 69107086.779494017 0 0 0 0 164506628.61410522 -61191133.830355972 0 -61191133.830355972 100905803.92293322 0 0 0 0 286102125.12759399 -46519409.143420398 0 -46519409.143420398 100773153.11592175 0 0 0 0 234290318.39977595 -155661469.34120315 0 -155661469.34120315 207361831.69847122 0 0 0 0 2205921136.975153 -428611311.00891894 0 -428611311.00891894 -190432956.87460771 0 0 0 0 1694861416.3150597 -133113290.29030323 0 -133113290.29030323 -343352343.69789439 0 0 0 0 1336687440.3423653 -728844089.35975862 0 -728844089.35975862 -74449990.990260541 0 0 0 0 900560179.44389343 -231734715.72669256 0 -231734715.72669256 -88787398.478453517 0 0 0 0 1990702485.6385269 -896847651.76739645 0 -896847651.76739645 -70051386.651856169 0 0 0 0 1826991.9755352121 -435754.91093514324 0 -435754.91093514324 -133649.88699729388 0 0 0 0 383309814.7085762 145664105.29968956 0 145664105.29968956 -192277119.30998376 0 0 0 0 396405188.74215317 -609596843.95485961 0 -609596843.95485961 949726473.58206534 0 0 0 0 1625134612.9582863 -417202110.51776123 0 -417202110.51776123 8708269.5375445597 0 0 0 0 1573976855.3747673 -726700222.78363276 0 -726700222.78363276 135090692.00106063 0 0 0 0 1956767511.0699105 -360423863.07707494 0 -360423863.07707494 360752906.47998983 0 0 0 0 2200585071.4055405 -864558296.21500468 0 -864558296.21500468 39393035.170797668 0 0 0 0 1170761534.8919392 -1022945774.6206907 0 -1022945774.6206907 860203069.51855016 0 0 0 0 421583716.43367767 816602929.1088351 0 816602929.1088351 1198998603.0294371 0 0 0 0 3138143.0189870261 70221.847694642958 0 70221.847694642958 942268.01369387261 0 0 0 0 2202144917.2262077 738421215.21686423 0 738421215.21686423 -95061587.59982948 0 0 0 0 -397711865.86486053 24392955.259847403 0 24392955.259847403 662243692.73549473 0 0 0 0 -9112961.6470184326 -136672649.98036897 0 -136672649.98036897 496980020.07479405 0 0 0 0 -37089087.259357452 19951250.525486276 0 19951250.525486276 89304870.267483652 0 0 0 0 115274337.64473534 106376056.09171808 0 106376056.09171808 73812431.756914377 0 0 0 0 -25116365.126075745 130218107.62853551 0 130218107.62853551 377639027.39383483 0 0 0 0 -47476609.728622437 30096998.425191343 0 30096998.425191343 131563931.10793334 0 0 0 0 -28033170.572967529 23894759.830309868 0 23894759.830309868 127436214.45271921 0 0 0 0 1746745414.1639709 800145512.08286953 0 800145512.08286953 -305485781.65830851 0 0 0 0 72304764.11844635 81186142.195113063 0 81186142.195113063 59098901.996551394 0 0 0 0 7158752.8188827224 -358410.50803278654 0 -358410.50803278654 438833.92924639129 0 0 0 0 -48747540.92232132 -131498209.87298673 0 -131498209.87298673 84322281.844618797 0 0 0 0 919908692.58423615 392197506.06241131 0 392197506.06241131 318013831.16626829 0 0 0 0 -296258777.18858337 -720300403.91700649 0 -720300403.91700649 -128059929.71554136 0 0 0 0 1054143.2759917155 -1368750.7148516886 0 -1368750.7148516886 934898.77072874852 0 0 0 0 -310690522.74169922 88274461.75531435 0 88274461.75531435 523507716.1570878 0 0 0 0 -2220878574.938736 -174235352.47300982 0 -174235352.47300982 790952382.58333063 0 0 0 0 -23638477.040882111 -25731760.352352485 0 -25731760.352352485 146136674.17739797 0 0 0 0 -12542984.241622925 9851828.5297067761 0 9851828.5297067761 126520730.32107806 0 0 0 0 -47409778.206451416 9015835.3623676896 0 9015835.3623676896 135216366.78843045 0 0 0 0 -45757380.042243958 13464683.659422576 0 13464683.659422576 124439473.91996485 0 0 0 0 -68196786.077013016 -10170790.243201613 0 -10170790.243201613 147983996.50341988 0 0 0 0 1329224.1840696037 -282801.5328233121 0 -282801.5328233121 123910.08266332523 0 0 0 0 -86836108.584823608 -105480949.77850589 0 -105480949.77850589 57831518.881663084 0 0 0 0 -35930525.037528992 -11007642.880643606 0 -11007642.880643606 88989577.714893222 0 0 0 0 7886914.2855529785 1876113.566280663 0 1876113.566280663 -1177797.0965144634 0 0 0 0 -15181360.289180756 -53266729.12545006 0 -53266729.12545006 -75997357.076948076 0 0 0 0 -155599383.70832062 -79924612.37577334 0 -79924612.37577334 317229286.7878139 0 0 0 0 -149562004.24129486 -54711549.17665197 0 -54711549.17665197 242745492.39925599 0 0 0 0 -401988.85237216391 319617.971970591 0 319617.971970591 -69898.613691699968 0 0 0 0 306080129.96646881 -426938380.24805808 0 -426938380.24805808 146409282.46960765 0 0 0 0 -3600560.516248703 8372132.4677496105 0 8372132.4677496105 62220551.013932526 0 0 0 0 142089439.49840164 58180573.57317356 0 58180573.57317356 -154983441.98736811 0 0 0 0 1232692.0709793158 -513351.56411665503 0 -513351.56411665503 -220314.27098279726 0 0 0 0 -54138649.116664886 -7852582.0429037809 0 -7852582.0429037809 46121980.950615048 0 0 0 0 -23142552.143890381 77957113.691987038 0 77957113.691987038 -10537787.326582074 0 0 0 0 -22750674.67609787 1104324.50428316 0 1104324.50428316 -3766358.8744158074 0 0 0 0 928511.35317461006 -233106.22133864439 0 -233106.22133864439 -115789.32631936306 0 0 0 0 -42003234.202897549 6021982.3094242886 0 6021982.3094242886 47890809.01491195 0 0 0 0 -40515778.665966034 -824255.06653958559 0 -824255.06653958559 3682510.6667009592 0 0 0 0 2782435.9558029175 47295941.278734446 0 47295941.278734446 43692114.130740404 0 0 0 0 10683001.47869873 -2905891.4810862467 0 -2905891.4810862467 14312611.861169055 0 0 0 0 835693.12523828074 -708094.78761452134 0 -708094.78761452134 301527.56813280005 0 0 0 0 -25931437.985229492 -4287597.0793964863 0 -4287597.0793964863 -223659.98556005955 0 0 0 0 8648660.8449554443 -2433647.9947590828 0 -2433647.9947590828 -4950523.1146194935 0 0 0 0 -34697175.594749451 -16164718.59378022 0 -16164718.59378022 84712945.448025107 0 0 0 0 -29335739.625328064 -6267176.7919645309 0 -6267176.7919645309 89176749.06290397 0 0 0 0 -57455554.842315674 -10616421.564345956 0 -10616421.564345956 203810247.22810543 0 0 0 0 -28998433.053527832 -11678625.628248572 0 -11678625.628248572 84670128.988719746 0 0 0 0 -35371352.131446838 15188075.772895217 0 15188075.772895217 152627420.21424484 0 0 0 0 -17916802.683410645 8930442.3581184149 0 8930442.3581184149 150356166.36264944 0 0 0 0 701384202.69557953 -371357288.47424138 0 -371357288.47424138 -346583170.08472753 0 0 0 0 6132832.132631164 -1701887.0887750022 0 -1701887.0887750022 90361.882674565713 0 0 0 0 284589396.9962616 -46515515.719813108 0 -46515515.719813108 -266356338.65675259 0 0 0 0 591599782.80078125 -463008997.74317408 0 -463008997.74317408 -115213168.74147916 0 0 0 0 846555.13247032464 -1896038.4243958658 0 -1896038.4243958658 363286.84143116535 0 0 0 0 -99368062.048801422 25218729.482092142 0 25218729.482092142 329495500.18870974 0 0 0 0 15318968.977729797 -53178355.99171114 0 -53178355.99171114 -145355055.72320533 0 0 0 0 2111770.8770175856 -1292202.1807043641 0 -1292202.1807043641 39120.521594545295 0 0 0 0 93240463.333698273 -15940760.378838301 0 -15940760.378838301 175847219.94132125 0 0 0 0 -18282884.569481879 -39255470.292019606 0 -39255470.292019606 217093803.30822253 0 0 0 0 -35248290.175533295 71810447.247202158 0 71810447.247202158 178125869.95670867 0 0 0 0 506569453.55648041 -118091670.91634893 0 -118091670.91634893 133677096.541273 0 0 0 0 -738493123.15335083 -504115883.08739376 0 -504115883.08739376 913444957.55427957 0 0 0 0 -124018648.21237564 -26207116.502405405 0 -26207116.502405405 -20611415.083232641 0 0 0 0 -112980463.84860229 -185113124.9433924 0 -185113124.9433924 283091750.11246371 0 0 0 0 1071328002.6890526 150102243.63736415 0 150102243.63736415 -536854142.27652407 0 0 0 0 1864320.8817540035 -2443243.5699594934 0 -2443243.5699594934 354116.95384319487 0 0 0 0 419541829.85947418 -283452810.81496859 0 -283452810.81496859 215007569.16175306 0 0 0 0 37846663.186484337 -79398692.453204677 0 -79398692.453204677 257990382.16474748 0 0 0 0 63730553.878361464 -85147981.455949098 0 -85147981.455949098 181686287.03118861 0 0 0 0 252340970.08015823 -254458712.80517209 0 -254458712.80517209 303574456.23918867 0 0 0 0 302519.63745527714 -420803.82502366789 0 -420803.82502366789 189412.99665840034 0 0 0 0 224468107.41751099 49246465.165878236 0 49246465.165878236 7642360.8279579878 0 0 0 0 90156278.705159187 -111901104.66097058 0 -111901104.66097058 214584022.25826883 0 0 0 0 400859137.20366478 -68447776.267960921 0 -68447776.267960921 218927.69025588036 0 0 0 0 368427.69836652093 -109883.14499423117 0 -109883.14499423117 -44768.688880886177 0 0 0 0 243718090.01982117 32548124.445013799 0 32548124.445013799 -11835801.863672577 0 0 0 0 22965306.583972931 83764525.594330341 0 83764525.594330341 171463337.87612849 0 0 0 0 202160686.53883362 -11090252.380805902 0 -11090252.380805902 -27973027.415897883 0 0 0 0 35712234.3306427 -33270216.775439948 0 -33270216.775439948 146938427.36594224 0 0 0 0 259855631.10962296 -15583274.630621582 0 -15583274.630621582 125762965.79667251 0 0 0 0 30200254.242777109 -77414493.299068168 0 -77414493.299068168 180029371.30488133 0 0 0 0 149615649.49843216 -76447864.687576175 0 -76447864.687576175 34672195.63465333 0 0 0 0 26878775.425032616 -5448701.3508304358 0 -5448701.3508304358 -1791806.5376192331 0 0 0 0 71252805.894634247 16004076.856424272 0 16004076.856424272 575409.36187976599 0 0 0 0 202115691.54526138 101768687.7920873 0 101768687.7920873 54374542.731622338 0 0 0 0 65900184.963756442 18422458.677063905 0 18422458.677063905 72515.008435964584 0 0 0 0 16299923.400819898 -42456205.003016964 0 -42456205.003016964 -7326504.9391030073 0 0 0 0 70672163.515201569 -36179436.268153489 0 -36179436.268153489 -35497781.375211835 0 0 0 0 49977786.240188599 -13194673.879393101 0 -13194673.879393101 -41356573.416534424 0 0 0 0 12791514.659380853 -30920804.524674781 0 -30920804.524674781 -35295247.9354738 0 0 0 0 -430774.20363225788 -795727.98301382316 0 -795727.98301382316 367249.44561838696 0 0 0 0 -16870636.617736816 2251179.687472105 0 2251179.687472105 34093788.340024948 0 0 0 0 131679796.58364868 36597859.536841989 0 36597859.536841989 -24115244.96129179 0 0 0 0 -3052794.1956634521 -5845229.2340416908 0 -5845229.2340416908 17958407.823162556 0 0 0 0 -74155173.399923325 -35923018.289951503 0 -35923018.289951503 -13854321.190218449 0 0 0 0 111791492.27228546 -166624551.76780033 0 -166624551.76780033 -91974320.922854364 0 0 0 0 21122479.937000275 -17944569.078251809 0 -17944569.078251809 -29420276.227315784 0 0 0 0 48265019.643235683 -7064550.0693489909 0 -7064550.0693489909 -37853771.228215218 0 0 0 0 -8362309.0723514557 44356793.077255607 0 44356793.077255607 -52661653.574232817 0 0 0 0 -31529866.783554077 -3671477.0439920425 0 -3671477.0439920425 -30096892.621250004 0 0 0 0 -813191.87598419189 -13532244.287074804 0 -13532244.287074804 -44508.76800198853 0 0 0 0 -112253.64192140847 -1330516.3389139376 0 -1330516.3389139376 -144805.85724188041 0 0 0 0 -51429208.640907288 23228429.398632556 0 23228429.398632556 -4745364.1959779859 0 0 0 0 -66316044.34013319 -10905779.525531489 0 -10905779.525531489 72998828.054341912 0 0 0 0 -14225997.354034424 -41963334.529365182 0 -41963334.529365182 34120862.877009571 0 0 0 0 57350289.519964218 81849797.29706654 0 81849797.29706654 -54477421.531317443 0 0 0 0 -174852.59522005357 -319539.91961858748 0 -319539.91961858748 80406.939151797327 0 0 0 0 -4536375.059592247 63757049.496924788 0 63757049.496924788 25479764.646022797 0 0 0 0 5664426.2277760506 61382953.438964278 0 61382953.438964278 25734201.377132893 0 0 0 0 -2261760.8143844604 32432923.683044195 0 32432923.683044195 29531583.729554057 0 0 0 0 36988977.60256958 51709375.801027238 0 51709375.801027238 14481310.554416239 0 0 0 0 -25457258.94675827 25804608.986339971 0 25804608.986339971 104708006.0590927 0 0 0 0 55815507.39366436 81351954.021103516 0 81351954.021103516 63942235.516647339 0 0 0 0 -9232174.7562961578 33628781.15730831 0 33628781.15730831 23070885.00399226 0 0 0 0 -37752114.537563324 38736911.77806133 0 38736911.77806133 72427851.330303907 0 0 0 0 64625914.230861664 13095675.093021572 0 13095675.093021572 64616030.227610454 0 0 0 0 62782047.694034576 -518621.40851867199 0 -518621.40851867199 88679972.79030785 0 0 0 0 148538258.0845108 57170035.998179704 0 57170035.998179704 84789941.249368429 0 0 0 0 72399693.076858521 -11065881.037111402 0 -11065881.037111402 42856094.122619927 0 0 0 0 530824574.48003674 -186508692.02842993 0 -186508692.02842993 -33100525.035288751 0 0 0 0 548608217.89035797 -137969127.50264251 0 -137969127.50264251 25444013.368288368 0 0 0 0 509460399.70410728 102844915.42125997 0 102844915.42125997 -58837397.872576058 0 0 0 0 54496527.793259621 98368479.735522628 0 98368479.735522628 153333690.60787004 0 0 0 0 168104161.85358047 -28984172.098284602 0 -28984172.098284602 73867598.810266748 0 0 0 0 5388162.2490024567 9500671.739449501 0 9500671.739449501 135258413.93084371 0 0 0 0 456029046.10407639 309779212.14090806 0 309779212.14090806 270792613.28135359 0 0 0 0 551132619.73122787 -37686201.929454416 0 -37686201.929454416 -67497200.080585659 0 0 0 0 927486719.83710861 289638910.87941843 0 289638910.87941843 -26784925.665575922 0 0 0 0 856474153.28258133 200157131.60823709 0 200157131.60823709 -53853733.224892482 0 0 0 0 1072323981.8505249 552276362.88875854 0 552276362.88875854 -167099803.97359505 0 0 0 0 2206319783.8094673 462848316.25710917 0 462848316.25710917 -392698340.50386894 0 0 0 0 1492086020.6200371 59081154.042565376 0 59081154.042565376 -379701775.41354948 0 0 0 0 1328030868.8933582 116794829.48371786 0 116794829.48371786 -378953873.43102318 0 0 0 0 1030755743.659483 -296951081.84774697 0 -296951081.84774697 -90492467.904249251 0 0 0 0 2203729466.9475455 -241439496.98150292 0 -241439496.98150292 -476981028.63950676 0 0 0 0 967308622.51679802 -684120270.06135356 0 -684120270.06135356 183083173.64060181 0 0 0 0 2169407.2168483753 606982.04073044867 0 606982.04073044867 834532.03169461933 0 0 0 0 134921454.73817348 -191101543.89494893 0 -191101543.89494893 235044459.12463689 0 0 0 0 45642261.730591297 151009593.74590665 0 151009593.74590665 46802609.43846494 0 0 0 0 -188903370.87065315 -1392597.4429396857 0 -1392597.4429396857 412429497.35516268 0 0 0 0 2201490144.4720955 22929203.868200488 0 22929203.868200488 -354778762.15673953 0 0 0 0 1276854156.2135201 523857832.67313504 0 523857832.67313504 148916142.11348695 0 0 0 0 2201241469.9510403 25041815.558025502 0 25041815.558025502 -354401218.1366331 0 0 0 0 1873554.2830125066 1051294.9651785027 0 1051294.9651785027 1092233.7743689541 0 0 0 0 1371194403.4746723 -511546316.88211513 0 -511546316.88211513 110018271.20675412 0 0 0 0 2198827198.352747 1021038681.2076942 0 1021038681.2076942 25712013.771884546 0 0 0 0 156587489.84739876 743227234.58119667 0 743227234.58119667 925917913.50909734 0 0 0 0 265553838.43505931 -68202687.311359793 0 -68202687.311359793 -49334822.327074051 0 0 0 0 5100176.1628866652 1802390.2529286761 0 1802390.2529286761 845876.74187119782 0 0 0 0 142617978.53906822 121747720.0137825 0 121747720.0137825 -248554395.09972739 0 0 0 0 77881505.40124321 -21170980.844730824 0 -21170980.844730824 258073423.40354997 0 0 0 0 160697576.93477821 29495847.945713818 0 29495847.945713818 -24890771.55774951 0 0 0 0 44576404.965908051 -106691789.77731687 0 -106691789.77731687 56985963.984007239 0 0 0 0 52669800.212408066 -90698171.238087654 0 -90698171.238087654 -189014125.36193204 0 0 0 0 -14905120.73723793 -42127891.235395432 0 -42127891.235395432 -37912748.792044371 0 0 0 0 3025425.3195900917 7184232.3147368729 0 7184232.3147368729 -7439778.1488689184 0 0 0 0 3061613.9089372158 3194729.9269091031 0 3194729.9269091031 -223011.44817951007 0 0 0 0 9093393.7092063911 2941501.6932565654 0 2941501.6932565654 -349888.32568517956 0 0 0 0 5142892.8787576389 1824589.194970405 0 1824589.194970405 227703.20254115452 0 0 0 0 6825777.0007324219 33014779.470000684 0 33014779.470000684 -104889166.80038531 0 0 0 0 -188903370.87064961 6321991.5145130567 0 6321991.5145130567 -1273060.5580691383 0 0 0 0 17294390.683242798 99481645.429761603 0 99481645.429761603 -45811570.047974177 0 0 0 0 -64278758.883812577 105947232.31987777 0 105947232.31987777 62788487.578962557 0 0 0 0 -62826764.359254837 49991508.472269073 0 49991508.472269073 16277218.240114301 0 0 0 0 9567387.549715519 12738848.362257734 0 12738848.362257734 -11509330.932450116 0 0 0 0 -55272549.650224686 36824870.117774814 0 36824870.117774814 -16623132.939825177 0 0 0 0 -6671401.2915172577 -3763044.1433650255 0 -3763044.1433650255 2122984.511670202 0 0 0 0 17698543.634029388 -33617219.458087444 0 -33617219.458087444 39403894.021201611 0 0 0 0 5282063.2884792406 -1923424.5496780362 0 -1923424.5496780362 788963.7976548064 0 0 0 0 24834469.067146301 5006310.5337181091 0 5006310.5337181091 1476523.4330177307 0 0 0 0 27784962.487192631 13273586.026401535 0 13273586.026401535 -9325210.6933419108 0 0 0 0 -15568220.652700126 -18786646.283739381 0 -18786646.283739381 -7869863.0380802155 0 0 0 0 2249889.4105342468 3648913.8277174216 0 3648913.8277174216 -2061250.5091752505 0 0 0 0 -27107181.333135843 14014502.447827637 0 14014502.447827637 -6924588.741328299 0 0 0 0 -7053331.556678772 50713010.717517376 0 50713010.717517376 8124182.6543107033 0 0 0 0 3140022.220508337 -7944560.5863002837 0 -7944560.5863002837 9353964.773932457 0 0 0 0 7453027.2530675624 -770944.72830136027 0 -770944.72830136027 -2674285.9590341356 0 0 0 0 55188931.315242767 -46578048.797605515 0 -46578048.797605515 -57068546.779354095 0 0 0 0 7969652.4154676683 -24119.584526838269 0 -24119.584526838269 -2838582.5116309458 0 0 0 0 37840621.473583162 -64407656.212291747 0 -64407656.212291747 -17582689.469405144 0 0 0 0 6482516.1540108817 -2169006.7098440444 0 -2169006.7098440444 1197195.257398468 0 0 0 0 -21286394.174159288 -14505993.779488996 0 -14505993.779488996 8290715.1578745842 0 0 0 0 -18309403.779924154 25668538.600601822 0 25668538.600601822 861189.35268688202 0 0 0 0 9880031.7645721436 11154117.02184248 0 11154117.02184248 -666307.61739969254 0 0 0 0 8489364.126739502 -963763.58734583855 0 -963763.58734583855 21065312.1695292 0 0 0 0 9710604.6826629639 16188625.837940216 0 16188625.837940216 -48931.341267883778 0 0 0 0 7645586.3542633057 3241254.584227562 0 3241254.584227562 -28657162.834563255 0 0 0 0 -30489768.235050201 -21403438.22975713 0 -21403438.22975713 -31538377.443140388 0 0 0 0 -46085922.248975754 -88010262.337351829 0 -88010262.337351829 2663320.5143322945 0 0 0 0 -38958413.471710443 -31591834.40958859 0 -31591834.40958859 -4301245.7333447933 0 0 0 0 -38405210.906913757 -37331055.993256211 0 -37331055.993256211 38255002.756609678 0 0 0 0 46240600.910758972 -29826753.552263021 0 -29826753.552263021 -20960560.155036926 0 0 0 0 -4981494.4395542145 -89723774.85603416 0 -89723774.85603416 -79292164.990776539 0 0 0 0 11506938.750961304 44861530.458328724 0 44861530.458328724 59268982.499212623 0 0 0 0 918744.68170217797 860692.31751954369 0 860692.31751954369 -48885.864694010234 0 0 0 0 101112825.98918915 35628439.11005187 0 35628439.11005187 -15012150.00983578 0 0 0 0 109096731.23358154 3941429.4058275223 0 3941429.4058275223 -89794709.057540417 0 0 0 0 143697376.07366943 -22615150.660575628 0 -22615150.660575628 -70365464.123286247 0 0 0 0 8416198.0786132812 32285821.605539799 0 32285821.605539799 -54835666.926915646 0 0 0 0 -67036677.716121674 16922905.847449064 0 16922905.847449064 47922869.030961037 0 0 0 0 -16137853.306976318 -27390625.598040104 0 -27390625.598040104 84779153.118281126 0 0 0 0 -8694028.723236084 29989905.792874575 0 29989905.792874575 66318981.759162962 0 0 0 0 99952794.484825134 -50388693.93977046 0 -50388693.93977046 19058921.880115509 0 0 0 0 41788152.354019165 26857574.390793443 0 26857574.390793443 5941975.0158288479 0 0 0 0 -33908901.499298096 -10232975.614784718 0 -10232975.614784718 12052353.236305714 0 0 0 0 -4987281.3548355103 14065723.181043386 0 14065723.181043386 6596820.9015956223 0 0 0 0 -12827799.310901642 -1283339.4535595477 0 -1283339.4535595477 -9843714.5202875137 0 0 0 0 8982448.9543190002 2108848.4574151039 0 2108848.4574151039 -10983792.630393744 0 0 0 0 -16845760.317285538 -2351429.1814782023 0 -2351429.1814782023 -14556653.121388674 0 0 0 0 2193915.7814361565 -3698670.8701144885 0 -3698670.8701144885 -2339168.18922491 0 0 0 0 -10613728.510632515 3739147.399721995 0 3739147.399721995 -11225077.990111828 0 0 0 0 165035543.00796127 59986573.710143089 0 59986573.710143089 -13031090.050357938 0 0 0 0 -19997605.513925552 -14307623.466628373 0 -14307623.466628373 -14793071.279606819 0 0 0 0 -24647541.559020996 -10420804.921768188 0 -10420804.921768188 27094861.241961956 0 0 0 0 -33177031.266662598 -24671074.12123692 0 -24671074.12123692 15758300.759120941 0 0 0 0 9120709.6127644852 -1618883.6511744109 0 -1618883.6511744109 607930.97918450204 0 0 0 0 4077228.3197860718 -1960644.981926918 0 -1960644.981926918 -809374.59096622467 0 0 0 0 -57337730.839206696 -42671457.887363039 0 -42671457.887363039 8084046.5006014109 0 0 0 0 5870681.9524671957 -1920900.244659903 0 -1920900.244659903 -1747773.4684029003 0 0 0 0 4958568.8788871765 1095127.6468834877 0 1095127.6468834877 -3748554.3817772865 0 0 0 0 6497689.6581980661 11963624.102419071 0 11963624.102419071 -3340076.2470186949 0 0 0 0 14246325.451678708 -8259029.6314815134 0 -8259029.6314815134 -23329086.467901736 0 0 0 0 5316356.7432022095 -1961149.5525064468 0 -1961149.5525064468 3375274.6916761398 0 0 0 0 -12569289.656579394 -5827330.4540977888 0 -5827330.4540977888 22921159.673320189 0 0 0 0 26268664.059959829 -21416273.961656839 0 -21416273.961656839 17411019.574875116 0 0 0 0 17023884.284639016 -2183679.0758850574 0 -2183679.0758850574 7693887.772080332 0 0 0 0 15281905.87469092 -3247440.7267443165 0 -3247440.7267443165 8026522.4778606892 0 0 0 0 21746325.754824057 -5534182.7718042433 0 -5534182.7718042433 -161796.12099903822 0 0 0 0 23351709.549567711 -9081175.0250057578 0 -9081175.0250057578 7310457.6742381006 0 0 0 0 28866493.759515822 -2166481.1482261121 0 -2166481.1482261121 313588.63782739639 0 0 0 0 48863326.537986279 -9564133.4097923785 0 -9564133.4097923785 136916.89779978991 0 0 0 0 -1926.2156066203315 139754.45284116245 0 139754.45284116245 177954.41735804861 0 0 0 0 16698140.022042617 -2733850.1997424811 0 -2733850.1997424811 883009.03355830908 0 0 0 0 13946540.040863335 -5008513.6515555829 0 -5008513.6515555829 398844.48098152876 0 0 0 0 26102044.170531332 -6390452.2348553836 0 -6390452.2348553836 -328466.22476446629 0 0 0 0 24847798.60070508 -8018798.3124620616 0 -8018798.3124620616 -1800413.0261930227 0 0 0 0 14100305.59513744 -8647718.8814674616 0 -8647718.8814674616 -1520006.1765222549 0 0 0 0 3134457.8709928915 -6688929.1134648323 0 -6688929.1134648323 14861282.007819653 0 0 0 0 27367832.823695812 -20834178.106153511 0 -20834178.106153511 9010559.1840888262 0 0 0 0 4288735.4067680538 446446.67013865709 0 446446.67013865709 4202772.7290577292 0 0 0 0 831883.8979190886 -618891.38852161169 0 -618891.38852161169 6841565.0220500827 0 0 0 0 7405298.4153084382 -1683265.7184880972 0 -1683265.7184880972 1803521.9048758596 0 0 0 0 15794996.288863108 -3777730.7099604681 0 -3777730.7099604681 -1224424.0099549294 0 0 0 0 354344.67386175849 90473.362985702901 0 90473.362985702901 681112.48239207501 0 0 0 0 2210107.246540606 27856.596073359251 0 27856.596073359251 1352840.9324035645 0 0 0 0 833479.35462546349 -1877059.6061069071 0 -1877059.6061069071 1634475.8720982671 0 0 0 0 12614.580738902092 -799173.8176163435 0 -799173.8176163435 4909156.7960386276 0 0 0 0 1280999.6179275 -596695.38786737854 0 -596695.38786737854 -246929.42310984212 0 0 0 0 -2161319.6189577579 1937938.3582909107 0 1937938.3582909107 3352794.1765816212 0 0 0 0 1710946.8843460083 1404564.5066082478 0 1404564.5066082478 -755764.14762854576 0 0 0 0 -3354427.0962512493 -2705537.0363039374 0 -2705537.0363039374 -33681.996274918318 0 0 0 0 -3493572.5678409338 -4575502.2095186114 0 -4575502.2095186114 -495009.28762483597 0 0 0 0 -1752775.1480356455 -4215900.6325928569 0 -4215900.6325928569 -770053.55674529076 0 0 0 0 86499.352560577187 218588.14458848335 0 218588.14458848335 468230.97446752421 0 0 0 0 2371834.9466159642 1427695.4496203065 0 1427695.4496203065 928395.25436675549 0 0 0 0 6793430.0820582211 -222840.45275306702 0 -222840.45275306702 -8096751.1353994608 0 0 0 0 -12371575.54120481 -735628.3563015461 0 -735628.3563015461 4785644.3521327078 0 0 0 0 -5547882.003687799 -8333988.8787859231 0 -8333988.8787859231 -7248768.375815928 0 0 0 0 -2371602.7197161913 59992301.088994525 0 59992301.088994525 -28449087.547301173 0 0 0 0 4413570.6284374725 -1289156.8277963784 0 -1289156.8277963784 173316.17546886791 0 0 0 0 411873.29222222837 1881955.1921142968 0 1881955.1921142968 -676786.93223556492 0 0 0 0 32769694.752285004 -90083826.042439342 0 -90083826.042439342 107592597.72924089 0 0 0 0 -90432022.451588631 -7423007.0760342181 0 -7423007.0760342181 3423763.5000731573 0 0 0 0 -136363629.94175148 19799282.106532842 0 19799282.106532842 49508475.197137088 0 0 0 0 -144892552.09690094 65208844.923382044 0 65208844.923382044 71770579.372328579 0 0 0 0 -39597448.354549408 102300583.90885736 0 102300583.90885736 -58230907.789166868 0 0 0 0 -22966254.124448776 126475629.00119337 0 126475629.00119337 -94747616.304622948 0 0 0 0 186553.59765410423 -4163456.6568766199 0 -4163456.6568766199 -2071701.0479748249 0 0 0 0 379965.41277956963 -2115808.976680994 0 -2115808.976680994 -1361974.409704268 0 0 0 0 -1917831.9998893738 -7370188.692935288 0 -7370188.692935288 -5578444.1473793983 0 0 0 0 3375203.1504597664 -132526.29128301144 0 -132526.29128301144 -12535730.204727054 0 0 0 0 -2846205.5412698984 -4288332.35976246 0 -4288332.35976246 4803912.5952541828 0 0 0 0 112343.92711634713 -327945.03643892513 0 -327945.03643892513 -196332.66348218158 0 0 0 0 -2299902.3269853592 -6644789.9532805681 0 -6644789.9532805681 3068715.5039319992 0 0 0 0 3105369.5971803665 -8246732.2950055599 0 -8246732.2950055599 -7424767.6667006016 0 0 0 0 1016065.9780953997 -785495.28785684134 0 -785495.28785684134 -575778.27097924193 0 0 0 0 5775430.2877140045 -2457946.3043888211 0 -2457946.3043888211 762285.79187190533 0 0 0 0 4702514.2170485258 -2741167.4749210179 0 -2741167.4749210179 -5822685.3826327324 0 0 0 0 -3345735.9019703865 4540305.8632788658 0 4540305.8632788658 880852.94458806515 0 0 0 0 342458.58071207674 -1013031.6519478197 0 -1013031.6519478197 -629720.52474137663 0 0 0 0 393194.12385082245 -1529431.3697371483 0 -1529431.3697371483 -1614733.2568948269 0 0 0 0 2414062.64848423 -11632951.750964105 0 -11632951.750964105 7428005.1475387812 0 0 0 0 888775.08630864508 -1104281.4151859765 0 -1104281.4151859765 -913132.47526783089 0 0 0 0 1364071.6904391132 673216.35152627446 0 673216.35152627446 -841601.34869841626 0 0 0 0 5693742.9533794969 -3372536.7127802894 0 -3372536.7127802894 1236133.019415617 0 0 0 0 2202198846.2316923 -1015045262.852223 0 -1015045262.852223 272408595.91664678 0 0 0 0 3257412.5207656501 -566296.66908567026 0 -566296.66908567026 -944992.74216034159 0 0 0 0 18723568.872826576 -34848064.628231704 0 -34848064.628231704 64577345.961415067 0 0 0 0 19809998.517436981 4171346.4134476641 0 4171346.4134476641 33284182.824692454 0 0 0 0 -107688936.85098267 328663886.34040689 0 328663886.34040689 378275414.25872743 0 0 0 0 1279542.1872347663 -4144.8794447626569 0 -4144.8794447626569 -878720.95828271355 0 0 0 0 2023726.2882108688 -9176568.5386312604 0 -9176568.5386312604 26646320.770698726 0 0 0 0 65104.91842050571 19669.91905589716 0 19669.91905589716 -52529.431194264587 0 0 0 0 618571.72383996006 -308326.69617158198 0 -308326.69617158198 -929685.69214990688 0 0 0 0 2131143589.1302834 -185500500.28545281 0 -185500500.28545281 -183158925.70951134 0 0 0 0 38087837.082145691 15185817.509328691 0 15185817.509328691 39183174.981330037 0 0 0 0 2083644596.1412506 154457995.4537183 0 154457995.4537183 -295474652.2329874 0 0 0 0 2201711353.5668068 423802843.47803593 0 423802843.47803593 -390757850.76296175 0 0 0 0 1044605831.4209843 804157486.87768888 0 804157486.87768888 235970132.98070365 0 0 0 0 118647.76133676386 553763.26973710745 0 553763.26973710745 -263561.53900628298 0 0 0 0 84068613.844135284 -263025821.06844965 0 -263025821.06844965 -35322175.374552369 0 0 0 0 3711702.8181453925 -287433.19148985972 0 -287433.19148985972 -625684.15291864204 0 0 0 0 66488838.407783508 -185499812.25942767 0 -185499812.25942767 189560192.3242113 0 0 0 0 -64092258.537851334 90599353.731540829 0 90599353.731540829 231988103.54151493 0 0 0 0 -27683649.041822553 -208501769.49165893 0 -208501769.49165893 164633403.04553318 0 0 0 0 387358613.0183754 -151587179.76827952 0 -151587179.76827952 14408524.289984405 0 0 0 0 398090200.63855362 216826262.90966946 0 216826262.90966946 185563932.54800272 0 0 0 0 61436643.392737389 -83610486.636389732 0 -83610486.636389732 272711144.07083589 0 0 0 0 1252106138.9590321 -152599758.45249477 0 -152599758.45249477 -86198503.647122175 0 0 0 0 2200980917.0829968 -289918376.49088854 0 -289918376.49088854 -489558969.60516316 0 0 0 0 1360791986.1666632 152121675.83988374 0 152121675.83988374 -421681128.44676661 0 0 0 0 207657774.75884628 230456612.31020546 0 230456612.31020546 124185261.75591975 0 0 0 0 255247560.05234337 145099827.47232696 0 145099827.47232696 -430401721.26986563 0 0 0 0 159032849.56502736 83254600.215586826 0 83254600.215586826 75249158.518212318 0 0 0 0 154539786.77858925 112940079.96168232 0 112940079.96168232 -119270681.32805383 0 0 0 0 96507370.180938721 67773996.423949242 0 67773996.423949242 -66929107.906338692 0 0 0 0 209276136.46502399 49382191.092658043 0 49382191.092658043 -238994165.65667915 0 0 0 0 145054603.63307762 7069091.7768235207 0 7069091.7768235207 -133882286.4696312 0 0 0 0 201978623.71899605 -25476456.285077572 0 -25476456.285077572 -183727517.28744173 0 0 0 0 143536861.5180521 -49889765.014713407 0 -49889765.014713407 -145023187.89833641 0 0 0 0 416850.71705780178 -1001898.9335507723 0 -1001898.9335507723 69428.699155468494 0 0 0 0 -117583863.46729851 -53208770.064317226 0 -53208770.064317226 -152280325.51811504 0 0 0 0 235380552.94132519 -110625533.05213594 0 -110625533.05213594 -303674189.58797169 0 0 0 0 -151810519.2559433 -110785256.13243818 0 -110785256.13243818 -162290133.32827622 0 0 0 0 -197142525.53072739 -204037277.98495388 0 -204037277.98495388 -177210447.85919297 0 0 0 0 2517091.7590163359 557242.09372918168 0 557242.09372918168 -2261653.97071912 0 0 0 0 32633456.027727127 -1488870.0731756687 0 -1488870.0731756687 -22354624.451401711 0 0 0 0 -3630954.7016086578 32481548.409945726 0 32481548.409945726 4116833.2029446363 0 0 0 0 -1845975.6240520477 -96920580.040585637 0 -96920580.040585637 -490620425.67684042 0 0 0 0 847292.87169177365 47718.773935649544 0 47718.773935649544 -820037.5267671016 0 0 0 0 -557468640.60186768 -468533447.12691844 0 -468533447.12691844 -147787227.23958588 0 0 0 0 -3428854.0959033966 127804325.98671746 0 127804325.98671746 217419501.29938829 0 0 0 0 23028239.758128166 -324915112.00564992 0 -324915112.00564992 -245709921.56054449 0 0 0 0 610583.19487648411 -1194116.0189815667 0 -1194116.0189815667 783353.36119720666 0 0 0 0 350857313.65068436 143728540.71173918 0 143728540.71173918 -129212997.13116062 0 0 0 0 472177603.77423382 -25473107.509469956 0 -25473107.509469956 1744002015.2149715 0 0 0 0 87743522.382193565 -39286567.50515601 0 -39286567.50515601 74553421.649472713 0 0 0 0 -368023590.67198372 -41235904.187309265 0 -41235904.187309265 6870744.943436861 0 0 0 0 15821124.6668396 -7184540.2684401274 0 -7184540.2684401274 9832948.9428846836 0 0 0 0 94308928.892223358 -49973071.382110119 0 -49973071.382110119 30989531.922108412 0 0 0 0 7419780.8897266388 -136301540.13212806 0 -136301540.13212806 128364307.26897478 0 0 0 0 97912025.935710907 -8741786.8663275242 0 -8741786.8663275242 54473339.285186768 0 0 0 0 83271766.911434174 -6728757.8003348708 0 -6728757.8003348708 100118620.15634656 0 0 0 0 1073630020.6796932 -715752865.30667448 0 -715752865.30667448 -683714799.79952443 0 0 0 0 260891764.03600311 72048633.147121578 0 72048633.147121578 153536278.34068716 0 0 0 0 401260.61502863467 1004034.3893673937 0 1004034.3893673937 1572010.5536681875 0 0 0 0 1223596.9666442871 159090296.17260432 0 159090296.17260432 544134377.44180262 0 0 0 0 433031241.36523438 546560410.67610693 0 546560410.67610693 103363457.9170737 0 0 0 0 -8942447.0550699234 90969322.38023591 0 90969322.38023591 170125473.85597789 0 0 0 0 44363552.041767836 13662176.946017981 0 13662176.946017981 2281847.7317180634 0 0 0 0 14371117.397922277 11664311.095813751 0 11664311.095813751 -3560318.2140421867 0 0 0 0 20629855.661694527 3572832.3128738403 0 3572832.3128738403 -65019.162561297417 0 0 0 0 49419141.94061482 55852162.230322003 0 55852162.230322003 -101666366.40276527 0 0 0 0 1556457.0305881584 -1813036.181675158 0 -1813036.181675158 -635367.76630820334 0 0 0 0 -41511319.449727058 21933449.124983191 0 21933449.124983191 -5208966.7741191387 0 0 0 0 103418076.02297688 86830294.885151505 0 86830294.885151505 91805036.392502785 0 0 0 0 7401607.3163372222 -7159223.386748313 0 -7159223.386748313 538226.30511768837 0 0 0 0 22899395.995136023 -6046193.2312533408 0 -6046193.2312533408 -7186879.5449280739 0 0 0 0 17557997.229068756 -15921853.302812338 0 -15921853.302812338 -713461.54298877716 0 0 0 0 -788405.66677856445 11926112.156944752 0 11926112.156944752 -2580864.4576401711 0 0 0 0 3733836.6764278412 2377505.5550087094 0 2377505.5550087094 -4789393.6809654236 0 0 0 0 13196922.357899815 -2015548.2802615263 0 -2015548.2802615263 -3860522.1450365814 0 0 0 0 1129992.9474019036 402302.56971914321 0 402302.56971914321 -848667.28445629054 0 0 0 0 11560212.811607361 -18726164.295618534 0 -18726164.295618534 6338636.3727445602 0 0 0 0 -16953634.603443146 -46745507.976548791 0 -46745507.976548791 -14678726.310779572 0 0 0 0 3840574.4276885986 -6123065.2524096966 0 -6123065.2524096966 -5067399.7619166374 0 0 0 0 21223034.691891968 5427414.9612360001 0 5427414.9612360001 5695287.0472950935 0 0 0 0 59728174.654447347 -8266211.8383875489 0 -8266211.8383875489 -29034764.014031887 0 0 0 0 68551753.793253899 -21772122.614310622 0 -21772122.614310622 -11319967.065556765 0 0 0 0 6329250.9953853954 -1741037.969761584 0 -1741037.969761584 -1059221.668406059 0 0 0 0 15749987.144678891 -11132597.284477219 0 -11132597.284477219 -10793206.563302815 0 0 0 0 16218691.951093838 1237161.9437341914 0 1237161.9437341914 601873.08754974604 0 0 0 0 12474574.83768159 -574349.1696888837 0 -574349.1696888837 -1072388.6148581118 0 0 0 0 27448398.696675062 -774140.00397445634 0 -774140.00397445634 -3385754.6637980714 0 0 0 0 -143340844.41608855 -110946001.50230941 0 -110946001.50230941 -22155698.999754429 0 0 0 0 2884825.342139076 -887762.48075897945 0 -887762.48075897945 2068664.8852912316 0 0 0 0 300413610.34042263 -452399397.58064699 0 -452399397.58064699 -131392049.99060631 0 0 0 0 1257669004.9410462 437446516.83968544 0 437446516.83968544 -204121078.63331968 0 0 0 0 18668236.714636147 3663086.8291913271 0 3663086.8291913271 2858886.6668275297 0 0 0 0 15695497.677438393 589532.97320583463 0 589532.97320583463 4334480.71059376 0 0 0 0 246931861.83056593 75609816.423781395 0 75609816.423781395 -101241346.61814837 0 0 0 0 -316163688.67366886 219946141.86274672 0 219946141.86274672 21032897.029214859 0 0 0 0 956388375.47741187 -554226271.51933706 0 -554226271.51933706 183202641.73903847 0 0 0 0 251146.09725623124 729701.73306657071 0 729701.73306657071 516896.92692613788 0 0 0 0 550442.07207823428 -1302087.9893023444 0 -1302087.9893023444 -342109.77875889186 0 0 0 0 -370111939.96763062 314618766.1451968 0 314618766.1451968 -63340732.07951355 0 0 0 0 417039824.71106339 102089018.45290184 0 102089018.45290184 -198744617.1781435 0 0 0 0 -140883165.75496387 109640099.9581728 0 109640099.9581728 -125864347.40509987 0 0 0 0 152419231.57008743 208419926.84275627 0 208419926.84275627 -147450799.1078186 0 0 0 0 432940413.04059196 -53965038.009609222 0 -53965038.009609222 6845228.0842266083 0 0 0 0 1302469.5770133636 2196372.5496063009 0 2196372.5496063009 898912.49724739557 0 0 0 0 496360.35529994231 927772.12456101226 0 927772.12456101226 -306749.29528752924 0 0 0 0 -104935897.05826473 92621775.103555679 0 92621775.103555679 -264096635.97572708 0 0 0 0 290404852.30788231 -434826446.1578002 0 -434826446.1578002 315256820.5681777 0 0 0 0 358437665.32058239 -307395608.82491302 0 -307395608.82491302 97261107.019003868 0 0 0 0 299964395.47165465 -36327428.724292755 0 -36327428.724292755 -264077463.91697884 0 0 0 0 248391487.62643951 -84727133.52460146 0 -84727133.52460146 267310328.64482403 0 0 0 0 372344337.98165429 -79351809.404972792 0 -79351809.404972792 -71783169.046141624 0 0 0 0 156120040.32284656 -158049071.06732738 0 -158049071.06732738 118348677.35984135 0 0 0 0 193043584.71186203 -273836373.425704 0 -273836373.425704 305147245.88783813 0 0 0 0 23842963.649120897 -2418634.8829594254 0 -2418634.8829594254 4009637.4699293748 0 0 0 0 22420027.186617732 670627.88660790026 0 670627.88660790026 -2696471.7881565988 0 0 0 0 22263456.459030926 2646394.7462649643 0 2646394.7462649643 1452788.5688917339 0 0 0 0 376582815.91214442 391983528.80923271 0 391983528.80923271 113927801.35432339 0 0 0 0 1447532.0999957179 197826.46242565871 0 197826.46242565871 3879106.7968448801 0 0 0 0 -229034989.51325619 -28695019.691559076 0 -28695019.691559076 317192015.87890911 0 0 0 0 -40997919.206778526 106077111.91290331 0 106077111.91290331 41799012.940984488 0 0 0 0 31053884.706430435 548383.19592213631 0 548383.19592213631 -2717823.3337422758 0 0 0 0 29915086.915192366 -13413404.621580698 0 -13413404.621580698 -13153999.015443921 0 0 0 0 27779703.960531056 -5055257.4558455944 0 -5055257.4558455944 -8941135.4635378122 0 0 0 0 948628.08882925182 816004.80436204164 0 816004.80436204164 3872329.107433287 0 0 0 0 5760346.9728555083 22087059.139257193 0 22087059.139257193 -14253397.40433228 0 0 0 0 930441.2707640921 871121.0676186888 0 871121.0676186888 3196536.9041397525 0 0 0 0 -63066961.782264888 35822992.483470172 0 35822992.483470172 105920266.9993242 0 0 0 0 81878486.814954624 7405691.0806684345 0 7405691.0806684345 -33857012.92383182 0 0 0 0 68912073.22152853 -44501839.524947703 0 -44501839.524947703 9894537.5781609416 0 0 0 0 7183979.3500518203 -26250387.885500073 0 -26250387.885500073 49787630.980925739 0 0 0 0 130442431.95000142 -101173243.56984538 0 -101173243.56984538 55153136.209211349 0 0 0 0 151709324.02906907 -12846414.063803673 0 -12846414.063803673 -28410739.46825552 0 0 0 0 130655827.00542524 -37764350.452370405 0 -37764350.452370405 3027936.1805524826 0 0 0 0 83102069.01684007 3643177.5087697804 0 3643177.5087697804 -11762277.833633423 0 0 0 0 13489371.377303123 -70942870.085960627 0 -70942870.085960627 4905171.6047544479 0 0 0 0 117164815.83518195 -68729909.471941471 0 -68729909.471941471 4794905.9458701909 0 0 0 0 47465644.380537033 -97130935.122165203 0 -97130935.122165203 74326879.578850746 0 0 0 0 264822267.62556553 -146773506.44426918 0 -146773506.44426918 13278679.064975739 0 0 0 0 279318720.16029358 -81593931.186717987 0 -81593931.186717987 24642744.244843721 0 0 0 0 320540473.93771458 -45210901.317103148 0 -45210901.317103148 -39896007.595182419 0 0 0 0 109624131.45021248 -161508422.27886486 0 -161508422.27886486 63124848.590143681 0 0 0 0 1263471.5332410445 -161223.99755531247 0 -161223.99755531247 -170780.64288889011 0 0 0 0 -21566469.366163731 -37390594.710957527 0 -37390594.710957527 11027659.83241272 0 0 0 0 263553796.66969204 -91332705.48835516 0 -91332705.48835516 54178707.226453781 0 0 0 0 137615314.80186129 -107428779.07848454 0 -107428779.07848454 103825801.98224258 0 0 0 0 1655210.8705147223 253753.19489635853 0 253753.19489635853 -896156.92120996909 0 0 0 0 3163365.6868690476 2594604.7065403843 0 2594604.7065403843 6097.7051856387407 0 0 0 0 2851269.7475032806 3533706.4839425087 0 3533706.4839425087 -1885811.2588853836 0 0 0 0 136371358.03328419 -109370021.54842567 0 -109370021.54842567 52882173.161319911 0 0 0 0 1300759.0953445435 547622.11088705063 0 547622.11088705063 507695.2926940918 0 0 0 0 104440507.11018991 -81421141.392755508 0 -81421141.392755508 92408913.737949848 0 0 0 0 137453896.03306103 -105040692.93965149 0 -105040692.93965149 69750657.634616017 0 0 0 0 611154.2932767868 3445006.3048033714 0 3445006.3048033714 -3248137.5567302704 0 0 0 0 3934990.7542840852 1177284.4231854684 0 1177284.4231854684 -1237988.2363861364 0 0 0 0 2669425.1520676613 2492848.7538450956 0 2492848.7538450956 -625655.17312908173 0 0 0 0 2111577.8116645813 1407201.2556390762 0 1407201.2556390762 -2240447.382833302 0 0 0 0 -107159453.54763317 -95046435.594035625 0 -95046435.594035625 -150521412.67138577 0 0 0 0 2573891.1739112819 3962746.3297268446 0 3962746.3297268446 -940123.26975568337 0 0 0 0 125263413.69377899 39470998.981028557 0 39470998.981028557 -335731789.00369406 0 0 0 0 11249775.331378937 105310384.06951761 0 105310384.06951761 -200698248.99612808 0 0 0 0 133588079.4917202 112414450.30545235 0 112414450.30545235 -288415031.83492851 0 0 0 0 599612.86846883688 1753422.9860101112 0 1753422.9860101112 -376549.55871909857 0 0 0 0 3699921.0678157592 1815339.6282147854 0 1815339.6282147854 -1529099.3141817695 0 0 0 0 4006426.8486757278 2822408.6461930871 0 2822408.6461930871 113042.40990161896 0 0 0 0 -4263886.2530975342 -11323073.141362667 0 -11323073.141362667 17308561.899374247 0 0 0 0 162749395.74603462 -157202627.91668463 0 -157202627.91668463 -308025153.11736965 0 0 0 0 5145020.2205982208 2094811.5626721382 0 2094811.5626721382 -2652235.5325912237 0 0 0 0 4707172.6546602426 2547098.0645291926 0 2547098.0645291926 -1843287.4507218562 0 0 0 0 3195285.423438956 1175577.6455169723 0 1175577.6455169723 -1285504.2906668109 0 0 0 0 4242992.5130214691 3231921.9809753895 0 3231921.9809753895 300528.30506038666 0 0 0 0 8348149.3451251984 3554508.0806703568 0 3554508.0806703568 170787.69032090902 0 0 0 0 14634867.608739853 912920.61827766895 0 912920.61827766895 -6439205.2095632553 0 0 0 0 24106360.980545044 7990768.5184085369 0 7990768.5184085369 -10703468.706573486 0 0 0 0 15061878.198703766 2357364.3913311958 0 2357364.3913311958 -9328107.2221109867 0 0 0 0 16346948.647640228 7316521.1446266174 0 7316521.1446266174 -4005786.1190786362 0 0 0 0 12099025.198112488 7648419.6315517426 0 7648419.6315517426 -6572983.6983852386 0 0 0 0 11906630.656297684 9004948.4328401089 0 9004948.4328401089 -11837684.355360985 0 0 0 0 14698919.398246765 4665271.1775946617 0 4665271.1775946617 -14165161.633178711 0 0 0 0 2952363.2558637829 1176480.5545292357 0 1176480.5545292357 -695725.46434211265 0 0 0 0 2099372.2545848358 2538145.6659566583 0 2538145.6659566583 -1623950.9742050339 0 0 0 0 10968010.770401001 6913896.3826780319 0 6913896.3826780319 455419.19873666763 0 0 0 0 21412831.330450058 17603465.342720598 0 17603465.342720598 -782339.68715238571 0 0 0 0 4723451.2151594162 3550923.2730555534 0 3550923.2730555534 -1960608.1589488983 0 0 0 0 9551837.8148021698 3639005.782412529 0 3639005.782412529 -3083079.3838691711 0 0 0 0 7141594.1328867786 5279250.534589624 0 5279250.534589624 -3941450.7966984357 0 0 0 0 -4280796.084089756 2943703.7411937714 0 2943703.7411937714 -2393120.6663513184 0 0 0 0 21848316.942950249 24402432.636924267 0 24402432.636924267 -5846253.9593029022 0 0 0 0 8984982.6037792377 4213067.6106521711 0 4213067.6106521711 -1502604.0332527172 0 0 0 0 11235054.752933502 5265963.1331677437 0 5265963.1331677437 -2343642.2209935188 0 0 0 0 9289294.0517063141 1845011.1978633404 0 1845011.1978633404 -6002706.2599363327 0 0 0 0 2794475.2194671631 71031.984466552734 0 71031.984466552734 -6901882.0446996689 0 0 0 0 6697839.7773399353 -27126436.93943882 0 -27126436.93943882 -14057833.812929153 0 0 0 0 -289558.64508525934 4858751.7463345276 0 4858751.7463345276 -676289.68238727259 0 0 0 0 20082752.888801575 4628070.4553012848 0 4628070.4553012848 -19252706.858347893 0 0 0 0 47679376.728263855 47303157.027288914 0 47303157.027288914 35955065.714107513 0 0 0 0 -7844355.1740851402 -5265237.8148567677 0 -5265237.8148567677 29142482.809806824 0 0 0 0 115940861.33519554 100245225.82296371 0 100245225.82296371 14894315.01689589 0 0 0 0 55703269.096666336 -53044933.103900909 0 -53044933.103900909 6048214.6556043625 0 0 0 0 100455804.58470154 25745845.674139023 0 25745845.674139023 1209333.6329526901 0 0 0 0 14006946.04202652 179818.74364614487 0 179818.74364614487 -11607463.674782753 0 0 0 0 4876808.113376921 3828167.8603682998 0 3828167.8603682998 -1976938.8191781961 0 0 0 0 15525256.680936813 -29533573.069361448 0 -29533573.069361448 -15786162.300985813 0 0 0 0 -97668364.234325409 33246250.439007282 0 33246250.439007282 -28132574.689884186 0 0 0 0 12013946.550766222 -590919.7575410204 0 -590919.7575410204 -2896844.6256610425 0 0 0 0 15376616.084761038 1169200.4581897373 0 1169200.4581897373 -1478953.382335298 0 0 0 0 110091981.74291611 146275221.30733252 0 146275221.30733252 -86369602.882358789 0 0 0 0 -9168776.8656368256 70540098.835729122 0 70540098.835729122 -123733992.0145247 0 0 0 0 -142561306.38967514 105349606.51621151 0 105349606.51621151 -3333660.9054436684 0 0 0 0 187255310.71158981 266040070.43470478 0 266040070.43470478 -10624008.861519814 0 0 0 0 412964199.42962646 -39280708.326684475 0 -39280708.326684475 -32541445.375073791 0 0 0 0 -39599749.330028534 72661208.295526981 0 72661208.295526981 -25182638.432041168 0 0 0 0 80580455.837963104 -195721224.25076771 0 -195721224.25076771 131340051.4459877 0 0 0 0 733388.82419764064 -296881.3790541268 0 -296881.3790541268 -145827.26857346541 0 0 0 0 100624338.25458717 -29018501.285993576 0 -29018501.285993576 -112678686.2678678 0 0 0 0 14916391.086617492 954179.77144507866 0 954179.77144507866 -721252.82272948453 0 0 0 0 645616.17294311523 -138649335.58482933 0 -138649335.58482933 113346953.57859421 0 0 0 0 -31301778.217801094 43511845.069435 0 43511845.069435 65703797.109737873 0 0 0 0 300599321.30109406 -122992813.52834511 0 -122992813.52834511 76130821.816490173 0 0 0 0 13344381.327482224 -10287442.849251986 0 -10287442.849251986 -40346517.846182942 0 0 0 0 1809606.5837275237 1297655.6132155806 0 1297655.6132155806 -198518.42320927838 0 0 0 0 551310.3627166748 2643094.7861828804 0 2643094.7861828804 -5018992.2873973846 0 0 0 0 47101562.803569794 -14799387.477732182 0 -14799387.477732182 -54591525.549314976 0 0 0 0 13849913.45534368 1727448.2975827139 0 1727448.2975827139 -341293.4789998249 0 0 0 0 5736455.2718398953 -5244343.8356887996 0 -5244343.8356887996 -2653350.5805326309 0 0 0 0 7232688.051276207 -16963074.413672447 0 -16963074.413672447 -42565629.150616646 0 0 0 0 -94517186.945430756 -23062227.892448902 0 -23062227.892448902 40791910.573415756 0 0 0 0 53416357.261859894 45390519.920776844 0 45390519.920776844 -63112309.51704514 0 0 0 0 2538205.1926870085 -1436483.5073322295 0 -1436483.5073322295 -746642.23076833272 0 0 0 0 -16464021.862491608 37240222.715902209 0 37240222.715902209 -2442632.5124659538 0 0 0 0 83245429.937158585 96891541.313887835 0 96891541.313887835 22564046.598471522 0 0 0 0 10092353.439994812 12471690.442572117 0 12471690.442572117 -17972714.786890507 0 0 0 0 71133459.070991516 -8116871.0022537708 0 -8116871.0022537708 -11061777.242566943 0 0 0 0 -5137722.2083396912 2730957.6270434856 0 2730957.6270434856 -23092040.244444847 0 0 0 0 32957065.769672394 -5193790.5862531662 0 -5193790.5862531662 -39250938.116008759 0 0 0 0 19015234.179302216 -5365578.2513592243 0 -5365578.2513592243 18824846.676209688 0 0 0 0 40542673.716249466 11469541.241302252 0 11469541.241302252 17148846.078644514 0 0 0 0 578099.66774207354 359835.60503814276 0 359835.60503814276 -54944.570404201513 0 0 0 0 71108918.687768221 6094012.8339357376 0 6094012.8339357376 -24372441.181204319 0 0 0 0 71279765.45270133 8231151.9437047392 0 8231151.9437047392 1708625.9315037727 0 0 0 0 7179552.2055625916 21761045.165528059 0 21761045.165528059 12354232.882838249 0 0 0 0 21775489.705928802 29631542.095145226 0 29631542.095145226 8468599.7077215314 0 0 0 0 20491123.058681488 18901102.677807093 0 18901102.677807093 -30604407.638536453 0 0 0 0 -6690457.0271759033 2896777.3300962448 0 2896777.3300962448 -2404887.3896555901 0 0 0 0 27286108.709651947 -44665254.594459772 0 -44665254.594459772 -61175004.850033522 0 0 0 0 52616030.9622612 14630191.33013916 0 14630191.33013916 -9948935.8364685774 0 0 0 0 33608067.822273254 7938520.0830610991 0 7938520.0830610991 28106599.430216789 0 0 0 0 153218.73540840857 515373.19661761459 0 515373.19661761459 -50473.425403289089 0 0 0 0 17596230.597288132 36315341.610229731 0 36315341.610229731 58239670.120177746 0 0 0 0 -2451861.5130565166 25414156.380734086 0 25414156.380734086 -98527011.946772099 0 0 0 0 6246750.8456840515 43665735.82560271 0 43665735.82560271 -123208030.14665318 0 0 0 0 3092457.4181728363 -14629927.587703586 0 -14629927.587703586 -4634617.0519747734 0 0 0 0 -20291154.046985626 -169657903.37728238 0 -169657903.37728238 -450822650.3860209 0 0 0 0 1435520.387793541 -80347339.919987261 0 -80347339.919987261 -92732922.345646143 0 0 0 0 -37590739.962792873 -95873119.523187011 0 -95873119.523187011 -73225897.412386417 0 0 0 0 -8280212.829656601 -70062915.987563729 0 -70062915.987563729 -88135380.220605969 0 0 0 0 46585894.255264282 24547125.241263032 0 24547125.241263032 23387550.524916679 0 0 0 0 52235598.599876404 17813880.35829103 0 17813880.35829103 4575086.0633065999 0 0 0 0 1626964.5412726924 320939.40253430232 0 320939.40253430232 -475888.7647831724 0 0 0 0 99318506.560955048 -284044.34936618805 0 -284044.34936618805 -1426176.0374000072 0 0 0 0 72110043.785039902 39915200.105112314 0 39915200.105112314 25407521.368405819 0 0 0 0 71196747.944103241 6249506.605807066 0 6249506.605807066 931421.06481909752 0 0 0 0 72003619.246727943 -3943847.2024585009 0 -3943847.2024585009 6982963.0546979904 0 0 0 0 45796979.326591492 -12541134.126898766 0 -12541134.126898766 9915007.5584321022 0 0 0 0 144997473.72898483 -7566774.0499098301 0 -7566774.0499098301 -483752.07735168934 0 0 0 0 70250439.294695854 -2387347.3589266539 0 -2387347.3589266539 14927667.868013382 0 0 0 0 -27104922.925899506 -122346625.9212153 0 -122346625.9212153 -77795311.474598885 0 0 0 0 145192191.22901726 66034707.69463861 0 66034707.69463861 21506586.792240515 0 0 0 0 500328.78842318896 77149.437996416353 0 77149.437996416353 -173127.58523331443 0 0 0 0 5002855.836938858 -121650298.56950116 0 -121650298.56950116 -78257157.164984226 0 0 0 0 57001395.761744022 -48263564.467785962 0 -48263564.467785962 17754425.01399231 0 0 0 0 55642651.472001791 -36193172.4380055 0 -36193172.4380055 6462988.3819172382 0 0 0 0 53054021.55377388 -36140016.752636909 0 -36140016.752636909 7690389.3652894497 0 0 0 0 43412850.555118561 -28099149.069871068 0 -28099149.069871068 10519536.844792157 0 0 0 0 -190430.19679918978 122127.13528282568 0 122127.13528282568 560571.34135592345 0 0 0 0 43115026.074354172 -37965706.611880958 0 -37965706.611880958 16300449.774198361 0 0 0 0 -89440888.967592239 -75541563.033320278 0 -75541563.033320278 96972355.289462268 0 0 0 0 -25377950.505226135 -55131567.722728699 0 -55131567.722728699 172916495.86504379 0 0 0 0 -158727835.29502106 -81941864.833658576 0 -81941864.833658576 123060136.59234095 0 0 0 0 -68808622.809182167 -186751484.41427398 0 -186751484.41427398 -116201542.71525598 0 0 0 0 1956035.1436257362 -92946279.36133486 0 -92946279.36133486 -73143352.643455029 0 0 0 0 -52324339.808746338 -124569810.96933568 0 -124569810.96933568 80902950.355915695 0 0 0 0 -16272643.623153687 83779237.127080441 0 83779237.127080441 37690463.6348207 0 0 0 0 82917978.680734634 -165308251.72569025 0 -165308251.72569025 200237645.48319244 0 0 0 0 258785391.55729008 78373116.071377873 0 78373116.071377873 22310831.117417336 0 0 0 0 22945307.615715027 23320817.961780071 0 23320817.961780071 29269674.578758597 0 0 0 0 11708036.79989624 86940527.420594335 0 86940527.420594335 147733144.17257166 0 0 0 0 308221.18748396263 414955.31475553429 0 414955.31475553429 369110.62265945028 0 0 0 0 -29362252.571331024 6813116.449491024 0 6813116.449491024 54013644.692634106 0 0 0 0 -95173091.326656342 -86941188.707385361 0 -86941188.707385361 183033311.15205753 0 0 0 0 -51891268.541675568 89544216.504214048 0 89544216.504214048 254618566.88128567 0 0 0 0 -74725514.207759857 16695528.459922075 0 16695528.459922075 24362021.668825388 0 0 0 0 -55554948.183710098 -38179338.461458743 0 -38179338.461458743 82834644.944950938 0 0 0 0 -63493741.062673569 103169515.58892703 0 103169515.58892703 67580079.158926129 0 0 0 0 41739488.367898703 7302630.3570294231 0 7302630.3570294231 2298354.1497266293 0 0 0 0 -243239.28664141614 509876.06391780172 0 509876.06391780172 1137182.4537775475 0 0 0 0 19836899.978163719 30496642.431365967 0 30496642.431365967 -164349106.93882751 0 0 0 0 -1223473.5360921677 959108.52286769636 0 959108.52286769636 548651.72331978939 0 0 0 0 -8516975.2126712799 2518451.614104867 0 2518451.614104867 2650188.8716626167 0 0 0 0 43519467.780315399 -27922711.351220369 0 -27922711.351220369 16598227.893969864 0 0 0 0 -41329.601440858096 487397.8180969297 0 487397.8180969297 174868.56271897713 0 0 0 0 10035760.710857391 -13745227.324920774 0 -13745227.324920774 22246733.564331532 0 0 0 0 44927483.154239655 -10704200.180301428 0 -10704200.180301428 7583799.5825054646 0 0 0 0 1266602.4966419544 991898.5243682554 0 991898.5243682554 691648.09143886762 0 0 0 0 7586830.2734458447 286342.99702136219 0 286342.99702136219 7477285.9523310661 0 0 0 0 -3310952.2767696381 -3008363.1861333847 0 -3008363.1861333847 4098314.4825372696 0 0 0 0 -382461.49131601676 205359.39888359024 0 205359.39888359024 187508.2973467391 0 0 0 0 -6367156.538974762 -9192959.7256762981 0 -9192959.7256762981 -8266857.7347561121 0 0 0 0 93543697.608876228 -73042972.863197148 0 -73042972.863197148 -222323851.87151051 0 0 0 0 -12202064.089388132 -15007994.620631948 0 -15007994.620631948 9675094.9483861923 0 0 0 0 -16949609.090953827 8642547.3820906878 0 8642547.3820906878 29197695.900223851 0 0 0 0 11755461.495773315 21661005.681986094 0 21661005.681986094 -14185265.51755023 0 0 0 0 9914971.5647583008 -10382741.554356694 0 -10382741.554356694 9606879.9832749367 0 0 0 0 1694677.0887459088 546624.74785942305 0 546624.74785942305 25989.229042107239 0 0 0 0 -17629432.031719208 13257553.803195477 0 13257553.803195477 -270204.92410191894 0 0 0 0 16840819.815753937 -15624926.693946719 0 -15624926.693946719 2729283.8094258308 0 0 0 0 13554380.341777802 -7677120.3815221786 0 -7677120.3815221786 -1773896.8353984356 0 0 0 0 2477457.231779065 17339.820192626677 0 17339.820192626677 -746580.99982791161 0 0 0 0 5046408.6908187866 15410085.88281703 0 15410085.88281703 -13760092.257689714 0 0 0 0 20197148.758951187 -10201927.591820955 0 -10201927.591820955 12784692.860515356 0 0 0 0 32331764.404689789 -13634714.038058281 0 -13634714.038058281 8462300.4899799824 0 0 0 0 16277811.427387238 -16439279.532926083 0 -16439279.532926083 12117536.655218005 0 0 0 0 13808032.325767517 -15376464.89462924 0 -15376464.89462924 8842825.6499273479 0 0 0 0 32974508.85545063 -11903216.000537872 0 -11903216.000537872 -7352198.3287391663 0 0 0 0 12636467.981960297 -7488370.7572844028 0 -7488370.7572844028 7187346.1084179878 0 0 0 0 20171736.911262512 -6085960.516535759 0 -6085960.516535759 -28508116.872600585 0 0 0 0 11602005.982610703 -14366529.919184804 0 -14366529.919184804 -6494404.9537973404 0 0 0 0 17410990.580285072 -15870253.946617633 0 -15870253.946617633 -8591176.4721579552 0 0 0 0 16325478.444225881 2391821.8024060372 0 2391821.8024060372 -92423.03224102348 0 0 0 0 58694742.408433914 -13268565.746553421 0 -13268565.746553421 -63246164.597153306 0 0 0 0 22588520.381040573 -5753683.4160754681 0 -5753683.4160754681 -38593162.527644157 0 0 0 0 3594727.4531041626 -5738116.6554968702 0 -5738116.6554968702 -2841701.0188395702 0 0 0 0 23203743.163682938 2218641.3641183376 0 2218641.3641183376 -70846893.150200367 0 0 0 0 9969806.9415969849 -4734356.7195258141 0 -4734356.7195258141 -28282761.781710565 0 0 0 0 17210828.193439841 -7788908.4894858748 0 -7788908.4894858748 -8540393.4994630814 0 0 0 0 16953658.244773865 -3409148.2196826935 0 -3409148.2196826935 -10988730.007494926 0 0 0 0 14055087.636432648 -2903221.8072421551 0 -2903221.8072421551 -5001834.6664614677 0 0 0 0 12444423.077548981 -7433666.9145102501 0 -7433666.9145102501 -10133940.958779097 0 0 0 0 12342676.719430923 2076751.5618138313 0 2076751.5618138313 -24550553.879275799 0 0 0 0 17798418.473403931 -3342125.8033494949 0 -3342125.8033494949 -19181038.60541296 0 0 0 0 17359102.686666023 4190131.205239763 0 4190131.205239763 -243053.44847237051 0 0 0 0 24135242.425491333 7160467.7581415176 0 7160467.7581415176 -116319538.17129099 0 0 0 0 16028656.379402161 -7531323.9923610687 0 -7531323.9923610687 -14602023.625461578 0 0 0 0 160567926.30117416 6578898.8948843479 0 6578898.8948843479 -116444599.26843667 0 0 0 0 26902505.173042297 20058915.624996662 0 20058915.624996662 -180740594.92817688 0 0 0 0 16782173.287345886 -3558861.0956976116 0 -3558861.0956976116 -17154020.405863941 0 0 0 0 648311.25616199104 -3291.72672769567 0 -3291.72672769567 -136101.35554758331 0 0 0 0 9922682.1899433136 351910.84370017052 0 351910.84370017052 4699731.4070116132 0 0 0 0 2418549.3534622192 3054738.620308876 0 3054738.620308876 -3539107.8040714264 0 0 0 0 -8210138.0513458252 245172.73787021637 0 245172.73787021637 -7722372.9720724821 0 0 0 0 13003390.330420006 3375828.8713239622 0 3375828.8713239622 -2722555.9868635414 0 0 0 0 -315769.67800548859 31060.0320372032 0 31060.0320372032 110376.04172876949 0 0 0 0 12182585.527427673 -1785869.8027309179 0 -1785869.8027309179 -11171740.642502785 0 0 0 0 4927136.4033005871 -340835.60878031049 0 -340835.60878031049 -2572368.8863233011 0 0 0 0 4041038.0686894162 798792.65136272646 0 798792.65136272646 -705540.84919840144 0 0 0 0 25632005.328258514 7638375.703142345 0 7638375.703142345 -8701811.2094990015 0 0 0 0 17171237.621206284 8688911.3745793998 0 8688911.3745793998 -7519558.1117978096 0 0 0 0 22408577.710948944 2243085.7562714219 0 2243085.7562714219 -1218772.4150936604 0 0 0 0 17697754.52213797 -2785258.9943987345 0 -2785258.9943987345 -1503105.272136509 0 0 0 0 24472401.339012146 6505594.7096516788 0 6505594.7096516788 -15854486.406107724 0 0 0 0 28406476.953546524 4353894.8312082291 0 4353894.8312082291 -93886115.667611718 0 0 0 0 16760210.04589563 -728382.04162298609 0 -728382.04162298609 -929996.51243483473 0 0 0 0 22383518.965892792 -4542893.6780619323 0 -4542893.6780619323 -22577576.386754356 0 0 0 0 36379901.556944847 499198.31961500645 0 499198.31961500645 -57532889.515362501 0 0 0 0 18515531.094444275 -8071493.3009738326 0 -8071493.3009738326 -4074241.8046576977 0 0 0 0 12794309.934560776 -3519875.6250393391 0 -3519875.6250393391 -5048388.3131173253 0 0 0 0 15676844.020030975 -7575564.8281008005 0 -7575564.8281008005 -7916337.8006833196 0 0 0 0 27031074.413520813 -43915.274658441544 0 -43915.274658441544 -5951270.4548995793 0 0 0 0 27733128.522327423 -3301997.4732872248 0 -3301997.4732872248 -263874.77710008621 0 0 0 0 32755586.988491058 -7114941.1093451977 0 -7114941.1093451977 408907.41136485338 0 0 0 0 32230801.986148834 3830140.1733353138 0 3830140.1733353138 4050870.1421202421 0 0 0 0 11514998.987674713 -7297396.9241685867 0 -7297396.9241685867 2402499.28794384 0 0 0 0 17297960.638782501 -7433456.8380449414 0 -7433456.8380449414 990304.13255429268 0 0 0 0 18966465.300634384 -10594275.241159409 0 -10594275.241159409 5951658.7989554405 0 0 0 0 17970466.23570919 -7124389.378334552 0 -7124389.378334552 2402876.1576509476 0 0 0 0 8654850.2297725677 -5806949.7286918163 0 -5806949.7286918163 5678080.8996953964 0 0 0 0 25876931.521139145 -4779251.9729151726 0 -4779251.9729151726 5409910.3570148945 0 0 0 0 17899891.561206818 -13806968.442863703 0 -13806968.442863703 4952662.4771585464 0 0 0 0 35297710.534370422 1438221.4702365398 0 1438221.4702365398 5892458.9217760563 0 0 0 0 53044981.917347431 13555828.268529505 0 13555828.268529505 10667476.23781395 0 0 0 0 40098151.978881836 -15958552.546321869 0 -15958552.546321869 6824735.2157969475 0 0 0 0 110864569.2040062 19396446.011096716 0 19396446.011096716 -69533189.00454092 0 0 0 0 29879771.273871422 56351137.436006367 0 56351137.436006367 49137760.394269466 0 0 0 0 22198107.554454803 279034.40111124516 0 279034.40111124516 -11756858.773654938 0 0 0 0 -6184338.5139751434 -32308079.265167594 0 -32308079.265167594 -42686250.369171679 0 0 0 0 1421553.9837292321 793692.81940392125 0 793692.81940392125 149151.05418623681 0 0 0 0 28667970.792766929 11855598.403356697 0 11855598.403356697 4656884.8455334902 0 0 0 0 46553746.260160446 11426397.301623583 0 11426397.301623583 777155.98734617233 0 0 0 0 2742902.3160057068 8606680.4883185625 0 8606680.4883185625 17123925.64726004 0 0 0 0 6520413.938993454 -11525257.263952643 0 -11525257.263952643 11879445.23022002 0 0 0 0 13762333.812922809 4404805.5439008893 0 4404805.5439008893 -1084927.3235014838 0 0 0 0 7926547.7464389801 -2148015.5032099634 0 -2148015.5032099634 -12269456.940374255 0 0 0 0 20967756.161565781 9434015.7518060207 0 9434015.7518060207 -9563762.5437772274 0 0 0 0 17265655.68787384 -1522325.4549407959 0 -1522325.4549407959 -12597474.88183558 0 0 0 0 14541545.176305871 1635720.3896516282 0 1635720.3896516282 -509953.32806625008 0 0 0 0 19935511.232776642 -1464308.4896447659 0 -1464308.4896447659 -15829528.007453442 0 0 0 0 38348042.021389008 19301058.30627577 0 19301058.30627577 -10992999.643754631 0 0 0 0 23669916.210414886 -9972309.7773399353 0 -9972309.7773399353 1325236.0761273205 0 0 0 0 3915513.6005112692 1463626.3335933574 0 1463626.3335933574 -1434106.1378730868 0 0 0 0 12810046.232540131 -5652369.0455014408 0 -5652369.0455014408 2314994.5299716741 0 0 0 0 14218102.874074936 -1542594.1309350654 0 -1542594.1309350654 -2171201.6284897923 0 0 0 0 12120463.935575485 -2586051.4877130985 0 -2586051.4877130985 -12778507.548927546 0 0 0 0 6318108.9561883062 2984008.5682889549 0 2984008.5682889549 -1589902.8518367845 0 0 0 0 15512390.274211342 -615277.51718048751 0 -615277.51718048751 -813333.69899243885 0 0 0 0 15384956.208957672 -6055813.6589515209 0 -6055813.6589515209 -9987593.3034974262 0 0 0 0 28024162.76709795 19558738.668722093 0 19558738.668722093 -19304757.856234789 0 0 0 0 12553477.821796417 -6014180.1570045948 0 -6014180.1570045948 -1780341.84091115 0 0 0 0 11552573.983205318 -7139882.275624305 0 -7139882.275624305 2950775.9778370857 0 0 0 0 9051560.4474601746 -4879260.4680001736 0 -4879260.4680001736 2314492.6462417245 0 0 0 0 10609522.203922272 -9621843.0144033432 0 -9621843.0144033432 6021801.8981361389 0 0 0 0 8281233.3646697998 -4335476.549145937 0 -4335476.549145937 4071437.9954397678 0 0 0 0 7729815.1332702637 -7428839.6037271023 0 -7428839.6037271023 2834718.6524496078 0 0 0 0 -437734.07886886597 -6003224.138759613 0 -6003224.138759613 4655709.7053062916 0 0 0 0 -1967602.633190155 704488.26019906998 0 704488.26019906998 3345349.9573581219 0 0 0 0 3979225.9159355164 -1371699.1108731031 0 -1371699.1108731031 2135717.6719326973 0 0 0 0 21155989.750696182 2439034.8983933926 0 2439034.8983933926 -4995576.5866155624 0 0 0 0 7583907.013458252 5581577.0766677856 0 5581577.0766677856 -5553756.0943048596 0 0 0 0 7949663.5021312237 707273.37026765943 0 707273.37026765943 -1098069.362639904 0 0 0 0 19966526.804897308 -3791139.3826966286 0 -3791139.3826966286 -22553.425092577934 0 0 0 0 14202928.984071732 -4119917.1913274527 0 -4119917.1913274527 41914.053539991379 0 0 0 0 40649975.522623062 -5506224.8516304493 0 -5506224.8516304493 -9067136.7427179813 0 0 0 0 25494625.293928146 370215.17832630873 0 370215.17832630873 -10354003.58375597 0 0 0 0 18034060.860466003 1368285.7460656166 0 1368285.7460656166 -3981848.8581742048 0 0 0 0 24459050.067350388 -94664.252472639084 0 -94664.252472639084 -6926838.5114479065 0 0 0 0 25859184.835971832 292516.27952075005 0 292516.27952075005 -6869318.8586392403 0 0 0 0 23662341.68610239 -4057898.5081630349 0 -4057898.5081630349 -191142.1016626358 0 0 0 0 7815472.0574321747 -1580704.1737542152 0 -1580704.1737542152 3919944.6605217457 0 0 0 0 -671898.86606025696 8735027.415348053 0 8735027.415348053 1740006.5913434029 0 0 0 0 1010844.6522798538 2625055.7804201245 0 2625055.7804201245 4848348.1005792618 0 0 0 0 7693390.2539863586 -961881.18999660015 0 -961881.18999660015 -16073838.782073379 0 0 0 0 142724.4527988378 191429.79259810597 0 191429.79259810597 78633.148322528461 0 0 0 0 13118433.775154114 8756501.3999785185 0 8756501.3999785185 7840420.2071317434 0 0 0 0 23680009.393044472 17891701.239609957 0 17891701.239609957 -2686034.0365099907 0 0 0 0 18721391.673423767 65097756.427198887 0 65097756.427198887 -179705131.54677558 0 0 0 0 42995235.416966915 48708315.274364531 0 48708315.274364531 -170066413.44075155 0 0 0 0 6514413.3601972274 637725.22751768492 0 637725.22751768492 -767180.97511767282 0 0 0 0 20109450.930112839 -9921137.1097350121 0 -9921137.1097350121 -5448786.8825764656 0 0 0 0 13557369.311759949 11437259.52577877 0 11437259.52577877 -9619763.6858046055 0 0 0 0 -8811435.5371170044 151339934.27434158 0 151339934.27434158 -76647876.704046011 0 0 0 0 5404916.350438118 -5175288.4195863008 0 -5175288.4195863008 1960188.4024739265 0 0 0 0 4907726.8544002045 -243558.26697872207 0 -243558.26697872207 546379.93237958755 0 0 0 0 12336279.164108276 133968.66058206558 0 133968.66058206558 -11898403.71269846 0 0 0 0 7005196.7271477915 245670.83173118951 0 245670.83173118951 -916185.80990500096 0 0 0 0 1442752.6835191613 -1248650.5775539456 0 -1248650.5775539456 -967230.93197210075 0 0 0 0 11150623.790588379 -13985484.209871292 0 -13985484.209871292 5878070.2965764999 0 0 0 0 2718529.0893583298 4278774.649263978 0 4278774.649263978 -4777788.3134365082 0 0 0 0 3484262.3999938313 503084.11703565577 0 503084.11703565577 -216469.47630192048 0 0 0 0 2968472.5079116821 -2390946.0778295994 0 -2390946.0778295994 -13572241.12894249 0 0 0 0 319602.91535805911 -13449.500234402716 0 -13449.500234402716 -104359.18739774404 0 0 0 0 2781466.5411548615 117800.66638422012 0 117800.66638422012 -529637.47406291962 0 0 0 0 2727121.3410081863 12310.789406657219 0 12310.789406657219 -640720.95271158218 0 0 0 0 2620769.1386413574 -12105.918003082275 0 -12105.918003082275 -426669.79895353317 0 0 0 0 3798337.7429290228 -38034.479119420052 0 -38034.479119420052 415641.10897949967 0 0 0 0 2610189.7328031063 -158165.91616515815 0 -158165.91616515815 -686480.11866664886 0 0 0 0 36641041.196113586 -16650276.689517736 0 -16650276.689517736 -9668679.1076726913 0 0 0 0 7735353.7686538696 -38669.481613636017 0 -38669.481613636017 -23515649.183995724 0 0 0 0 -4133667.6173400879 -389905.69528150558 0 -389905.69528150558 27503747.025000572 0 0 0 0 283322.8015898373 248895.28058564709 0 248895.28058564709 -155898.26915433048 0 0 0 0 -2931085.2948141098 -34417457.444748223 0 -34417457.444748223 1244965.8493261337 0 0 0 0 23038488.382250786 52097968.10620892 0 52097968.10620892 -15516377.870798111 0 0 0 0 3800826.0856186971 413797.89768405166 0 413797.89768405166 -1748158.4174560574 0 0 0 0 5622642.4268512726 -21117851.541014075 0 -21117851.541014075 477577.96254730225 0 0 0 0 -9122650.5774803162 5596165.6789118052 0 5596165.6789118052 18372687.859084129 0 0 0 0 5612807.0512542725 13853339.731683612 0 13853339.731683612 20147997.93902874 0 0 0 0 5045444.1122932434 5319898.9215722084 0 5319898.9215722084 9039448.9117189646 0 0 0 0 -64218.038913726807 -4599433.8572957516 0 -4599433.8572957516 2027799.573217392 0 0 0 0 6208089.6933040619 8015765.1633684635 0 8015765.1633684635 -9778515.7747440338 0 0 0 0 519453.93910363689 320708.36091588088 0 320708.36091588088 -122012.02075475873 0 0 0 0 2996950.9150209427 -3842755.6781985164 0 -3842755.6781985164 -1570229.2308473587 0 0 0 0 6073410.6550017782 406913.65471586492 0 406913.65471586492 259577.67044209596 0 0 0 0 -524701436.7316246 86406860.023834705 0 86406860.023834705 69803212.372739553 0 0 0 0 93440338.402420044 743202046.76938772 0 743202046.76938772 151689581.44613075 0 0 0 0 1900788074.9902954 -368099570.88560438 0 -368099570.88560438 47416330.588172555 0 0 0 0 534172180.08886719 -301970702.2911129 0 -301970702.2911129 -40241236.567203045 0 0 0 0 7005750.8887131698 532232.79029053822 0 532232.79029053822 -149623.47505073284 0 0 0 0 404368793.06797028 90282593.476520538 0 90282593.476520538 -253439488.21935272 0 0 0 0 96114078.389719009 -183887696.49332273 0 -183887696.49332273 -40103301.765841484 0 0 0 0 843796327.07074738 22718144.023860216 0 22718144.023860216 -257025185.6394949 0 0 0 0 78284230.113822937 -22104889.033564806 0 -22104889.033564806 32939700.277920961 0 0 0 0 97884610.443484306 38810379.571953058 0 38810379.571953058 -16055934.719504833 0 0 0 0 2684729.2470580265 1246137.6120054601 0 1246137.6120054601 585190.66125108488 0 0 0 0 -35782.372130621225 -12919.930107505294 0 -12919.930107505294 34381.084715372854 0 0 0 0 74549209.010215759 -45341578.344756603 0 -45341578.344756603 -91909338.292376727 0 0 0 0 126164116.53141022 -2704104.1904199123 0 -2704104.1904199123 -44328066.598853111 0 0 0 0 -11494911.927746534 -2033978.4354405031 0 -2033978.4354405031 74446723.4039464 0 0 0 0 1050356.7258508354 99164.619959744159 0 99164.619959744159 64965.686728042085 0 0 0 0 -116088353.51948166 -104673294.8468349 0 -104673294.8468349 86094634.647666454 0 0 0 0 268700.34771728329 355471.29768633563 0 355471.29768633563 219815.6259947042 0 0 0 0 -4346526.7823753357 1993370.8327288628 0 1993370.8327288628 -14758796.896771193 0 0 0 0 105843328.62382889 13161054.49837327 0 13161054.49837327 -7902340.7902367115 0 0 0 0 31253737.712993622 828232.39265918732 0 828232.39265918732 9025847.8126444221 0 0 0 0 64667477.953886032 -30313545.657443047 0 -30313545.657443047 3612987.3325443268 0 0 0 0 15204317.496047974 -14779740.118686795 0 -14779740.118686795 9382816.6018300056 0 0 0 0 8796664.2006587982 3877652.3098039627 0 3877652.3098039627 -9636882.9835486412 0 0 0 0 6153731.3044910431 3068782.7350752354 0 3068782.7350752354 6593098.549015373 0 0 0 0 2629472.1662335396 342336.15596926212 0 342336.15596926212 -1127052.4033079147 0 0 0 0 2718735.6521606445 -41950.052605628967 0 -41950.052605628967 -595428.35458183289 0 0 0 0 2957850.8452148438 -18955178.766917706 0 -18955178.766917706 10184042.175705791 0 0 0 0 23366138.5319767 -4056931.000787735 0 -4056931.000787735 -9307036.9568712711 0 0 0 0 3579742.1982615907 -235639.12111389218 0 -235639.12111389218 -583142.45970290946 0 0 0 0 553489.93236160278 -3700114.0799074173 0 -3700114.0799074173 -885450.97099101543 0 0 0 0 5145277.6347765923 -3899791.3878753483 0 -3899791.3878753483 -983459.92712259293 0 0 0 0 4195268.5827492699 522015.13578764256 0 522015.13578764256 -231593.03991161147 0 0 0 0 426957.14842033386 -3248146.4651253819 0 -3248146.4651253819 10391689.388473511 0 0 0 0 2987943.196762085 -7406.5465545654297 0 -7406.5465545654297 -1017608.1547660828 0 0 0 0 2563233.0747285765 -241287.75915924646 0 -241287.75915924646 711136.55110878195 0 0 0 0 2832719.5216293335 -365005.88613629341 0 -365005.88613629341 -534059.92095470428 0 0 0 0 1702415.5875958148 685671.86556006642 0 685671.86556006642 -731460.33102931431 0 0 0 0 3923274.2869148254 412171.14340984821 0 412171.14340984821 1046379.111333251 0 0 0 0 1955561.3689689636 5642238.0012538433 0 5642238.0012538433 4925828.9871864319 0 0 0 0 904039.35712469742 -739.73298511002213 0 -739.73298511002213 890263.42683043005 0 0 0 0 82752.22748218663 57037.239258528687 0 57037.239258528687 3567.145815031603 0 0 0 0 -635672.62346532568 800752.06241428759 0 800752.06241428759 1988634.3066994024 0 0 0 0 226341.56214423664 46179.39393235743 0 46179.39393235743 -88408.666802525753 0 0 0 0 -576920.77139282227 -1569352.6398079395 0 -1569352.6398079395 18703117.696222305 0 0 0 0 2905530.0034866333 -816732.69154024124 0 -816732.69154024124 2415084.7472114563 0 0 0 0 4216783.4338822365 2300391.4555253685 0 2300391.4555253685 -15288274.41900444 0 0 0 0 11470667.62676239 -10320936.844530582 0 -10320936.844530582 -10160429.83144331 0 0 0 0 8206711.4562263489 -18279693.163359165 0 -18279693.163359165 9406657.1157972813 0 0 0 0 -7626948.4049966335 -119389023.38124061 0 -119389023.38124061 83650429.690246105 0 0 0 0 1320330.7387671266 947667.82213771157 0 947667.82213771157 653717.68539512518 0 0 0 0 8376539.8270797729 23394663.185297489 0 23394663.185297489 -29282103.989819288 0 0 0 0 51803780.115146637 808127.42088246346 0 808127.42088246346 7882955.441616863 0 0 0 0 2116697.1560058594 -12442869.830096722 0 -12442869.830096722 11895713.379444122 0 0 0 0 46669127.718391418 -18810212.051784515 0 -18810212.051784515 -6988107.659819603 0 0 0 0 66074336.055545807 80413913.450125813 0 80413913.450125813 85128688.921694994 0 0 0 0 -502949.16660780646 460960.44171620533 0 460960.44171620533 726226.97933153901 0 0 0 0 72885752.09363842 23128048.917545825 0 23128048.917545825 5599766.0999195576 0 0 0 0 40644737.799861908 57419397.619478285 0 57419397.619478285 54250178.988251746 0 0 0 0 29167066.118495941 40391052.315751553 0 40391052.315751553 29349013.764935255 0 0 0 0 6654400.0732170343 12611505.15657882 0 12611505.15657882 38854927.920330524 0 0 0 0 7304129.5916252136 29754197.063091099 0 29754197.063091099 89675802.935604423 0 0 0 0 -3841064.3395271301 4156930.2292224765 0 4156930.2292224765 7024128.9480714798 0 0 0 0 1605839.695611041 -503056.58124718536 0 -503056.58124718536 -729545.59979485627 0 0 0 0 -509625.21417999268 -2538324.8865514994 0 -2538324.8865514994 655508.56413733959 0 0 0 0 11285905.239295959 -1106515.6508508921 0 -1106515.6508508921 -2878931.6599245071 0 0 0 0 -13470368.416248322 -8594244.4874777794 0 -8594244.4874777794 2426174.5978271961 0 0 0 0 1788430.4953225739 -374582.52100926079 0 -374582.52100926079 -1138660.2601716472 0 0 0 0 24833265.888824463 35132016.529666007 0 35132016.529666007 43437464.343629658 0 0 0 0 26273222.941894054 51339984.59073779 0 51339984.59073779 45768058.873714209 0 0 0 0 27352970.424600601 23716030.441156328 0 23716030.441156328 11275206.399197102 0 0 0 0 20143116.075233459 25245664.674859047 0 25245664.674859047 46105336.685082436 0 0 0 0 43385752.874933243 58163429.196679592 0 58163429.196679592 47765723.581007242 0 0 0 0 4931915.074420929 24185957.176314592 0 24185957.176314592 15201483.258883238 0 0 0 0 19955917.953647614 -827918.5753493309 0 -827918.5753493309 -21154792.067791939 0 0 0 0 16750950.95245266 -1332866.1264147162 0 -1332866.1264147162 -2078977.3698921204 0 0 0 0 34332207.080314636 26086254.788400352 0 26086254.788400352 -1589803.570360899 0 0 0 0 9528495.9607772827 22625011.371000051 0 22625011.371000051 29338066.190642904 0 0 0 0 56463982.4974823 -41323530.691084176 0 -41323530.691084176 143549001.05855525 0 0 0 0 722588.48499866202 497382.09421828203 0 497382.09421828203 -705417.08039594116 0 0 0 0 6839112.2869987488 4086504.6121631861 0 4086504.6121631861 1045217.176222086 0 0 0 0 84819700.474133492 15379206.961239904 0 15379206.961239904 -37064804.694980145 0 0 0 0 69852153.760169983 -35040664.626317024 0 -35040664.626317024 -58467095.518428802 0 0 0 0 29811845.261094093 5469587.733875066 0 5469587.733875066 -33882843.749874592 0 0 0 0 6797952.1208534241 9432358.0066841841 0 9432358.0066841841 -11881339.376226425 0 0 0 0 2388012.8324356079 2870192.6110084057 0 2870192.6110084057 1455814.0103691816 0 0 0 0 9523493.8007087708 4908637.6254179478 0 4908637.6254179478 -2974768.9572238922 0 0 0 0 2015916.8441441469 463117.01556802355 0 463117.01556802355 -878495.14809295908 0 0 0 0 8192911.9885520935 -560161.11198848486 0 -560161.11198848486 -1682274.5119456649 0 0 0 0 3779740.232601244 -680247.7265546592 0 -680247.7265546592 -1861027.7236845263 0 0 0 0 17054256.353992462 5126892.2910824716 0 5126892.2910824716 -934814.67030465603 0 0 0 0 983947.3909868747 375460.34381033387 0 375460.34381033387 -856872.74294662965 0 0 0 0 20677833.522720337 11439268.766017675 0 11439268.766017675 8505370.9487744421 0 0 0 0 3762498.1789651625 -246229.03841365036 0 -246229.03841365036 -1977607.4256889294 0 0 0 0 2686279.4487762451 13066722.524775028 0 13066722.524775028 9600688.1826682091 0 0 0 0 4982901.8379669189 -3151834.9891836643 0 -3151834.9891836643 -5144054.7625851631 0 0 0 0 1770784.5691674035 673840.23533884063 0 673840.23533884063 -1329060.3618450896 0 0 0 0 12001835.552768707 1720947.9523704648 0 1720947.9523704648 304980.91444939375 0 0 0 0 -4146823.318611145 15372604.497511864 0 15372604.497511864 16220216.16089797 0 0 0 0 -3282298.0138244629 -3416141.1208216101 0 -3416141.1208216101 18053605.249833193 0 0 0 0 -714408.19256591797 4486033.1721254662 0 4486033.1721254662 -8090260.8185034916 0 0 0 0 -12728154.393615723 -23045574.041910887 0 -23045574.041910887 -9214642.6237301528 0 0 0 0 1672110.303246107 -239086.02336367499 0 -239086.02336367499 -1278174.4848532048 0 0 0 0 13549732.617897034 5066051.5622980595 0 5066051.5622980595 27236241.745374084 0 0 0 0 -3786921.367816925 -28287321.856000185 0 -28287321.856000185 -13797888.327428341 0 0 0 0 921442.46685821004 -92377.207037960179 0 -92377.207037960179 -786720.8633032816 0 0 0 0 6193586.5360031128 20674748.470971301 0 20674748.470971301 19293701.349625409 0 0 0 0 401185.69626617432 10032772.34134686 0 10032772.34134686 -3935124.0559864044 0 0 0 0 -20607678.30175972 -315864.80432040989 0 -315864.80432040989 9093954.508284688 0 0 0 0 6137623.4144515991 -1708141.9454512596 0 -1708141.9454512596 17072558.985489666 0 0 0 0 19664699.1848526 9411941.3718304634 0 9411941.3718304634 17710090.104743242 0 0 0 0 20871112.541027069 20253058.069919884 0 20253058.069919884 13012446.710396051 0 0 0 0 29799049.931213379 10079677.938177824 0 10079677.938177824 6652778.8307430744 0 0 0 0 -2423666.9421463013 -9231262.7485103607 0 -9231262.7485103607 25980421.792318583 0 0 0 0 3421676.9315902404 -1021470.8682715818 0 -1021470.8682715818 -1211823.3195387318 0 0 0 0 16454963.428928375 12501650.08818996 0 12501650.08818996 30036393.916434765 0 0 0 0 20631779.142967224 19277102.192986727 0 19277102.192986727 28112353.883120373 0 0 0 0 6819524.2146224976 2000264.9648256302 0 2000264.9648256302 -422538.08050107956 0 0 0 0 15221987.414585114 14027319.192312241 0 14027319.192312241 -5850560.9515028 0 0 0 0 711745.62572479248 21446159.44602108 0 21446159.44602108 -7249053.383171916 0 0 0 0 6691939.5813903809 10547718.271302223 0 10547718.271302223 24511574.822900772 0 0 0 0 1481081.7530136108 12658971.964076042 0 12658971.964076042 37420390.92911005 0 0 0 0 19623425.650192261 8034415.6239726543 0 8034415.6239726543 24995792.592172623 0 0 0 0 1856030.5709609985 29315837.624960899 0 29315837.624960899 39219356.839837074 0 0 0 0 4244700.7450580597 5242058.7195365429 0 5242058.7195365429 45637211.578012466 0 0 0 0 21428608.647674561 -27947912.819107056 0 -27947912.819107056 -65823150.08451128 0 0 0 0 54824967.18337822 13236390.275680542 0 13236390.275680542 -42636683.386351585 0 0 0 0 -6877938.0445976257 2462536.510207653 0 2462536.510207653 43037598.817516863 0 0 0 0 61673083.358394623 75010523.47477293 0 75010523.47477293 51536556.142956734 0 0 0 0 -1353076.8952636719 9812558.8968753815 0 9812558.8968753815 13609726.167571068 0 0 0 0 25167393.465456009 -18129854.274040699 0 -18129854.274040699 -87049556.036239624 0 0 0 0 8856090.6576187387 865735.27762875566 0 865735.27762875566 -2839200.332107665 0 0 0 0 4623014.3451390974 2381506.4915472176 0 2381506.4915472176 1171121.2388832062 0 0 0 0 34177912.956817627 -5477613.8304914236 0 -5477613.8304914236 -46915904.987170219 0 0 0 0 15847536.645004272 -528824.49398720264 0 -528824.49398720264 -26692676.525232792 0 0 0 0 27409985.242927551 25057976.98107481 0 25057976.98107481 -8296670.5592410564 0 0 0 0 50938256.300521851 17710527.344953537 0 17710527.344953537 -29616914.081741393 0 0 0 0 28150584.334926605 -22316618.883578569 0 -22316618.883578569 8545988.3014345169 0 0 0 0 16170315.700485229 -128184.69380664825 0 -128184.69380664825 -20596681.432812691 0 0 0 0 37634884.721038818 34564225.562909245 0 34564225.562909245 12591303.274751186 0 0 0 0 1467261.2061500549 -26866995.938935459 0 -26866995.938935459 -27141427.549075127 0 0 0 0 9317326.0860756263 2798654.5026102043 0 2798654.5026102043 -3002181.2492368808 0 0 0 0 19081446.159683228 1933625.0049505234 0 1933625.0049505234 12657677.775454044 0 0 0 0 6872536.5495605469 -32290351.148144066 0 -32290351.148144066 -47039900.464638233 0 0 0 0 -29754472.89642334 -9686025.9104242325 0 -9686025.9104242325 -15693167.428387165 0 0 0 0 -10333776.781539917 50450886.388246059 0 50450886.388246059 9480202.3992338479 0 0 0 0 2679163.0327390172 1068531.3172952505 0 1068531.3172952505 605556.37799386121 0 0 0 0 6713319.6640014648 -13477585.816794395 0 -13477585.816794395 -47266712.069949836 0 0 0 0 -3629056.787322998 -1751586.8560233116 0 -1751586.8560233116 -35726115.176257133 0 0 0 0 -6718844.4448242188 -9082810.2363157272 0 -9082810.2363157272 -10020118.508440018 0 0 0 0 20767037.571273804 5505909.8803527951 0 5505909.8803527951 -17905632.41076231 0 0 0 0 -11237705.150100708 -9449589.8169648647 0 -9449589.8169648647 -21687634.477827549 0 0 0 0 1036319.9320068359 -7864238.956613183 0 -7864238.956613183 -25373924.555912018 0 0 0 0 -18030869.127624512 -15211110.067806959 0 -15211110.067806959 -24249888.466226578 0 0 0 0 44656207.012786865 46872593.551955223 0 46872593.551955223 19755397.833942413 0 0 0 0 -6663417.3939819336 -21965680.786446095 0 -21965680.786446095 -38005667.066429615 0 0 0 0 -14385839.887863159 -21096890.857038975 0 -21096890.857038975 -29797098.944698334 0 0 0 0 1582102.7566881105 625528.53550926223 0 625528.53550926223 86646.470865315932 0 0 0 0 -4254261.7270812988 -15762017.5216856 0 -15762017.5216856 -32045326.222166657 0 0 0 0 -6910017.1300811768 -16703950.815226078 0 -16703950.815226078 -29689097.895270348 0 0 0 0 -3873904.9942932129 -14810149.799964428 0 -14810149.799964428 -37599055.042651176 0 0 0 0 75790206.878356934 12268298.486270666 0 12268298.486270666 -38973753.067268372 0 0 0 0 2378167.1287550926 -28232613.591511741 0 -28232613.591511741 50031036.983552456 0 0 0 0 22642217.464471817 1151042.0427484512 0 1151042.0427484512 -51004388.435768127 0 0 0 0 8826572.3984820843 3763415.639904703 0 3763415.639904703 -2831177.7144488138 0 0 0 0 24203911.826889038 27306620.146988869 0 27306620.146988869 9874478.0986833572 0 0 0 0 25856779.387642384 12889398.84339644 0 12889398.84339644 -7172610.7978923321 0 0 0 0 -1702543.0023479462 14998180.176399112 0 14998180.176399112 42023561.570389271 0 0 0 0 14705012.799755856 1913827.6315806208 0 1913827.6315806208 -1554471.5963491583 0 0 0 0 32660720.824057579 -16062457.782186747 0 -16062457.782186747 -73132318.910564423 0 0 0 0 -1231013.9069461823 2102286.023691535 0 2102286.023691535 -20616583.255196095 0 0 0 0 5319925.03657341 -15193130.958161831 0 -15193130.958161831 -17704493.090123892 0 0 0 0 24283133.21505928 -8948139.6002120972 0 -8948139.6002120972 -70034975.448437214 0 0 0 0 11695450.560413361 19879314.638789654 0 19879314.638789654 5187328.903567791 0 0 0 0 13365426.142854691 -32619752.090383291 0 -32619752.090383291 -66026758.258999825 0 0 0 0 21195971.36605072 21034076.332432508 0 21034076.332432508 -9618171.4136897326 0 0 0 0 13475938.491006952 3912799.1937494152 0 3912799.1937494152 -1109954.3175964253 0 0 0 0 13829970.058505669 2672448.2570667202 0 2672448.2570667202 -1329102.6018315179 0 0 0 0 7821192.1732559204 25126279.59371376 0 25126279.59371376 33400683.463653684 0 0 0 0 14680368.760238647 9975828.3807220459 0 9975828.3807220459 17746584.225839615 0 0 0 0 7704001.880569458 25461517.932698965 0 25461517.932698965 -100620.71782064438 0 0 0 0 17553425.678359985 28965037.088764906 0 28965037.088764906 -10940729.54630512 0 0 0 0 16587140.737960815 22699784.259910107 0 22699784.259910107 -6837530.1060328484 0 0 0 0 8476193.8924865723 30933096.162974656 0 30933096.162974656 -15035103.593123913 0 0 0 0 14597166.016223907 16305923.059157632 0 16305923.059157632 -12347976.400969505 0 0 0 0 24283471.083114624 15570283.327626228 0 15570283.327626228 -7776706.6382479668 0 0 0 0 25875138.69093895 25049909.78948918 0 25049909.78948918 -23036571.031474113 0 0 0 0 27624885.942184448 19674322.444713831 0 19674322.444713831 -17807184.152742863 0 0 0 0 -13703.769082989544 246780.04719276773 0 246780.04719276773 111435.85614623665 0 0 0 0 62385373.797210693 60264190.514698029 0 60264190.514698029 -26081520.268914223 0 0 0 0 33756568.644306183 -22272378.375222683 0 -22272378.375222683 5362049.7015514374 0 0 0 0 -535.87750229611993 276906.59240470733 0 276906.59240470733 76072.867410722421 0 0 0 0 -45917754.840194702 -25886074.118889391 0 -25886074.118889391 -12158326.141989708 0 0 0 0 21294362.753692627 19539909.542717218 0 19539909.542717218 -49004753.539475739 0 0 0 0 17503447.962936401 36086812.542183161 0 36086812.542183161 -28452122.476023674 0 0 0 0 -4880600.7235870361 38553230.433260202 0 38553230.433260202 -14345018.739990205 0 0 0 0 9782641.2772331238 -13066999.555867434 0 -13066999.555867434 -57924578.966208696 0 0 0 0 -5774531.720790863 -4605919.8295631409 0 -4605919.8295631409 -27514576.105265737 0 0 0 0 94393.791812114418 482006.63389348332 0 482006.63389348332 116299.30010914977 0 0 0 0 -17706898.009941101 27122127.660924196 0 27122127.660924196 -2584806.8351068497 0 0 0 0 1612323.4086647034 16526015.499368131 0 16526015.499368131 502476.86822223663 0 0 0 0 -149028.80401611328 16358805.365395069 0 16358805.365395069 1169172.0303852558 0 0 0 0 19702290.169464111 2064120.2080227733 0 2064120.2080227733 -12410186.508800983 0 0 0 0 12885906.397851944 11103916.536462843 0 11103916.536462843 2966591.4811868668 0 0 0 0 208891.13839113712 228936.11192554096 0 228936.11192554096 -178551.45498176687 0 0 0 0 -3847073.9371795654 7265404.3069455624 0 7265404.3069455624 -30205621.544712961 0 0 0 0 2264700.4493637085 4989270.800449729 0 4989270.800449729 -38092014.308189273 0 0 0 0 754659.129529953 -7538295.6130858064 0 -7538295.6130858064 -20902494.326266527 0 0 0 0 182112.07809659466 526140.90569150448 0 526140.90569150448 118924.25413304922 0 0 0 0 -4594987.9345588684 2226836.531463623 0 2226836.531463623 -14652949.065752506 0 0 0 0 2137678.9028167725 -1001733.0985819101 0 -1001733.0985819101 -15876161.281846166 0 0 0 0 -5318882.344291687 1680856.2089096308 0 1680856.2089096308 -6088356.0706845522 0 0 0 0 350341.23688598722 353499.3990668077 0 353499.3990668077 -278144.29566353187 0 0 0 0 20942446.225631714 -3074246.3562595844 0 -3074246.3562595844 -18051275.580733299 0 0 0 0 15821582.909506608 1663637.1096576639 0 1663637.1096576639 -1752590.6555687799 0 0 0 0 43461605.030483246 -30857670.532652378 0 -30857670.532652378 -64769895.50873518 0 0 0 0 -6615693.5312519073 -2836595.8900518417 0 -2836595.8900518417 39483368.351576567 0 0 0 0 31731135.635887146 -2882736.956438899 0 -2882736.956438899 5168928.4443497658 0 0 0 0 16209484.571712494 -16452604.860545278 0 -16452604.860545278 3900484.6582486629 0 0 0 0 198347.76326202229 202115.07746500429 0 202115.07746500429 -157223.47614924482 0 0 0 0 29229048.770214081 3890980.9933211803 0 3890980.9933211803 -6152252.521863997 0 0 0 0 34337972.134315491 -15274578.073773652 0 -15274578.073773652 -3006646.1045508385 0 0 0 0 -154123.31187438965 -3969766.5697432458 0 -3969766.5697432458 -5337521.5369720459 0 0 0 0 6055049.7615661621 809049.66766178608 0 809049.66766178608 -29759762.152121425 0 0 0 0 8534919.3050422668 7800316.0552425385 0 7800316.0552425385 -16737937.931021929 0 0 0 0 52312492.992416382 -8117791.7414883375 0 -8117791.7414883375 -17031996.443734884 0 0 0 0 14206856.903603554 -19868013.847422585 0 -19868013.847422585 -2914535.7530901432 0 0 0 0 87679511.770685196 4845092.4397466183 0 4845092.4397466183 -18456581.13749218 0 0 0 0 37610988.747322083 2117336.0104055405 0 2117336.0104055405 -17015372.2169801 0 0 0 0 41869987.617925644 18641973.496275067 0 18641973.496275067 -9958179.8547337055 0 0 0 0 36440651.399406433 2513181.5493233204 0 2513181.5493233204 -16632501.96895206 0 0 0 0 34772970.637786865 1611993.5245854855 0 1611993.5245854855 -16069638.880147815 0 0 0 0 33509913.449539185 -6593909.4154996872 0 -6593909.4154996872 -16974970.425011225 0 0 0 0 1397195.1938972473 42754134.79013586 0 42754134.79013586 -12527539.626229167 0 0 0 0 -349499.61457824707 20622382.355860949 0 20622382.355860949 -1795943.7908104658 0 0 0 0 10284047.447210398 6788900.091200375 0 6788900.091200375 -152681.93949229852 0 0 0 0 -83585231.456904411 91858907.965331614 0 91858907.965331614 -39214643.583757877 0 0 0 0 -81577095.888504028 74921203.896517515 0 74921203.896517515 -11323591.497977018 0 0 0 0 -89776352.867139816 61785487.531666219 0 61785487.531666219 9983507.7229388952 0 0 0 0 -89772399.62834549 77237623.426938713 0 77237623.426938713 14587187.975269616 0 0 0 0 -90228378.760895729 45661626.373331442 0 45661626.373331442 6237176.8080251217 0 0 0 0 -92216926.093366623 51723430.550157428 0 51723430.550157428 -4513424.7067748904 0 0 0 0 -112896700.71147633 34904387.413931876 0 34904387.413931876 2650961.9539432526 0 0 0 0 -203844562.81367111 51912561.190227807 0 51912561.190227807 32393937.206052274 0 0 0 0 -102730564.45857239 53761142.113460064 0 53761142.113460064 30921030.96919167 0 0 0 0 24255376.954334259 2633362.0855945349 0 2633362.0855945349 6241440.436997354 0 0 0 0 24377671.344295502 5315265.0704402924 0 5315265.0704402924 -1070399.6531777382 0 0 0 0 14289659.372428894 12191979.353065968 0 12191979.353065968 -5750755.2728996277 0 0 0 0 10987245.415395182 7145868.1977397781 0 7145868.1977397781 650214.6209994884 0 0 0 0 -16507205.877550125 3040780.3742939532 0 3040780.3742939532 -6928450.7664839029 0 0 0 0 -128675258.9367981 -15244813.599907279 0 -15244813.599907279 -2384339.5475663543 0 0 0 0 -18613176.052345276 10210569.759183288 0 10210569.759183288 -6717474.5148524046 0 0 0 0 12919441.122477418 7506904.9378231224 0 7506904.9378231224 789917.84835510945 0 0 0 0 -152348.64936034754 1280877.696065641 0 1280877.696065641 61341.070605957721 0 0 0 0 8926654.2036781311 6892065.7439887524 0 6892065.7439887524 -12512180.035943739 0 0 0 0 597656.403324062 5014499.1358456668 0 5014499.1358456668 -449943.69089584838 0 0 0 0 8652697.4954726286 -1464741.5378527124 0 -1464741.5378527124 -4711005.0642842138 0 0 0 0 5306002.9650840759 35498419.91093117 0 35498419.91093117 13962097.01651971 0 0 0 0 272990889.74965668 66111054.472066507 0 66111054.472066507 -283996135.01370656 0 0 0 0 -107907495.84899521 -47758610.99933736 0 -47758610.99933736 -32807329.743224025 0 0 0 0 11799646.650665998 -27651178.809269622 0 -27651178.809269622 -29975959.478599668 0 0 0 0 36811262.687423706 42996036.256936915 0 42996036.256936915 -127438674.69243661 0 0 0 0 -63664796.845775604 122178166.75941414 0 122178166.75941414 -122445211.84734407 0 0 0 0 -13474992.223421097 57062723.630181462 0 57062723.630181462 -38015173.554652303 0 0 0 0 20008480.496289253 38010578.277264282 0 38010578.277264282 -104769707.03470865 0 0 0 0 25937773.844802856 42437960.67706272 0 42437960.67706272 -107790565.3134532 0 0 0 0 -20255593.377660751 30361458.07469745 0 30361458.07469745 -56586192.214881331 0 0 0 0 -65672118.070053101 88704403.406337649 0 88704403.406337649 3148873.1312641501 0 0 0 0 -73461285.978377342 109831585.68711384 0 109831585.68711384 -30562307.218962789 0 0 0 0 -265305368.88697815 196771268.08085197 0 196771268.08085197 -69945503.682352662 0 0 0 0 -29410.677012041211 1269366.0409953163 0 1269366.0409953163 -4826.7174008170077 0 0 0 0 -160246179.14306259 -63130897.649015069 0 -63130897.649015069 -5610945.4582880437 0 0 0 0 -330521729.69123125 16176294.236237213 0 16176294.236237213 36258693.848519921 0 0 0 0 -119943437.13666534 13240044.66342032 0 13240044.66342032 26644899.311796665 0 0 0 0 -349761400.96787262 182364307.30978662 0 182364307.30978662 -36661289.763783604 0 0 0 0 -55095392.475582123 177259028.42873463 0 177259028.42873463 -311930080.10826957 0 0 0 0 -158971932.86510468 33019393.003389001 0 33019393.003389001 80123837.852829784 0 0 0 0 -19209491.071014404 60452277.295755923 0 60452277.295755923 -225247921.93887955 0 0 0 0 -280998675.23857594 -80115995.496496484 0 -80115995.496496484 17886035.086041212 0 0 0 0 -71691257.061208725 -13103887.961972639 0 -13103887.961972639 209635476.09626371 0 0 0 0 -65433128.208797455 -2381388.6484100223 0 -2381388.6484100223 43341739.306199163 0 0 0 0 -142355519.5298214 25554867.605144814 0 25554867.605144814 75910707.455628753 0 0 0 0 -166691320.47879601 -72004948.48155722 0 -72004948.48155722 182415427.04775363 0 0 0 0 -91845076.009347916 -22817223.189454287 0 -22817223.189454287 212787341.05757928 0 0 0 0 -86139354.281392097 -119218959.54548891 0 -119218959.54548891 227659780.79556918 0 0 0 0 40794954.165166855 79142850.428421676 0 79142850.428421676 -19934321.195657194 0 0 0 0 -96413267.711114883 -40235131.096908361 0 -40235131.096908361 169786585.65968353 0 0 0 0 56230197.978366852 11609260.001183748 0 11609260.001183748 -17608962.979448825 0 0 0 0 -56844840.202468872 -19206111.845873997 0 -19206111.845873997 172870757.11262351 0 0 0 0 -43699891.287815094 -74728674.10805285 0 -74728674.10805285 113433809.19127107 0 0 0 0 -33761409.257286072 64896853.040132582 0 64896853.040132582 100669922.51407003 0 0 0 0 -79246788.040066719 69039926.996034235 0 69039926.996034235 -51345448.27329886 0 0 0 0 -44510960.493711472 23483165.115025833 0 23483165.115025833 -24208066.709867567 0 0 0 0 -57519420.462352753 -41007447.925983727 0 -41007447.925983727 -9232795.5954881907 0 0 0 0 -42067.61708404962 -358620.47742833197 0 -358620.47742833197 78953.482443261222 0 0 0 0 -66767668.14954567 -91338512.399708509 0 -91338512.399708509 -20324344.618993282 0 0 0 0 94797293.406356812 136729305.10490596 0 136729305.10490596 96480667.710094512 0 0 0 0 185398142.77954865 43480049.112189263 0 43480049.112189263 -56269409.02438724 0 0 0 0 56624123.611591339 95121742.182621717 0 95121742.182621717 68814559.651114166 0 0 0 0 57862014.686426163 8783575.689933598 0 8783575.689933598 29605601.156820536 0 0 0 0 21686342.743286133 -64346532.985791057 0 -64346532.985791057 -64158538.917278692 0 0 0 0 88983971.053640366 -19210539.862226486 0 -19210539.862226486 -67331133.795854092 0 0 0 0 -1542921.7498474121 -25664562.986384571 0 -25664562.986384571 53301841.995544672 0 0 0 0 -113956.98918122612 446693.99057282269 0 446693.99057282269 5890.2528590838774 0 0 0 0 12751354.365406036 -4699459.9588457346 0 -4699459.9588457346 -56659865.608475447 0 0 0 0 56538668.990776062 -17632691.490424275 0 -17632691.490424275 -23202058.536458492 0 0 0 0 -14425049.475103378 -10036760.936301231 0 -10036760.936301231 -22899638.355811119 0 0 0 0 -1284572.3250579834 -21363291.780603111 0 -21363291.780603111 -296910.34326958656 0 0 0 0 10967323.138431549 1951826.8125075102 0 1951826.8125075102 -29384952.590234518 0 0 0 0 4653380.3757324219 -20700087.029820204 0 -20700087.029820204 -23405085.060622692 0 0 0 0 17758150.199605331 3090724.1401446583 0 3090724.1401446583 -2749095.4921973697 0 0 0 0 7272139.3312416077 3959242.3344109058 0 3959242.3344109058 -10048355.225634813 0 0 0 0 784498.43282967899 -845939.93357406417 0 -845939.93357406417 -546197.17840543098 0 0 0 0 213546.450829532 -395925.81144304259 0 -395925.81144304259 -598487.35937717801 0 0 0 0 -8240721.1411552429 -18659122.366347313 0 -18659122.366347313 7265402.8132278919 0 0 0 0 2933718.893032074 -7433196.2514144182 0 -7433196.2514144182 -13015086.794655561 0 0 0 0 -38267682.241420746 77153219.261602342 0 77153219.261602342 -49342471.947328761 0 0 0 0 -5678738.8245849609 -10778330.510277748 0 -10778330.510277748 -1733915.3545410037 0 0 0 0 
</DataArray>
<DataArray type="Float64" Name="cross_section_updated" format="ascii">
1 1 1 1 1 1 1 1 1 1 1 1 1 1 0.04999942702537969 1 1 0.053508141980932261 1 1 1 1 1 0.053073073299393037 1 1 1 1 1 1 1 0.052317284724473348 1 1 1 1 0.050395989452762309 1 1 1 1 1 1 0.050788991625786872 1 1 1 1 0.050511739719748039 1 1 1 1 1 1 1 0.051686520231187069 1 1 0.051353664240686187 1 0.050360100551824549 1 0.051228612337511643 1 1 1 1 1 1 1 1 1 1 1 1 1 1 0.053360732490834659 1 0.052232263942444457 1 1 1 1 1 1 0.051679205391069377 1 1 0.050794513157176931 1 1 1 0.050534711932236437 1 1 1 0.054029916968081126 1 0.049486558162652391 1 1 1 1 1 0.050316868266558082 1 0.050003426356361735 1 1 1 0.050911680573301851 1 1 1 1 1 1 0.050844595710248915 1 1 1 1 1 1 1 1 0.051984589365886028 1 1 1 1 1 1 1 1 1 0.05028252203536572 1 1 1 1 1 1 1 1 1 1 1 1 1 1 1 1 0.052904059487703721 1 1 0.050008761613850705 1 0.053560835652288849 1 1 1 0.049792714370173907 1 1 0.050004539062317999 1 1 1 1 1 1 1 1 1 1 1 1 1 1 0.050008941056896322 0.050563474930869011 1 1 1 1 0.050109096156154956 1 0.050733475287034674 1 1 0.050021723452549668 0.051108005651948368 1 1 1 1 1 1 0.050393002173024559 1 1 1 1 1 1 1 1 1 1 1 1 1 1 1 1 1 1 1 1 1 1 1 1 0.050023161140620158 1 1 0.050068998003294271 1 1 1 1 0.050095445078935194 1 1 1 1 0.050185582060862308 1 1 1 0.050156581854207009 1 1 1 1 1 1 1 1 1 1 0.050118650709407048 1 1 0.050214095788342239 1 1 1 1 1 1 0.054285320296811726 1 1 1 1 0.049316035949600823 1 0.051782736180545616 1 1 1 1 0.05045627053626979 1 1 1 1 1 1 1 1 1 1 1 1 1 1 1 1 0.050301983554880247 1 1 0.050505419958041101 1 1 1 1 0.050387665836435905 1 1 1 1 1 1 1 1 1 0.052846807668203807 1 1 1 1 1 1 1 0.054626559129937753 1 0.057315295215276986 1 1 1 1 1 1 1 1 1 1 1 1 1 1 1 0.047516462310566318 1 1 1 0.049348078406405586 1 1 1 1 0.045016354700333168 0.055997595070720219 1 0.056640746279038437 1 1 1 1 0.056179609265655912 1 1 0.046462430152782341 0.055678251283132488 1 0.050140146966915947 1 1 1 1 1 1 1 1 1 1 0.05199109602760546 1 0.06288557373624 1 1 1 0.058026395201091013 1 1 1 1 1 1 1 1 1 1 1 1 1 1 0.051634287759461037 1 1 1 1 1 1 1 1 1 1 1 0.050546903606531052 1 1 1 1 1 1 1 1 1 1 1 1 1 1 1 1 0.053049223794462134 1 1 1 1 1 1 1 1 1 1 1 1 1 1 1 1 1 1 0.052456185492095075 1 1 0.051593561716592476 1 1 1 1 1 1 0.050338912213040168 1 1 0.05009119069065375 1 1 1 1 0.050538330548078256 1 1 1 0.050247721522386421 1 0.050195307956692428 1 0.051051321754901319 1 1 1 0.05035956542813716 1 1 1 1 1 1 1 1 0.050793484552144004 1 1 1 1 1 1 1 1 1 1 0.050896726017531077 1 1 1 1 1 1 1 1 1 1 1 1 1 0.050920780262580075 0.058742813233487144 1 1 1 1 1 1 1 1 1 1 0.050103474853022127 0.051263703543622571 1 0.054421042617245612 0.056446481089388538 1 1 1 1 0.060455729528239743 1 1 1 0.050005395081686804 1 1 1 1 1 1 1 1 1 1 1 1 1 1 1 1 1 1 1 1 1 1 1 1 1 1 1 0.052818986565030437 1 1 1 0.06002031480133789 1 1 1 1 1 1 1 1 1 1 1 1 1 1 1 1 1 1 1 1 1 1 1 1 0.049763882452464867 1 1 1 1 1 1 1 1 1 1 1 1 1 1 1 1 0.051065378380696504 1 1 1 1 1 0.049308282226440139 1 0.049719273719408527 1 1 1 1 1 1 1 1 0.052764110992879677 1 1 1 1 1 1 1 1 1 0.050921620335687867 1 1 1 0.050925450372148746 1 1 1 0.051326118260916521 1 1 1 1 1 1 1 1 1 1 1 1 0.051333170242218458 1 1 1 0.049986820968315027 0.052897531490886447 1 1 1 1 0.050845617604051971 1 1 1 1 1 1 1 0.050384013259293162 1 1 0.050672341534432286 1 1 1 1 1 1 1 1 1 1 1 1 0.049928033442008281 1 0.051430518669397067 1 0.054380332412380689 1 1 1 0.050168807858368934 1 1 0.053946287073021286 1 1 0.049949933529269325 1 1 1 1 1 1 1 1 1 1 0.049991808749812169 0.051314288508909428 1 1 1 1 1 1 1 1 1 1 1 1 1 1 1 0.050925520882658358 1 1 1 1 1 0.050037046872972363 1 1 1 0.050325771520426985 1 1 0.050006562133484728 1 1 1 1 1 1 1 1 1 1 1 1 1 0.049554902768688965 1 1 1 1 1 1 1 1 1 1 0.049831294563359281 1 1 1 1 0.053743362454074392 1 1 0.050658786966195399 1 1 1 1 1 1 1 1 1 1 1 1 0.05008218692422492 1 0.053036767192667561 1 1 0.053523145703976933 1 0.049904744364372498 1 1 1 1 0.060027233222532533 1 1 1 1 1 1 1 1 1 1 1 0.060382587237409246 0.04997891389871692 1 1 1 0.049978429865482142 1 1 1 1 1 0.052341201841538433 1 1 1 1 1 1 1 1 1 1 1 1 1 1 0.049763315779509244 1 1 0.058118367471180599 1 1 1 1 1 1 1 0.050422583794027656 1 1 0.049876267707947536 1 1 1 1 1 1 1 1 1 1 1 1 1 1 1 1 1 1 1 1 1 1 1 1 1 0.050003195632722042 1 1 0.050022388783723934 1 1 1 1 1 1 1 0.05131032698837764 1 1 1 0.050257934977045789 1 1 1 0.050061940927144902 1 1 1 1 1 0.04910915787317819 0.048484932620418759 1 1 1 1 1 1 1 1 1 1 1 1 1 1 1 0.050263802088125829 0.049360552243520095 0.047088931323119324 1 0.0517600926334972 1 1 1 1 1 1 0.049320453582200149 1 0.050530593330022855 1 0.04976430241079062 1 1 1 1 0.05044374655959448 1 1 0.050532092059449148 1 1 1 1 0.051229976212586438 0.049584504194167642 1 1 1 1 1 1 1 0.050093701468592267 1 1 1 1 1 1 1 1 1 1 0.050489723592490938 1 1 1 1 1 1 1 1 1 1 1 0.053433731268822907 1 1 1 1 0.050061555536147009 1 1 1 1 0.057299304798335837 1 1 1 1 1 0.053484382266649325 1 1 1 0.052540391663213684 1 1 1 1 1 1 1 1 1 1 1 1 1 1 1 0.049490721603048002 1 1 1 1 1 1 1 1 0.047467171991542212 1 1 1 1 1 0.050001571878663671 0.049552816418910739 1 1 0.057870352393793928 1 1 1 0.049264993120287329 1 1 1 1 1 0.053409551100529216 0.053669306614683443 1 1 1 0.049969515260512368 0.052495559006820076 0.053891882282035244 1 1 1 1 1 0.05004404509334999 1 0.050031710071078588 1 1 1 1 1 1 1 1 1 1 0.050341936596549404 1 1 1 1 0.057137841196857317 1 0.049071188861740729 1 1 1 1 1 1 0.050044150553277406 1 1 1 1 1 0.056047821614517108 1 1 1 1 1 0.056679269481638622 1 1 0.050111296542003088 1 1 1 0.053833798090343207 1 1 0.055084421225659159 1 1 1 1 1 1 0.049981980893402556 1 0.050450620335452528 1 1 1 1 1 0.056297366600536539 1 1 1 1 1 1 1 1 1 0.049124449580323637 1 1 1 1 1 1 0.049325550882002099 1 1 0.049558623049697 1 1 1 1 1 1 1 0.049852540181390244 1 1 1 1 1 1 1 1 1 0.050087890791610752 1 0.054826983837393359 1 0.047347723127467607 1 1 1 1 1 1 1 1 1 1 1 0.05008604088104103 1 1 1 1 0.050986203675185721 1 1 1 1 0.051869279699546113 1 1 1 1 1 1 1 1 1 1 0.050192076270957134 1 0.050572991399339656 1 1 1 1 1 0.050027576533864478 1 1 1 1 1 1 1 1 0.049900866057828439 1 1 1 1 1 1 1 0.050017317534492185 1 0.052489787868775568 1 1 1 1 1 1 1 1 1 0.049998701540231998 1 1 0.049727449040472493 1 1 0.048929682742258868 1 0.050252394651430901 1 1 1 1 1 1 1 0.050195407323406133 1 0.052654982554326879 1 1 1 1 1 1 1 1 1 1 1 1 1 1 1 1 1 1 1 0.050027374198553451 1 1 1 0.051919122421752603 0.049993229434271653 0.051638961177062771 1 1 1 1 1 0.050776589913937339 1 1 1 1 1 1 1 1 1 1 1 1 1 0.050002428113946069 1 0.05041699758159196 0.050372263980116447 1 1 1 1 1 1 0.050673317788583 1 0.049993294412117258 1 1 1 1 0.050958914446011014 1 1 1 1 1 1 1 1 1 1 1 0.051429664788528465 1 1 1 0.052129403824578611 0.050134824858349483 1 1 0.049726906605773981 0.049893740860178823 0.05219608450318048 1 0.049992532313305041 1 1 1 1 0.052189262410427553 1 1 1 0.049999919705664704 1 0.049695458510374803 1 0.050136498913929343 1 0.050872957584905204 0.05089200568872549 1 1 0.050739452310833641 1 0.050077134103835207 1 1 1 0.049983793600369329 1 0.050669888084200781 0.050770355966214792 1 1 0.050068265824018167 1 1 0.050900679438496382 0.050225112057703081 0.050662834048745144 1 1 0.050770934092262729 1 1 0.04930673689718397 1 1 0.049980126490088893 0.05312974152950848 1 0.049133977513599832 1 1 0.051321413550339333 0.052110063636759442 1 1 1 1 1 1 0.050331125535050564 1 0.049986068804127232 1 0.051188672295259086 1 1 1 1 1 0.050380278377579246 1 1 1 1 1 0.051771007014915375 1 1 0.049827979847938429 0.051191709677535072 1 0.050817334461059002 1 1 1 0.052173437553135173 1 1 1 1 1 0.050930165595816312 1 1 0.052233080984389134 0.051120698424129217 1 0.049943748641225236 1 1 1 0.049883329990275151 1 1 0.051873451617161885 1 1 1 0.050100563440630803 1 0.05363126351905171 0.049756145455458325 0.050136130935636992 1 1 1 0.051033280706855075 1 1 0.050115631763285706 1 1 1 0.050294133727868402 0.050013916923996718 1 1 1 0.055343148330135664 1 1 1 0.050358807289486475 0.048014738825242334 1 0.051084423558366669 1 0.050754901832016433 0.051826298053112299 1 0.049555804151680066 1 1 0.051095791404267295 0.050767417318495212 0.050000779374253089 1 1 1 0.052050842156291896 1 1 1 1 1 1 1 1 0.051738933491074238 1 1 0.052178742147119303 0.049863683050678648 1 1 1 1 1 1 1 1 1 1 1 1 1 1 0.049997426173652181 0.050249097830524246 1 1 0.05009471859433743 1 1 1 1 1 1 0.050063991887561415 0.050026161663176881 1 1 1 1 1 1 1 1 1 1 1 1 1 1 1 1 1 1 1 1 1 1 1 1 1 1 1 1 1 1 1 1 1 1 1 1 1 1 1 1 1 1 1 1 1 1 1 1 1 1 1 0.050041123610246013 1 1 1 1 1 1 1 1 1 1 1 1 1 1 1 1 1 1 1 1 1 1 1 1 1 1 0.049871660414045116 1 0.049947176449300974 1 1 1 1 1 1 1 1 1 1 1 1 1 1 1 1 1 1 1 1 1 1 1 1 1 1 0.050098806826827047 1 1 1 0.050158855991868923 1 1 1 1 1 1 1 1 1 0.050194560779857539 1 1 1 1 1 1 1 1 1 1 1 1 1 1 1 1 1 1 1 1 1 1 1 1 1 1 1 1 1 1 1 1 0.048155749052109766 1 1 1 1 1 1 1 0.050095753953030495 1 1 1 1 0.049675847642932869 1 1 1 1 0.048941156965855749 1 1 1 1 1 1 1 1 1 1 1 1 1 1 1 1 1 1 1 1 1 1 1 0.050138333651460837 1 1 1 1 0.050371619289944582 1 1 0.050303131795026018 1 1 1 0.050263937695639214 0.049941737217045416 1 1 0.050386678850285208 1 1 0.05001238255110374 1 1 1 1 1 1 1 1 1 1 1 1 1 1 1 1 1 0.050410456049131767 1 1 0.050280706573044169 1 1 0.050152033298549024 1 1 1 1 1 1 1 1 1 1 1 1 1 1 1 1 1 1 1 1 1 1 1 0.050895944864477558 0.057604886962580239 1 1 0.050735381239228453 1 1 1 0.050275848105858313 1 1 1 1 1 1 0.052897250804758128 1 1 1 0.051371205812366177 1 1 1 1 1 1 1 1 1 0.050431244248309068 0.052654102921703812 1 1 1 1 1 1 0.051024841937456739 1 1 1 1 1 1 1 1 0.056048647738044854 0.049799115244797861 0.051479304553837736 1 1 1 1 1 0.05203574142640064 1 1 1 0.049184189836877251 1 1 0.049646525184237775 1 1 0.054556163711530825 1 1 1 1 1 1 1 1 1 1 0.050139989698569067 0.053920117857764641 1 0.050731711576726943 1 0.049324097659456251 1 1 1 0.048976168991134578 1 1 0.050200774388996748 1 1 1 1 1 1 1 1 1 1 1 1 0.050234096328203554 1 1 1 1 1 1 0.050478909637253599 1 1 1 1 1 0.050340518385938546 1 1 1 1 0.050043280224047491 1 1 1 0.059709860921150937 1 1 1 0.058892697144263581 1 1 1 1 1 1 1 1 0.066829396820544965 1 1 1 1 1 1 1 0.06715846547947199 1 1 0.065945731078009051 1 1 1 1 1 1 0.050398872429271407 1 0.049321292825550242 1 1 0.060356588249266617 0.059836905522845693 1 1 1 1 1 0.058228840794619555 1 0.053297562975211245 0.05765792493653521 0.059306979893969942 1 1 0.059345647464567594 0.061221833035518293 1 1 1 1 0.059868571598935251 1 1 1 1 1 1 1 1 1 1 1 0.049915195513566657 1 1 0.044727960349884154 1 1 1 1 1 1 1 1 1 1 1 1 1 1 1 1 1 0.04961109214767126 1 1 1 1 1 1 1 1 1 1 1 1 0.047717073128517959 1 1 1 1 1 1 1 0.052890633759367089 1 1 0.057074048551075375 1 1 1 1 0.059460448277328777 1 0.056947111452331244 1 1 0.053169415810592355 1 1 1 0.057036646585806122 1 1 1 1 1 1 1 0.050024314538222106 1 1 1 1 0.054883135007271086 0.060408027235896028 1 1 1 1 1 0.058668717171391091 1 1 1 1 1 0.050196417698732822 1 1 1 1 1 0.050960860024194213 1 1 1 1 1 1 1 1 1 1 1 1 1 1 1 1 1 1 1 1 1 1 1 1 0.052513420888805208 1 1 0.050038485118058335 0.044638432880627389 1 1 1 1 1 0.050901531747989358 1 1 1 1 1 1 1 1 1 1 1 1 1 1 1 1 1 1 0.049810475166733675 1 1 1 1 1 1 1 1 1 1 1 1 1 1 1 1 1 1 1 1 1 1 1 1 1 1 1 1 1 1 0.049958409700426504 1 1 1 0.053394530548950915 1 1 1 1 1 1 0.053629573591161106 1 1 1 1 1 0.050416708065116486 1 1 1 1 1 1 1 1 0.052931234439314384 1 1 1 1 1 1 1 1 1 1 1 1 0.0511221281102823 1 1 1 1 1 1 0.047769604056428723 1 0.047670716917154271 1 1 1 0.050406653621227163 1 1 1 1 1 1 1 0.047961986369529461 1 1 1 1 1 1 0.05002263015598496 1 1 1 1 1 1 1 1 1 1 1 1 1 1 0.050278968099877017 1 0.049918740689749663 1 1 1 1 1 1 1 1 1 1 1 1 1 1 1 1 1 1 1 1 0.066053217209170303 1 1 1 1 1 1 1 1 1 0.066780378658689785 1 0.050678980253057393 1 1 1 1 1 1 0.04984512220249436 1 0.05100076569386322 1 1 1 1 1 0.049417387497863403 1 1 1 1 1 1 1 1 1 1 1 1 1 1 1 1 1 1 1 0.050246837254634649 1 1 1 1 1 1 1 1 1 1 1 1 1 1 1 1 1 1 1 1 1 1 1 0.050707462041189325 0.050907595090846372 1 1 1 0.050874706023110658 1 1 1 1 1 1 1 1 1 1 1 1 1 1 1 1 1 1 1 1 1 1 1 1 1 1 1 1 1 1 1 1 1 1 1 1 1 1 1 1 1 0.050706901571757612 1 1 0.051358489244826278 1 1 1 1 0.049949486927572902 1 0.050369791136248392 1 0.050488513071565155 1 1 1 1 1 1 1 1 1 1 1 1 1 1 1 1 1 1 1 1 1 1 1 0.050547692957835053 1 1 0.050346471247624633 1 1 0.05099273592780168 1 1 1 1 0.050445042969966644 1 1 0.05050105934778959 1 1 1 1 1 1 0.050460901443897137 1 1 1 1 1 1 1 1 1 0.049624079678302908 1 1 1 1 1 1 1 1 1 1 1 1 1 1 1 1 1 1 1 1 0.050776871142162942 1 1 1 1 1 1 0.050548250042950112 1 1 1 1 1 0.051032708324928233 1 1 1 1 1 0.050766980317343863 1 1 1 1 1 1 1 1 1 1 1 1 1 1 1 0.053091425849527113 1 1 0.049656236179149417 1 0.052272303894092688 1 1 1 1 0.050149233875388222 0.049802613906072407 1 0.050178334711411192 0.050885510089796304 1 1 1 1 1 1 0.049997627695170785 1 1 1 1 1 1 1 1 0.051540214095092601 0.05000033043114701 1 1 0.050253785621497647 0.050959486701551496 1 1 1 1 1 0.049999803726168288 1 0.049837979883306065 0.053631962152629151 1 1 1 1 1 1 1 1 1 1 0.050506560176056932 0.045365922292981184 1 1 1 1 0.050171290156556934 0.046934774639193703 1 1 1 1 1 1 1 1 0.050175718120267193 1 1 1 1 1 1 1 1 1 1 1 1 1 0.051354298051130787 1 0.052363874736971211 1 1 1 1 1 1 1 1 1 1 0.051359053223303745 1 1 0.049986270194229958 1 1 1 1 1 1 1 1 1 1 0.049992009922385186 0.052472722259838581 1 0.051375201445046405 1 1 1 1 1 1 0.049662260455219452 1 1 1 1 1 0.049558321438783123 1 0.049397645122947698 1 1 0.05000099646335314 1 1 1 1 1 1 1 1 0.049411458426067478 0.048978443888259268 1 1 1 0.051187588461285578 1 1 1 1 1 1 0.0517128555763402 1 1 1 1 1 0.048888366442572335 1 1 0.049941893630191636 1 1 1 1 0.049977259572525461 1 1 0.049995994238364573 0.049974581428991319 1 1 1 0.050141381326352465 1 0.049152584021228213 0.050016934485042512 1 1 1 1 0.050004891874571938 1 1 1 1 1 0.049995967651807922 1 1 0.04982105052385271 1 1 1 1 0.050085260919165472 1 1 0.049995875948240051 1 1 0.049999968970591148 1 0.050148974854056484 1 1 1 1 1 1 0.04999556944038834 1 1 1 1 1 1 1 1 1 1 0.05008335370131866 1 1 0.049866207927758095 1 1 1 1 1 1 1 0.049918882402982458 1 1 1 1 1 1 1 0.049973964583715204 1 1 1 1 1 1 1 1 1 0.050024040830665188 1 1 1 1 1 1 1 1 1 1 1 1 1 0.051419398336942798 0.049974539455705957 1 1 1 1 1 1 0.050774532022337962 1 0.050558792528282451 1 1 0.050837174174904694 1 1 1 1 0.0503619612816582 1 1 1 1 1 1 1 1 1 1 1 1 1 1 1 1 1 1 1 1 1 1 1 1 1 1 1 1 1 1 1 0.050131052395916129 1 1 1 1 1 1 1 1 1 1 1 1 0.050364169170563147 1 1 1 1 1 1 1 1 1 1 0.050256488952787198 1 1 1 1 0.050194840751105529 1 0.050335676788805205 1 1 1 1 0.050440598573220391 1 1 1 1 1 1 1 1 1 1 1 1 1 1 1 1 1 1 1 1 1 1 1 1 1 1 1 0.050154389806413992 1 1 1 1 1 1 1 1 1 1 1 1 1 0.050487539912773369 1 1 0.050411183369370768 1 1 1 1 1 1 0.050184109620433195 1 1 1 1 1 1 1 1 1 1 1 1 1 1 0.05020179214686226 1 1 0.050230746349816585 1 1 1 1 1 0.050518444638295745 1 1 1 1 1 1 1 1 1 1 1 1 1 1 1 1 1 1 1 1 1 1 1 1 0.050766505314153873 1 1 1 1 1 0.051857987147974238 1 1 1 0.050140836037699685 1 1 1 1 1 1 1 1 1 1 1 1 1 1 1 1 1 1 1 1 0.050584925199176838 1 1 1 1 0.051796010947794 1 1 1 1 1 1 1 1 1 1 1 1 1 1 0.061479950671561576 1 0.063629450867695031 1 1 1 0.049403795570156742 1 1 1 0.049801869124983869 1 1 1 1 1 0.052976469070857783 1 1 0.051140789879377715 1 1 1 0.051021328058295859 1 0.052232413806913028 1 1 1 1 1 1 1 1 1 1 1 1 1 1 0.050933756767963509 1 1 0.052699111412998809 1 1 1 1 1 1 1 1 0.054434553607092595 1 0.052872983595033084 1 1 0.050146669295599425 1 1 1 1 1 1 1 1 0.052053206744040889 0.050051535805400407 1 1 1 1 1 1 1 1 1 1 1 1 1 1 1 0.050824494232342074 1 1 0.050073652051535945 1 1 1 0.050246496023053804 1 1 1 1 1 1 1 0.059318428541238713 0.049929652685174075 1 1 1 1 1 1 0.050168785541734963 1 1 1 1 1 1 1 1 1 1 1 1 1 1 1 1 1 1 1 0.048151942962622998 1 1 1 0.062028501910478664 1 1 1 0.049987578615936251 1 1 1 1 0.053023231944046373 1 1 0.051642394792218882 1 1 1 1 1 1 1 1 1 1 1 1 1 1 1 1 1 1 1 1 0.060774864804278579 0.051302394363250813 1 1 1 1 0.051347645658742599 1 1 1 1 1 1 1 0.050907626304635682 1 1 1 1 1 1 1 1 1 1 1 1 1 1 1 1 1 1 0.058172828689434387 1 1 1 1 1 1 1 0.050186665994038648 1 0.056820383374283884 1 0.050076894320015782 1 1 1 1 0.059476881701326242 1 1 1 1 0.050654263174049696 1 1 1 1 1 1 1 1 1 1 1 1 1 1 0.050085768569466699 1 1 1 1 1 1 1 1 0.050071344595699216 1 1 1 1 1 0.050052584940626331 0.049535610319512778 1 1 1 1 1 1 0.050157113165165912 1 1 1 0.049720045200188086 1 1 1 0.04990692177357002 1 1 1 1 1 1 1 1 1 1 1 1 1 1 1 0.049699370775450578 1 1 1 1 1 0.049930701583838534 1 1 1 1 1 1 1 1 1 1 1 1 1 1 1 1 1 1 1 1 1 1 1 1 1 0.05170185865708482 1 1 1 1 1 0.050624944374311844 1 1 0.050168904619523787 1 1 1 1 1 1 0.050962357251926577 1 1 1 1 0.054161434894251008 1 0.055005586166390771 1 1 1 1 1 1 1 1 1 0.050330052649865467 1 1 1 1 1 1 0.050169562135562333 1 1 1 1 1 1 0.051371308539168291 1 1 1 0.050533509490069232 1 1 1 1 1 1 1 1 1 0.050479671714840066 1 1 0.051792663284310828 1 1 1 1 1 1 1 0.054336378663255525 1 1 1 1 1 1 0.050301806046919834 1 1 1 1 1 1 0.051165047169165118 1 1 1 1 1 1 1 1 1 1 1 1 1 1 1 1 1 0.050645495813615798 1 1 1 1 1 0.049630966681001955 1 0.046953625405584412 1 1 1 1 1 1 1 1 1 0.047933490945302262 1 1 0.04879440837154321 1 1 1 1 1 1 1 1 1 1 1 1 1 1 1 1 1 1 1 0.054006203684163173 1 1 1 1 1 1 1 1 1 1 1 1 1 1 1 1 1 1 1 1 1 0.050068262021486371 1 1 1 1 0.048916454571942353 0.054050888913614398 1 1 1 0.052745335983835386 1 1 1 0.05083937094203405 1 1 1 0.051808832120185604 1 1 0.04988653029314298 1 1 1 1 1 1 1 1 1 1 1 1 1 1 1 1 1 1 1 1 1 1 1 1 1 1 1 1 1 1 1 1 1 1 1 1 1 1 1 1 1 1 1 1 1 1 1 1 1 1 1 1 1 0.05012109314186123 1 1 1 1 1 1 0.050381616470653111 0.050577266261856171 1 1 1 1 1 1 1 1 1 1 1 1 1 1 1 1 1 1 1 1 1 1 1 1 0.050384503482970605 1 1 1 1 1 1 1 1 1 0.049907948132164794 1 1 1 1 1 1 1 0.051111075549207075 1 1 1 1 1 1 1 1 1 1 1 0.049909374960850246 1 1 1 1 1 1 1 1 1 1 1 1 1 1 0.050656567046455159 1 1 0.051748048880275503 1 1 1 1 1 1 1 0.054086022402532616 1 1 0.054602811163951909 1 1 1 1 1 1 1 1 1 1 1 1 1 1 1 1 1 1 1 1 1 1 1 1 1 1 1 1 1 1 1 1 1 1 1 1 1 1 1 1 1 1 1 1 1 1 1 1 0.049702304160637811 1 1 1 1 1 1 1 1 1 1 1 1 1 1 1 1 1 1 1 1 1 1 0.054587527887905121 1 0.050434468491421663 1 1 1 0.050443304076774886 1 1 1 1 1 1 1 0.050165405711716064 1 1 0.051159388525274713 1 1 1 1 1 0.051456855018024203 1 1 1 1 1 1 1 1 1 1 0.050348029320866294 1 1 1 1 1 1 1 1 1 1 1 1 1 1 1 1 1 1 0.049226919933052171 1 1 1 1 1 1 1 1 1 1 0.048586036675289893 1 1 1 0.048896366916434467 1 1 1 1 1 0.049640826255657466 1 1 1 0.04991908839874272 1 1 1 1 1 1 1 1 1 1 1 1 0.058716675118268329 0.054719108575000133 1 1 1 1 1 1 1 1 1 0.049923515108277541 1 1 1 1 0.049145240033913129 1 1 1 1 1 1 1 1 1 1 1 1 1 0.0551675283066142 1 0.049958441796203346 1 1 1 1 1 1 1 1 1 1 1 1 1 1 0.049959641778237231 1 0.050213758764277666 1 1 1 1 1 1 1 1 1 0.055492287874416672 1 1 1 1 1 1 1 1 1 0.053834383514668294 1 1 1 0.051468250661111117 1 0.050074356687533614 1 1 1 1 1 1 1 0.050494363052821511 1 1 1 0.050721812412207724 1 1 1 1 1 1 1 1 1 1 1 0.051887783934839296 1 1 0.051596319702014476 1 1 1 0.056651629357184215 0.049194521169755263 1 1 1 0.050013784292235026 1 1 1 1 1 0.052225530696625014 1 0.05000476074353425 1 1 1 1 1 1 1 1 0.05224440866883142 1 1 0.051073931317043818 1 1 1 1 0.0535121804273972 1 0.05148127666677739 1 1 1 1 1 1 1 1 1 1 0.054253908363110233 1 1 1 1 1 1 1 1 1 1 1 1 1 1 1 1 1 1 1 0.050704897981584326 1 1 1 1 0.053945029763761365 0.054382900245115072 1 1 1 1 1 1 1 1 0.050819610222297119 1 1 1 1 0.054891364611901625 1 1 0.053471024323799833 1 1 1 0.057998967149277991 1 0.050847571969970029 0.056031199469486835 1 1 1 1 1 1 1 1 1 1 1 1 1 1 1 1 1 1 1 1 1 1 1 1 1 1 1 1 1 1 0.055148134270437049 1 0.05502986416251783 1 1 0.049958660874430516 1 1 0.049997994617087177 1 1 1 0.053761000954033737 1 1 1 1 0.051531791320013287 1 0.04999961959403762 0.052586411811343242 1 0.052355938332964189 1 1 0.053846635449871241 1 0.052012780905945855 1 1 0.049907935045331059 1 0.05175357346359169 1 1 0.053347491101351098 1 1 0.050623743638544674 1 1 1 0.05693438215190174 1 1 1 1 1 1 0.051690125333755263 1 1 1 1 1 0.052930195374499063 0.051012875210322516 1 1 1 0.051098587225443456 1 1 1 1 1 1 1 1 1 1 1 1 1 1 1 0.050085613024529171 1 1 1 0.050241872680435368 1 1 1 1 1 0.0511895088038005 0.051337859118068284 0.054001147116056886 1 1 0.051590204223886528 0.052030253172900935 1 1 1 1 0.051718973579959554 1 1 0.049999787068984572 0.052322545206722103 1 1 0.052078144952376761 1 0.05357449486689958 1 0.054573494972251613 1 1 0.047724168215881692 1 1 1 1 0.054819508495800057 1 1 1 1 1 1 1 1 1 1 1 1 1 1 1 1 1 1 1 1 1 1 1 1 1 1 0.049705153942594102 1 0.050128477186616519 1 0.056147569294713401 0.060090703535001136 1 0.055719429416620142 1 0.049520108110359909 1 1 0.063473521869665928 1 1 0.049860231996612638 1 1 1 1 1 1 0.049993193247478307 1 1 1 1 1 1 1 1 1 1 1 1 1 1 1 1 1 1 1 1 1 1 1 1 1 1 1 1 1 0.058822689849116691 1 0.061221111182221032 1 1 1 1 1 1 0.061048419944150251 1 1 0.049104047711803635 0.061101915788293798 1 1 1 1 1 1 1 1 1 1 1 1 1 0.049699126195908543 1 1 1 1 1 1 1 1 0.050988617883130576 1 1 1 1 1 1 1 1 1 1 1 1 1 1 1 1 0.051023815086059097 1 1 1 1 1 1 1 1 1 1 1 1 1 1 1 1 1 1 1 1 1 1 1 1 1 1 1 1 1 1 1 1 1 1 1 1 1 1 1 1 1 1 1 1 1 1 1 1 1 1 1 1 1 1 1 1 1 1 1 1 1 1 1 1 1 1 1 1 1 1 1 1 1 1 1 1 1 1 1 1 1 1 0.060779865067421057 1 0.06026347246664069 1 1 0.059540183975210943 1 1 1 1 1 1 1 0.050217499977219492 1 1 1 0.051540639266121638 0.05448495984258156 1 1 0.05497967906895998 1 1 1 1 1 1 0.050037726031347998 1 0.04868850769397258 1 1 1 1 0.058730210899737352 1 1 1 1 1 1 1 1 1 1 1 1 1 1 1 1 1 1 0.050000626263065229 1 1 0.049151976023492187 1 0.050412910119541368 1 1 0.049195113486471813 1 1 1 1 1 1 1 0.049955924613179971 1 1 0.051590686015013966 1 0.051878711036084421 1 0.049615155463461916 1 0.049999356859227635 1 1 1 1 1 1 1 0.051929053414416226 1 1 1 1 1 1 0.05112168084816085 0.050374331636756829 1 1 1 0.050391093987987801 1 1 1 1 1 0.052014358391765561 1 1 1 1 1 1 1 0.050533397853596923 1 1 1 0.050035870120650104 1 0.049030608220370329 1 0.050899764846268437 0.049999469247268877 1 1 0.050011807278303122 1 1 0.05088873675172615 1 1 1 0.050258530251213317 1 1 1 1 1 1 1 0.052001587884917849 1 1 1 1 1 1 1 1 1 1 1 0.050937867804281792 1 0.04919043754522949 1 0.049928805618407464 1 0.049773949625458176 1 1 1 1 1 0.051715122804376949 1 1 0.051032788585198052 1 1 1 0.050651013186499914 1 1 1 1 1 0.051471657322502105 0.051096508708616456 1 1 1 1 0.050929643044423073 1 0.05071073408111975 0.050980387107239983 1 1 1 1 1 0.061126057243254997 1 1 1 1 1 0.046819762883559914 1 1 1 1 1 1 0.049134693506629155 1 0.049873397373224868 1 0.051749267402975335 1 1 1 1 1 1 1 1 1 1 1 1 1 1 1 1 1 1 1 1 1 0.0523963037616735 1 0.059560079042564308 1 1 1 1 1 0.051308684724627865 1 1 0.060521456438011392 1 1 1 1 1 1 1 1 1 1 1 1 1 1 1 0.050400405366023915 1 1 1 1 1 1 1 1 1 1 1 1 1 1 1 1 0.059352455088040948 1 1 1 1 1 1 1 1 0.066570744761250147 1 1 0.061344663265324652 1 1 1 0.057484272557062122 1 1 1 0.048943642213451495 1 1 1 1 1 1 1 1 1 1 1 1 1 1 1 1 0.058659846330752052 1 1 1 0.050016701181598865 1 1 1 0.052905717276562583 1 1 1 1 1 1 1 1 1 1 1 1 1 1 0.052129677393467043 1 1 1 1 1 0.052076443673908526 1 1 1 1 1 1 1 1 1 1 1 1 1 1 0.050743822291606996 1 1 1 1 0.058601096761008664 1 1 1 1 1 0.056647523462976572 0.052121905247326121 0.055303800910812564 1 1 1 1 1 1 1 1 1 1 1 1 1 1 1 1 1 1 1 1 1 1 1 1 1 0.050512848475502824 1 1 1 1 1 0.049451362505349539 1 1 1 1 1 1 1 1 1 1 1 1 1 1 1 1 1 1 1 1 1 1 1 1 1 1 1 1 1 1 1 1 1 1 1 1 1 1 1 1 1 1 1 1 1 0.051731975545476497 1 1 1 1 1 1 1 1 1 1 1 1 1 1 1 1 1 1 1 1 1 1 1 1 1 1 1 1 1 1 1 1 1 1 1 1 1 1 1 1 1 1 1 1 1 0.050112022396863097 1 0.059978750917509524 1 1 1 1 1 1 1 1 0.051171988354940565 0.055365644947474792 0.054479372664110112 1 1 0.050328115051136331 1 0.050079913989315841 0.049510422393036192 1 1 1 1 1 0.049961787322148954 0.05059603722391532 1 1 1 0.049958193844422058 1 1 1 1 0.057095287163318485 1 1 1 1 0.045124927777618895 0.061124770242571291 1 1 1 1 1 1 1 1 0.050016012926571859 0.048387295401190432 1 1 0.047967964373991083 1 1 1 0.057849230856382002 1 0.051667658789759915 1 0.055934455658585444 1 1 0.048907596968295511 0.050624732125106188 0.059531976375688446 1 1 1 1 1 1 1 1 0.048546679955383323 1 1 1 1 0.060627162266530872 0.055259703396700811 1 1 1 1 1 1 1 1 0.051366651001578466 1 1 1 1 0.051487262727634042 1 1 1 1 1 1 1 1 1 1 1 1 1 0.058606650600473841 1 1 1 0.050335426505129517 1 1 0.055011728355838327 1 0.046245782247060968 1 1 1 1 1 1 1 1 1 1 1 1 1 1 1 1 1 1 1 1 1 1 1 1 1 1 1 1 1 1 1 1 1 1 1 1 1 1 1 1 1 1 0.049883862773998658 1 1 1 1 1 1 1 1 1 1 1 1 1 0.0504494872455628 1 1 1 1 1 1 1 1 1 1 1 1 1 1 1 1 1 1 1 1 1 1 1 1 1 1 1 1 1 1 1 1 1 1 1 1 1 1 1 1 1 1 1 1 1 0.058546993066028855 1 1 1 1 0.053024554300398027 0.060066547863674151 1 1 1 0.050054898945447464 1 1 0.06127263523971966 1 1 1 1 1 1 1 1 1 1 1 1 1 1 1 1 1 1 1 1 1 1 1 1 1 1 1 1 1 0.049327262317408929 1 1 1 1 0.050156908920440571 1 1 1 0.049658299115532517 1 1 1 1 1 1 1 1 1 0.051878133117199833 1 0.0499911793320666 1 1 1 0.055966294739563563 1 1 1 1 1 1 1 1 1 1 1 0.049089116737696059 1 1 1 0.050682764920664466 1 1 0.055144612996822398 1 1 0.051982222417931719 1 1 1 1 1 0.051644232899446189 1 0.052288075380397835 0.049752576141152589 1 1 1 1 1 1 1 1 1 1 1 1 1 1 1 1 1 1 1 1 1 1 1 1 0.049995049268967764 0.050380740214570043 1 1 0.050114901715932879 1 1 1 1 1 0.049560542561290041 1 1 1 1 0.050523436473282383 1 1 0.051904064720972296 1 1 1 1 1 1 0.04871164018018774 0.048202850353888251 1 1 0.052730976748574389 0.049802519454021282 1 0.050642715986780426 1 1 1 0.050051547029561147 0.050223021284137817 0.050689935221223663 1 1 1 1 1 0.050185101287428674 1 0.052375350381258831 1 1 1 0.051245406700677877 1 1 1 1 1 1 1 0.049696920445327183 0.052452646162469758 1 0.048804288055160877 1 1 1 1 0.050076459324366059 1 1 1 0.049755811602214074 0.049601901038439138 1 1 1 1 1 1 1 1 1 1 1 1 0.049844071529859105 1 1 1 1 1 1 1 1 1 1 1 1 1 1 1 1 1 1 0.052213957124591731 1 1 1 1 1 1 0.050962316675025106 1 1 1 1 1 1 1 1 1 1 1 1 1 0.055541662404432035 1 1 1 1 0.050008513163836782 1 1 1 0.050015182130145108 1 1 1 1 1 1 1 0.050061000812322273 1 1 1 1 1 1 1 1 1 1 1 1 1 1 1 1 1 1 1 1 1 1 1 1 1 1 1 1 1 1 1 1 1 1 0.04963506828241894 0.061930086826446303 1 1 1 1 1 1 1 1 1 1 1 1 1 1 1 1 1 1 1 1 1 0.050006668966308329 1 1 1 1 1 1 1 0.049632116471331873 1 0.048942714061079987 1 1 1 0.058647454915227368 1 1 0.048297363956993612 1 1 1 1 1 1 1 1 1 1 1 1 1 0.057353835977131347 1 1 1 0.053106193550832188 1 0.046607808268062517 1 1 1 1 1 1 1 1 1 0.055514165713984001 1 0.048348470869018452 1 0.05000437066465406 1 1 1 0.047633001529219274 1 1 1 1 0.050684705277984902 1 1 0.049229498618819298 1 1 1 1 1 1 1 1 1 1 1 1 1 1 1 0.051131051153460408 1 1 1 1 1 1 0.050959646141692003 1 1 1 0.05289970141911339 1 1 1 0.050764968784395986 1 1 0.05195771286965517 0.049416331392108215 1 1 0.049967374643436847 1 0.054174977438177077 1 1 1 1 1 1 0.049898531301964984 1 0.049701087083842362 1 1 1 1 1 1 0.051370878140755347 1 1 1 1 1 1 1 1 1 1 1 1 1 1 0.052227807970720776 1 1 1 1 0.049975518323080448 1 1 1 0.049999804628664157 1 1 1 1 1 1 1 1 1 1 1 1 0.049986605696156698 1 0.049979468461922819 1 1 1 1 1 1 1 1 1 1 1 1 0.050228333527721658 1 1 1 1 0.050747908062138039 1 1 1 1 0.051305752452590767 0.0487767283852404 1 1 0.050000343533057615 1 0.051046887591026088 0.050212820714043468 1 0.050051881813178364 1 0.051165102898774337 1 1 1 1 1 1 1 1 1 1 1 1 0.049755643515049339 1 1 1 1 0.052780032131026819 0.050004290371037506 1 1 1 1 1 1 1 1 1 0.049583528877282568 1 1 0.05115287443400475 1 1 1 0.050028901372413719 1 1 1 1 1 1 1 1 1 1 1 1 1 1 1 1 1 1 1 1 1 1 1 0.049857682463071956 1 1 1 1 1 1 1 1 1 1 1 1 1 1 1 1 1 1 1 1 1 0.052148062768248404 1 1 1 1 1 1 1 1 1 1 0.056596333767896384 1 1 0.053394162828483825 1 1 1 1 0.054401669618223056 1 1 1 1 1 0.050391668755659973 1 1 1 1 1 1 1 1 1 1 1 1 1 1 1 1 1 1 1 1 0.05447539310194701 1 0.050527861143877084 1 1 0.049951378524988009 1 1 1 1 1 1 1 1 1 1 1 1 1 1 1 1 1 1 1 1 1 1 1 1 1 1 1 1 1 1 1 1 1 1 1 1 0.051968553975532773 1 0.052201921864552331 1 1 1 1 1 1 1 1 0.054264017376942093 1 0.051440552421172021 1 1 1 1 1 1 1 1 1 1 1 1 1 1 1 1 1 1 1 1 0.050528972766955275 0.049990950670553459 1 1 0.047890509935820065 0.04999265595197222 1 1 1 1 0.054029943009846856 1 1 1 1 1 1 1 1 1 1 1 1 1 1 1 1 1 1 1 1 1 1 1 1 1 1 1 1 1 1 0.050028860154731611 1 0.049144002660926521 1 1 1 0.054722230042529081 1 1 1 1 1 1 1 1 1 1 1 1 1 1 1 1 1 1 1 1 0.050317504819678789 1 1 1 1 0.0505695580802158 1 1 0.050243460150117616 1 1 1 1 1 0.051035172190602683 0.049795224205403381 1 1 1 0.049990721674337414 1 1 1 1 1 1 1 1 0.049725998801219078 1 1 1 1 1 1 1 1 1 1 1 1 1 1 1 1 1 0.05047989780965189 1 1 1 1 1 1 1 1 1 1 1 1 1 0.068301060382624054 1 1 1 1 1 1 1 1 1 1 1 0.069391925166138305 1 1 1 1 1 1 1 1 1 1 1 1 0.047598175657549646 1 1 1 1 1 1 1 1 1 1 0.049893343763063286 1 1 1 0.070477272357288678 1 0.051054412947122582 1 1 1 1 1 0.049976716765446544 1 1 1 1 1 1 1 0.050100514936934605 1 0.06082920377563452 1 1 0.059204003697296059 1 1 1 1 0.053260816719964771 1 0.050332700120700014 1 1 1 1 1 0.053063425665836425 0.053045123344138377 1 1 1 1 1 1 1 1 1 1 1 0.049650629545885519 1 0.046391576486099678 1 1 1 1 0.051688866499089478 1 1 1 1 1 1 1 0.049829658605951149 0.051674107905033385 1 0.045599842065006321 1 1 0.050377613337654129 1 1 1 1 1 0.050136394946238311 1 1 1 1 1 1 1 1 1 0.050020404225834827 1 0.05064296572585214 1 1 0.050064272063914075 1 1 1 1 1 1 0.050194909130542656 1 1 1 1 0.050630036235779483 1 1 1 0.04989525656489241 0.0492481356994703 1 1 1 1 0.047832305868919039 1 1 1 0.049946259548478963 1 1 1 1 1 1 1 1 1 1 0.051340209872383552 1 1 1 1 1 0.050782614935795209 1 1 1 1 1 1 1 1 0.050420648414029316 1 1 1 1 1 1 1 1 1 1 1 1 0.052147950071994659 1 0.050004081679613455 0.04653301488358956 1 1 0.049886989339005441 0.053006794143961741 1 1 1 1 1 0.050031376081990847 1 0.05021800243118657 1 1 1 0.050009627490462366 0.054089546125978147 1 1 1 1 1 1 1 1 1 1 1 1 1 1 1 1 1 1 1 1 1 1 1 1 1 1 1 1 1 1 1 1 1 1 1 1 1 1 1 1 1 1 1 0.050505479735190303 1 1 1 1 0.050022096378957659 1 1 1 1 1 1 1 1 0.050510105118530858 1 1 1 0.049052902294328536 1 1 0.050199531624961186 1 1 1 1 1 1 1 1 0.057217229256323575 1 1 0.053654899687359668 1 1 1 1 1 1 0.051271594249114927 1 1 0.0620291720207507 1 1 1 1 0.065129941417528855 1 1 1 1 1 1 1 1 1 1 0.066954003702401843 1 1 1 1 1 1 1 1 1 1 0.050194906241620638 1 1 1 1 1 1 1 1 1 1 1 1 1 1 1 1 1 1 1 1 1 1 1 1 1 1 1 1 1 1 1 0.051786989707236795 0.051179435801816303 1 1 0.053761769494747799 1 1 1 1 0.052430394850745167 1 1 1 1 0.052266084790016182 0.05393547243260427 1 1 1 1 0.050193351209238929 1 1 1 1 1 1 1 1 1 1 1 0.050422132994686571 1 1 1 0.054521584263726025 1 1 1 1 1 1 0.050003773693785537 1 1 1 0.049922277066311867 0.054718480842756996 1 1 1 1 1 1 1 0.049818701542211012 1 1 1 0.05046909956845011 1 0.04995529719415287 1 1 1 1 1 1 1 1 1 1 1 1 1 1 1 1 1 1 1 1 1 1 1 1 1 1 1 1 0.051474825998755032 1 1 1 1 1 1 1 1 1 0.050262336770388091 1 1 1 1 1 1 1 1 1 1 1 1 0.051255471138751139 1 1 1 1 1 1 1 1 1 0.051623625806075858 0.05138074645623774 1 1 1 1 1 0.048201618048484544 1 1 1 0.048584885061142245 1 0.058372586837849724 1 1 1 1 1 1 1 1 1 1 1 1 1 1 1 1 1 1 1 1 1 1 1 1 1 0.057243465733327059 1 1 0.055848906842744538 1 1 1 1 1 1 0.049394314986655752 1 1 1 1 1 1 1 1 1 1 1 1 1 1 1 1 1 1 1 1 1 1 1 1 0.05372919416962714 1 1 0.050500378612776724 1 1 1 1 1 1 1 1 0.051215310289883492 1 1 1 1 1 1 1 1 1 1 1 1 1 1 1 1 1 1 1 1 1 1 1 1 1 1 1 0.053603143275619755 1 1 1 1 0.055529469541204135 0.053263416208740047 1 1 0.054021884363648846 1 1 1 1 1 1 1 1 0.050936354094539366 0.050535556613167748 1 1 1 0.04997331114449375 1 1 1 1 1 1 1 0.050168134652304942 1 1 0.060586766798502355 1 1 1 1 1 1 1 1 0.041751583413866533 1 1 1 1 1 0.061713304890610818 1 1 0.047195558842619889 1 1 0.050136208399043723 1 1 1 1 0.044738865431560151 0.063804058760077248 0.042645691482315368 1 1 1 1 1 0.050071007028633874 1 1 0.062956881259681255 1 1 1 1 1 1 1 1 1 1 1 1 1 1 0.05013032337204322 1 0.050107775442166227 1 1 1 1 1 0.050112520196439199 1 1 1 1 1 1 1 0.050127370663349713 0.050232968375800345 1 1 1 1 1 1 1 1 1 1 1 1 1 1 1 1 1 1 0.050660193616656253 1 1 1 0.050105597712450642 1 1 1 1 1 1 1 1 0.05008224418999925 1 0.050143587751232857 1 1 1 1 1 1 1 1 1 1 0.050210438910617425 1 1 1 1 1 1 1 1 1 1 1 1 1 1 1 1 0.05434146473645201 0.059302318905597624 1 1 1 0.053742369157810853 1 1 1 1 0.050701839687191962 1 1 1 1 0.050627081218497683 1 1 1 1 1 1 1 1 0.063760029455148429 1 1 1 0.049980713096038749 1 1 1 1 1 1 1 1 1 1 1 1 1 1 1 1 1 1 0.061636998095510966 1 1 1 1 0.062798431517485459 1 1 1 1 1 1 1 1 1 1 1 1 1 1 1 1 1 0.051073475329852042 1 0.050558590044355707 1 1 1 1 0.050704370227991992 1 1 0.050364940362803416 1 0.049896500838863975 0.05129340007749001 1 1 1 1 1 1 0.051580971763048614 1 0.050188042508420579 1 1 1 1 1 1 1 0.059852490444952638 1 1 1 1 1 0.057003922115282976 1 1 1 0.049318176625856289 1 1 0.049951458158603385 1 1 1 1 1 1 1 1 0.050108799276998794 1 1 0.052635266265561975 1 1 1 1 1 1 1 1 1 1 1 1 1 1 1 1 1 1 1 1 1 1 1 1 1 1 1 1 1 1 1 0.050994677580860855 1 1 1 1 1 1 1 0.049399687510637294 1 0.051620406825705525 1 1 1 1 0.049783109983021406 1 1 1 1 0.051876869405735021 1 1 1 1 1 0.050977419225697276 1 1 1 1 1 1 1 1 1 1 0.051098043676316159 0.050388462538332603 1 1 1 0.050617569169645465 1 1 1 1 0.050229753979784346 1 1 1 1 1 1 1 0.052544527914223899 0.051586723884579341 0.050118938337594968 1 1 1 1 1 1 1 1 1 1 1 1 0.049569348470589344 1 0.049889114218309147 1 1 1 1 1 1 1 1 1 1 1 1 1 1 1 0.050208901174309949 1 1 1 1 1 1 0.050220897257830355 1 1 1 1 1 1 1 1 1 1 1 1 1 1 1 1 1 1 1 1 1 1 1 1 1 0.052674949780595018 1 1 0.048316403268019503 1 1 1 0.052318521191907857 1 0.049683744298099436 0.049775356035314459 1 1 1 0.05155475970246802 1 1 1 1 1 1 0.049908759666699873 1 1 1 0.050067068361860437 0.050134881406296267 1 0.049998700489266454 1 1 1 1 1 1 1 0.049667051824632859 1 1 1 1 1 1 0.05066379456323418 1 1 1 1 1 0.049936370491380146 1 1 1 1 1 1 1 1 1 1 1 1 1 1 1 1 1 1 1 1 1 1 1 1 1 1 1 1 0.050597817600800496 1 1 1 0.050299562342353304 1 1 1 1 1 0.050200246753358387 1 1 0.050070505823880132 1 0.050851645864459546 1 1 1 1 1 1 1 1 1 1 1 1 1 1 0.050717711359132368 1 1 0.050930862580438052 1 1 1 1 1 1 1 1 1 1 1 1 1 1 0.050268084254286527 1 1 1 1 1 0.050261574300183728 1 1 1 1 1 1 1 1 1 1 1 1 1 1 1 1 1 1 1 1 1 1 1 1 1 1 1 1 1 1 1 1 1 1 1 1 1 1 1 1 1 1 1 1 1 1 1 1 1 1 1 1 1 1 1 1 1 1 1 1 1 1 1 1 1 1 1 0.057122986683416255 1 0.052915080783195671 1 1 1 1 1 1 1 0.052013312886324714 1 1 1 0.054910012077133211 1 0.051477393863967068 1 1 1 0.050509883453852156 1 1 0.049934949389560529 1 1 1 1 1 1 0.049993216693538817 1 1 1 1 1 1 1 1 1 1 1 1 1 1 1 1 1 0.052330018560906889 1 1 1 1 1 0.05010646025724938 1 1 0.050146730932340365 1 1 0.049942218883699263 0.050046526551752568 1 1 1 1 1 1 1 1 0.056540113893657984 1 1 1 1 1 1 1 1 1 1 1 1 1 1 1 1 1 1 1 1 1 1 1 1 1 1 1 1 1 1 1 1 1 1 1 1 1 1 1 1 1 1 1 1 1 1 1 1 1 1 1 1 1 1 1 1 0.049944652907970261 1 1 1 1 1 1 0.04982787076364073 1 1 1 0.052757646754551517 0.05192659164577592 1 1 1 1 1 1 1 1 1 1 1 1 1 1 1 1 0.049916418342216176 1 1 1 1 1 1 1 0.050007362461275032 1 1 1 1 0.05073758737657498 1 1 1 1 1 1 0.061185394208966355 1 1 1 1 1 1 0.050776445154400704 1 1 1 1 1 1 0.0585208834887447 1 1 1 1 1 1 1 1 1 1 1 1 1 1 1 1 1 1 1 0.051347498909375351 1 1 1 0.048313676174890317 1 1 0.049999752667597278 1 1 0.050011038544686574 1 1 1 1 1 1 1 1 1 1 1 1 1 1 1 1 1 1 1 0.049294982930001507 1 0.050002837464154549 1 0.052151838163532124 1 1 0.047078496063231216 1 0.049431178484324718 1 1 1 0.050576410370346284 1 1 0.04927515102415897 1 1 0.050000257118747143 0.050819198556782616 0.049755546383695712 0.050554681624937786 1 1 0.052325724847228645 0.051180133371713399 1 1 1 1 0.048146382493550369 0.056434044459230122 1 1 0.051156641935383218 0.049399766430894547 1 1 0.056209306909195594 0.056188050225820206 1 1 1 1 1 1 1 1 1 1 1 1 1 1 1 1 1 1 1 1 1 1 1 1 1 1 1 1 0.050001859461477435 1 0.043593087309726719 1 1 0.046994712482431401 1 1 1 0.050025915250814415 1 1 1 1 1 1 1 1 1 1 0.062890669739173871 1 1 1 1 1 1 1 1 1 1 1 0.049208077881780603 1 1 1 1 1 1 1 1 1 1 1 0.050187856958068752 1 1 1 1 1 1 1 1 1 0.050463076771763843 1 1 0.050000590846681875 1 0.049998196759034878 1 1 1 0.049895793124746173 1 1 1 1 0.04965901169544084 1 1 1 1 1 1 1 1 1 1 1 1 1 1 1 1 1 1 1 1 1 1 1 1 1 1 1 1 1 0.051440813055668874 1 1 1 0.053536556197990359 1 1 1 1 1 0.054334903683553426 1 1 1 1 0.054539597918266208 1 1 1 0.050087980920625275 1 1 1 1 0.04993359452385808 1 1 0.05584244890595591 1 1 1 0.049996554854138606 1 1 1 1 0.051942369171413497 0.053173093160709298 0.050074875805180261 1 1 1 1 1 0.05133204862031434 1 1 1 1 1 1 1 1 0.050608053885263786 1 1 1 1 1 1 1 0.050666498399151633 1 1 1 1 1 1 0.051781373706525038 1 1 0.049964772609025626 0.050471529303936086 1 1 1 1 1 1 1 1 1 0.051114305972211629 1 1 1 1 1 1 0.050506252086947839 1 1 1 1 1 1 1 1 1 1 1 1 1 1 1 1 1 1 1 1 1 1 1 1 1 1 1 1 1 1 1 1 0.050097268326914017 1 1 1 1 1 1 1 1 1 1 0.050116045247087966 1 1 1 1 1 1 1 1 1 0.050190941988582261 0.056545076979390888 1 0.050278010419082468 1 1 1 1 0.055819015778981226 1 1 1 1 1 1 0.050107614654419173 1 1 1 1 1 1 1 0.055112290946227577 1 1 1 1 0.05549724298651959 1 1 1 0.054653797502050863 1 1 1 1 1 1 0.048453953279950016 1 1 1 1 1 1 1 1 1 1 1 0.049627971234158456 1 1 1 1 1 1 1 1 1 1 1 1 1 1 1 1 1 1 1 1 1 1 1 1 1 1 1 1 1 1 1 1 1 1 1 1 1 1 1 1 1 1 1 1 1 0.053687416601602186 1 1 1 1 1 1 1 1 1 1 1 1 1 1 1 1 1 1 1 1 1 1 1 0.050054616885788578 1 1 1 1 1 1 1 1 1 1 0.049988078302663733 1 1 1 1 1 0.049895544693704191 1 0.051458299124877885 1 1 1 1 1 1 1 1 1 1 1 1 1 1 1 1 0.050137760882243303 1 1 1 1 1 1 1 0.051191992206345162 1 1 1 1 1 1 1 1 1 1 1 1 1 1 1 0.050433527102673723 1 1 1 1 1 1 1 1 1 1 1 1 1 1 1 1 1 0.047812723460767204 1 0.049984266270589356 1 1 0.050035005557556467 1 1 0.052781196386731691 1 1 1 0.049922712138147099 1 0.05278070390325959 1 0.047638708183464898 1 1 1 0.058003013227630337 1 1 1 1 1 1 1 0.058407290602220781 1 1 1 1 1 1 1 1 1 1 1 1 0.050012506026151371 0.049450013572155296 1 1 1 1 0.051318345319647796 1 1 1 0.050586874154349717 1 0.051576530959437566 1 1 1 1 0.05134263053173628 1 1 1 1 1 0.050281361047880106 1 0.052396760626297598 0.049784572025582438 1 1 1 1 1 1 0.052697332547996412 1 1 0.052139924570566404 0.049452656187200988 1 1 1 0.050112370860825803 1 1 0.051580729971771461 0.052129448543273359 1 0.052767657534475779 1 1 1 1 0.050208544132916491 1 1 1 1 1 1 1 1 1 1 1 1 1 1 1 1 1 1 1 1 1 1 1 1 1 1 1 0.051659821769455973 1 1 0.050112963436995693 1 0.051690721038556743 1 1 0.050031052667771407 1 1 1 0.049242417266476622 1 0.049897722591322212 1 1 1 1 1 1 1 1 1 1 1 1 1 1 1 1 1 1 1 1 0.050001931823682719 1 0.058762257035247241 1 1 1 1 1 1 1 1 1 1 1 1 1 1 1 1 1 1 1 1 1 1 1 1 1 1 1 1 1 1 1 1 1 1 1 1 1 1 1 1 1 1 1 1 1 1 1 1 1 1 1 1 1 1 1 1 1 1 1 1 1 1 1 1 1 1 1 1 1 1 0.050001467841696998 1 1 1 1 1 1 1 1 1 0.049931394672690296 1 1 1 0.049590088853527989 1 0.051215582575396053 0.050783596201624301 1 1 1 1 0.050299874894824494 1 1 1 1 1 1 1 1 1 1 1 1 1 1 1 1 1 1 1 1 1 1 1 1 1 1 1 1 1 1 1 0.051233436378126093 1 1 0.050442607591046733 1 1 1 0.050290654474994603 1 1 1 1 1 1 0.050119624944321997 1 0.049985900021411879 1 1 1 1 1 0.050297362042025839 1 1 0.050719770019650522 1 1 1 1 1 1 1 1 1 1 1 0.050434748572555595 1 1 1 0.050417067960775164 1 1 0.05027359907600501 1 1 0.050406572090803993 1 1 1 1 1 1 1 0.050606970509854035 0.049898557530596355 1 1 1 1 1 1 0.050957883206011828 1 1 1 1 1 1 1 1 1 1 1 1 1 1 1 1 1 1 1 1 0.050012895709589791 1 0.050011486248584938 1 1 1 1 0.050017583156790356 1 1 1 1 1 1 1 0.05089136622905481 1 1 1 1 1 1 1 1 1 1 1 1 0.051237249060257381 0.05002009344885449 1 1 1 1 1 1 1 1 1 1 0.05002546041866298 1 1 1 1 1 1 1 1 1 1 1 1 1 0.051511987144021915 1 1 1 1 1 1 1 1 1 0.054078090746188204 1 1 1 0.049641970623061374 0.050282428808986403 1 1 1 1 1 0.053741630982647268 1 1 1 1 0.050199514865465637 1 1 1 0.049995844615938569 1 1 0.050104545445910323 1 1 1 1 0.054659726549898702 1 1 0.049415368624879115 1 0.054308339791404495 1 1 1 1 0.049327864489571008 1 1 1 1 1 0.050012677229904615 1 0.054224251345298645 0.049787859076099561 0.055861831490468611 1 1 1 1 1 1 0.049881807046274651 1 1 1 1 0.050193628498683841 1 0.049152186708168746 1 1 1 1 1 1 1 1 0.049133502852612601 1 0.050369413368735204 1 1 0.04905333818669614 1 0.053757233366761366 1 1 1 0.050813296129703887 0.050400839332390597 1 0.049729886555512907 1 1 1 0.050013956217876618 0.050016068599327689 1 1 1 1 1 1 1 1 1 1 0.049269335183535962 0.049991120495895894 1 0.048125017891705958 1 1 1 0.049885005145477293 1 0.049598415448533495 0.052909015524434694 1 1 1 0.050115987954021196 1 1 1 1 1 0.050970802197265595 1 1 0.051328075367279624 1 1 1 0.051197970799888991 1 1 1 0.049219114153546822 1 1 1 1 1 1 1 1 1 0.050178847728438072 1 1 1 0.050529565740330185 0.052654986272514553 1 1 1 1 1 1 1 0.05216116765214604 1 1 1 1 1 1 1 1 1 1 1 1 1 1 1 1 1 1 1 1 0.051514528264519757 1 0.049994760153323291 1 0.048043366089467902 1 1 0.050014385350301782 1 1 0.050094238639833331 1 1 1 1 1 1 1 1 1 1 1 1 1 1 1 1 1 1 1 1 1 1 1 1 1 1 1 1 1 1 1 1 1 1 1 1 1 1 1 1 1 0.050043760488780023 1 1 1 0.049992812060928031 1 1 1 1 1 1 1 1 1 1 1 1 1 1 1 1 1 1 1 1 1 1 1 1 1 1 1 0.049943508639124216 1 1 1 1 1 1 1 1 1 0.049968888211584392 1 1 1 1 1 0.049740332391624689 0.049999492254667127 1 1 1 1 1 1 1 1 1 1 1 1 1 1 1 1 1 0.048718885789955153 1 1 1 1 1 1 1 0.049126986164259867 1 1 0.050967946403759769 1 0.049893479593785636 1 1 0.048468902009288911 1 1 1 0.04968967797181631 1 1 1 0.048212436602509713 1 0.047205924150059642 0.048432894431957668 1 1 0.055200856792593622 1 1 1 0.05109040352846235 1 0.048836820280655655 1 1 1 1 1 1 0.049967432488467849 1 1 1 0.05410638074601698 1 1 1 0.05431442368039998 1 1 1 1 1 1 0.053095465718688117 1 1 0.053695985777351712 1 1 1 1 1 1 1 1 1 1 1 1 1 1 1 1 0.050125708245046349 1 1 1 1 1 1 1 0.050171304512799636 1 1 1 1 1 1 1 1 1 1 1 1 0.050050371232549788 1 1 1 1 1 1 1 1 1 1 1 1 0.057108563328580796 1 1 1 1 1 1 1 1 0.050135091688101575 1 1 1 0.050450353046711693 1 1 1 0.057439426415064526 1 1 1 1 1 0.057389204397079854 1 1 0.049974248198046932 1 1 1 1 1 1 1 1 1 1 1 1 1 0.050085803531778314 0.0566196846969809 1 0.050031703188154683 1 1 1 1 1 1 1 1 0.050112747070122671 1 0.050266153848905225 1 1 1 1 0.050043221528766571 1 1 1 1 1 1 1 1 1 1 1 1 1 1 1 1 1 1 1 1 1 1 1 1 1 1 1 1 1 1 1 1 1 1 1 1 1 1 1 1 1 1 1 1 1 1 1 1 1 0.049918947528955156 1 1 0.049737110530602827 1 1 1 1 1 1 1 1 0.052935515178497691 0.04865961387335728 1 1 1 0.049999972627217837 0.050017005449285654 1 1 1 1 1 0.049994366436993579 1 1 1 1 1 1 1 1 1 1 1 0.050234589050902043 1 1 1 1 1 1 1 0.04810041912751184 1 1 1 1 1 1 0.05094261583592144 1 1 0.050810094019148065 0.049720271413725495 1 1 1 1 0.050487637127074034 1 1 1 1 1 1 1 1 0.050107957241650181 1 1 1 1 1 1 1 1 1 1 1 1 0.052571786885132879 1 1 0.04999633018219124 1 1 1 1 1 0.049921398256107655 0.053907296939968596 1 1 1 1 1 1 1 1 1 1 1 1 1 1 1 1 1 1 0.050167097785090431 1 1 1 1 1 1 1 1 1 1 1 1 1 1 1 1 0.049982301011816166 1 1 1 1 0.054027421591281821 1 1 0.050213470395157472 1 1 1 0.050667286043397541 1 1 1 1 1 1 1 1 1 1 1 1 1 1 1 1 1 1 1 1 1 1 1 1 0.052661285900834034 1 1 1 1 1 1 0.053022517851827836 1 0.050132903975412438 0.050001614576302714 1 0.051141477587667829 1 1 1 0.050100460962155174 1 1 1 0.053254032247347677 1 0.050116589764337083 1 1 0.050041769868088476 0.050063107181704633 1 1 1 1 1 1 1 0.050477422675172856 0.0500008581440093 0.050377630324694701 1 0.050000985110703153 1 1 1 1 1 1 1 1 1 0.050023982161770106 1 0.051017555180071138 1 1 1 1 1 1 1 0.051809541461835196 1 1 0.049984972324693275 1 1 0.051793522921203858 1 1 0.050818794105231907 0.048862481802629316 1 1 1 0.049459445808982538 1 0.049016637550640625 0.050868950239350064 1 1 0.048457682992794862 0.048673157492438716 1 0.050545566897293073 1 1 1 1 1 1 1 0.050389356382320415 0.049983631678948287 1 1 1 1 1 1 0.055091823289297293 1 0.04999290014366483 1 1 0.05005787189276744 1 1 1 0.050190849025862447 1 0.050286761991954615 1 1 1 1 1 0.050001308181401902 1 1 1 1 1 1 1 0.051909418958775488 0.051009700749583019 1 1 1 1 0.049997761859868567 1 0.052305514645932097 0.051202993194579771 1 1 1 1 1 1 1 0.052256612582959605 1 1 1 1 0.050972457424413455 1 1 1 1 1 1 1 1 0.052101949429436537 1 1 1 1 1 1 0.050029457933374009 0.052313317145717644 1 1 1 1 1 1 1 1 1 1 0.049082794140120338 0.052668494569604027 1 0.050011883461344497 1 0.053664709703001467 1 1 1 1 1 1 0.051924052623505856 1 1 1 1 1 1 1 1 1 1 0.050169998398884127 1 1 0.052167011205857483 1 1 1 1 1 1 1 1 1 0.050111455813100496 1 1 1 0.050457998779397155 1 1 1 1 0.05028800038051303 1 1 1 0.050253762625166697 1 1 1 0.050319160732290709 1 0.05077776029688931 1 0.052303789059251468 1 1 1 0.049358038972577942 1 0.050212780917899519 1 1 1 1 1 1 1 1 1 0.05045637816857175 1 0.051573888638271892 1 0.05119336401014956 1 1 1 1 1 1 1 1 1 1 1 1 1 1 0.05046323672990434 1 1 1 1 1 0.050477597462258807 1 1 1 1 1 1 1 1 1 1 1 1 1 1 0.049838634078685239 1 1 0.050958807353389583 1 1 1 1 0.051467328275491817 1 1 1 1 1 1 0.0503744764664412 0.052611548761728792 1 1 1 1 1 0.053783959331991718 1 1 1 1 1 0.049364335699208048 1 1 1 0.05132159624277445 0.050804994200483802 1 0.049486963803457101 1 1 1 1 1 1 0.04979464160967309 0.050066606929705715 1 1 1 0.051081542873469638 1 1 1 1 1 1 1 1 1 1 0.049761196408931632 1 1 1 0.050215114744306108 1 1 0.04921869898648569 1 1 1 1 0.050202082669085005 1 0.051628793248910961 1 0.052636408324480619 1 1 1 1 1 1 1 1 0.053178175386725063 1 1 0.053684825676908646 1 1 1 1 0.052851441600636123 0.049758327051041787 1 1 1 1 1 1 1 1 0.052842795175490717 1 0.050003213285882829 1 1 1 1 1 1 1 1 0.052762032965534979 1 1 1 1 1 0.050041824348988725 0.050652568296701936 1 1 1 1 1 1 1 1 1 1 1 1 1 1 1 1 1 1 1 1 1 1 0.050198084579133911 1 1 1 1 1 1 0.050491569384615936 1 1 1 1 0.052172414204730157 1 1 1 1 1 0.054916911318098706 1 1 1 1 1 1 1 1 1 1 0.055348300530711492 1 0.055527340537507699 1 1 1 1 1 1 1 1 1 1 0.054701939477674801 1 1 0.050258680349551957 1 1 1 1 1 1 1 1 1 1 1 1 1 1 1 1 1 1 1 0.049803515436428594 0.050210634238631979 1 1 1 1 1 1 1 0.050003469536828007 1 1 1 1 1 1 1 1 1 1 1 1 1 1 1 1 1 1 1 0.050908876479494054 1 1 1 1 0.050269162909407424 1 1 1 1 1 0.054767761394051248 1 1 1 1 1 1 1 0.050033167312450222 1 1 1 0.050073289906202377 1 1 1 1 1 1 1 1 1 1 1 1 1 1 1 1 1 1 1 1 1 1 0.053487929932026501 1 1 1 1 1 1 1 1 1 0.051247484002741636 1 1 1 1 1 1 1 1 1 1 1 1 0.051456601695260243 1 0.05145295990471585 1 1 1 1 1 1 1 1 1 1 1 1 1 1 1 1 0.049751573070346257 1 1 1 1 1 0.049961132341271523 1 1 1 1 1 1 1 1 1 1 0.054797270257371626 1 1 1 1 1 0.054095425708530709 1 1 1 1 1 1 1 1 1 1 0.053927415536919196 1 0.050118164683554886 1 1 1 1 0.056795660007203985 1 1 0.049220031115415806 0.049127196477880698 1 1 1 1 1 1 0.049328583257106956 1 1 0.049891566924971292 1 1 0.049882532358676498 1 0.053677923876328575 1 1 1 1 1 1 1 1 1 0.053055759379438211 1 0.051828645181952238 1 1 1 1 1 1 0.050367678048057848 1 1 0.05391160525386135 1 1 1 1 0.048478219875256398 1 1 0.052772085934421661 0.05002971342695766 1 1 1 1 1 1 1 1 1 1 1 1 1 1 0.050210927873854588 1 1 1 1 0.051370892807116285 1 1 1 1 0.051374304238443899 1 1 1 1 1 0.053155505220669863 1 1 1 1 1 0.049810503735733605 1 0.054956616183886572 1 1 0.057729251265809869 0.049974204542553927 0.04912395183133933 1 1 1 1 0.050294058122920385 1 1 0.050000777663283168 1 0.053606147854206143 1 1 1 0.051561225041936963 1 1 0.051986791159378945 1 1 1 1 0.052301820047655295 1 1 1 1 1 0.051154034471725923 1 0.050598746108420259 1 1 0.052739990477338544 1 1 1 1 0.050007517420995198 1 0.052518742291133055 1 1 1 0.050735091448555716 0.05029544656841356 1 1 0.050246064405462663 1 1 1 1 0.051808131934788018 0.052761466941043604 1 1 1 0.050000358561008373 1 0.050026145404419513 1 1 0.051264114751863141 1 0.051633172807586954 0.048894534147327084 1 0.053163108391137776 1 1 1 1 1 1 0.054343341348314832 0.050464324356186821 1 0.050157682080179858 0.053903284394910725 1 1 0.051461965636912604 1 0.058013531032134663 1 1 0.050410019696246477 1 1 0.057455322347425959 1 1 1 1 1 0.050033153929465779 0.05318504457503008 0.055264546400725312 1 1 1 0.048043072787344279 1 1 1 1 1 1 0.049634406920526453 1 0.050020608902717902 1 1 1 1 0.050037786110983036 1 1 1 1 1 1 1 1 1 1 1 1 1 1 1 1 1 1 1 1 1 1 0.050510080920677471 1 1 1 1 1 0.050947357441741302 1 1 1 1 1 0.050337238167240582 1 1 1 1 0.049923911670767609 1 1 0.053232147407316882 1 1 1 1 0.057446898613450759 1 1 1 0.053734809211849324 1 1 1 1 0.051452640779077727 1 0.054195493251001724 1 1 1 1 1 1 1 1 1 1 1 1 1 1 1 1 1 1 1 1 1 1 1 1 1 1 1 1 1 1 1 1 1 1 1 0.051402208045962294 1 1 1 1 1 1 1 1 1 1 1 1 1 1 1 1 1 1 1 1 1 1 1 1 1 1 1 1 1 1 1 1 1 1 1 1 1 1 1 0.050002525725420015 1 1 1 0.050327935052943681 1 1 1 0.049979076295323742 1 1 1 1 0.05001551744922781 1 1 1 1 1 1 0.049801713081736788 1 0.058231560211175114 1 1 1 0.04704593070086615 0.05055068107682769 1 1 1 1 1 0.057327304992999331 1 1 0.05640921786598363 1 1 1 0.049581942943597995 1 0.054792499941446041 1 1 1 1 1 1 1 1 1 0.050600415774675223 1 1 1 1 1 1 1 1 1 1 1 1 1 1 1 1 1 1 1 1 1 1 0.051284175607538125 1 1 1 1 1 1 1 1 0.052491938390793969 1 1 1 1 1 1 1 1 1 1 0.055642372249470939 1 1 1 0.051874604981385089 1 1 1 1 1 1 1 0.051104813844939548 1 1 1 1 1 1 0.049590154296375248 1 1 1 0.050803605861080979 1 1 1 0.050648319058895677 1 1 1 1 0.050871164604353897 1 1 1 1 1 1 1 1 1 0.05472788978433675 1 1 0.050993184705973013 1 1 0.051574668072907108 1 1 1 1 1 1 1 1 0.05188531183125783 1 1 1 1 0.050370485958719943 1 1 1 0.050252544061187149 1 1 1 1 1 1 1 1 1 1 1 1 1 1 1 0.050188123370465638 1 1 1 1 1 1 1 1 1 1 0.048894397209595618 1 1 1 1 0.049690220571739024 1 1 1 1 1 1 1 1 1 1 1 1 1 1 1 1 1 1 1 1 1 1 1 1 1 1 1 1 1 0.05129543627074503 1 1 1 1 1 1 0.052017716976085544 1 1 1 1 0.05453744940184288 1 1 1 1 1 1 1 0.050523640427855357 0.057642154159446214 0.052718707789632807 1 1 1 1 1 1 1 1 1 0.054369869246624014 1 1 1 0.047731253457108554 1 1 1 0.053544320427587402 1 0.053183428099435118 1 0.055282607460443653 1 1 1 1 1 1 1 1 1 1 1 1 1 0.050208145061570564 1 1 1 1 1 1 1 1 1 1 1 1 1 1 0.047680635934328842 1 1 1 1 1 0.056030973007623767 1 1 0.053902528005479719 1 1 1 1 1 1 1 1 1 1 1 1 0.050097307456221506 1 1 1 1 1 1 1 1 1 1 1 0.05050671533379536 1 1 1 0.050506801047919998 1 1 1 1 1 0.050300323677295471 1 1 1 1 1 0.053269444063898552 0.048567620232698665 1 1 1 1 1 1 1 1 1 1 1 0.049991080729901355 1 1 0.050183573817753353 1 1 1 0.049968355442729297 1 1 0.049880038745586192 0.049936427479308147 1 1 0.050458300557568531 1 1 1 0.050960989886293634 1 0.050002922545476863 0.050140003619239121 1 1 1 1 1 0.049558413089824366 1 0.051920639272250456 1 1 1 1 1 1 1 1 1 1 1 1 1 1 1 1 1 1 0.050277445054486808 1 1 1 1 0.048376592269370647 1 1 1 0.049485085720957556 1 1 1 0.050877860829162028 1 1 1 1 1 1 1 1 1 1 1 0.051602712904079889 1 1 1 1 1 1 1 0.049720843199346908 1 1 0.059364786774447002 1 1 1 1 0.053792869469031522 0.050010259331066231 1 1 1 1 1 1 0.048966202453857813 1 1 0.056451970343837213 1 1 0.051530122170053448 1 1 1 1 1 1 1 0.050864632492313315 0.049887104164447513 1 1 1 1 1 0.052622487674502734 0.050217244470453219 1 1 1 1 1 1 1 1 1 1 1 1 0.0530913374799434 1 1 1 1 1 0.053164134932649293 1 0.052638567455752509 1 1 1 1 1 1 1 1 1 1 1 1 1 1 1 0.049979015054764139 1 1 1 0.050056191519119012 0.053465827717832037 1 1 1 1 1 1 0.052270404152088952 1 1 1 0.051287194610724167 1 1 1 0.04868145075160394 0.052552314109550996 1 1 1 1 0.053205134423283951 0.04880206106759015 1 1 1 1 1 1 1 1 1 0.049189441046871882 0.04811220034501431 1 1 1 1 0.04689360041001369 1 1 0.056838817230354687 1 1 1 1 0.046167731549831927 1 1 1 1 1 1 1 0.04976935465460694 1 1 0.053943435675876644 0.062101136225031439 1 1 1 1 1 1 1 0.050440811003748268 1 0.061752054377180086 1 1 1 1 0.050111655389499431 1 1 0.060855764921128173 0.052353564184875773 1 1 1 0.051371187854542956 1 1 1 1 1 1 1 1 0.050075646386190269 1 1 1 1 1 1 1 1 1 0.050025995829580866 1 1 1 1 1 1 1 1 1 1 0.050166186177436414 1 1 1 1 1 1 1 1 1 0.050057103346931628 1 1 1 1 1 0.050341371210262463 1 1 1 1 1 1 1 1 1 1 1 1 0.050507400372787239 1 1 1 1 1 1 1 0.050924605638124024 1 0.04911982638455209 1 1 0.050011609063373347 1 1 0.051435874840394413 1 1 0.049716396234476282 1 1 1 1 1 1 0.050859354521415739 1 1 1 0.050254963287171626 1 1 1 1 1 1 1 1 1 1 0.062772705330622194 1 1 0.05056037256759343 1 1 1 1 1 1 1 1 0.063470569735950999 1 1 1 1 1 0.049989213630509288 1 1 1 0.047821003267787487 0.050000399694053045 1 0.04964615267537726 0.049560383944036376 1 1 1 0.064205578415252207 1 1 0.063325492647938755 1 1 1 1 1 1 1 1 1 1 1 1 1 1 1 1 1 1 1 1 1 1 1 0.049819324555852598 1 1 1 1 0.060605494267938723 1 1 1 0.061409615301340002 1 1 1 0.050055622768313171 1 1 1 0.049855467693558884 0.062329505166454045 1 1 1 1 1 1 1 1 1 1 1 1 1 1 1 1 1 1 1 1 1 1 1 1 1 1 0.049990193035371569 1 1 1 1 0.054308347054368329 1 1 1 1 0.051315811542322391 1 0.054326586496790466 0.0500331233744256 1 1 0.05253944847104202 1 0.049996325818262244 1 1 1 0.052393698673137298 1 1 1 1 0.05006270089462822 1 1 0.050480211471854275 1 1 1 1 1 1 0.050196712359405246 1 0.050909484966118197 1 1 1 1 0.054669510509789979 1 1 1 1 1 0.052590678981231334 0.049970618258081509 1 1 1 0.050362833528300059 1 0.049977193360252199 1 1 1 1 1 1 1 1 1 1 1 0.052096387527064109 1 1 0.051153860585583751 1 1 0.051548968481938712 1 0.050218805613129983 1 1 0.050714577393253829 0.050003063765441447 0.050485854847320558 0.050011766382770356 1 1 1 1 1 1 0.051531807468842464 1 1 1 1 1 0.050121358402262381 1 1 1 1 1 1 0.050699231944429782 1 1 1 0.050495542530766532 1 1 1 1 1 1 1 1 1 1 1 0.049356245401252635 1 1 1 1 1 1 1 0.049484734484012242 1 0.051295243617739357 1 0.050030725021530123 1 0.05089757557201513 1 1 0.050111250540210664 1 1 1 1 1 0.050286154684466039 1 1 0.050092131147624626 1 1 1 1 1 1 1 1 0.051682663149851087 1 1 1 1 1 1 1 1 1 1 1 1 1 1 1 1 0.056152789810863468 0.051745384186555166 1 1 1 1 1 1 1 1 0.055764368624633645 1 1 1 1 0.051220535787864716 1 1 1 1 1 1 1 1 1 1 0.050688182723730595 1 1 1 1 1 1 0.055044168475113606 1 1 1 0.060186563349362829 1 1 1 1 1 1 1 0.058540126163634951 0.059259368466408849 1 1 1 1 1 1 1 1 1 1 0.050088817796519858 1 1 0.050074092373121021 1 1 1 1 1 1 0.050202130339446378 1 1 1 1 1 0.050028696349447663 1 1 1 0.050281444745107921 1 1 1 0.050064048784809412 1 0.061104629760132215 1 1 1 1 0.050035352435361766 1 1 1 1 1 1 1 1 1 1 1 1 1 1 1 0.057640043153373677 1 1 1 1 1 1 1 1 1 1 1 1 0.058517170466464381 1 1 1 0.059361735229669463 0.050179989997214257 1 0.048543952212838783 0.048636560968969123 1 1 1 1 1 1 1 1 1 1 1 1 1 0.04950165849144901 1 1 1 1 1 1 1 1 1 1 1 1 1 1 1 1 1 1 1 1 1 1 1 0.049764278363114735 1 1 1 1 1 1 1 1 0.050015280344983037 1 1 1 1 1 1 0.061968054603619677 1 0.049281826531450482 0.050063537953557127 1 1 1 1 
</DataArray>
</CellData>
</Piece>
</UnstructuredGrid>
</VTKFile>
