<?xml version="1.0"?>
<VTKFile type="UnstructuredGrid" version="0.1" byte_order="LittleEndian">
<UnstructuredGrid>
<Piece NumberOfPoints="30618" NumberOfCells="10744">
<Points>
<DataArray type="Float64" NumberOfComponents="3" format="ascii">
-0.49427958746526202 -0.49999999999999512 0 -0.4943900888896422 -0.47349089190363358 0 -0.49427958746526202 -0.49999999999999512 0 -0.5 -0.5 0 -0.4943900888896422 -0.47349089190363358 0 -0.5 -0.5 0 -0.4943900888896422 -0.47349089190363358 0 -0.5 -0.44150235328842258 0 -0.49427958746526202 -0.49999999999999512 0 -0.4943900888896422 -0.47349089190363358 0 -0.48436842240857858 -0.48714093788813112 0 -0.49427958746526202 -0.49999999999999512 0 -0.47650045540741742 -0.5 0 -0.48436842240857858 -0.48714093788813112 0 -0.4943900888896422 -0.47349089190363358 0 -0.47066899942757451 -0.47576530412887819 0 -0.48436842240857858 -0.48714093788813112 0 -0.47066899942757451 -0.47576530412887819 0 -0.47650045540741742 -0.5 0 -0.48436842240857858 -0.48714093788813112 0 -0.47066899942757451 -0.47576530412887819 0 -0.45872132334957288 -0.49999999999999928 0 -0.45242967983978871 -0.4846708604340636 0 -0.47066899942757451 -0.47576530412887819 0 -0.47650045540741742 -0.5 0 -0.45872132334957288 -0.49999999999999928 0 -0.47066899942757451 -0.47576530412887819 0 -0.45872132334957288 -0.49999999999999928 0 -0.47066899942757451 -0.47576530412887819 0 -0.45242967983978871 -0.4846708604340636 0 -0.45249717469141032 -0.46588444847215849 0 -0.43763952177061649 -0.47770500498713542 0 -0.45242967983978871 -0.4846708604340636 0 -0.45249717469141032 -0.46588444847215849 0 -0.43763952177061649 -0.47770500498713542 0 -0.44291044788006362 -0.49999999999999939 0 -0.45242967983978871 -0.4846708604340636 0 -0.43763952177061649 -0.47770500498713542 0 -0.44291044788006362 -0.49999999999999939 0 -0.45872132334957288 -0.49999999999999928 0 -0.44291044788006362 -0.49999999999999939 0 -0.45242967983978871 -0.4846708604340636 0 -0.44838221886832419 -0.4464230337388379 0 -0.4323685956611692 -0.45541000997427139 0 -0.435988539966085 -0.44148905847597392 0 -0.44838221886832419 -0.4464230337388379 0 -0.44213238819953832 -0.43491600865963681 0 -0.435988539966085 -0.44148905847597392 0 -0.44838221886832419 -0.4464230337388379 0 -0.45249717469141032 -0.46588444847215849 0 -0.45755175660874181 -0.45423607616472811 0 -0.44838221886832419 -0.4464230337388379 0 -0.45249717469141032 -0.46588444847215849 0 -0.4323685956611692 -0.45541000997427139 0 -0.43763952177061649 -0.47770500498713542 0 -0.45249717469141032 -0.46588444847215849 0 -0.4323685956611692 -0.45541000997427139 0 -0.47066899942757451 -0.47576530412887819 0 -0.45249717469141032 -0.46588444847215849 0 -0.4675747862741928 -0.45726336772241771 0 -0.45249717469141032 -0.46588444847215849 0 -0.45755175660874181 -0.45423607616472811 0 -0.4675747862741928 -0.45726336772241771 0 -0.44838221886832419 -0.4464230337388379 0 -0.46897642374787268 -0.44262015471777721 0 -0.45660235518767722 -0.42786105997071933 0 -0.44838221886832419 -0.4464230337388379 0 -0.45755175660874181 -0.45423607616472811 0 -0.46897642374787268 -0.44262015471777721 0 -0.45755175660874181 -0.45423607616472811 0 -0.4675747862741928 -0.45726336772241771 0 -0.46897642374787268 -0.44262015471777721 0 -0.4943900888896422 -0.47349089190363358 0 -0.5 -0.44150235328842258 0 -0.49450059031402238 -0.44698178380727199 0 -0.46897642374787268 -0.44262015471777721 0 -0.48473746643246862 -0.43972512984246093 0 -0.48043585850414389 -0.43127077967876992 0 -0.46897642374787268 -0.44262015471777721 0 -0.4826166755055763 -0.45153060825775743 0 -0.48473746643246862 -0.43972512984246093 0 -0.4675747862741928 -0.45726336772241771 0 -0.46897642374787268 -0.44262015471777721 0 -0.4826166755055763 -0.45153060825775743 0 -0.47066899942757451 -0.47576530412887819 0 -0.4826166755055763 -0.45153060825775743 0 -0.4943900888896422 -0.47349089190363358 0 -0.47066899942757451 -0.47576530412887819 0 -0.4826166755055763 -0.45153060825775743 0 -0.47066899942757451 -0.47576530412887819 0 -0.4675747862741928 -0.45726336772241771 0 -0.4826166755055763 -0.45153060825775743 0 -0.4943900888896422 -0.47349089190363358 0 -0.49450059031402238 -0.44698178380727199 0 -0.4943900888896422 -0.47349089190363358 0 -0.4826166755055763 -0.45153060825775743 0 -0.49450059031402238 -0.44698178380727199 0 -0.4826166755055763 -0.45153060825775743 0 -0.48473746643246862 -0.43972512984246093 0 -0.49450059031402238 -0.44698178380727199 0 -0.5 -0.44150235328842258 0 -0.49461109173840262 -0.42047267571091063 0 -0.5 -0.39656953661894012 0 -0.49450059031402238 -0.44698178380727199 0 -0.49461109173840262 -0.42047267571091063 0 -0.48473746643246862 -0.43972512984246093 0 -0.49461109173840262 -0.42047267571091063 0 -0.48043585850414389 -0.43127077967876992 0 -0.5 -0.44150235328842258 0 -0.49450059031402238 -0.44698178380727199 0 -0.49461109173840262 -0.42047267571091063 0 -0.48473746643246862 -0.43972512984246093 0 -0.49450059031402238 -0.44698178380727199 0 -0.49461109173840262 -0.42047267571091063 0 -0.49461109173840262 -0.42047267571091063 0 -0.4947215931627828 -0.39396356761454909 0 -0.49461109173840262 -0.42047267571091063 0 -0.48393842445605872 -0.40713040098299402 0 -0.4947215931627828 -0.39396356761454909 0 -0.49461109173840262 -0.42047267571091063 0 -0.48393842445605872 -0.40713040098299402 0 -0.47214510592166908 -0.41939033492402211 0 -0.48393842445605872 -0.40713040098299402 0 -0.47214510592166908 -0.41939033492402211 0 -0.47427590700138023 -0.39469502568249409 0 -0.46897642374787268 -0.44262015471777721 0 -0.47214510592166908 -0.41939033492402211 0 -0.48043585850414389 -0.43127077967876992 0 -0.49461109173840262 -0.42047267571091063 0 -0.47214510592166908 -0.41939033492402211 0 -0.48043585850414389 -0.43127077967876992 0 -0.5 -0.39656953661894012 0 -0.4947215931627828 -0.39396356761454909 0 -0.48030453056746109 -0.36861144308094029 0 -0.49461109173840262 -0.42047267571091063 0 -0.5 -0.39656953661894012 0 -0.4947215931627828 -0.39396356761454909 0 -0.48393842445605872 -0.40713040098299402 0 -0.4947215931627828 -0.39396356761454909 0 -0.47427590700138023 -0.39469502568249409 0 -0.47427590700138023 -0.39469502568249409 0 -0.48030453056746109 -0.36861144308094029 0 -0.4947215931627828 -0.39396356761454909 0 -0.47427590700138023 -0.39469502568249409 0 -0.48030453056746109 -0.36861144308094029 0 -0.47427590700138023 -0.39469502568249409 0 -0.46334377193483078 -0.37842983215876019 0 -0.48030453056746109 -0.36861144308094029 0 -0.46334377193483078 -0.37842983215876019 0 -0.45726543839001688 -0.40541672899881109 0 -0.44416021803808919 -0.38243724496113263 0 -0.47427590700138023 -0.39469502568249409 0 -0.46334377193483078 -0.37842983215876019 0 -0.45726543839001688 -0.40541672899881109 0 -0.45726543839001688 -0.40541672899881109 0 -0.43814282409564848 -0.40387353522152758 0 -0.44416021803808919 -0.38243724496113263 0 -0.43814282409564848 -0.40387353522152758 0 -0.44416021803808919 -0.38243724496113263 0 -0.4329908326547659 -0.40007252460533121 0 -0.43814282409564848 -0.40387353522152758 0 -0.44416021803808919 -0.38243724496113263 0 -0.46897642374787268 -0.44262015471777721 0 -0.47214510592166908 -0.41939033492402211 0 -0.45660235518767722 -0.42786105997071933 0 -0.47214510592166908 -0.41939033492402211 0 -0.47427590700138023 -0.39469502568249409 0 -0.45726543839001688 -0.40541672899881109 0 -0.47214510592166908 -0.41939033492402211 0 -0.45726543839001688 -0.40541672899881109 0 -0.45660235518767722 -0.42786105997071933 0 -0.45726543839001688 -0.40541672899881109 0 -0.45660235518767722 -0.42786105997071933 0 -0.44309263043645408 -0.41812298423377797 0 -0.45726543839001688 -0.40541672899881109 0 -0.43814282409564848 -0.40387353522152758 0 -0.44309263043645408 -0.41812298423377797 0 -0.43814282409564848 -0.40387353522152758 0 -0.44309263043645408 -0.41812298423377797 0 -0.43209373842114163 -0.42530092927673752 0 -0.44838221886832419 -0.4464230337388379 0 -0.45660235518767722 -0.42786105997071933 0 -0.44213238819953832 -0.43491600865963681 0 -0.45660235518767722 -0.42786105997071933 0 -0.44213238819953832 -0.43491600865963681 0 -0.43132710435572019 -0.42815377149591122 0 -0.45660235518767722 -0.42786105997071933 0 -0.44309263043645408 -0.41812298423377797 0 -0.43132710435572019 -0.42815377149591122 0 -0.45660235518767722 -0.42786105997071933 0 -0.43132710435572019 -0.42815377149591122 0 -0.44213238819953832 -0.43491600865963681 0 -0.42986244815509678 -0.43337144475258638 0 -0.435988539966085 -0.44148905847597392 0 -0.44213238819953832 -0.43491600865963681 0 -0.42986244815509678 -0.43337144475258638 0 -0.43132710435572019 -0.42815377149591122 0 -0.42986244815509678 -0.43337144475258638 0 -0.43132710435572019 -0.42815377149591122 0 -0.42986244815509678 -0.43337144475258638 0 -0.42494843276815808 -0.42822764260015772 0 -0.42026026496879931 -0.43681168621285732 0 -0.42986244815509678 -0.43337144475258638 0 -0.42494843276815808 -0.42822764260015772 0 -0.43132710435572019 -0.42815377149591122 0 -0.42494843276815808 -0.42822764260015772 0 -0.43209373842114163 -0.42530092927673752 0 -0.42214799869492048 -0.41876725226122891 0 -0.42494843276815808 -0.42822764260015772 0 -0.43209373842114163 -0.42530092927673752 0 -0.42494843276815808 -0.42822764260015772 0 -0.43209373842114163 -0.42530092927673752 0 -0.43132710435572019 -0.42815377149591122 0 -0.42494843276815808 -0.42822764260015772 0 -0.43132710435572019 -0.42815377149591122 0 -0.44309263043645408 -0.41812298423377797 0 -0.43209373842114163 -0.42530092927673752 0 -0.43132710435572019 -0.42815377149591122 0 -0.43209373842114163 -0.42530092927673752 0 -0.43132710435572019 -0.42815377149591122 0 -0.43814282409564848 -0.40387353522152758 0 -0.43209373842114163 -0.42530092927673752 0 -0.43814282409564848 -0.40387353522152758 0 -0.43209373842114163 -0.42530092927673752 0 -0.42736227186559528 -0.41250939947999687 0 -0.43814282409564848 -0.40387353522152758 0 -0.42736227186559528 -0.41250939947999687 0 -0.42798743510346321 -0.40461924019690898 0 -0.42736227186559528 -0.41250939947999687 0 -0.42214799869492048 -0.41876725226122891 0 -0.41643936301280282 -0.409986040443582 0 -0.42736227186559528 -0.41250939947999687 0 -0.41643936301280282 -0.409986040443582 0 -0.42798743510346321 -0.40461924019690898 0 -0.43209373842114163 -0.42530092927673752 0 -0.42736227186559528 -0.41250939947999687 0 -0.42214799869492048 -0.41876725226122891 0 -0.41643936301280282 -0.409986040443582 0 -0.41319678457753078 -0.41966526467231158 0 -0.40068754056194861 -0.4128492080837643 0 -0.41643936301280282 -0.409986040443582 0 -0.40443020735863072 -0.40194112054031811 0 -0.40068754056194861 -0.4128492080837643 0 -0.42214799869492048 -0.41876725226122891 0 -0.41643936301280282 -0.409986040443582 0 -0.41319678457753078 -0.41966526467231158 0 -0.42494843276815808 -0.42822764260015772 0 -0.42026026496879931 -0.43681168621285732 0 -0.40375973713816599 -0.43690652084804732 0 -0.42494843276815808 -0.42822764260015772 0 -0.40375973713816599 -0.43690652084804732 0 -0.42494843276815808 -0.42822764260015772 0 -0.40375973713816599 -0.43690652084804732 0 -0.40176058784982421 -0.42849617997282502 0 -0.42494843276815808 -0.42822764260015772 0 -0.40176058784982421 -0.42849617997282502 0 -0.42494843276815808 -0.42822764260015772 0 -0.41319678457753078 -0.41966526467231158 0 -0.40176058784982421 -0.42849617997282502 0 -0.42494843276815808 -0.42822764260015772 0 -0.42214799869492048 -0.41876725226122891 0 -0.41319678457753078 -0.41966526467231158 0 -0.4329908326547659 -0.40007252460533121 0 -0.41903857325144328 -0.37691094697715488 0 -0.4329908326547659 -0.40007252460533121 0 -0.4179168883199279 -0.39116430956604842 0 -0.41903857325144328 -0.37691094697715488 0 -0.4326994291400702 -0.38209416684564063 0 -0.4329908326547659 -0.40007252460533121 0 -0.41903857325144328 -0.37691094697715488 0 -0.44416021803808919 -0.38243724496113263 0 -0.4326994291400702 -0.38209416684564063 0 -0.4329908326547659 -0.40007252460533121 0 -0.4326994291400702 -0.38209416684564063 0 -0.41903857325144328 -0.37691094697715488 0 -0.43460809261598232 -0.36895595083894339 0 -0.44416021803808919 -0.38243724496113263 0 -0.4326994291400702 -0.38209416684564063 0 -0.43460809261598232 -0.36895595083894339 0 -0.4329908326547659 -0.40007252460533121 0 -0.42169055226689678 -0.40123550737599678 0 -0.4179168883199279 -0.39116430956604842 0 -0.43814282409564848 -0.40387353522152758 0 -0.4329908326547659 -0.40007252460533121 0 -0.42798743510346321 -0.40461924019690898 0 -0.4329908326547659 -0.40007252460533121 0 -0.42798743510346321 -0.40461924019690898 0 -0.42169055226689678 -0.40123550737599678 0 -0.41643936301280282 -0.409986040443582 0 -0.42798743510346321 -0.40461924019690898 0 -0.42169055226689678 -0.40123550737599678 0 -0.40637138740796802 -0.39517449182144659 0 -0.4179168883199279 -0.39116430956604842 0 -0.40139199175968793 -0.38592718468705428 0 -0.41643936301280282 -0.409986040443582 0 -0.42169055226689678 -0.40123550737599678 0 -0.41336967967324528 -0.3999002939494784 0 -0.41643936301280282 -0.409986040443582 0 -0.41336967967324528 -0.3999002939494784 0 -0.40443020735863072 -0.40194112054031811 0 -0.41336967967324528 -0.3999002939494784 0 -0.40637138740796802 -0.39517449182144659 0 -0.40443020735863072 -0.40194112054031811 0 -0.41336967967324528 -0.3999002939494784 0 -0.40637138740796802 -0.39517449182144659 0 -0.4179168883199279 -0.39116430956604842 0 -0.42169055226689678 -0.40123550737599678 0 -0.41336967967324528 -0.3999002939494784 0 -0.4179168883199279 -0.39116430956604842 0 -0.4179168883199279 -0.39116430956604842 0 -0.40139199175968793 -0.38592718468705428 0 -0.4179168883199279 -0.39116430956604842 0 -0.41012997258942652 -0.38146265356513281 0 -0.40139199175968793 -0.38592718468705428 0 -0.4179168883199279 -0.39116430956604842 0 -0.41596140559408717 -0.38148427669336471 0 -0.41903857325144328 -0.37691094697715488 0 -0.4179168883199279 -0.39116430956604842 0 -0.41264357953851821 -0.38144664688815172 0 -0.41596140559408717 -0.38148427669336471 0 -0.4179168883199279 -0.39116430956604842 0 -0.41264357953851821 -0.38144664688815172 0 -0.41012997258942652 -0.38146265356513281 0 -0.41404820471788178 -0.37946069571912022 0 -0.41012997258942652 -0.38146265356513281 0 -0.41264357953851821 -0.38144664688815172 0 -0.41404820471788178 -0.37946069571912022 0 -0.41012997258942652 -0.38146265356513281 0 -0.41404820471788178 -0.37946069571912022 0 -0.41012997258942652 -0.38146265356513281 0 -0.40173768300816198 -0.36643993149899518 0 -0.41264357953851821 -0.38144664688815172 0 -0.41012997258942652 -0.38146265356513281 0 -0.41404820471788178 -0.37946069571912022 0 -0.41903857325144328 -0.37691094697715488 0 -0.41404820471788178 -0.37946069571912022 0 -0.41596140559408717 -0.38148427669336471 0 -0.41903857325144328 -0.37691094697715488 0 -0.41264357953851821 -0.38144664688815172 0 -0.41404820471788178 -0.37946069571912022 0 -0.41596140559408717 -0.38148427669336471 0 -0.41404820471788178 -0.37946069571912022 0 -0.41596140559408717 -0.38148427669336471 0 -0.41012997258942652 -0.38146265356513281 0 -0.39138945824891558 -0.38158199336868193 0 -0.40139199175968793 -0.38592718468705428 0 -0.39138945824891558 -0.38158199336868193 0 -0.40139199175968793 -0.38592718468705428 0 -0.38146018706309692 -0.39611102053173108 0 -0.41012997258942652 -0.38146265356513281 0 -0.39138945824891558 -0.38158199336868193 0 -0.40173768300816198 -0.36643993149899518 0 -0.41012997258942652 -0.38146265356513281 0 -0.39138945824891558 -0.38158199336868193 0 -0.41012997258942652 -0.38146265356513281 0 -0.40139199175968793 -0.38592718468705428 0 -0.39138945824891558 -0.38158199336868193 0 -0.40139199175968793 -0.38592718468705428 0 -0.40139199175968793 -0.38592718468705428 0 -0.39499960735806972 -0.39650442224569948 0 -0.38146018706309692 -0.39611102053173108 0 -0.40139199175968793 -0.38592718468705428 0 -0.38146018706309692 -0.39611102053173108 0 -0.40637138740796802 -0.39517449182144659 0 -0.39499960735806972 -0.39650442224569948 0 -0.40443020735863072 -0.40194112054031811 0 -0.40637138740796802 -0.39517449182144659 0 -0.40139199175968793 -0.38592718468705428 0 -0.39499960735806972 -0.39650442224569948 0 -0.39499960735806972 -0.39650442224569948 0 -0.40443020735863072 -0.40194112054031811 0 -0.39652584119055362 -0.40342912424259242 0 -0.40443020735863072 -0.40194112054031811 0 -0.39652584119055362 -0.40342912424259242 0 -0.40068754056194861 -0.4128492080837643 0 -0.39652584119055362 -0.40342912424259242 0 -0.38735877636819388 -0.40059869056111858 0 -0.38983809416569087 -0.40758335385593009 0 -0.39499960735806972 -0.39650442224569948 0 -0.39652584119055362 -0.40342912424259242 0 -0.38735877636819388 -0.40059869056111858 0 -0.38156916822041892 -0.40603200008561519 0 -0.38178229459812563 -0.40298695858946171 0 -0.38983809416569087 -0.40758335385593009 0 -0.38178229459812563 -0.40298695858946171 0 -0.38012172885428602 -0.39806952235009457 0 -0.38983809416569087 -0.40758335385593009 0 -0.38735877636819388 -0.40059869056111858 0 -0.38012172885428602 -0.39806952235009457 0 -0.38983809416569087 -0.40758335385593009 0 -0.38012172885428602 -0.39806952235009457 0 -0.38983809416569087 -0.40758335385593009 0 -0.38012172885428602 -0.39806952235009457 0 -0.37209094330423159 -0.40089808531996213 0 -0.37629487057870992 -0.40149067916431569 0 -0.38012172885428602 -0.39806952235009457 0 -0.37209094330423159 -0.40089808531996213 0 -0.38156916822041892 -0.40603200008561519 0 -0.38178229459812563 -0.40298695858946171 0 -0.37856432677971441 -0.40327293704996398 0 -0.38156916822041892 -0.40603200008561519 0 -0.37602613074463359 -0.40570926791912437 0 -0.37856432677971441 -0.40327293704996398 0 -0.37602613074463359 -0.40570926791912437 0 -0.37856432677971441 -0.40327293704996398 0 -0.37629487057870992 -0.40149067916431569 0 -0.37856432677971441 -0.40327293704996398 0 -0.37629487057870992 -0.40149067916431569 0 -0.37881815497051818 -0.39997697960570461 0 -0.37629487057870992 -0.40149067916431569 0 -0.37881815497051818 -0.39997697960570461 0 -0.38012172885428602 -0.39806952235009457 0 -0.37881815497051818 -0.39997697960570461 0 -0.38012172885428602 -0.39806952235009457 0 -0.38178229459812563 -0.40298695858946171 0 -0.37881815497051818 -0.39997697960570461 0 -0.38012172885428602 -0.39806952235009457 0 -0.38178229459812563 -0.40298695858946171 0 -0.37856432677971441 -0.40327293704996398 0 -0.37881815497051818 -0.39997697960570461 0 -0.38012172885428602 -0.39806952235009457 0 -0.37610551335983561 -0.39413702328477918 0 -0.37209094330423159 -0.40089808531996213 0 -0.38146018706309692 -0.39611102053173108 0 -0.37610551335983561 -0.39413702328477918 0 -0.38353069879127127 -0.38163203803623119 0 -0.38146018706309692 -0.39611102053173108 0 -0.38012172885428602 -0.39806952235009457 0 -0.37610551335983561 -0.39413702328477918 0 -0.38146018706309692 -0.39611102053173108 0 -0.38012172885428602 -0.39806952235009457 0 -0.38012172885428602 -0.39806952235009457 0 -0.37610551335983561 -0.39413702328477918 0 -0.39499960735806972 -0.39650442224569948 0 -0.38735877636819388 -0.40059869056111858 0 -0.38146018706309692 -0.39611102053173108 0 -0.38735877636819388 -0.40059869056111858 0 -0.38146018706309692 -0.39611102053173108 0 -0.38012172885428602 -0.39806952235009457 0 -0.39138945824891558 -0.38158199336868193 0 -0.38146018706309692 -0.39611102053173108 0 -0.38146018706309692 -0.39611102053173108 0 -0.38353069879127127 -0.38163203803623119 0 -0.38775448495095949 -0.38160514091903242 0 -0.39138945824891558 -0.38158199336868193 0 -0.38146018706309692 -0.39611102053173108 0 -0.38775448495095949 -0.38160514091903242 0 -0.37610551335983561 -0.39413702328477918 0 -0.38353069879127127 -0.38163203803623119 0 -0.38353069879127127 -0.38163203803623119 0 -0.36791003929668897 -0.37531597356073781 0 -0.38353069879127127 -0.38163203803623119 0 -0.37576852049830373 -0.37424143402576782 0 -0.36791003929668897 -0.37531597356073781 0 -0.38353069879127127 -0.38163203803623119 0 -0.38775448495095949 -0.38160514091903242 0 -0.39138945824891558 -0.38158199336868193 0 -0.38775448495095949 -0.38160514091903242 0 -0.39082733033514372 -0.43553780059387093 0 -0.40375973713816599 -0.43690652084804732 0 -0.40176058784982421 -0.42849617997282502 0 -0.41319678457753078 -0.41966526467231158 0 -0.40176058784982421 -0.42849617997282502 0 -0.40068754056194861 -0.4128492080837643 0 -0.40176058784982421 -0.42849617997282502 0 -0.40068754056194861 -0.4128492080837643 0 -0.38796072571873202 -0.41787067674187572 0 -0.40068754056194861 -0.4128492080837643 0 -0.38796072571873202 -0.41787067674187572 0 -0.38983809416569087 -0.40758335385593009 0 -0.39652584119055362 -0.40342912424259242 0 -0.40068754056194861 -0.4128492080837643 0 -0.38983809416569087 -0.40758335385593009 0 -0.38156916822041892 -0.40603200008561519 0 -0.38983809416569087 -0.40758335385593009 0 -0.38249496913699632 -0.41100015469591239 0 -0.38796072571873202 -0.41787067674187572 0 -0.38983809416569087 -0.40758335385593009 0 -0.38249496913699632 -0.41100015469591239 0 -0.38156916822041892 -0.40603200008561519 0 -0.37602613074463359 -0.40570926791912437 0 -0.38249496913699632 -0.41100015469591239 0 -0.38796072571873202 -0.41787067674187572 0 -0.38249496913699632 -0.41100015469591239 0 -0.37441041966644201 -0.41853044649732968 0 -0.38796072571873202 -0.41787067674187572 0 -0.37857274293149029 -0.42876471734549271 0 -0.37441041966644201 -0.41853044649732968 0 -0.39082733033514372 -0.43553780059387093 0 -0.37857274293149029 -0.42876471734549271 0 -0.38257104150817378 -0.44558539909593659 0 -0.40176058784982421 -0.42849617997282502 0 -0.38796072571873202 -0.41787067674187572 0 -0.37857274293149029 -0.42876471734549271 0 -0.40176058784982421 -0.42849617997282502 0 -0.37857274293149029 -0.42876471734549271 0 -0.39082733033514372 -0.43553780059387093 0 -0.40176058784982421 -0.42849617997282502 0 -0.37857274293149029 -0.42876471734549271 0 -0.37857274293149029 -0.42876471734549271 0 -0.38257104150817378 -0.44558539909593659 0 -0.36466736862266619 -0.43929361107495862 0 -0.40375973713816599 -0.43690652084804732 0 -0.38257104150817378 -0.44558539909593659 0 -0.40375973713816599 -0.43690652084804732 0 -0.38257104150817378 -0.44558539909593659 0 -0.39873322217020901 -0.44879301705899238 0 -0.38257104150817378 -0.44558539909593659 0 -0.39873322217020901 -0.44879301705899238 0 -0.39185116602312342 -0.46040899195533008 0 -0.39082733033514372 -0.43553780059387093 0 -0.40375973713816599 -0.43690652084804732 0 -0.38257104150817378 -0.44558539909593659 0 -0.39873322217020901 -0.44879301705899238 0 -0.40884565752670138 -0.44739205870809717 0 -0.40642776429331862 -0.45699343118294727 0 -0.40375973713816599 -0.43690652084804732 0 -0.39873322217020901 -0.44879301705899238 0 -0.40884565752670138 -0.44739205870809717 0 -0.39185116602312342 -0.46040899195533008 0 -0.40182839360969391 -0.46973105278735439 0 -0.40642776429331862 -0.45699343118294727 0 -0.39873322217020901 -0.44879301705899238 0 -0.39185116602312342 -0.46040899195533008 0 -0.40642776429331862 -0.45699343118294727 0 -0.38257104150817378 -0.44558539909593659 0 -0.39185116602312342 -0.46040899195533008 0 -0.3749125057523493 -0.4641870694620962 0 -0.39185116602312342 -0.46040899195533008 0 -0.38739682711329992 -0.47637139398093842 0 -0.3749125057523493 -0.4641870694620962 0 -0.38739682711329992 -0.47637139398093842 0 -0.36650464836053492 -0.47758333459014829 0 -0.3749125057523493 -0.4641870694620962 0 -0.38739682711329992 -0.47637139398093842 0 -0.38649563617076049 -0.5 0 -0.36650464836053492 -0.47758333459014829 0 -0.38649563617076049 -0.5 0 -0.40221786754911548 -0.48468690862955621 0 -0.41470304202541208 -0.5 0 -0.38739682711329992 -0.47637139398093842 0 -0.38649563617076049 -0.5 0 -0.40221786754911548 -0.48468690862955621 0 -0.39185116602312342 -0.46040899195533008 0 -0.38739682711329992 -0.47637139398093842 0 -0.40182839360969391 -0.46973105278735439 0 -0.38739682711329992 -0.47637139398093842 0 -0.40221786754911548 -0.48468690862955621 0 -0.40182839360969391 -0.46973105278735439 0 -0.40221786754911548 -0.48468690862955621 0 -0.40182839360969391 -0.46973105278735439 0 -0.41640034518153801 -0.4710884416934209 0 -0.40221786754911548 -0.48468690862955621 0 -0.41640034518153801 -0.4710884416934209 0 -0.41470304202541208 -0.5 0 -0.43763952177061649 -0.47770500498713542 0 -0.44291044788006362 -0.49999999999999939 0 -0.41470304202541208 -0.5 0 -0.43763952177061649 -0.47770500498713542 0 -0.41640034518153801 -0.4710884416934209 0 -0.41470304202541208 -0.5 0 -0.43763952177061649 -0.47770500498713542 0 -0.41640034518153801 -0.4710884416934209 0 -0.4323685956611692 -0.45541000997427139 0 -0.43763952177061649 -0.47770500498713542 0 -0.4323685956611692 -0.45541000997427139 0 -0.41640034518153801 -0.4710884416934209 0 -0.4323685956611692 -0.45541000997427139 0 -0.41872867018542492 -0.45179192289975101 0 -0.4323685956611692 -0.45541000997427139 0 -0.435988539966085 -0.44148905847597392 0 -0.42615181293618792 -0.44307742131274741 0 -0.42986244815509678 -0.43337144475258638 0 -0.435988539966085 -0.44148905847597392 0 -0.42615181293618792 -0.44307742131274741 0 -0.42986244815509678 -0.43337144475258638 0 -0.42026026496879931 -0.43681168621285732 0 -0.42615181293618792 -0.44307742131274741 0 -0.4323685956611692 -0.45541000997427139 0 -0.42615181293618792 -0.44307742131274741 0 -0.41872867018542492 -0.45179192289975101 0 -0.41872867018542492 -0.45179192289975101 0 -0.41657889384638791 -0.4424754015507481 0 -0.40884565752670138 -0.44739205870809717 0 -0.42026026496879931 -0.43681168621285732 0 -0.40375973713816599 -0.43690652084804732 0 -0.41657889384638791 -0.4424754015507481 0 -0.42615181293618792 -0.44307742131274741 0 -0.41872867018542492 -0.45179192289975101 0 -0.41657889384638791 -0.4424754015507481 0 -0.42026026496879931 -0.43681168621285732 0 -0.42615181293618792 -0.44307742131274741 0 -0.41657889384638791 -0.4424754015507481 0 -0.40375973713816599 -0.43690652084804732 0 -0.41657889384638791 -0.4424754015507481 0 -0.40884565752670138 -0.44739205870809717 0 -0.41872867018542492 -0.45179192289975101 0 -0.40884565752670138 -0.44739205870809717 0 -0.40642776429331862 -0.45699343118294727 0 -0.41640034518153801 -0.4710884416934209 0 -0.41872867018542492 -0.45179192289975101 0 -0.40642776429331862 -0.45699343118294727 0 -0.40182839360969391 -0.46973105278735439 0 -0.41640034518153801 -0.4710884416934209 0 -0.40642776429331862 -0.45699343118294727 0 -0.45211818340539273 -0.26309076008929921 0 -0.44165736388207272 -0.25360003737878889 0 -0.46465652818918263 -0.24483730068029039 0 -0.45211818340539273 -0.26309076008929921 0 -0.44165736388207272 -0.25360003737878889 0 -0.43680511815892142 -0.2660007677910407 0 -0.45211818340539273 -0.26309076008929921 0 -0.43957983862160288 -0.2813442194983079 0 -0.45211818340539273 -0.26309076008929921 0 -0.45386615352933152 -0.26317791563468229 0 -0.44300193479902689 -0.28147468360283379 0 -0.45211818340539273 -0.26309076008929921 0 -0.43957983862160288 -0.2813442194983079 0 -0.44300193479902689 -0.28147468360283379 0 -0.45386615352933152 -0.26317791563468229 0 -0.44300193479902689 -0.28147468360283379 0 -0.45211818340539273 -0.26309076008929921 0 -0.43957983862160288 -0.2813442194983079 0 -0.43680511815892142 -0.2660007677910407 0 -0.46540099386590911 -0.27613459344745273 0 -0.45386615352933152 -0.26317791563468229 0 -0.47789920225856231 -0.2654141115859287 0 -0.46540099386590911 -0.27613459344745273 0 -0.45386615352933152 -0.26317791563468229 0 -0.44300193479902689 -0.28147468360283379 0 -0.45211818340539273 -0.26309076008929921 0 -0.45386615352933152 -0.26317791563468229 0 -0.46465652818918263 -0.24483730068029039 0 -0.45211818340539273 -0.26309076008929921 0 -0.46465652818918263 -0.24483730068029039 0 -0.45386615352933152 -0.26317791563468229 0 -0.46465652818918263 -0.24483730068029039 0 -0.45386615352933152 -0.26317791563468229 0 -0.47789920225856231 -0.2654141115859287 0 -0.46465652818918263 -0.24483730068029039 0 -0.47789920225856231 -0.2654141115859287 0 -0.48570939693172899 -0.24902992718248729 0 -0.46465652818918263 -0.24483730068029039 0 -0.47789920225856231 -0.2654141115859287 0 -0.4909021497975728 -0.26136593096020788 0 -0.48570939693172899 -0.24902992718248729 0 -0.4909021497975728 -0.26136593096020788 0 -0.5 -0.25150281007534703 0 -0.5 -0.27951687499706851 0 -0.4909021497975728 -0.26136593096020788 0 -0.5 -0.25150281007534703 0 -0.48570939693172899 -0.24902992718248729 0 -0.47789920225856231 -0.2654141115859287 0 -0.5 -0.27951687499706851 0 -0.48508449486424082 -0.28732415172015657 0 -0.47789920225856231 -0.2654141115859287 0 -0.4909021497975728 -0.26136593096020788 0 -0.5 -0.27951687499706851 0 -0.46540099386590911 -0.27613459344745273 0 -0.47789920225856231 -0.2654141115859287 0 -0.48508449486424082 -0.28732415172015657 0 -0.46540099386590911 -0.27613459344745273 0 -0.4692524708352519 -0.29304891184013099 0 -0.48508449486424082 -0.28732415172015657 0 -0.4692524708352519 -0.29304891184013099 0 -0.48508449486424082 -0.28732415172015657 0 -0.48342094646859679 -0.29729694551662461 0 -0.5 -0.27951687499706851 0 -0.5 -0.30753093991878988 0 -0.49616219239740023 -0.30000131546641939 0 -0.5 -0.27951687499706851 0 -0.48508449486424082 -0.28732415172015657 0 -0.49616219239740023 -0.30000131546641939 0 -0.48508449486424082 -0.28732415172015657 0 -0.49616219239740023 -0.30000131546641939 0 -0.48342094646859679 -0.29729694551662461 0 -0.49616219239740023 -0.30000131546641939 0 -0.47988752038114357 -0.30743937284698208 0 -0.49124767326547109 -0.32126458797290303 0 -0.49616219239740023 -0.30000131546641939 0 -0.47988752038114357 -0.30743937284698208 0 -0.48342094646859679 -0.29729694551662461 0 -0.49616219239740023 -0.30000131546641939 0 -0.49124767326547109 -0.32126458797290303 0 -0.5 -0.30753093991878988 0 -0.49616219239740023 -0.30000131546641939 0 -0.49124767326547109 -0.32126458797290303 0 -0.4692524708352519 -0.29304891184013099 0 -0.47988752038114357 -0.30743937284698208 0 -0.46289418455034459 -0.31569959279366661 0 -0.4692524708352519 -0.29304891184013099 0 -0.47988752038114357 -0.30743937284698208 0 -0.48342094646859679 -0.29729694551662461 0 -0.4692524708352519 -0.29304891184013099 0 -0.46289418455034459 -0.31569959279366661 0 -0.4692524708352519 -0.29304891184013099 0 -0.45610231338702439 -0.30058860430122147 0 -0.46289418455034459 -0.31569959279366661 0 -0.45610231338702439 -0.30058860430122147 0 -0.44586848524951039 -0.31314063422893113 0 -0.46289418455034459 -0.31569959279366661 0 -0.46540099386590911 -0.27613459344745273 0 -0.45701344915610581 -0.28694014007387803 0 -0.44300193479902689 -0.28147468360283379 0 -0.46540099386590911 -0.27613459344745273 0 -0.4692524708352519 -0.29304891184013099 0 -0.45701344915610581 -0.28694014007387803 0 -0.4692524708352519 -0.29304891184013099 0 -0.45610231338702439 -0.30058860430122147 0 -0.45701344915610581 -0.28694014007387803 0 -0.45610231338702439 -0.30058860430122147 0 -0.44300193479902689 -0.28147468360283379 0 -0.43213771606872631 -0.29977145157098772 0 -0.43957983862160288 -0.2813442194983079 0 -0.44300193479902689 -0.28147468360283379 0 -0.43213771606872631 -0.29977145157098772 0 -0.45610231338702439 -0.30058860430122147 0 -0.45701344915610581 -0.28694014007387803 0 -0.44300193479902689 -0.28147468360283379 0 -0.44300193479902689 -0.28147468360283379 0 -0.43213771606872631 -0.29977145157098772 0 -0.45610231338702439 -0.30058860430122147 0 -0.43213771606872631 -0.29977145157098772 0 -0.45610231338702439 -0.30058860430122147 0 -0.44586848524951039 -0.31314063422893113 0 -0.43213771606872631 -0.29977145157098772 0 -0.44586848524951039 -0.31314063422893113 0 -0.44476508916493912 -0.32800798766852468 0 -0.46289418455034459 -0.31569959279366661 0 -0.44586848524951039 -0.31314063422893113 0 -0.44476508916493912 -0.32800798766852468 0 -0.43268999707831379 -0.32114889215997511 0 -0.44476508916493912 -0.32800798766852468 0 -0.45653589826543722 -0.33835027374720222 0 -0.43854709093312078 -0.34551838447463762 0 -0.44476508916493912 -0.32800798766852468 0 -0.43854709093312078 -0.34551838447463762 0 -0.43403437847741988 -0.33354869747312299 0 -0.45653589826543722 -0.33835027374720222 0 -0.47228809685679413 -0.34052311598912072 0 -0.46825538305703029 -0.35176440759005828 0 -0.45653589826543722 -0.33835027374720222 0 -0.47506093156469842 -0.3287229684348516 0 -0.47228809685679413 -0.34052311598912072 0 -0.44476508916493912 -0.32800798766852468 0 -0.45653589826543722 -0.33835027374720222 0 -0.46289418455034459 -0.31569959279366661 0 -0.45653589826543722 -0.33835027374720222 0 -0.46289418455034459 -0.31569959279366661 0 -0.47506093156469842 -0.3287229684348516 0 -0.45653589826543722 -0.33835027374720222 0 -0.46289418455034459 -0.31569959279366661 0 -0.4772725774404144 -0.31828163051210079 0 -0.49124767326547109 -0.32126458797290303 0 -0.47506093156469842 -0.3287229684348516 0 -0.47988752038114357 -0.30743937284698208 0 -0.46289418455034459 -0.31569959279366661 0 -0.4772725774404144 -0.31828163051210079 0 -0.46289418455034459 -0.31569959279366661 0 -0.4772725774404144 -0.31828163051210079 0 -0.47506093156469842 -0.3287229684348516 0 -0.47988752038114357 -0.30743937284698208 0 -0.4772725774404144 -0.31828163051210079 0 -0.49124767326547109 -0.32126458797290303 0 -0.5 -0.30753093991878988 0 -0.49124767326547109 -0.32126458797290303 0 -0.49999999999999961 -0.33554500484051131 0 -0.49124767326547109 -0.32126458797290303 0 -0.48633315413354011 -0.3425278604793861 0 -0.49124767326547109 -0.32126458797290303 0 -0.49999999999999961 -0.33554500484051131 0 -0.48633315413354011 -0.3425278604793861 0 -0.49999999999999961 -0.33554500484051131 0 -0.48633315413354011 -0.3425278604793861 0 -0.48633315413354011 -0.3425278604793861 0 -0.47506093156469842 -0.3287229684348516 0 -0.47228809685679413 -0.34052311598912072 0 -0.49124767326547109 -0.32126458797290303 0 -0.48633315413354011 -0.3425278604793861 0 -0.47506093156469842 -0.3287229684348516 0 -0.48633315413354011 -0.3425278604793861 0 -0.47228809685679413 -0.34052311598912072 0 -0.46825538305703029 -0.35176440759005828 0 -0.49999999999999961 -0.33554500484051131 0 -0.48633315413354011 -0.3425278604793861 0 -0.48030453056746109 -0.36861144308094029 0 -0.48633315413354011 -0.3425278604793861 0 -0.48030453056746109 -0.36861144308094029 0 -0.46825538305703029 -0.35176440759005828 0 -0.48633315413354011 -0.3425278604793861 0 -0.46825538305703029 -0.35176440759005828 0 -0.48633315413354011 -0.3425278604793861 0 -0.48030453056746109 -0.36861144308094029 0 -0.5 -0.39656953661894012 0 -0.49999999999999961 -0.33554500484051131 0 -0.48030453056746109 -0.36861144308094029 0 -0.46334377193483078 -0.37842983215876019 0 -0.48030453056746109 -0.36861144308094029 0 -0.46825538305703029 -0.35176440759005828 0 -0.46334377193483078 -0.37842983215876019 0 -0.46825538305703029 -0.35176440759005828 0 -0.45017761198052331 -0.36100095470073579 0 -0.45653589826543722 -0.33835027374720222 0 -0.45017761198052331 -0.36100095470073579 0 -0.45653589826543722 -0.33835027374720222 0 -0.46825538305703029 -0.35176440759005828 0 -0.45017761198052331 -0.36100095470073579 0 -0.46825538305703029 -0.35176440759005828 0 -0.45017761198052331 -0.36100095470073579 0 -0.45653589826543722 -0.33835027374720222 0 -0.43854709093312078 -0.34551838447463762 0 -0.45017761198052331 -0.36100095470073579 0 -0.43854709093312078 -0.34551838447463762 0 -0.45017761198052331 -0.36100095470073579 0 -0.43688840964749209 -0.35781554759345557 0 -0.45017761198052331 -0.36100095470073579 0 -0.43460809261598232 -0.36895595083894339 0 -0.43688840964749209 -0.35781554759345557 0 -0.45017761198052331 -0.36100095470073579 0 -0.43460809261598232 -0.36895595083894339 0 -0.44416021803808919 -0.38243724496113263 0 -0.45017761198052331 -0.36100095470073579 0 -0.43460809261598232 -0.36895595083894339 0 -0.44416021803808919 -0.38243724496113263 0 -0.45017761198052331 -0.36100095470073579 0 -0.46334377193483078 -0.37842983215876019 0 -0.44416021803808919 -0.38243724496113263 0 -0.45017761198052331 -0.36100095470073579 0 -0.41903857325144328 -0.37691094697715488 0 -0.43460809261598232 -0.36895595083894339 0 -0.42422084306034402 -0.35578690035950972 0 -0.41903857325144328 -0.37691094697715488 0 -0.43460809261598232 -0.36895595083894339 0 -0.43460809261598232 -0.36895595083894339 0 -0.43688840964749209 -0.35781554759345557 0 -0.42422084306034402 -0.35578690035950972 0 -0.43854709093312078 -0.34551838447463762 0 -0.42422084306034402 -0.35578690035950972 0 -0.42013533673330578 -0.33951952558935461 0 -0.43854709093312078 -0.34551838447463762 0 -0.43688840964749209 -0.35781554759345557 0 -0.42422084306034402 -0.35578690035950972 0 -0.40758067638829881 -0.35789015901873489 0 -0.42013533673330578 -0.33951952558935461 0 -0.42422084306034402 -0.35578690035950972 0 -0.40758067638829881 -0.35789015901873489 0 -0.42013533673330578 -0.33951952558935461 0 -0.40758067638829881 -0.35789015901873489 0 -0.4025685708709531 -0.34956976676792401 0 -0.42013533673330578 -0.33951952558935461 0 -0.41903857325144328 -0.37691094697715488 0 -0.40758067638829881 -0.35789015901873489 0 -0.40173768300816198 -0.36643993149899518 0 -0.41404820471788178 -0.37946069571912022 0 -0.41903857325144328 -0.37691094697715488 0 -0.40173768300816198 -0.36643993149899518 0 -0.41903857325144328 -0.37691094697715488 0 -0.42422084306034402 -0.35578690035950972 0 -0.40758067638829881 -0.35789015901873489 0 -0.41903857325144328 -0.37691094697715488 0 -0.40758067638829881 -0.35789015901873489 0 -0.41404820471788178 -0.37946069571912022 0 -0.40173768300816198 -0.36643993149899518 0 -0.39138945824891558 -0.38158199336868193 0 -0.38775448495095949 -0.38160514091903242 0 -0.39609514899832238 -0.36047185746617882 0 -0.39138945824891558 -0.38158199336868193 0 -0.40173768300816198 -0.36643993149899518 0 -0.39609514899832238 -0.36047185746617882 0 -0.40758067638829881 -0.35789015901873489 0 -0.40173768300816198 -0.36643993149899518 0 -0.40758067638829881 -0.35789015901873489 0 -0.40173768300816198 -0.36643993149899518 0 -0.39609514899832238 -0.36047185746617882 0 -0.40173768300816198 -0.36643993149899518 0 -0.39609514899832238 -0.36047185746617882 0 -0.39138945824891558 -0.38158199336868193 0 -0.40173768300816198 -0.36643993149899518 0 -0.38353069879127127 -0.38163203803623119 0 -0.38775448495095949 -0.38160514091903242 0 -0.39609514899832238 -0.36047185746617882 0 -0.38353069879127127 -0.38163203803623119 0 -0.39609514899832238 -0.36047185746617882 0 -0.37576852049830373 -0.37424143402576782 0 -0.37576852049830373 -0.37424143402576782 0 -0.38980029292032681 -0.3538138263344407 0 -0.39609514899832238 -0.36047185746617882 0 -0.37576852049830373 -0.37424143402576782 0 -0.38980029292032681 -0.3538138263344407 0 -0.38353069879127127 -0.38163203803623119 0 -0.39609514899832238 -0.36047185746617882 0 -0.37576852049830373 -0.37424143402576782 0 -0.38980029292032681 -0.3538138263344407 0 -0.37245563567842283 -0.36342144099550278 0 -0.37501505732771462 -0.35270295609204683 0 -0.38980029292032681 -0.3538138263344407 0 -0.37245563567842283 -0.36342144099550278 0 -0.37501505732771462 -0.35270295609204683 0 -0.38980029292032681 -0.3538138263344407 0 -0.37630104444955431 -0.33953575302191552 0 -0.38980029292032681 -0.3538138263344407 0 -0.3874425906513701 -0.34245666632481359 0 -0.37630104444955431 -0.33953575302191552 0 -0.38980029292032681 -0.3538138263344407 0 -0.37630104444955431 -0.33953575302191552 0 -0.38980029292032681 -0.3538138263344407 0 -0.39796499687501963 -0.34192756105832428 0 -0.3874425906513701 -0.34245666632481359 0 -0.38980029292032681 -0.3538138263344407 0 -0.39796499687501963 -0.34192756105832428 0 -0.38980029292032681 -0.3538138263344407 0 -0.4025685708709531 -0.34956976676792401 0 -0.39796499687501963 -0.34192756105832428 0 -0.39609514899832238 -0.36047185746617882 0 -0.38980029292032681 -0.3538138263344407 0 -0.4025685708709531 -0.34956976676792401 0 -0.39609514899832238 -0.36047185746617882 0 -0.38980029292032681 -0.3538138263344407 0 -0.40758067638829881 -0.35789015901873489 0 -0.4025685708709531 -0.34956976676792401 0 -0.39609514899832238 -0.36047185746617882 0 -0.4025685708709531 -0.34956976676792401 0 -0.40758067638829881 -0.35789015901873489 0 -0.39609514899832238 -0.36047185746617882 0 -0.4025685708709531 -0.34956976676792401 0 -0.4025685708709531 -0.34956976676792401 0 -0.39796499687501963 -0.34192756105832428 0 -0.39796499687501963 -0.34192756105832428 0 -0.38707883306085727 -0.32310268074594539 0 -0.39302444192435521 -0.32665020523696531 0 -0.39796499687501963 -0.34192756105832428 0 -0.41250324535641603 -0.32076261998282041 0 -0.39796499687501963 -0.34192756105832428 0 -0.38707883306085727 -0.32310268074594539 0 -0.39796499687501963 -0.34192756105832428 0 -0.39861901303234393 -0.32526976222302811 0 -0.41250324535641603 -0.32076261998282041 0 -0.4025685708709531 -0.34956976676792401 0 -0.39796499687501963 -0.34192756105832428 0 -0.4173531434698371 -0.32467060916945428 0 -0.39796499687501963 -0.34192756105832428 0 -0.39302444192435521 -0.32665020523696531 0 -0.39861901303234393 -0.32526976222302811 0 -0.39796499687501963 -0.34192756105832428 0 -0.3874425906513701 -0.34245666632481359 0 -0.38570402836057949 -0.33454952488457412 0 -0.39796499687501963 -0.34192756105832428 0 -0.38570402836057949 -0.33454952488457412 0 -0.38707883306085727 -0.32310268074594539 0 -0.3874425906513701 -0.34245666632481359 0 -0.38570402836057949 -0.33454952488457412 0 -0.37630104444955431 -0.33953575302191552 0 -0.38570402836057949 -0.33454952488457412 0 -0.38257566477560778 -0.32750665689071978 0 -0.38707883306085727 -0.32310268074594539 0 -0.38570402836057949 -0.33454952488457412 0 -0.37746168828861648 -0.32880316406910598 0 -0.37630104444955431 -0.33953575302191552 0 -0.38570402836057949 -0.33454952488457412 0 -0.37746168828861648 -0.32880316406910598 0 -0.38257566477560778 -0.32750665689071978 0 -0.38707883306085727 -0.32310268074594539 0 -0.37576395745092178 -0.3050725196501074 0 -0.38707883306085727 -0.32310268074594539 0 -0.37576395745092178 -0.3050725196501074 0 -0.37719713711566749 -0.31197748083789167 0 -0.37972485618422192 -0.31952152903519548 0 -0.38707883306085727 -0.32310268074594539 0 -0.37719713711566749 -0.31197748083789167 0 -0.37972485618422192 -0.31952152903519548 0 -0.37719713711566749 -0.31197748083789167 0 -0.37456534516798468 -0.31943469669369101 0 -0.37972485618422192 -0.31952152903519548 0 -0.38027246529026432 -0.32317389825498388 0 -0.37456534516798468 -0.31943469669369101 0 -0.37746168828861648 -0.32880316406910598 0 -0.38027246529026432 -0.32317389825498388 0 -0.37456534516798468 -0.31943469669369101 0 -0.37746168828861648 -0.32880316406910598 0 -0.38257566477560778 -0.32750665689071978 0 -0.38027246529026432 -0.32317389825498388 0 -0.37972485618422192 -0.31952152903519548 0 -0.38027246529026432 -0.32317389825498388 0 -0.38707883306085727 -0.32310268074594539 0 -0.38257566477560778 -0.32750665689071978 0 -0.38027246529026432 -0.32317389825498388 0 -0.38707883306085727 -0.32310268074594539 0 -0.3895493280880703 -0.32181092315052368 0 -0.38707883306085727 -0.32310268074594539 0 -0.39302444192435521 -0.32665020523696531 0 -0.3895493280880703 -0.32181092315052368 0 -0.38817922209955419 -0.31487003622919818 0 -0.39292420471281692 -0.32089260507692741 0 -0.3895493280880703 -0.32181092315052368 0 -0.3854068594836183 -0.31441721296606712 0 -0.38817922209955419 -0.31487003622919818 0 -0.3895493280880703 -0.32181092315052368 0 -0.38707883306085727 -0.32310268074594539 0 -0.3854068594836183 -0.31441721296606712 0 -0.38817922209955419 -0.31487003622919818 0 -0.39233623022453079 -0.31589900304218349 0 -0.38828454910218052 -0.30906118598004451 0 -0.39233623022453079 -0.31589900304218349 0 -0.39756756003884308 -0.31679974746756201 0 -0.39292420471281692 -0.32089260507692741 0 -0.38817922209955419 -0.31487003622919818 0 -0.39233623022453079 -0.31589900304218349 0 -0.39292420471281692 -0.32089260507692741 0 -0.39233623022453079 -0.31589900304218349 0 -0.39756756003884308 -0.31679974746756201 0 -0.39384318992161488 -0.31092517799495939 0 -0.39756756003884308 -0.31679974746756201 0 -0.39292420471281692 -0.32089260507692741 0 -0.39861901303234393 -0.32526976222302811 0 -0.3895493280880703 -0.32181092315052368 0 -0.39302444192435521 -0.32665020523696531 0 -0.39292420471281692 -0.32089260507692741 0 -0.39302444192435521 -0.32665020523696531 0 -0.39292420471281692 -0.32089260507692741 0 -0.39861901303234393 -0.32526976222302811 0 -0.39756756003884308 -0.31679974746756201 0 -0.39861901303234393 -0.32526976222302811 0 -0.41250324535641603 -0.32076261998282041 0 -0.39756756003884308 -0.31679974746756201 0 -0.41250324535641603 -0.32076261998282041 0 -0.39943253357619768 -0.3092473730742562 0 -0.4173531434698371 -0.32467060916945428 0 -0.41250324535641603 -0.32076261998282041 0 -0.42704149383781292 -0.2995976789073167 0 -0.39796499687501963 -0.34192756105832428 0 -0.4173531434698371 -0.32467060916945428 0 -0.41250324535641603 -0.32076261998282041 0 -0.4025685708709531 -0.34956976676792401 0 -0.4173531434698371 -0.32467060916945428 0 -0.42013533673330578 -0.33951952558935461 0 -0.4025685708709531 -0.34956976676792401 0 -0.4173531434698371 -0.32467060916945428 0 -0.4173531434698371 -0.32467060916945428 0 -0.42013533673330578 -0.33951952558935461 0 -0.43268999707831379 -0.32114889215997511 0 -0.42013533673330578 -0.33951952558935461 0 -0.43268999707831379 -0.32114889215997511 0 -0.42013533673330578 -0.33951952558935461 0 -0.43403437847741988 -0.33354869747312299 0 -0.43268999707831379 -0.32114889215997511 0 -0.43854709093312078 -0.34551838447463762 0 -0.42013533673330578 -0.33951952558935461 0 -0.43403437847741988 -0.33354869747312299 0 -0.44476508916493912 -0.32800798766852468 0 -0.43403437847741988 -0.33354869747312299 0 -0.43268999707831379 -0.32114889215997511 0 -0.4173531434698371 -0.32467060916945428 0 -0.43268999707831379 -0.32114889215997511 0 -0.43213771606872631 -0.29977145157098772 0 -0.44586848524951039 -0.31314063422893113 0 -0.43268999707831379 -0.32114889215997511 0 -0.43213771606872631 -0.29977145157098772 0 -0.4173531434698371 -0.32467060916945428 0 -0.43213771606872631 -0.29977145157098772 0 -0.4173531434698371 -0.32467060916945428 0 -0.42704149383781292 -0.2995976789073167 0 -0.43213771606872631 -0.29977145157098772 0 -0.42704149383781292 -0.2995976789073167 0 -0.43213771606872631 -0.29977145157098772 0 -0.43957983862160288 -0.2813442194983079 0 -0.42704149383781292 -0.2995976789073167 0 -0.41620122749958632 -0.28481054703811581 0 -0.43957983862160288 -0.2813442194983079 0 -0.42704149383781292 -0.2995976789073167 0 -0.43213771606872631 -0.29977145157098772 0 -0.43957983862160288 -0.2813442194983079 0 -0.42704149383781292 -0.2995976789073167 0 -0.42704149383781292 -0.2995976789073167 0 -0.40925521843592683 -0.29219363385722402 0 -0.40193077426190232 -0.29874144532295899 0 -0.42704149383781292 -0.2995976789073167 0 -0.41620122749958632 -0.28481054703811581 0 -0.40925521843592683 -0.29219363385722402 0 -0.41620122749958632 -0.28481054703811581 0 -0.4064106314034665 -0.28786033749410611 0 -0.40925521843592683 -0.29219363385722402 0 -0.41620122749958632 -0.28481054703811581 0 -0.4064106314034665 -0.28786033749410611 0 -0.40459857025975621 -0.28097081354976228 0 -0.42704149383781292 -0.2995976789073167 0 -0.40193077426190232 -0.29874144532295899 0 -0.41250324535641603 -0.32076261998282041 0 -0.42704149383781292 -0.2995976789073167 0 -0.40193077426190232 -0.29874144532295899 0 -0.41250324535641603 -0.32076261998282041 0 -0.42704149383781292 -0.2995976789073167 0 -0.41250324535641603 -0.32076261998282041 0 -0.39943253357619768 -0.3092473730742562 0 -0.40193077426190232 -0.29874144532295899 0 -0.40193077426190232 -0.29874144532295899 0 -0.39397115466413868 -0.30315074537586811 0 -0.37682005468599161 -0.29788521173860111 0 -0.39943253357619768 -0.3092473730742562 0 -0.40193077426190232 -0.29874144532295899 0 -0.39397115466413868 -0.30315074537586811 0 -0.39756756003884308 -0.31679974746756201 0 -0.39943253357619768 -0.3092473730742562 0 -0.39384318992161488 -0.31092517799495939 0 -0.39943253357619768 -0.3092473730742562 0 -0.39515669063330172 -0.30691697672544133 0 -0.39384318992161488 -0.31092517799495939 0 -0.39943253357619768 -0.3092473730742562 0 -0.39397115466413868 -0.30315074537586811 0 -0.39515669063330172 -0.30691697672544133 0 -0.39515669063330172 -0.30691697672544133 0 -0.39384318992161488 -0.31092517799495939 0 -0.39024404857921102 -0.30572650089527997 0 -0.39397115466413868 -0.30315074537586811 0 -0.39515669063330172 -0.30691697672544133 0 -0.39024404857921102 -0.30572650089527997 0 -0.39384318992161488 -0.31092517799495939 0 -0.38828454910218052 -0.30906118598004451 0 -0.39024404857921102 -0.30572650089527997 0 -0.39233623022453079 -0.31589900304218349 0 -0.39384318992161488 -0.31092517799495939 0 -0.38828454910218052 -0.30906118598004451 0 -0.38817922209955419 -0.31487003622919818 0 -0.38828454910218052 -0.30906118598004451 0 -0.37682005468599161 -0.29788521173860111 0 -0.3854068594836183 -0.31441721296606712 0 -0.38817922209955419 -0.31487003622919818 0 -0.37682005468599161 -0.29788521173860111 0 -0.39397115466413868 -0.30315074537586811 0 -0.39024404857921102 -0.30572650089527997 0 -0.37682005468599161 -0.29788521173860111 0 -0.40193077426190232 -0.29874144532295899 0 -0.37682005468599161 -0.29788521173860111 0 -0.38707883306085727 -0.32310268074594539 0 -0.3854068594836183 -0.31441721296606712 0 -0.37682005468599161 -0.29788521173860111 0 -0.38707883306085727 -0.32310268074594539 0 -0.37682005468599161 -0.29788521173860111 0 -0.37576395745092178 -0.3050725196501074 0 -0.38707883306085727 -0.32310268074594539 0 -0.37682005468599161 -0.29788521173860111 0 -0.38828454910218052 -0.30906118598004451 0 -0.39024404857921102 -0.30572650089527997 0 -0.37682005468599161 -0.29788521173860111 0 -0.40193077426190232 -0.29874144532295899 0 -0.37682005468599161 -0.29788521173860111 0 -0.38727793942999461 -0.29143138054805301 0 -0.37682005468599161 -0.29788521173860111 0 -0.37992505739110077 -0.285327891268156 0 -0.37089355010314762 -0.28331705945197572 0 -0.37682005468599161 -0.29788521173860111 0 -0.37992505739110077 -0.285327891268156 0 -0.38727793942999461 -0.29143138054805301 0 -0.38727793942999461 -0.29143138054805301 0 -0.3924898948206727 -0.28599182426682918 0 -0.38684870024465262 -0.28019709009285709 0 -0.37992505739110077 -0.285327891268156 0 -0.38727793942999461 -0.29143138054805301 0 -0.38684870024465262 -0.28019709009285709 0 -0.3924898948206727 -0.28599182426682918 0 -0.39318539860325191 -0.27833553320660309 0 -0.38684870024465262 -0.28019709009285709 0 -0.3924898948206727 -0.28599182426682918 0 -0.39946484360203771 -0.29301209464503369 0 -0.39318539860325191 -0.27833553320660309 0 -0.38727793942999461 -0.29143138054805301 0 -0.3924898948206727 -0.28599182426682918 0 -0.39529086302865168 -0.29229418619571867 0 -0.40193077426190232 -0.29874144532295899 0 -0.38727793942999461 -0.29143138054805301 0 -0.39529086302865168 -0.29229418619571867 0 -0.3924898948206727 -0.28599182426682918 0 -0.39529086302865168 -0.29229418619571867 0 -0.39946484360203771 -0.29301209464503369 0 -0.4064106314034665 -0.28786033749410611 0 -0.40925521843592683 -0.29219363385722402 0 -0.39946484360203771 -0.29301209464503369 0 -0.40925521843592683 -0.29219363385722402 0 -0.40193077426190232 -0.29874144532295899 0 -0.39946484360203771 -0.29301209464503369 0 -0.40193077426190232 -0.29874144532295899 0 -0.39529086302865168 -0.29229418619571867 0 -0.39946484360203771 -0.29301209464503369 0 -0.4064106314034665 -0.28786033749410611 0 -0.39946484360203771 -0.29301209464503369 0 -0.40459857025975621 -0.28097081354976228 0 -0.40459857025975621 -0.28097081354976228 0 -0.39871653422275 -0.26477063034798642 0 -0.40644367116261759 -0.26933550009943341 0 -0.39946484360203771 -0.29301209464503369 0 -0.40459857025975621 -0.28097081354976228 0 -0.39871653422275 -0.26477063034798642 0 -0.39946484360203771 -0.29301209464503369 0 -0.39871653422275 -0.26477063034798642 0 -0.39946484360203771 -0.29301209464503369 0 -0.39318539860325191 -0.27833553320660309 0 -0.39871653422275 -0.26477063034798642 0 -0.39318539860325191 -0.27833553320660309 0 -0.38840702012614647 -0.26770602668030929 0 -0.39871653422275 -0.26477063034798642 0 -0.39318539860325191 -0.27833553320660309 0 -0.38684870024465262 -0.28019709009285709 0 -0.38840702012614647 -0.26770602668030929 0 -0.38684870024465262 -0.28019709009285709 0 -0.38840702012614647 -0.26770602668030929 0 -0.37812768531643998 -0.2740521224023964 0 -0.38840702012614647 -0.26770602668030929 0 -0.37812768531643998 -0.2740521224023964 0 -0.37969836118369482 -0.26041778922000308 0 -0.37992505739110077 -0.285327891268156 0 -0.37812768531643998 -0.2740521224023964 0 -0.37089355010314762 -0.28331705945197572 0 -0.37992505739110077 -0.285327891268156 0 -0.38684870024465262 -0.28019709009285709 0 -0.37812768531643998 -0.2740521224023964 0 -0.37969836118369482 -0.26041778922000308 0 -0.39442967684708991 -0.25208667127465478 0 -0.37872015884544641 -0.2435614714605657 0 -0.37969836118369482 -0.26041778922000308 0 -0.36999160380854529 -0.25160890498862648 0 -0.37872015884544641 -0.2435614714605657 0 -0.38840702012614647 -0.26770602668030929 0 -0.37969836118369482 -0.26041778922000308 0 -0.39442967684708991 -0.25208667127465478 0 -0.37969836118369482 -0.26041778922000308 0 -0.39442967684708991 -0.25208667127465478 0 -0.39442967684708991 -0.25208667127465478 0 -0.39871653422275 -0.26477063034798642 0 -0.39796822484346261 -0.23652916605093899 0 -0.40220594800304021 -0.25293233307518609 0 -0.39871653422275 -0.26477063034798642 0 -0.40644367116261759 -0.26933550009943341 0 -0.40220594800304021 -0.25293233307518609 0 -0.39871653422275 -0.26477063034798642 0 -0.39796822484346261 -0.23652916605093899 0 -0.40220594800304021 -0.25293233307518609 0 -0.40644367116261759 -0.26933550009943341 0 -0.39871653422275 -0.26477063034798642 0 -0.39796822484346261 -0.23652916605093899 0 -0.38840702012614647 -0.26770602668030929 0 -0.39442967684708991 -0.25208667127465478 0 -0.39871653422275 -0.26477063034798642 0 -0.40220594800304021 -0.25293233307518609 0 -0.41459928595597673 -0.25790967448939001 0 -0.40644367116261759 -0.26933550009943341 0 -0.40220594800304021 -0.25293233307518609 0 -0.41459928595597673 -0.25790967448939001 0 -0.41466813127082142 -0.24184035413310251 0 -0.41459928595597673 -0.25790967448939001 0 -0.42775875008346192 -0.25507980811954323 0 -0.41466813127082142 -0.24184035413310251 0 -0.41459928595597673 -0.25790967448939001 0 -0.42191992925994232 -0.27036037701968468 0 -0.42775875008346192 -0.25507980811954323 0 -0.40644367116261759 -0.26933550009943341 0 -0.41206191028808969 -0.27659566112432887 0 -0.42191992925994232 -0.27036037701968468 0 -0.40459857025975621 -0.28097081354976228 0 -0.40644367116261759 -0.26933550009943341 0 -0.41206191028808969 -0.27659566112432887 0 -0.41620122749958632 -0.28481054703811581 0 -0.40459857025975621 -0.28097081354976228 0 -0.41206191028808969 -0.27659566112432887 0 -0.41620122749958632 -0.28481054703811581 0 -0.41206191028808969 -0.27659566112432887 0 -0.42191992925994232 -0.27036037701968468 0 -0.41459928595597673 -0.25790967448939001 0 -0.40644367116261759 -0.26933550009943341 0 -0.42191992925994232 -0.27036037701968468 0 -0.43957983862160288 -0.2813442194983079 0 -0.42191992925994232 -0.27036037701968468 0 -0.43680511815892142 -0.2660007677910407 0 -0.43957983862160288 -0.2813442194983079 0 -0.41620122749958632 -0.28481054703811581 0 -0.42191992925994232 -0.27036037701968468 0 -0.44165736388207272 -0.25360003737878889 0 -0.43680511815892142 -0.2660007677910407 0 -0.42775875008346192 -0.25507980811954323 0 -0.42191992925994232 -0.27036037701968468 0 -0.43680511815892142 -0.2660007677910407 0 -0.42775875008346192 -0.25507980811954323 0 -0.32577683519746242 -0.25897579210934468 0 -0.30798481169360081 -0.26465381523239789 0 -0.31421725341188372 -0.24977587129631751 0 -0.32577683519746242 -0.25897579210934468 0 -0.31511343508082401 -0.27781322935613839 0 -0.33065211668571071 -0.27437360408278932 0 -0.32577683519746242 -0.25897579210934468 0 -0.31511343508082401 -0.27781322935613839 0 -0.30798481169360081 -0.26465381523239789 0 -0.31511343508082401 -0.27781322935613839 0 -0.33065211668571071 -0.27437360408278932 0 -0.32673865940135971 -0.29036850998253821 0 -0.33065211668571071 -0.27437360408278932 0 -0.3425640544848888 -0.26114950363554529 0 -0.3458528524608297 -0.27955870857394483 0 -0.32577683519746242 -0.25897579210934468 0 -0.33065211668571071 -0.27437360408278932 0 -0.3425640544848888 -0.26114950363554529 0 -0.32577683519746242 -0.25897579210934468 0 -0.3425640544848888 -0.26114950363554529 0 -0.34161545739809862 -0.2441761224370865 0 -0.3425640544848888 -0.26114950363554529 0 -0.35707845064694121 -0.24935767075674509 0 -0.34161545739809862 -0.2441761224370865 0 -0.3425640544848888 -0.26114950363554529 0 -0.3649670455202999 -0.26874890716535171 0 -0.35707845064694121 -0.24935767075674509 0 -0.3649670455202999 -0.26874890716535171 0 -0.35707845064694121 -0.24935767075674509 0 -0.37969836118369482 -0.26041778922000308 0 -0.36999160380854529 -0.25160890498862648 0 -0.3649670455202999 -0.26874890716535171 0 -0.36999160380854529 -0.25160890498862648 0 -0.3649670455202999 -0.26874890716535171 0 -0.35707845064694121 -0.24935767075674509 0 -0.37969836118369482 -0.26041778922000308 0 -0.3649670455202999 -0.26874890716535171 0 -0.3649670455202999 -0.26874890716535171 0 -0.3458528524608297 -0.27955870857394483 0 -0.37089355010314762 -0.28331705945197572 0 -0.37812768531643998 -0.2740521224023964 0 -0.3649670455202999 -0.26874890716535171 0 -0.37089355010314762 -0.28331705945197572 0 -0.3649670455202999 -0.26874890716535171 0 -0.37089355010314762 -0.28331705945197572 0 -0.37812768531643998 -0.2740521224023964 0 -0.37969836118369482 -0.26041778922000308 0 -0.3649670455202999 -0.26874890716535171 0 -0.3649670455202999 -0.26874890716535171 0 -0.3458528524608297 -0.27955870857394483 0 -0.3425640544848888 -0.26114950363554529 0 -0.3649670455202999 -0.26874890716535171 0 -0.3458528524608297 -0.27955870857394483 0 -0.3458528524608297 -0.27955870857394483 0 -0.35490209917173382 -0.29713784607450577 0 -0.33298414365747597 -0.29639048041041038 0 -0.3458528524608297 -0.27955870857394483 0 -0.37089355010314762 -0.28331705945197572 0 -0.35490209917173382 -0.29713784607450577 0 -0.35490209917173382 -0.29713784607450577 0 -0.33298414365747597 -0.29639048041041038 0 -0.37682005468599161 -0.29788521173860111 0 -0.37089355010314762 -0.28331705945197572 0 -0.35490209917173382 -0.29713784607450577 0 -0.37682005468599161 -0.29788521173860111 0 -0.37089355010314762 -0.28331705945197572 0 -0.37682005468599161 -0.29788521173860111 0 -0.35490209917173382 -0.29713784607450577 0 -0.37682005468599161 -0.29788521173860111 0 -0.36188894867209143 -0.31041699320339777 0 -0.35490209917173382 -0.29713784607450577 0 -0.37576395745092178 -0.3050725196501074 0 -0.36188894867209143 -0.31041699320339777 0 -0.37031507652163809 -0.31287943285871039 0 -0.37576395745092178 -0.3050725196501074 0 -0.37719713711566749 -0.31197748083789167 0 -0.37031507652163809 -0.31287943285871039 0 -0.37682005468599161 -0.29788521173860111 0 -0.37576395745092178 -0.3050725196501074 0 -0.36188894867209143 -0.31041699320339777 0 -0.36188894867209143 -0.31041699320339777 0 -0.35490209917173382 -0.29713784607450577 0 -0.34709214139205768 -0.31270838654372951 0 -0.35490209917173382 -0.29713784607450577 0 -0.34179204247812539 -0.30372858581904438 0 -0.34709214139205768 -0.31270838654372951 0 -0.35490209917173382 -0.29713784607450577 0 -0.34179204247812539 -0.30372858581904438 0 -0.33298414365747597 -0.29639048041041038 0 -0.33218978569123447 -0.30867763024753198 0 -0.34179204247812539 -0.30372858581904438 0 -0.34709214139205768 -0.31270838654372951 0 -0.33218978569123447 -0.30867763024753198 0 -0.34179204247812539 -0.30372858581904438 0 -0.33298414365747597 -0.29639048041041038 0 -0.33218978569123447 -0.30867763024753198 0 -0.33298414365747597 -0.29639048041041038 0 -0.32551389594434832 -0.29891105756718273 0 -0.3458528524608297 -0.27955870857394483 0 -0.32673865940135971 -0.29036850998253821 0 -0.3458528524608297 -0.27955870857394483 0 -0.33298414365747597 -0.29639048041041038 0 -0.32673865940135971 -0.29036850998253821 0 -0.33065211668571071 -0.27437360408278932 0 -0.3458528524608297 -0.27955870857394483 0 -0.32673865940135971 -0.29036850998253821 0 -0.33298414365747597 -0.29639048041041038 0 -0.32673865940135971 -0.29036850998253821 0 -0.32551389594434832 -0.29891105756718273 0 -0.32673865940135971 -0.29036850998253821 0 -0.31615320843671613 -0.29356321322440693 0 -0.32551389594434832 -0.29891105756718273 0 -0.31511343508082401 -0.27781322935613839 0 -0.32673865940135971 -0.29036850998253821 0 -0.31615320843671613 -0.29356321322440693 0 -0.31615320843671613 -0.29356321322440693 0 -0.31950368253495531 -0.30555545397102613 0 -0.30878428388507118 -0.30170417431472779 0 -0.31950368253495531 -0.30555545397102613 0 -0.3116392313269683 -0.31227800665128408 0 -0.30878428388507118 -0.30170417431472779 0 -0.31950368253495531 -0.30555545397102613 0 -0.32244955285570731 -0.31946983399639112 0 -0.3116392313269683 -0.31227800665128408 0 -0.33218978569123447 -0.30867763024753198 0 -0.31950368253495531 -0.30555545397102613 0 -0.32244955285570731 -0.31946983399639112 0 -0.33218978569123447 -0.30867763024753198 0 -0.31950368253495531 -0.30555545397102613 0 -0.32551389594434832 -0.29891105756718273 0 -0.31615320843671613 -0.29356321322440693 0 -0.31950368253495531 -0.30555545397102613 0 -0.32551389594434832 -0.29891105756718273 0 -0.32244955285570731 -0.31946983399639112 0 -0.30629799224095122 -0.32640742927921629 0 -0.3116392313269683 -0.31227800665128408 0 -0.32244955285570731 -0.31946983399639112 0 -0.32074380139974629 -0.33343701228721029 0 -0.30629799224095122 -0.32640742927921629 0 -0.32244955285570731 -0.31946983399639112 0 -0.32074380139974629 -0.33343701228721029 0 -0.33561670872011118 -0.32538867032004731 0 -0.32074380139974629 -0.33343701228721029 0 -0.33040605641151349 -0.34939015350577979 0 -0.304947043925899 -0.34335287533409059 0 -0.32074380139974629 -0.33343701228721029 0 -0.33267344648675012 -0.33694306544023261 0 -0.33040605641151349 -0.34939015350577979 0 -0.32074380139974629 -0.33343701228721029 0 -0.33267344648675012 -0.33694306544023261 0 -0.33561670872011118 -0.32538867032004731 0 -0.33267344648675012 -0.33694306544023261 0 -0.34392721941562959 -0.33955642564789279 0 -0.33040605641151349 -0.34939015350577979 0 -0.33561670872011118 -0.32538867032004731 0 -0.349287455364583 -0.32600753078393868 0 -0.34392721941562959 -0.33955642564789279 0 -0.33267344648675012 -0.33694306544023261 0 -0.33561670872011118 -0.32538867032004731 0 -0.34392721941562959 -0.33955642564789279 0 -0.33218978569123447 -0.30867763024753198 0 -0.33561670872011118 -0.32538867032004731 0 -0.34709214139205768 -0.31270838654372951 0 -0.33218978569123447 -0.30867763024753198 0 -0.32244955285570731 -0.31946983399639112 0 -0.33561670872011118 -0.32538867032004731 0 -0.33561670872011118 -0.32538867032004731 0 -0.34709214139205768 -0.31270838654372951 0 -0.349287455364583 -0.32600753078393868 0 -0.36188894867209143 -0.31041699320339777 0 -0.349287455364583 -0.32600753078393868 0 -0.36280179597878331 -0.32525767970938912 0 -0.36188894867209143 -0.31041699320339777 0 -0.34709214139205768 -0.31270838654372951 0 -0.349287455364583 -0.32600753078393868 0 -0.36188894867209143 -0.31041699320339777 0 -0.36280179597878331 -0.32525767970938912 0 -0.37031507652163809 -0.31287943285871039 0 -0.37746168828861648 -0.32880316406910598 0 -0.36280179597878331 -0.32525767970938912 0 -0.37456534516798468 -0.31943469669369101 0 -0.36280179597878331 -0.32525767970938912 0 -0.37456534516798468 -0.31943469669369101 0 -0.37031507652163809 -0.31287943285871039 0 -0.37719713711566749 -0.31197748083789167 0 -0.37456534516798468 -0.31943469669369101 0 -0.37031507652163809 -0.31287943285871039 0 -0.37630104444955431 -0.33953575302191552 0 -0.36280179597878331 -0.32525767970938912 0 -0.35900277781907919 -0.33873387737807908 0 -0.37630104444955431 -0.33953575302191552 0 -0.35900277781907919 -0.33873387737807908 0 -0.3662355090989915 -0.348226851570058 0 -0.37746168828861648 -0.32880316406910598 0 -0.37630104444955431 -0.33953575302191552 0 -0.36280179597878331 -0.32525767970938912 0 -0.37630104444955431 -0.33953575302191552 0 -0.36280179597878331 -0.32525767970938912 0 -0.349287455364583 -0.32600753078393868 0 -0.36280179597878331 -0.32525767970938912 0 -0.35900277781907919 -0.33873387737807908 0 -0.349287455364583 -0.32600753078393868 0 -0.35900277781907919 -0.33873387737807908 0 -0.34392721941562959 -0.33955642564789279 0 -0.34392721941562959 -0.33955642564789279 0 -0.34378478126742867 -0.35168705731137051 0 -0.35474622765707731 -0.3530842238088211 0 -0.34378478126742867 -0.35168705731137051 0 -0.35474622765707731 -0.3530842238088211 0 -0.34605962158549469 -0.3647174262829882 0 -0.35474622765707731 -0.3530842238088211 0 -0.34605962158549469 -0.3647174262829882 0 -0.35474622765707731 -0.3530842238088211 0 -0.3645004591251928 -0.35797240650737622 0 -0.3557305472228397 -0.36248105220686111 0 -0.35900277781907919 -0.33873387737807908 0 -0.34392721941562959 -0.33955642564789279 0 -0.35474622765707731 -0.3530842238088211 0 -0.35900277781907919 -0.33873387737807908 0 -0.35474622765707731 -0.3530842238088211 0 -0.3662355090989915 -0.348226851570058 0 -0.35474622765707731 -0.3530842238088211 0 -0.3662355090989915 -0.348226851570058 0 -0.3645004591251928 -0.35797240650737622 0 -0.37501505732771462 -0.35270295609204683 0 -0.3662355090989915 -0.348226851570058 0 -0.3645004591251928 -0.35797240650737622 0 -0.37501505732771462 -0.35270295609204683 0 -0.3645004591251928 -0.35797240650737622 0 -0.37245563567842283 -0.36342144099550278 0 -0.37501505732771462 -0.35270295609204683 0 -0.37630104444955431 -0.33953575302191552 0 -0.3662355090989915 -0.348226851570058 0 -0.35160698284412462 -0.37014915498247181 0 -0.36791003929668897 -0.37531597356073781 0 -0.3617394449023093 -0.36648204945264778 0 -0.35160698284412462 -0.37014915498247181 0 -0.36791003929668897 -0.37531597356073781 0 -0.37245563567842283 -0.36342144099550278 0 -0.3617394449023093 -0.36648204945264778 0 -0.36791003929668897 -0.37531597356073781 0 -0.37576852049830373 -0.37424143402576782 0 -0.37245563567842283 -0.36342144099550278 0 -0.36791003929668897 -0.37531597356073781 0 -0.3645004591251928 -0.35797240650737622 0 -0.3617394449023093 -0.36648204945264778 0 -0.3557305472228397 -0.36248105220686111 0 -0.3645004591251928 -0.35797240650737622 0 -0.37245563567842283 -0.36342144099550278 0 -0.3617394449023093 -0.36648204945264778 0 -0.35474622765707731 -0.3530842238088211 0 -0.3557305472228397 -0.36248105220686111 0 -0.34605962158549469 -0.3647174262829882 0 -0.3617394449023093 -0.36648204945264778 0 -0.35160698284412462 -0.37014915498247181 0 -0.3557305472228397 -0.36248105220686111 0 -0.35160698284412462 -0.37014915498247181 0 -0.3557305472228397 -0.36248105220686111 0 -0.34605962158549469 -0.3647174262829882 0 -0.34605962158549469 -0.3647174262829882 0 -0.34384142010082153 -0.36768806715090302 0 -0.34148886242004811 -0.36564807466747679 0 -0.34605962158549469 -0.3647174262829882 0 -0.34384142010082153 -0.36768806715090302 0 -0.35160698284412462 -0.37014915498247181 0 -0.34384142010082153 -0.36768806715090302 0 -0.3473193197300139 -0.3757558619871843 0 -0.35160698284412462 -0.37014915498247181 0 -0.34384142010082153 -0.36768806715090302 0 -0.35160698284412462 -0.37014915498247181 0 -0.34605962158549469 -0.3647174262829882 0 -0.35160698284412462 -0.37014915498247181 0 -0.34605962158549469 -0.3647174262829882 0 -0.34384142010082153 -0.36768806715090302 0 -0.34384142010082153 -0.36768806715090302 0 -0.3394050004453173 -0.36792428240374231 0 -0.33667947897576161 -0.37727942084292682 0 -0.34384142010082153 -0.36768806715090302 0 -0.33667947897576161 -0.37727942084292682 0 -0.34384142010082153 -0.36768806715090302 0 -0.3473193197300139 -0.3757558619871843 0 -0.33667947897576161 -0.37727942084292682 0 -0.32081326145083022 -0.36031614808850881 0 -0.33667947897576161 -0.37727942084292682 0 -0.3394050004453173 -0.36792428240374231 0 -0.33336643958396978 -0.36601612799497002 0 -0.33667947897576161 -0.37727942084292682 0 -0.33336643958396978 -0.36601612799497002 0 -0.32081326145083022 -0.36031614808850881 0 -0.33667947897576161 -0.37727942084292682 0 -0.33132451367914112 -0.3606866026678322 0 -0.33336643958396978 -0.36601612799497002 0 -0.32081326145083022 -0.36031614808850881 0 -0.33132451367914112 -0.3606866026678322 0 -0.33336643958396978 -0.36601612799497002 0 -0.33697234037925838 -0.36236486777317728 0 -0.34605962158549469 -0.3647174262829882 0 -0.33697234037925838 -0.36236486777317728 0 -0.34148886242004811 -0.36564807466747679 0 -0.3394050004453173 -0.36792428240374231 0 -0.33697234037925838 -0.36236486777317728 0 -0.34148886242004811 -0.36564807466747679 0 -0.3394050004453173 -0.36792428240374231 0 -0.33336643958396978 -0.36601612799497002 0 -0.33697234037925838 -0.36236486777317728 0 -0.34384142010082153 -0.36768806715090302 0 -0.3394050004453173 -0.36792428240374231 0 -0.34148886242004811 -0.36564807466747679 0 -0.34605962158549469 -0.3647174262829882 0 -0.33040605641151349 -0.34939015350577979 0 -0.34378478126742867 -0.35168705731137051 0 -0.34605962158549469 -0.3647174262829882 0 -0.33040605641151349 -0.34939015350577979 0 -0.34605962158549469 -0.3647174262829882 0 -0.33697234037925838 -0.36236486777317728 0 -0.33040605641151349 -0.34939015350577979 0 -0.34392721941562959 -0.33955642564789279 0 -0.34378478126742867 -0.35168705731137051 0 -0.33040605641151349 -0.34939015350577979 0 -0.33132451367914112 -0.3606866026678322 0 -0.33697234037925838 -0.36236486777317728 0 -0.33040605641151349 -0.34939015350577979 0 -0.33040605641151349 -0.34939015350577979 0 -0.32081326145083022 -0.36031614808850881 0 -0.304947043925899 -0.34335287533409059 0 -0.32081326145083022 -0.36031614808850881 0 -0.304947043925899 -0.34335287533409059 0 -0.33132451367914112 -0.3606866026678322 0 -0.33040605641151349 -0.34939015350577979 0 -0.32081326145083022 -0.36031614808850881 0 -0.32440986188565729 -0.37270080156259489 0 -0.32081326145083022 -0.36031614808850881 0 -0.31106328263090982 -0.36800475596674848 0 -0.32440986188565729 -0.37270080156259489 0 -0.32081326145083022 -0.36031614808850881 0 -0.33667947897576161 -0.37727942084292682 0 -0.32440986188565729 -0.37270080156259489 0 -0.31106328263090982 -0.36800475596674848 0 -0.31317375432424149 -0.38208007184035081 0 -0.31106328263090982 -0.36800475596674848 0 -0.30477466129399572 -0.35837215094430408 0 -0.2945929359319488 -0.36760614731534108 0 -0.32081326145083022 -0.36031614808850881 0 -0.31106328263090982 -0.36800475596674848 0 -0.30477466129399572 -0.35837215094430408 0 -0.2945929359319488 -0.36760614731534108 0 -0.31317375432424149 -0.38208007184035081 0 -0.31106328263090982 -0.36800475596674848 0 -0.2945929359319488 -0.36760614731534108 0 -0.31317375432424149 -0.38208007184035081 0 -0.30477466129399572 -0.35837215094430408 0 -0.29245678253039098 -0.35258082801683138 0 -0.2945929359319488 -0.36760614731534108 0 -0.32081326145083022 -0.36031614808850881 0 -0.30477466129399572 -0.35837215094430408 0 -0.304947043925899 -0.34335287533409059 0 -0.30477466129399572 -0.35837215094430408 0 -0.29245678253039098 -0.35258082801683138 0 -0.304947043925899 -0.34335287533409059 0 -0.29245678253039098 -0.35258082801683138 0 -0.27601211753965582 -0.35313222279033191 0 -0.28440521569258082 -0.34149228361744682 0 -0.29245678253039098 -0.35258082801683138 0 -0.2945929359319488 -0.36760614731534108 0 -0.27601211753965582 -0.35313222279033191 0 -0.29245678253039098 -0.35258082801683138 0 -0.28440521569258082 -0.34149228361744682 0 -0.304947043925899 -0.34335287533409059 0 -0.2945929359319488 -0.36760614731534108 0 -0.27987861861344199 -0.36674592141788198 0 -0.27601211753965582 -0.35313222279033191 0 -0.2945929359319488 -0.36760614731534108 0 -0.27601211753965582 -0.35313222279033191 0 -0.2945929359319488 -0.36760614731534108 0 -0.27987861861344199 -0.36674592141788198 0 -0.2808665902171914 -0.38228580422035652 0 -0.26678221966742222 -0.3646399338773868 0 -0.2808665902171914 -0.38228580422035652 0 -0.27987861861344199 -0.36674592141788198 0 -0.26678221966742222 -0.3646399338773868 0 -0.2808665902171914 -0.38228580422035652 0 -0.27987861861344199 -0.36674592141788198 0 -0.26678221966742222 -0.3646399338773868 0 -0.27601211753965582 -0.35313222279033191 0 -0.26678221966742222 -0.3646399338773868 0 -0.25938421221386299 -0.38242260424217978 0 -0.2452998416640946 -0.36477673389921211 0 -0.25269784911765092 -0.34699406353441858 0 -0.27601211753965582 -0.35313222279033191 0 -0.25743129914736268 -0.33865829826532268 0 -0.26678221966742222 -0.3646399338773868 0 -0.25269784911765092 -0.34699406353441858 0 -0.27601211753965582 -0.35313222279033191 0 -0.26678221966742222 -0.3646399338773868 0 -0.25269784911765092 -0.34699406353441858 0 -0.26678221966742222 -0.3646399338773868 0 -0.25269784911765092 -0.34699406353441858 0 -0.2452998416640946 -0.36477673389921211 0 -0.27601211753965582 -0.35313222279033191 0 -0.25743129914736268 -0.33865829826532268 0 -0.27601211753965582 -0.35313222279033191 0 -0.27044436538280059 -0.34111632069956299 0 -0.25743129914736268 -0.33865829826532268 0 -0.27601211753965582 -0.35313222279033191 0 -0.27044436538280059 -0.34111632069956299 0 -0.28440521569258082 -0.34149228361744682 0 -0.27621603835147168 -0.33027839755104138 0 -0.27044436538280059 -0.34111632069956299 0 -0.28440521569258082 -0.34149228361744682 0 -0.27621603835147168 -0.33027839755104138 0 -0.26858322842119509 -0.33433735121453573 0 -0.26421331744216298 -0.32943061110636401 0 -0.27621603835147168 -0.33027839755104138 0 -0.26858322842119509 -0.33433735121453573 0 -0.27044436538280059 -0.34111632069956299 0 -0.26858322842119509 -0.33433735121453573 0 -0.27044436538280059 -0.34111632069956299 0 -0.26348614366539269 -0.33464536090729041 0 -0.25269784911765092 -0.34699406353441858 0 -0.2601150759189611 -0.3291651954159735 0 -0.25269784911765092 -0.34699406353441858 0 -0.2601150759189611 -0.3291651954159735 0 -0.25743129914736268 -0.33865829826532268 0 -0.27044436538280059 -0.34111632069956299 0 -0.26348614366539269 -0.33464536090729041 0 -0.25743129914736268 -0.33865829826532268 0 -0.26348614366539269 -0.33464536090729041 0 -0.2601150759189611 -0.3291651954159735 0 -0.25743129914736268 -0.33865829826532268 0 -0.26858322842119509 -0.33433735121453573 0 -0.26348614366539269 -0.33464536090729041 0 -0.26421331744216298 -0.32943061110636401 0 -0.26348614366539269 -0.33464536090729041 0 -0.26421331744216298 -0.32943061110636401 0 -0.2601150759189611 -0.3291651954159735 0 -0.25993101682886932 -0.31889206187407287 0 -0.25469452373499762 -0.30722313484128749 0 -0.2494260049788683 -0.31746489113439402 0 -0.2601150759189611 -0.3291651954159735 0 -0.25993101682886932 -0.31889206187407287 0 -0.2494260049788683 -0.31746489113439402 0 -0.26421331744216298 -0.32943061110636401 0 -0.2601150759189611 -0.3291651954159735 0 -0.25993101682886932 -0.31889206187407287 0 -0.26421331744216298 -0.32943061110636401 0 -0.25993101682886932 -0.31889206187407287 0 -0.27321460887603632 -0.30942632982525498 0 -0.27621603835147168 -0.33027839755104138 0 -0.28908082640096788 -0.32638960257967248 0 -0.27321460887603632 -0.30942632982525498 0 -0.26421331744216298 -0.32943061110636401 0 -0.27321460887603632 -0.30942632982525498 0 -0.28908082640096788 -0.32638960257967248 0 -0.27321460887603632 -0.30942632982525498 0 -0.27621603835147168 -0.33027839755104138 0 -0.26421331744216298 -0.32943061110636401 0 -0.27321460887603632 -0.30942632982525498 0 -0.28908082640096788 -0.32638960257967248 0 -0.29608772242085762 -0.30837888524759871 0 -0.27321460887603632 -0.30942632982525498 0 -0.28908082640096788 -0.32638960257967248 0 -0.28440521569258082 -0.34149228361744682 0 -0.304947043925899 -0.34335287533409059 0 -0.27621603835147168 -0.33027839755104138 0 -0.28908082640096788 -0.32638960257967248 0 -0.28440521569258082 -0.34149228361744682 0 -0.28908082640096788 -0.32638960257967248 0 -0.304947043925899 -0.34335287533409059 0 -0.32074380139974629 -0.33343701228721029 0 -0.304947043925899 -0.34335287533409059 0 -0.30629799224095122 -0.32640742927921629 0 -0.28908082640096788 -0.32638960257967248 0 -0.304947043925899 -0.34335287533409059 0 -0.30629799224095122 -0.32640742927921629 0 -0.30629799224095122 -0.32640742927921629 0 -0.3116392313269683 -0.31227800665128408 0 -0.29608772242085762 -0.30837888524759871 0 -0.28908082640096788 -0.32638960257967248 0 -0.30629799224095122 -0.32640742927921629 0 -0.29608772242085762 -0.30837888524759871 0 -0.30878428388507118 -0.30170417431472779 0 -0.30257535950331932 -0.29121923704559499 0 -0.29608772242085762 -0.30837888524759871 0 -0.3116392313269683 -0.31227800665128408 0 -0.30878428388507118 -0.30170417431472779 0 -0.29608772242085762 -0.30837888524759871 0 -0.31511343508082401 -0.27781322935613839 0 -0.31615320843671613 -0.29356321322440693 0 -0.30257535950331932 -0.29121923704559499 0 -0.31615320843671613 -0.29356321322440693 0 -0.30878428388507118 -0.30170417431472779 0 -0.30257535950331932 -0.29121923704559499 0 -0.31511343508082401 -0.27781322935613839 0 -0.30257535950331932 -0.29121923704559499 0 -0.30186967514470631 -0.27796386812733742 0 -0.30257535950331932 -0.29121923704559499 0 -0.28167541002104313 -0.29062322282537112 0 -0.29608772242085762 -0.30837888524759871 0 -0.30257535950331932 -0.29121923704559499 0 -0.28167541002104313 -0.29062322282537112 0 -0.30186967514470631 -0.27796386812733742 0 -0.28167541002104313 -0.29062322282537112 0 -0.29608772242085762 -0.30837888524759871 0 -0.27321460887603632 -0.30942632982525498 0 -0.28167541002104313 -0.29062322282537112 0 -0.27321460887603632 -0.30942632982525498 0 -0.28167541002104313 -0.29062322282537112 0 -0.27321460887603632 -0.30942632982525498 0 -0.25754389589834492 -0.29267207960278718 0 -0.27321460887603632 -0.30942632982525498 0 -0.25469452373499762 -0.30722313484128749 0 -0.25754389589834492 -0.29267207960278718 0 -0.27321460887603632 -0.30942632982525498 0 -0.25754389589834492 -0.29267207960278718 0 -0.25469452373499762 -0.30722313484128749 0 -0.25754389589834492 -0.29267207960278718 0 -0.24072416822125611 -0.30184362229434508 0 -0.25993101682886932 -0.31889206187407287 0 -0.27321460887603632 -0.30942632982525498 0 -0.25469452373499762 -0.30722313484128749 0 -0.28167541002104313 -0.29062322282537112 0 -0.25754389589834492 -0.29267207960278718 0 -0.26609549321717318 -0.27038600033383992 0 -0.28167541002104313 -0.29062322282537112 0 -0.26609549321717318 -0.27038600033383992 0 -0.29013621116605032 -0.27182011582548737 0 -0.25754389589834492 -0.29267207960278718 0 -0.26609549321717318 -0.27038600033383992 0 -0.24718685023563691 -0.27875123027958087 0 -0.26609549321717318 -0.27038600033383992 0 -0.2483490975252734 -0.26098873334868322 0 -0.24718685023563691 -0.27875123027958087 0 -0.26609549321717318 -0.27038600033383992 0 -0.2483490975252734 -0.26098873334868322 0 -0.2582168116042447 -0.2439014490639565 0 -0.26609549321717318 -0.27038600033383992 0 -0.28073519909821221 -0.25162370631188929 0 -0.2582168116042447 -0.2439014490639565 0 -0.26609549321717318 -0.27038600033383992 0 -0.28073519909821221 -0.25162370631188929 0 -0.29013621116605032 -0.27182011582548737 0 -0.28073519909821221 -0.25162370631188929 0 -0.29013621116605032 -0.27182011582548737 0 -0.29859701231105729 -0.25301700882560368 0 -0.29013621116605032 -0.27182011582548737 0 -0.29859701231105729 -0.25301700882560368 0 -0.28167541002104313 -0.29062322282537112 0 -0.29013621116605032 -0.27182011582548737 0 -0.28167541002104313 -0.29062322282537112 0 -0.29013621116605032 -0.27182011582548737 0 -0.30186967514470631 -0.27796386812733742 0 -0.29013621116605032 -0.27182011582548737 0 -0.30186967514470631 -0.27796386812733742 0 -0.30798481169360081 -0.26465381523239789 0 -0.31511343508082401 -0.27781322935613839 0 -0.30186967514470631 -0.27796386812733742 0 -0.30798481169360081 -0.26465381523239789 0 -0.29013621116605032 -0.27182011582548737 0 -0.30798481169360081 -0.26465381523239789 0 -0.29859701231105729 -0.25301700882560368 0 -0.30798481169360081 -0.26465381523239789 0 -0.29859701231105729 -0.25301700882560368 0 -0.31421725341188372 -0.24977587129631751 0 -0.33796228302189513 -0.4595255727132167 0 -0.33234589271538922 -0.44480996408757179 0 -0.32640026466812011 -0.46081896178250181 0 -0.33796228302189513 -0.4595255727132167 0 -0.33234589271538922 -0.44480996408757179 0 -0.35319602351827412 -0.45776170704885039 0 -0.33796228302189513 -0.4595255727132167 0 -0.32640026466812011 -0.46081896178250181 0 -0.33318196746883988 -0.47121638454265508 0 -0.33796228302189513 -0.4595255727132167 0 -0.33318196746883988 -0.47121638454265508 0 -0.34642386304625039 -0.46572223054776302 0 -0.33234589271538922 -0.44480996408757179 0 -0.35319602351827412 -0.45776170704885039 0 -0.34417399017822298 -0.44321594322297297 0 -0.33234589271538922 -0.44480996408757179 0 -0.35319602351827412 -0.45776170704885039 0 -0.33234589271538922 -0.44480996408757179 0 -0.34417399017822298 -0.44321594322297297 0 -0.3357600199570368 -0.42926052953436999 0 -0.33234589271538922 -0.44480996408757179 0 -0.3114957619125025 -0.43185822112629579 0 -0.33234589271538922 -0.44480996408757179 0 -0.31256905993156642 -0.45599936109409522 0 -0.3094409967240645 -0.4445248742670016 0 -0.33234589271538922 -0.44480996408757179 0 -0.3114957619125025 -0.43185822112629579 0 -0.3094409967240645 -0.4445248742670016 0 -0.31256905993156642 -0.45599936109409522 0 -0.32640026466812011 -0.46081896178250181 0 -0.31594212020290968 -0.47254352647497072 0 -0.32640026466812011 -0.46081896178250181 0 -0.31594212020290968 -0.47254352647497072 0 -0.33318196746883988 -0.47121638454265508 0 -0.33234589271538922 -0.44480996408757179 0 -0.31256905993156642 -0.45599936109409522 0 -0.32640026466812011 -0.46081896178250181 0 -0.31594212020290968 -0.47254352647497072 0 -0.32571643119753041 -0.48341426386358383 0 -0.33318196746883988 -0.47121638454265508 0 -0.31594212020290968 -0.47254352647497072 0 -0.32571643119753041 -0.48341426386358383 0 -0.3142379471820072 -0.49087834217350051 0 -0.32571643119753041 -0.48341426386358383 0 -0.3142379471820072 -0.49087834217350051 0 -0.33008082446145748 -0.5 0 -0.3142379471820072 -0.49087834217350051 0 -0.33008082446145748 -0.5 0 -0.30187341860680589 -0.5 0 -0.33008082446145748 -0.5 0 -0.33835912005968188 -0.48593346247900621 0 -0.35828823031610901 -0.5 0 -0.32571643119753041 -0.48341426386358383 0 -0.33008082446145748 -0.5 0 -0.33835912005968188 -0.48593346247900621 0 -0.33835912005968188 -0.48593346247900621 0 -0.33318196746883988 -0.47121638454265508 0 -0.35033712925844102 -0.47766396546025452 0 -0.33318196746883988 -0.47121638454265508 0 -0.35033712925844102 -0.47766396546025452 0 -0.34642386304625039 -0.46572223054776302 0 -0.32571643119753041 -0.48341426386358383 0 -0.33835912005968188 -0.48593346247900621 0 -0.33318196746883988 -0.47121638454265508 0 -0.35033712925844102 -0.47766396546025452 0 -0.36650464836053492 -0.47758333459014829 0 -0.36063794808603339 -0.46630538924086617 0 -0.35033712925844102 -0.47766396546025452 0 -0.36063794808603339 -0.46630538924086617 0 -0.34642386304625039 -0.46572223054776302 0 -0.33835912005968188 -0.48593346247900621 0 -0.35033712925844102 -0.47766396546025452 0 -0.35828823031610901 -0.5 0 -0.35033712925844102 -0.47766396546025452 0 -0.35828823031610901 -0.5 0 -0.36650464836053492 -0.47758333459014829 0 -0.38649563617076049 -0.5 0 -0.35828823031610901 -0.5 0 -0.36650464836053492 -0.47758333459014829 0 -0.36650464836053492 -0.47758333459014829 0 -0.3749125057523493 -0.4641870694620962 0 -0.36063794808603339 -0.46630538924086617 0 -0.38257104150817378 -0.44558539909593659 0 -0.3749125057523493 -0.4641870694620962 0 -0.36138234587818158 -0.45426427734382602 0 -0.3749125057523493 -0.4641870694620962 0 -0.36138234587818158 -0.45426427734382602 0 -0.36063794808603339 -0.46630538924086617 0 -0.36063794808603339 -0.46630538924086617 0 -0.35319602351827412 -0.45776170704885039 0 -0.34642386304625039 -0.46572223054776302 0 -0.36138234587818158 -0.45426427734382602 0 -0.35319602351827412 -0.45776170704885039 0 -0.35413130606104948 -0.44909707738868448 0 -0.36138234587818158 -0.45426427734382602 0 -0.36063794808603339 -0.46630538924086617 0 -0.35319602351827412 -0.45776170704885039 0 -0.33796228302189513 -0.4595255727132167 0 -0.35319602351827412 -0.45776170704885039 0 -0.34642386304625039 -0.46572223054776302 0 -0.34917789899954887 -0.43960621791601218 0 -0.34417399017822298 -0.44321594322297297 0 -0.3478317041277888 -0.43428891422125909 0 -0.34417399017822298 -0.44321594322297297 0 -0.35413130606104948 -0.44909707738868448 0 -0.35160182111049931 -0.44318126090920129 0 -0.34917789899954887 -0.43960621791601218 0 -0.34417399017822298 -0.44321594322297297 0 -0.35160182111049931 -0.44318126090920129 0 -0.34917789899954887 -0.43960621791601218 0 -0.35160182111049931 -0.44318126090920129 0 -0.35310408058168441 -0.43773875331061518 0 -0.35319602351827412 -0.45776170704885039 0 -0.34417399017822298 -0.44321594322297297 0 -0.35413130606104948 -0.44909707738868448 0 -0.36138234587818158 -0.45426427734382602 0 -0.35413130606104948 -0.44909707738868448 0 -0.3593008871480341 -0.44528990622411457 0 -0.35413130606104948 -0.44909707738868448 0 -0.35597289875446148 -0.442541016596669 0 -0.3593008871480341 -0.44528990622411457 0 -0.35597289875446148 -0.442541016596669 0 -0.3593008871480341 -0.44528990622411457 0 -0.35811375488379049 -0.43887755417772267 0 -0.35413130606104948 -0.44909707738868448 0 -0.35597289875446148 -0.442541016596669 0 -0.35160182111049931 -0.44318126090920129 0 -0.35597289875446148 -0.442541016596669 0 -0.35160182111049931 -0.44318126090920129 0 -0.35310408058168441 -0.43773875331061518 0 -0.35597289875446148 -0.442541016596669 0 -0.35310408058168441 -0.43773875331061518 0 -0.35811375488379049 -0.43887755417772267 0 -0.3593008871480341 -0.44528990622411457 0 -0.35811375488379049 -0.43887755417772267 0 -0.36466736862266619 -0.43929361107495862 0 -0.38257104150817378 -0.44558539909593659 0 -0.36138234587818158 -0.45426427734382602 0 -0.36466736862266619 -0.43929361107495862 0 -0.38257104150817378 -0.44558539909593659 0 -0.36138234587818158 -0.45426427734382602 0 -0.36138234587818158 -0.45426427734382602 0 -0.3593008871480341 -0.44528990622411457 0 -0.36466736862266619 -0.43929361107495862 0 -0.37857274293149029 -0.42876471734549271 0 -0.37441041966644201 -0.41853044649732968 0 -0.35538489801315631 -0.42903325471815951 0 -0.37857274293149029 -0.42876471734549271 0 -0.36466736862266619 -0.43929361107495862 0 -0.35538489801315631 -0.42903325471815951 0 -0.37857274293149029 -0.42876471734549271 0 -0.35538489801315631 -0.42903325471815951 0 -0.35811375488379049 -0.43887755417772267 0 -0.36466736862266619 -0.43929361107495862 0 -0.35620302754573391 -0.43383251126704991 0 -0.34839752669874718 -0.41300385642212029 0 -0.37209094330423159 -0.40089808531996213 0 -0.37441041966644201 -0.41853044649732968 0 -0.36549953895739912 -0.41199887396496521 0 -0.35538489801315631 -0.42903325471815951 0 -0.38249496913699632 -0.41100015469591239 0 -0.36549953895739912 -0.41199887396496521 0 -0.37602613074463359 -0.40570926791912437 0 -0.38249496913699632 -0.41100015469591239 0 -0.36549953895739912 -0.41199887396496521 0 -0.38249496913699632 -0.41100015469591239 0 -0.37441041966644201 -0.41853044649732968 0 -0.36549953895739912 -0.41199887396496521 0 -0.36549953895739912 -0.41199887396496521 0 -0.35538489801315631 -0.42903325471815951 0 -0.36549953895739912 -0.41199887396496521 0 -0.34839752669874718 -0.41300385642212029 0 -0.37209094330423159 -0.40089808531996213 0 -0.36549953895739912 -0.41199887396496521 0 -0.37209094330423159 -0.40089808531996213 0 -0.36549953895739912 -0.41199887396496521 0 -0.34839752669874718 -0.41300385642212029 0 -0.35538489801315631 -0.42903325471815951 0 -0.36549953895739912 -0.41199887396496521 0 -0.34839752669874718 -0.41300385642212029 0 -0.34839752669874718 -0.41300385642212029 0 -0.35538489801315631 -0.42903325471815951 0 -0.3357600199570368 -0.42926052953436999 0 -0.3478317041277888 -0.43428891422125909 0 -0.35538489801315631 -0.42903325471815951 0 -0.3357600199570368 -0.42926052953436999 0 -0.35538489801315631 -0.42903325471815951 0 -0.3357600199570368 -0.42926052953436999 0 -0.34917789899954887 -0.43960621791601218 0 -0.35310408058168441 -0.43773875331061518 0 -0.3478317041277888 -0.43428891422125909 0 -0.35310408058168441 -0.43773875331061518 0 -0.3478317041277888 -0.43428891422125909 0 -0.35306161513742162 -0.43384008959340059 0 -0.3478317041277888 -0.43428891422125909 0 -0.35306161513742162 -0.43384008959340059 0 -0.35538489801315631 -0.42903325471815951 0 -0.36466736862266619 -0.43929361107495862 0 -0.35620302754573391 -0.43383251126704991 0 -0.35538489801315631 -0.42903325471815951 0 -0.35306161513742162 -0.43384008959340059 0 -0.35620302754573391 -0.43383251126704991 0 -0.35538489801315631 -0.42903325471815951 0 -0.35310408058168441 -0.43773875331061518 0 -0.35306161513742162 -0.43384008959340059 0 -0.35620302754573391 -0.43383251126704991 0 -0.35310408058168441 -0.43773875331061518 0 -0.35811375488379049 -0.43887755417772267 0 -0.35620302754573391 -0.43383251126704991 0 -0.38353069879127127 -0.38163203803623119 0 -0.36346481754360999 -0.38175981779097429 0 -0.36791003929668897 -0.37531597356073781 0 -0.38353069879127127 -0.38163203803623119 0 -0.36346481754360999 -0.38175981779097429 0 -0.35160698284412462 -0.37014915498247181 0 -0.36346481754360999 -0.38175981779097429 0 -0.36791003929668897 -0.37531597356073781 0 -0.37610551335983561 -0.39413702328477918 0 -0.38353069879127127 -0.38163203803623119 0 -0.36346481754360999 -0.38175981779097429 0 -0.37610551335983561 -0.39413702328477918 0 -0.36346481754360999 -0.38175981779097429 0 -0.37610551335983561 -0.39413702328477918 0 -0.36346481754360999 -0.38175981779097429 0 -0.36560529781313122 -0.39247463880062672 0 -0.36346481754360999 -0.38175981779097429 0 -0.36560529781313122 -0.39247463880062672 0 -0.35703052239811178 -0.39769881565512172 0 -0.36560529781313122 -0.39247463880062672 0 -0.37209094330423159 -0.40089808531996213 0 -0.35703052239811178 -0.39769881565512172 0 -0.37610551335983561 -0.39413702328477918 0 -0.36560529781313122 -0.39247463880062672 0 -0.37209094330423159 -0.40089808531996213 0 -0.37610551335983561 -0.39413702328477918 0 -0.37209094330423159 -0.40089808531996213 0 -0.37602613074463359 -0.40570926791912437 0 -0.36549953895739912 -0.41199887396496521 0 -0.37209094330423159 -0.40089808531996213 0 -0.37602613074463359 -0.40570926791912437 0 -0.37629487057870992 -0.40149067916431569 0 -0.37209094330423159 -0.40089808531996213 0 -0.34839752669874718 -0.41300385642212029 0 -0.37209094330423159 -0.40089808531996213 0 -0.35703052239811178 -0.39769881565512172 0 -0.34839752669874718 -0.41300385642212029 0 -0.3475034212371978 -0.3977809036938752 0 -0.34022546423947331 -0.40183860272453797 0 -0.34839752669874718 -0.41300385642212029 0 -0.3475034212371978 -0.3977809036938752 0 -0.35703052239811178 -0.39769881565512172 0 -0.3475034212371978 -0.3977809036938752 0 -0.35703052239811178 -0.39769881565512172 0 -0.34623045780510991 -0.38749079344634257 0 -0.3475034212371978 -0.3977809036938752 0 -0.34623045780510991 -0.38749079344634257 0 -0.34159335278245839 -0.39476168625962771 0 -0.36346481754360999 -0.38175981779097429 0 -0.35703052239811178 -0.39769881565512172 0 -0.34623045780510991 -0.38749079344634257 0 -0.36346481754360999 -0.38175981779097429 0 -0.3473193197300139 -0.3757558619871843 0 -0.34100389918575219 -0.38190284916864559 0 -0.35160698284412462 -0.37014915498247181 0 -0.36346481754360999 -0.38175981779097429 0 -0.3473193197300139 -0.3757558619871843 0 -0.36346481754360999 -0.38175981779097429 0 -0.34100389918575219 -0.38190284916864559 0 -0.36346481754360999 -0.38175981779097429 0 -0.34623045780510991 -0.38749079344634257 0 -0.34100389918575219 -0.38190284916864559 0 -0.35160698284412462 -0.37014915498247181 0 -0.36346481754360999 -0.38175981779097429 0 -0.32440986188565729 -0.37270080156259489 0 -0.33318997219566882 -0.38195260834254191 0 -0.33667947897576161 -0.37727942084292682 0 -0.33318997219566882 -0.38195260834254191 0 -0.33667947897576161 -0.37727942084292682 0 -0.33318997219566882 -0.38195260834254191 0 -0.33667947897576161 -0.37727942084292682 0 -0.34100389918575219 -0.38190284916864559 0 -0.33318997219566882 -0.38195260834254191 0 -0.34100389918575219 -0.38190284916864559 0 -0.3473193197300139 -0.3757558619871843 0 -0.33667947897576161 -0.37727942084292682 0 -0.34100389918575219 -0.38190284916864559 0 -0.33667947897576161 -0.37727942084292682 0 -0.34100389918575219 -0.38190284916864559 0 -0.34623045780510991 -0.38749079344634257 0 -0.34100389918575219 -0.38190284916864559 0 -0.33841102596855821 -0.38947760426078792 0 -0.34623045780510991 -0.38749079344634257 0 -0.33841102596855821 -0.38947760426078792 0 -0.34159335278245839 -0.39476168625962771 0 -0.33318997219566882 -0.38195260834254191 0 -0.34100389918575219 -0.38190284916864559 0 -0.33841102596855821 -0.38947760426078792 0 -0.34623045780510991 -0.38749079344634257 0 -0.34100389918575219 -0.38190284916864559 0 -0.33318997219566882 -0.38195260834254191 0 -0.33841102596855821 -0.38947760426078792 0 -0.33274337939295218 -0.39158473010557698 0 -0.33318997219566882 -0.38195260834254191 0 -0.32576874152179608 -0.39189120557203078 0 -0.33318997219566882 -0.38195260834254191 0 -0.33274337939295218 -0.39158473010557698 0 -0.32576874152179608 -0.39189120557203078 0 -0.32912841244855839 -0.39450829284968242 0 -0.33559639466195301 -0.39722052717259471 0 -0.32788006366677641 -0.40250098545199881 0 -0.32912841244855839 -0.39450829284968242 0 -0.33274337939295218 -0.39158473010557698 0 -0.32576874152179608 -0.39189120557203078 0 -0.32912841244855839 -0.39450829284968242 0 -0.33559639466195301 -0.39722052717259471 0 -0.33274337939295218 -0.39158473010557698 0 -0.33841102596855821 -0.38947760426078792 0 -0.33559639466195301 -0.39722052717259471 0 -0.33274337939295218 -0.39158473010557698 0 -0.33841102596855821 -0.38947760426078792 0 -0.33559639466195301 -0.39722052717259471 0 -0.34159335278245839 -0.39476168625962771 0 -0.3475034212371978 -0.3977809036938752 0 -0.34159335278245839 -0.39476168625962771 0 -0.34022546423947331 -0.40183860272453797 0 -0.33559639466195301 -0.39722052717259471 0 -0.34159335278245839 -0.39476168625962771 0 -0.34022546423947331 -0.40183860272453797 0 -0.33559639466195301 -0.39722052717259471 0 -0.34022546423947331 -0.40183860272453797 0 -0.32788006366677641 -0.40250098545199881 0 -0.34022546423947331 -0.40183860272453797 0 -0.32788006366677641 -0.40250098545199881 0 -0.32831963194254171 -0.41418371360508938 0 -0.32788006366677641 -0.40250098545199881 0 -0.32576874152179608 -0.39189120557203078 0 -0.3082417371863363 -0.41536357078805991 0 -0.32576874152179608 -0.39189120557203078 0 -0.3082417371863363 -0.41536357078805991 0 -0.31067345205079122 -0.40297304657430971 0 -0.32576874152179608 -0.39189120557203078 0 -0.3082417371863363 -0.41536357078805991 0 -0.32576874152179608 -0.39189120557203078 0 -0.31035600328023122 -0.39454309529492188 0 -0.31067345205079122 -0.40297304657430971 0 -0.32912841244855839 -0.39450829284968242 0 -0.32788006366677641 -0.40250098545199881 0 -0.32576874152179608 -0.39189120557203078 0 -0.32912841244855839 -0.39450829284968242 0 -0.32576874152179608 -0.39189120557203078 0 -0.33318997219566882 -0.38195260834254191 0 -0.31317375432424149 -0.38208007184035081 0 -0.32440986188565729 -0.37270080156259489 0 -0.33318997219566882 -0.38195260834254191 0 -0.31317375432424149 -0.38208007184035081 0 -0.33318997219566882 -0.38195260834254191 0 -0.32576874152179608 -0.39189120557203078 0 -0.31317375432424149 -0.38208007184035081 0 -0.32576874152179608 -0.39189120557203078 0 -0.31317375432424149 -0.38208007184035081 0 -0.31035600328023122 -0.39454309529492188 0 -0.32576874152179608 -0.39189120557203078 0 -0.31317375432424149 -0.38208007184035081 0 -0.34417399017822298 -0.44321594322297297 0 -0.3478317041277888 -0.43428891422125909 0 -0.3357600199570368 -0.42926052953436999 0 -0.34839752669874718 -0.41300385642212029 0 -0.34022546423947331 -0.40183860272453797 0 -0.32831963194254171 -0.41418371360508938 0 -0.34839752669874718 -0.41300385642212029 0 -0.33226633429983238 -0.42124583038635088 0 -0.34839752669874718 -0.41300385642212029 0 -0.3357600199570368 -0.42926052953436999 0 -0.33226633429983238 -0.42124583038635088 0 -0.34839752669874718 -0.41300385642212029 0 -0.32831963194254171 -0.41418371360508938 0 -0.33226633429983238 -0.42124583038635088 0 -0.34839752669874718 -0.41300385642212029 0 -0.32831963194254171 -0.41418371360508938 0 -0.32831963194254171 -0.41418371360508938 0 -0.33226633429983238 -0.42124583038635088 0 -0.32271744639311822 -0.42156188657798022 0 -0.32788006366677641 -0.40250098545199881 0 -0.32831963194254171 -0.41418371360508938 0 -0.3082417371863363 -0.41536357078805991 0 -0.32831963194254171 -0.41418371360508938 0 -0.3142906732686378 -0.42168422233663161 0 -0.3082417371863363 -0.41536357078805991 0 -0.32831963194254171 -0.41418371360508938 0 -0.3082417371863363 -0.41536357078805991 0 -0.32831963194254171 -0.41418371360508938 0 -0.32271744639311822 -0.42156188657798022 0 -0.3142906732686378 -0.42168422233663161 0 -0.33234589271538922 -0.44480996408757179 0 -0.31613514190091718 -0.42948780435058093 0 -0.3114957619125025 -0.43185822112629579 0 -0.33234589271538922 -0.44480996408757179 0 -0.3357600199570368 -0.42926052953436999 0 -0.31613514190091718 -0.42948780435058093 0 -0.3142906732686378 -0.42168422233663161 0 -0.31613514190091718 -0.42948780435058093 0 -0.30783454039896002 -0.42958393323736038 0 -0.32271744639311822 -0.42156188657798022 0 -0.3142906732686378 -0.42168422233663161 0 -0.31613514190091718 -0.42948780435058093 0 -0.3357600199570368 -0.42926052953436999 0 -0.31613514190091718 -0.42948780435058093 0 -0.33226633429983238 -0.42124583038635088 0 -0.32271744639311822 -0.42156188657798022 0 -0.31613514190091718 -0.42948780435058093 0 -0.3357600199570368 -0.42926052953436999 0 -0.33226633429983238 -0.42124583038635088 0 -0.31613514190091718 -0.42948780435058093 0 -0.33226633429983238 -0.42124583038635088 0 -0.31613514190091718 -0.42948780435058093 0 -0.31613514190091718 -0.42948780435058093 0 -0.3114957619125025 -0.43185822112629579 0 -0.3114957619125025 -0.43185822112629579 0 -0.30783454039896002 -0.42958393323736038 0 -0.29634270858520939 -0.43960043062412468 0 -0.31613514190091718 -0.42948780435058093 0 -0.3114957619125025 -0.43185822112629579 0 -0.30783454039896002 -0.42958393323736038 0 -0.30331343782522491 -0.42196360581309772 0 -0.30783454039896002 -0.42958393323736038 0 -0.29157272882734891 -0.41634310820889481 0 -0.3114957619125025 -0.43185822112629579 0 -0.30783454039896002 -0.42958393323736038 0 -0.3114957619125025 -0.43185822112629579 0 -0.29634270858520939 -0.43960043062412468 0 -0.31613514190091718 -0.42948780435058093 0 -0.30783454039896002 -0.42958393323736038 0 -0.3142906732686378 -0.42168422233663161 0 -0.30331343782522491 -0.42196360581309772 0 -0.30783454039896002 -0.42958393323736038 0 -0.3142906732686378 -0.42168422233663161 0 -0.30331343782522491 -0.42196360581309772 0 -0.3082417371863363 -0.41536357078805991 0 -0.3082417371863363 -0.41536357078805991 0 -0.29157272882734891 -0.41634310820889481 0 -0.30331343782522491 -0.42196360581309772 0 -0.3082417371863363 -0.41536357078805991 0 -0.29157272882734891 -0.41634310820889481 0 -0.3082417371863363 -0.41536357078805991 0 -0.30512179815010648 -0.41267440077236472 0 -0.29157272882734891 -0.41634310820889481 0 -0.30331343782522491 -0.42196360581309772 0 -0.3082417371863363 -0.41536357078805991 0 -0.3082417371863363 -0.41536357078805991 0 -0.30512179815010648 -0.41267440077236472 0 -0.31067345205079122 -0.40297304657430971 0 -0.30512179815010648 -0.41267440077236472 0 -0.29157272882734891 -0.41634310820889481 0 -0.29482814950023328 -0.40830219942147938 0 -0.30783454039896002 -0.42958393323736038 0 -0.29157272882734891 -0.41634310820889481 0 -0.28412874470879912 -0.41485830032050902 0 -0.28962387683982849 -0.40671118620829788 0 -0.28412874470879912 -0.41485830032050902 0 -0.27887794756246431 -0.39894882893499961 0 -0.29157272882734891 -0.41634310820889481 0 -0.28962387683982849 -0.40671118620829788 0 -0.29482814950023328 -0.40830219942147938 0 -0.29157272882734891 -0.41634310820889481 0 -0.28962387683982849 -0.40671118620829788 0 -0.28412874470879912 -0.41485830032050902 0 -0.30783454039896002 -0.42958393323736038 0 -0.28525385456372598 -0.42984543912842699 0 -0.30783454039896002 -0.42958393323736038 0 -0.28412874470879912 -0.41485830032050902 0 -0.28525385456372598 -0.42984543912842699 0 -0.30783454039896002 -0.42958393323736038 0 -0.28525385456372598 -0.42984543912842699 0 -0.29634270858520939 -0.43960043062412468 0 -0.30783454039896002 -0.42958393323736038 0 -0.28412874470879912 -0.41485830032050902 0 -0.2945929359319488 -0.36760614731534108 0 -0.31317375432424149 -0.38208007184035081 0 -0.29702017227071648 -0.3821829380303548 0 -0.31317375432424149 -0.38208007184035081 0 -0.29702017227071648 -0.3821829380303548 0 -0.30212301116225498 -0.3917042965809297 0 -0.31317375432424149 -0.38208007184035081 0 -0.29702017227071648 -0.3821829380303548 0 -0.31317375432424149 -0.38208007184035081 0 -0.30212301116225498 -0.3917042965809297 0 -0.31035600328023122 -0.39454309529492188 0 -0.29702017227071648 -0.3821829380303548 0 -0.30212301116225498 -0.3917042965809297 0 -0.29299419418364941 -0.39748010249636018 0 -0.30212301116225498 -0.3917042965809297 0 -0.3038789801154857 -0.40039296044417289 0 -0.29299419418364941 -0.39748010249636018 0 -0.30212301116225498 -0.3917042965809297 0 -0.31035600328023122 -0.39454309529492188 0 -0.3038789801154857 -0.40039296044417289 0 -0.31035600328023122 -0.39454309529492188 0 -0.31067345205079122 -0.40297304657430971 0 -0.3038789801154857 -0.40039296044417289 0 -0.30512179815010648 -0.41267440077236472 0 -0.31067345205079122 -0.40297304657430971 0 -0.3038789801154857 -0.40039296044417289 0 -0.30512179815010648 -0.41267440077236472 0 -0.29482814950023328 -0.40830219942147938 0 -0.29299419418364941 -0.39748010249636018 0 -0.30512179815010648 -0.41267440077236472 0 -0.3038789801154857 -0.40039296044417289 0 -0.29299419418364941 -0.39748010249636018 0 -0.30512179815010648 -0.41267440077236472 0 -0.29299419418364941 -0.39748010249636018 0 -0.29299419418364941 -0.39748010249636018 0 -0.2808665902171914 -0.38228580422035652 0 -0.27887794756246431 -0.39894882893499961 0 -0.28962387683982849 -0.40671118620829788 0 -0.29482814950023328 -0.40830219942147938 0 -0.29299419418364941 -0.39748010249636018 0 -0.28962387683982849 -0.40671118620829788 0 -0.29299419418364941 -0.39748010249636018 0 -0.27887794756246431 -0.39894882893499961 0 -0.2945929359319488 -0.36760614731534108 0 -0.29702017227071648 -0.3821829380303548 0 -0.2808665902171914 -0.38228580422035652 0 -0.29702017227071648 -0.3821829380303548 0 -0.29299419418364941 -0.39748010249636018 0 -0.2808665902171914 -0.38228580422035652 0 -0.29702017227071648 -0.3821829380303548 0 -0.2808665902171914 -0.38228580422035652 0 -0.29299419418364941 -0.39748010249636018 0 -0.2808665902171914 -0.38228580422035652 0 -0.2808665902171914 -0.38228580422035652 0 -0.25938421221386299 -0.38242260424217978 0 -0.2808665902171914 -0.38228580422035652 0 -0.26988792475303891 -0.39094747620029929 0 -0.25938421221386299 -0.38242260424217978 0 -0.26678221966742222 -0.3646399338773868 0 -0.2808665902171914 -0.38228580422035652 0 -0.25938421221386299 -0.38242260424217978 0 -0.2808665902171914 -0.38228580422035652 0 -0.26988792475303891 -0.39094747620029929 0 -0.27887794756246431 -0.39894882893499961 0 -0.26988792475303891 -0.39094747620029929 0 -0.27887794756246431 -0.39894882893499961 0 -0.26042294901863672 -0.40013266740365983 0 -0.28412874470879912 -0.41485830032050902 0 -0.27887794756246431 -0.39894882893499961 0 -0.26042294901863672 -0.40013266740365983 0 -0.26988792475303891 -0.39094747620029929 0 -0.26042294901863672 -0.40013266740365983 0 -0.25938421221386299 -0.38242260424217978 0 -0.26042294901863672 -0.40013266740365983 0 -0.25613810139819221 -0.41434132836670989 0 -0.2431093376423632 -0.40266188506415568 0 -0.26042294901863672 -0.40013266740365983 0 -0.25938421221386299 -0.38242260424217978 0 -0.23671715332847421 -0.38540703448681102 0 -0.28525385456372598 -0.42984543912842699 0 -0.26866387832805422 -0.43084198424433162 0 -0.28118965525791628 -0.44734264012195318 0 -0.28525385456372598 -0.42984543912842699 0 -0.26866387832805422 -0.43084198424433162 0 -0.27009367185483962 -0.41675208124042978 0 -0.28412874470879912 -0.41485830032050902 0 -0.28525385456372598 -0.42984543912842699 0 -0.27009367185483962 -0.41675208124042978 0 -0.28412874470879912 -0.41485830032050902 0 -0.26042294901863672 -0.40013266740365983 0 -0.28412874470879912 -0.41485830032050902 0 -0.26042294901863672 -0.40013266740365983 0 -0.27009367185483962 -0.41675208124042978 0 -0.26866387832805422 -0.43084198424433162 0 -0.27009367185483962 -0.41675208124042978 0 -0.25613810139819221 -0.41434132836670989 0 -0.25613810139819221 -0.41434132836670989 0 -0.25359928648481211 -0.43037401697981981 0 -0.24230037244337599 -0.4175018590364884 0 -0.26042294901863672 -0.40013266740365983 0 -0.27009367185483962 -0.41675208124042978 0 -0.25613810139819221 -0.41434132836670989 0 -0.26866387832805422 -0.43084198424433162 0 -0.25613810139819221 -0.41434132836670989 0 -0.26866387832805422 -0.43084198424433162 0 -0.25613810139819221 -0.41434132836670989 0 -0.25359928648481211 -0.43037401697981981 0 -0.26866387832805422 -0.43084198424433162 0 -0.25359928648481211 -0.43037401697981981 0 -0.2656706707878026 -0.4425776952979022 0 -0.25359928648481211 -0.43037401697981981 0 -0.25354060653463212 -0.44613406553729051 0 -0.2656706707878026 -0.4425776952979022 0 -0.25359928648481211 -0.43037401697981981 0 -0.25354060653463212 -0.44613406553729051 0 -0.2438451496940687 -0.43907002470141299 0 -0.25354060653463212 -0.44613406553729051 0 -0.26694214283005818 -0.45462217802476412 0 -0.2656706707878026 -0.4425776952979022 0 -0.25354060653463212 -0.44613406553729051 0 -0.25269463040220203 -0.46190171592757828 0 -0.26694214283005818 -0.45462217802476412 0 -0.25269463040220203 -0.46190171592757828 0 -0.26694214283005818 -0.45462217802476412 0 -0.27127733714919139 -0.47586075624730118 0 -0.25269463040220203 -0.46190171592757828 0 -0.26694214283005818 -0.45462217802476412 0 -0.26694214283005818 -0.45462217802476412 0 -0.28051910777735523 -0.46464962051151848 0 -0.27127733714919139 -0.47586075624730118 0 -0.26694214283005818 -0.45462217802476412 0 -0.28051910777735523 -0.46464962051151848 0 -0.28118965525791628 -0.44734264012195318 0 -0.26866387832805422 -0.43084198424433162 0 -0.2656706707878026 -0.4425776952979022 0 -0.28118965525791628 -0.44734264012195318 0 -0.26866387832805422 -0.43084198424433162 0 -0.28118965525791628 -0.44734264012195318 0 -0.26694214283005818 -0.45462217802476412 0 -0.2656706707878026 -0.4425776952979022 0 -0.28118965525791628 -0.44734264012195318 0 -0.26694214283005818 -0.45462217802476412 0 -0.28118965525791628 -0.44734264012195318 0 -0.28525385456372598 -0.42984543912842699 0 -0.28118965525791628 -0.44734264012195318 0 -0.29634270858520939 -0.43960043062412468 0 -0.28118965525791628 -0.44734264012195318 0 -0.29634270858520939 -0.43960043062412468 0 -0.28118965525791628 -0.44734264012195318 0 -0.29634270858520939 -0.43960043062412468 0 -0.29945124434374348 -0.45131555945098001 0 -0.28118965525791628 -0.44734264012195318 0 -0.2977138012199616 -0.4691104911477269 0 -0.28118965525791628 -0.44734264012195318 0 -0.29945124434374348 -0.45131555945098001 0 -0.2977138012199616 -0.4691104911477269 0 -0.28051910777735523 -0.46464962051151848 0 -0.28118965525791628 -0.44734264012195318 0 -0.2977138012199616 -0.4691104911477269 0 -0.31256905993156642 -0.45599936109409522 0 -0.29945124434374348 -0.45131555945098001 0 -0.2977138012199616 -0.4691104911477269 0 -0.31256905993156642 -0.45599936109409522 0 -0.31594212020290968 -0.47254352647497072 0 -0.2977138012199616 -0.4691104911477269 0 -0.31256905993156642 -0.45599936109409522 0 -0.3094409967240645 -0.4445248742670016 0 -0.29945124434374348 -0.45131555945098001 0 -0.3114957619125025 -0.43185822112629579 0 -0.29634270858520939 -0.43960043062412468 0 -0.3094409967240645 -0.4445248742670016 0 -0.29634270858520939 -0.43960043062412468 0 -0.3094409967240645 -0.4445248742670016 0 -0.29945124434374348 -0.45131555945098001 0 -0.3142379471820072 -0.49087834217350051 0 -0.29783156266692112 -0.48522413338081982 0 -0.30187341860680589 -0.5 0 -0.3142379471820072 -0.49087834217350051 0 -0.29783156266692112 -0.48522413338081982 0 -0.2977138012199616 -0.4691104911477269 0 -0.31594212020290968 -0.47254352647497072 0 -0.3142379471820072 -0.49087834217350051 0 -0.2977138012199616 -0.4691104911477269 0 -0.3142379471820072 -0.49087834217350051 0 -0.2977138012199616 -0.4691104911477269 0 -0.28051910777735523 -0.46464962051151848 0 -0.2977138012199616 -0.4691104911477269 0 -0.28547260242964922 -0.47631203701584812 0 -0.29783156266692112 -0.48522413338081982 0 -0.2977138012199616 -0.4691104911477269 0 -0.28547260242964922 -0.47631203701584812 0 -0.28547260242964922 -0.47631203701584812 0 -0.28986004389618147 -0.48981979656702318 0 -0.27127733714919139 -0.47586075624730118 0 -0.29783156266692112 -0.48522413338081982 0 -0.28547260242964922 -0.47631203701584812 0 -0.28986004389618147 -0.48981979656702318 0 -0.30187341860680589 -0.5 0 -0.28986004389618147 -0.48981979656702318 0 -0.2736660127521543 -0.5 0 -0.29783156266692112 -0.48522413338081982 0 -0.30187341860680589 -0.5 0 -0.28986004389618147 -0.48981979656702318 0 -0.28986004389618147 -0.48981979656702318 0 -0.2736660127521543 -0.5 0 -0.27127733714919139 -0.47586075624730118 0 -0.2736660127521543 -0.5 0 -0.27127733714919139 -0.47586075624730118 0 -0.25894985238314572 -0.48237709588318323 0 -0.28986004389618147 -0.48981979656702318 0 -0.27127733714919139 -0.47586075624730118 0 -0.28051910777735523 -0.46464962051151848 0 -0.28547260242964922 -0.47631203701584812 0 -0.27127733714919139 -0.47586075624730118 0 -0.25269463040220203 -0.46190171592757828 0 -0.25894985238314572 -0.48237709588318323 0 -0.2452663440960669 -0.48013845744446582 0 -0.25269463040220203 -0.46190171592757828 0 -0.27127733714919139 -0.47586075624730118 0 -0.25269463040220203 -0.46190171592757828 0 -0.27127733714919139 -0.47586075624730118 0 -0.25894985238314572 -0.48237709588318323 0 -0.2736660127521543 -0.5 0 -0.25894985238314572 -0.48237709588318323 0 -0.2518449375161152 -0.49398454979657291 0 -0.2736660127521543 -0.5 0 -0.2518449375161152 -0.49398454979657291 0 -0.24545860689750271 -0.5 0 -0.25894985238314572 -0.48237709588318323 0 -0.2518449375161152 -0.49398454979657291 0 -0.2452663440960669 -0.48013845744446582 0 -0.2518449375161152 -0.49398454979657291 0 -0.2307928657777267 -0.48891641965364391 0 -0.2518449375161152 -0.49398454979657291 0 -0.2452663440960669 -0.48013845744446582 0 -0.2307928657777267 -0.48891641965364391 0 -0.2518449375161152 -0.49398454979657291 0 -0.24545860689750271 -0.5 0 -0.2307928657777267 -0.48891641965364391 0 -0.2452663440960669 -0.48013845744446582 0 -0.23121771222076951 -0.4728750027191454 0 -0.2307928657777267 -0.48891641965364391 0 -0.25269463040220203 -0.46190171592757828 0 -0.2452663440960669 -0.48013845744446582 0 -0.23121771222076951 -0.4728750027191454 0 -0.23121771222076951 -0.4728750027191454 0 -0.2307928657777267 -0.48891641965364391 0 -0.20974079403933829 -0.48384828951071468 0 -0.23121771222076951 -0.4728750027191454 0 -0.2159840481136181 -0.46956363033528908 0 -0.20974079403933829 -0.48384828951071468 0 -0.23121771222076951 -0.4728750027191454 0 -0.20974079403933829 -0.48384828951071468 0 -0.24545860689750271 -0.5 0 -0.2307928657777267 -0.48891641965364391 0 -0.21725120104285109 -0.5 0 -0.2307928657777267 -0.48891641965364391 0 -0.20974079403933829 -0.48384828951071468 0 -0.2307928657777267 -0.48891641965364391 0 -0.21725120104285109 -0.5 0 -0.20974079403933829 -0.48384828951071468 0 -0.25354060653463212 -0.44613406553729051 0 -0.25269463040220203 -0.46190171592757828 0 -0.23721599773282709 -0.450274407782012 0 -0.25354060653463212 -0.44613406553729051 0 -0.2438451496940687 -0.43907002470141299 0 -0.23721599773282709 -0.450274407782012 0 -0.2438451496940687 -0.43907002470141299 0 -0.23721599773282709 -0.450274407782012 0 -0.2347235744381061 -0.43699032632131868 0 -0.25269463040220203 -0.46190171592757828 0 -0.23721599773282709 -0.450274407782012 0 -0.23097902662785419 -0.46071537305467791 0 -0.25269463040220203 -0.46190171592757828 0 -0.23121771222076951 -0.4728750027191454 0 -0.23097902662785419 -0.46071537305467791 0 -0.25269463040220203 -0.46190171592757828 0 -0.23121771222076951 -0.4728750027191454 0 -0.25269463040220203 -0.46190171592757828 0 -0.23721599773282709 -0.450274407782012 0 -0.23097902662785419 -0.46071537305467791 0 -0.22320557245757189 -0.45136192584780271 0 -0.2159840481136181 -0.46956363033528908 0 -0.23121771222076951 -0.4728750027191454 0 -0.23097902662785419 -0.46071537305467791 0 -0.2159840481136181 -0.46956363033528908 0 -0.23721599773282709 -0.450274407782012 0 -0.23097902662785419 -0.46071537305467791 0 -0.22320557245757189 -0.45136192584780271 0 -0.22320557245757189 -0.45136192584780271 0 -0.22173736506345271 -0.43864709963644488 0 -0.21698213822720461 -0.43284430329106749 0 -0.22320557245757189 -0.45136192584780271 0 -0.21698213822720461 -0.43284430329106749 0 -0.23721599773282709 -0.450274407782012 0 -0.22320557245757189 -0.45136192584780271 0 -0.22173736506345271 -0.43864709963644488 0 -0.23721599773282709 -0.450274407782012 0 -0.22173736506345271 -0.43864709963644488 0 -0.23721599773282709 -0.450274407782012 0 -0.22173736506345271 -0.43864709963644488 0 -0.2347235744381061 -0.43699032632131868 0 -0.22320557245757189 -0.45136192584780271 0 -0.20700894554624619 -0.45681697418164519 0 -0.21698213822720461 -0.43284430329106749 0 -0.20700894554624619 -0.45681697418164519 0 -0.19303707249135671 -0.43059430015364047 0 -0.21698213822720461 -0.43284430329106749 0 -0.20700894554624619 -0.45681697418164519 0 -0.21698213822720461 -0.43284430329106749 0 -0.22320557245757189 -0.45136192584780271 0 -0.20700894554624619 -0.45681697418164519 0 -0.2159840481136181 -0.46956363033528908 0 -0.20700894554624619 -0.45681697418164519 0 -0.19703575286528649 -0.48078964507222238 0 -0.18502875603026461 -0.46494473610867582 0 -0.20700894554624619 -0.45681697418164519 0 -0.18502875603026461 -0.46494473610867582 0 -0.18271469687031749 -0.44845454828740711 0 -0.20700894554624619 -0.45681697418164519 0 -0.18271469687031749 -0.44845454828740711 0 -0.19303707249135671 -0.43059430015364047 0 -0.21725120104285109 -0.5 0 -0.20974079403933829 -0.48384828951071468 0 -0.19199021277984149 -0.49291766423347888 0 -0.20700894554624619 -0.45681697418164519 0 -0.2159840481136181 -0.46956363033528908 0 -0.19703575286528649 -0.48078964507222238 0 -0.2159840481136181 -0.46956363033528908 0 -0.20974079403933829 -0.48384828951071468 0 -0.19703575286528649 -0.48078964507222238 0 -0.20974079403933829 -0.48384828951071468 0 -0.19703575286528649 -0.48078964507222238 0 -0.20700894554624619 -0.45681697418164519 0 -0.19703575286528649 -0.48078964507222238 0 -0.21725120104285109 -0.5 0 -0.19199021277984149 -0.49291766423347888 0 -0.18904379518819939 -0.49999999999999578 0 -0.20974079403933829 -0.48384828951071468 0 -0.19703575286528649 -0.48078964507222238 0 -0.19199021277984149 -0.49291766423347888 0 -0.20974079403933829 -0.48384828951071468 0 -0.19199021277984149 -0.49291766423347888 0 -0.19703575286528649 -0.48078964507222238 0 -0.19199021277984149 -0.49291766423347888 0 -0.1806501400470899 -0.48733198327772198 0 -0.19703575286528649 -0.48078964507222238 0 -0.19199021277984149 -0.49291766423347888 0 -0.19199021277984149 -0.49291766423347888 0 -0.18904379518819939 -0.49999999999999578 0 -0.19199021277984149 -0.49291766423347888 0 -0.17812866439603481 -0.49999999999999267 0 -0.19199021277984149 -0.49291766423347888 0 -0.18904379518819939 -0.49999999999999578 0 -0.17812866439603481 -0.49999999999999267 0 -0.19199021277984149 -0.49291766423347888 0 -0.1806501400470899 -0.48733198327772198 0 -0.17812866439603481 -0.49999999999999267 0 -0.1806501400470899 -0.48733198327772198 0 -0.17812866439603481 -0.49999999999999267 0 -0.16526627315450881 -0.48681942287300078 0 -0.17812866439603481 -0.49999999999999267 0 -0.16526627315450881 -0.48681942287300078 0 -0.15384562597277671 -0.5 0 -0.16526627315450881 -0.48681942287300078 0 -0.15867829181438209 -0.47351517086903511 0 -0.14808882950896779 -0.48760950596642599 0 -0.16526627315450881 -0.48681942287300078 0 -0.15867829181438209 -0.47351517086903511 0 -0.17205258504960549 -0.47477513270279981 0 -0.15867829181438209 -0.47351517086903511 0 -0.17205258504960549 -0.47477513270279981 0 -0.1689107827671488 -0.46150338438528649 0 -0.19703575286528649 -0.48078964507222238 0 -0.17205258504960549 -0.47477513270279981 0 -0.19703575286528649 -0.48078964507222238 0 -0.17205258504960549 -0.47477513270279981 0 -0.18502875603026461 -0.46494473610867582 0 -0.19703575286528649 -0.48078964507222238 0 -0.1806501400470899 -0.48733198327772198 0 -0.17205258504960549 -0.47477513270279981 0 -0.1806501400470899 -0.48733198327772198 0 -0.16526627315450881 -0.48681942287300078 0 -0.17205258504960549 -0.47477513270279981 0 -0.17205258504960549 -0.47477513270279981 0 -0.18502875603026461 -0.46494473610867582 0 -0.1689107827671488 -0.46150338438528649 0 -0.18502875603026461 -0.46494473610867582 0 -0.18271469687031749 -0.44845454828740711 0 -0.1689107827671488 -0.46150338438528649 0 -0.18271469687031749 -0.44845454828740711 0 -0.16138963394859521 -0.44868252298987232 0 -0.1689107827671488 -0.46150338438528649 0 -0.18271469687031749 -0.44845454828740711 0 -0.16138963394859521 -0.44868252298987232 0 -0.16224644553901921 -0.42839564420087312 0 -0.16138963394859521 -0.44868252298987232 0 -0.1689107827671488 -0.46150338438528649 0 -0.15360073288972831 -0.45864819535392959 0 -0.15867829181438209 -0.47351517086903511 0 -0.1689107827671488 -0.46150338438528649 0 -0.15360073288972831 -0.45864819535392959 0 -0.15867829181438209 -0.47351517086903511 0 -0.14088984691242101 -0.46372891927135518 0 -0.15360073288972831 -0.45864819535392959 0 -0.14088984691242101 -0.46372891927135518 0 -0.15360073288972831 -0.45864819535392959 0 -0.14071409195337639 -0.4434269833400809 0 -0.16138963394859521 -0.44868252298987232 0 -0.15360073288972831 -0.45864819535392959 0 -0.14071409195337639 -0.4434269833400809 0 -0.16138963394859521 -0.44868252298987232 0 -0.14071409195337639 -0.4434269833400809 0 -0.16224644553901921 -0.42839564420087312 0 -0.14071409195337639 -0.4434269833400809 0 -0.11918173836773351 -0.45845832247928869 0 -0.14071409195337639 -0.4434269833400809 0 -0.11918173836773351 -0.45845832247928869 0 -0.1184149235461696 -0.43970471758753887 0 -0.14088984691242101 -0.46372891927135518 0 -0.14071409195337639 -0.4434269833400809 0 -0.11918173836773351 -0.45845832247928869 0 -0.14088984691242101 -0.46372891927135518 0 -0.1272556728232932 -0.47013049556587211 0 -0.11918173836773351 -0.45845832247928869 0 -0.13278436477725561 -0.4823434472460234 0 -0.1272556728232932 -0.47013049556587211 0 -0.1161667412357628 -0.47599129326682099 0 -0.14088984691242101 -0.46372891927135518 0 -0.13278436477725561 -0.4823434472460234 0 -0.1272556728232932 -0.47013049556587211 0 -0.13278436477725561 -0.4823434472460234 0 -0.12956258754951869 -0.5 0 -0.14808882950896779 -0.48760950596642599 0 -0.12956258754951869 -0.5 0 -0.15384562597277671 -0.5 0 -0.14808882950896779 -0.48760950596642599 0 -0.16526627315450881 -0.48681942287300078 0 -0.15384562597277671 -0.5 0 -0.14808882950896779 -0.48760950596642599 0 -0.15867829181438209 -0.47351517086903511 0 -0.14088984691242101 -0.46372891927135518 0 -0.13278436477725561 -0.4823434472460234 0 -0.15867829181438209 -0.47351517086903511 0 -0.13278436477725561 -0.4823434472460234 0 -0.14808882950896779 -0.48760950596642599 0 -0.15867829181438209 -0.47351517086903511 0 -0.13278436477725561 -0.4823434472460234 0 -0.15300746566076209 -0.38310001254620968 0 -0.12942966304821441 -0.38325015625522552 0 -0.14208280055258729 -0.40634727148710198 0 -0.15300746566076209 -0.38310001254620968 0 -0.14208280055258729 -0.40634727148710198 0 -0.1624749046322673 -0.40200193298372783 0 -0.15300746566076209 -0.38310001254620968 0 -0.12942966304821441 -0.38325015625522552 0 -0.15300746566076209 -0.38310001254620968 0 -0.12942966304821441 -0.38325015625522552 0 -0.13644034466196819 -0.36544341997203661 0 -0.12942966304821441 -0.38325015625522552 0 -0.14208280055258729 -0.40634727148710198 0 -0.1246151037146196 -0.40215144471962733 0 -0.13370262722300191 -0.42485153358840111 0 -0.14208280055258729 -0.40634727148710198 0 -0.1246151037146196 -0.40215144471962733 0 -0.14071409195337639 -0.4434269833400809 0 -0.13370262722300191 -0.42485153358840111 0 -0.1184149235461696 -0.43970471758753887 0 -0.14071409195337639 -0.4434269833400809 0 -0.13370262722300191 -0.42485153358840111 0 -0.16224644553901921 -0.42839564420087312 0 -0.14071409195337639 -0.4434269833400809 0 -0.16224644553901921 -0.42839564420087312 0 -0.14208280055258729 -0.40634727148710198 0 -0.16224644553901921 -0.42839564420087312 0 -0.1624749046322673 -0.40200193298372783 0 -0.13370262722300191 -0.42485153358840111 0 -0.14208280055258729 -0.40634727148710198 0 -0.16224644553901921 -0.42839564420087312 0 -0.16224644553901921 -0.42839564420087312 0 -0.180697604208819 -0.40923231675122879 0 -0.1624749046322673 -0.40200193298372783 0 -0.18271469687031749 -0.44845454828740711 0 -0.16224644553901921 -0.42839564420087312 0 -0.19303707249135671 -0.43059430015364047 0 -0.16224644553901921 -0.42839564420087312 0 -0.180697604208819 -0.40923231675122879 0 -0.19303707249135671 -0.43059430015364047 0 -0.180697604208819 -0.40923231675122879 0 -0.1624749046322673 -0.40200193298372783 0 -0.17658526827330981 -0.3829498688371939 0 -0.180697604208819 -0.40923231675122879 0 -0.17658526827330981 -0.3829498688371939 0 -0.19000778267581911 -0.39514046875386671 0 -0.15300746566076209 -0.38310001254620968 0 -0.1624749046322673 -0.40200193298372783 0 -0.17658526827330981 -0.3829498688371939 0 -0.15300746566076209 -0.38310001254620968 0 -0.17658526827330981 -0.3829498688371939 0 -0.17658526827330981 -0.3829498688371939 0 -0.20016307088585741 -0.38279972512817662 0 -0.19000778267581911 -0.39514046875386671 0 -0.17658526827330981 -0.3829498688371939 0 -0.20016307088585741 -0.38279972512817662 0 -0.20016307088585741 -0.38279972512817662 0 -0.19000778267581911 -0.39514046875386671 0 -0.2085726045565329 -0.4078220142096215 0 -0.180697604208819 -0.40923231675122879 0 -0.19000778267581911 -0.39514046875386671 0 -0.2085726045565329 -0.4078220142096215 0 -0.20016307088585741 -0.38279972512817662 0 -0.2085726045565329 -0.4078220142096215 0 -0.20016307088585741 -0.38279972512817662 0 -0.2161772785324636 -0.38269774647594651 0 -0.2085726045565329 -0.4078220142096215 0 -0.2161772785324636 -0.38269774647594651 0 -0.2085726045565329 -0.4078220142096215 0 -0.22410163367487609 -0.3935296463770066 0 -0.20016307088585741 -0.38279972512817662 0 -0.2161772785324636 -0.38269774647594651 0 -0.20016307088585741 -0.38279972512817662 0 -0.2161772785324636 -0.38269774647594651 0 -0.2146411550785581 -0.37365584976636601 0 -0.2161772785324636 -0.38269774647594651 0 -0.22424182443051541 -0.37765757455433779 0 -0.2146411550785581 -0.37365584976636601 0 -0.180697604208819 -0.40923231675122879 0 -0.19303707249135671 -0.43059430015364047 0 -0.2085726045565329 -0.4078220142096215 0 -0.2085726045565329 -0.4078220142096215 0 -0.21698213822720461 -0.43284430329106749 0 -0.2268496457778397 -0.40912566888893942 0 -0.2085726045565329 -0.4078220142096215 0 -0.21698213822720461 -0.43284430329106749 0 -0.19303707249135671 -0.43059430015364047 0 -0.2085726045565329 -0.4078220142096215 0 -0.21698213822720461 -0.43284430329106749 0 -0.21698213822720461 -0.43284430329106749 0 -0.22992583861702739 -0.42769779631454868 0 -0.2268496457778397 -0.40912566888893942 0 -0.22173736506345271 -0.43864709963644488 0 -0.22992583861702739 -0.42769779631454868 0 -0.2347235744381061 -0.43699032632131868 0 -0.22173736506345271 -0.43864709963644488 0 -0.21698213822720461 -0.43284430329106749 0 -0.22992583861702739 -0.42769779631454868 0 -0.22992583861702739 -0.42769779631454868 0 -0.2268496457778397 -0.40912566888893942 0 -0.24230037244337599 -0.4175018590364884 0 -0.21698213822720461 -0.43284430329106749 0 -0.2268496457778397 -0.40912566888893942 0 -0.2268496457778397 -0.40912566888893942 0 -0.24230037244337599 -0.4175018590364884 0 -0.2431093376423632 -0.40266188506415568 0 -0.25613810139819221 -0.41434132836670989 0 -0.24230037244337599 -0.4175018590364884 0 -0.2431093376423632 -0.40266188506415568 0 -0.22992583861702739 -0.42769779631454868 0 -0.24230037244337599 -0.4175018590364884 0 -0.24089352108315501 -0.42926230317217479 0 -0.25359928648481211 -0.43037401697981981 0 -0.24230037244337599 -0.4175018590364884 0 -0.24089352108315501 -0.42926230317217479 0 -0.25359928648481211 -0.43037401697981981 0 -0.2438451496940687 -0.43907002470141299 0 -0.24089352108315501 -0.42926230317217479 0 -0.22992583861702739 -0.42769779631454868 0 -0.24089352108315501 -0.42926230317217479 0 -0.2347235744381061 -0.43699032632131868 0 -0.2438451496940687 -0.43907002470141299 0 -0.24089352108315501 -0.42926230317217479 0 -0.2347235744381061 -0.43699032632131868 0 -0.2161772785324636 -0.38269774647594651 0 -0.23219148617906979 -0.38259576782371391 0 -0.22424182443051541 -0.37765757455433779 0 -0.2161772785324636 -0.38269774647594651 0 -0.23219148617906979 -0.38259576782371391 0 -0.22410163367487609 -0.3935296463770066 0 -0.2161772785324636 -0.38269774647594651 0 -0.23219148617906979 -0.38259576782371391 0 -0.23219148617906979 -0.38259576782371391 0 -0.22410163367487609 -0.3935296463770066 0 -0.23671715332847421 -0.38540703448681102 0 -0.23219148617906979 -0.38259576782371391 0 -0.22424182443051541 -0.37765757455433779 0 -0.23334431644894679 -0.37067442711117121 0 -0.23219148617906979 -0.38259576782371391 0 -0.22424182443051541 -0.37765757455433779 0 -0.2268496457778397 -0.40912566888893942 0 -0.23671715332847421 -0.38540703448681102 0 -0.2268496457778397 -0.40912566888893942 0 -0.22410163367487609 -0.3935296463770066 0 -0.23671715332847421 -0.38540703448681102 0 -0.2085726045565329 -0.4078220142096215 0 -0.2268496457778397 -0.40912566888893942 0 -0.22410163367487609 -0.3935296463770066 0 -0.2268496457778397 -0.40912566888893942 0 -0.2431093376423632 -0.40266188506415568 0 -0.23671715332847421 -0.38540703448681102 0 -0.26042294901863672 -0.40013266740365983 0 -0.2431093376423632 -0.40266188506415568 0 -0.23671715332847421 -0.38540703448681102 0 -0.26042294901863672 -0.40013266740365983 0 -0.23671715332847421 -0.38540703448681102 0 -0.25938421221386299 -0.38242260424217978 0 -0.23671715332847421 -0.38540703448681102 0 -0.23790183421053479 -0.38255940426400398 0 -0.25938421221386299 -0.38242260424217978 0 -0.23790183421053479 -0.38255940426400398 0 -0.25938421221386299 -0.38242260424217978 0 -0.23790183421053479 -0.38255940426400398 0 -0.2452998416640946 -0.36477673389921211 0 -0.23219148617906979 -0.38259576782371391 0 -0.23671715332847421 -0.38540703448681102 0 -0.23790183421053479 -0.38255940426400398 0 -0.23219148617906979 -0.38259576782371391 0 -0.23671715332847421 -0.38540703448681102 0 -0.23671715332847421 -0.38540703448681102 0 -0.23790183421053479 -0.38255940426400398 0 -0.23219148617906979 -0.38259576782371391 0 -0.23790183421053479 -0.38255940426400398 0 -0.23334431644894679 -0.37067442711117121 0 -0.23219148617906979 -0.38259576782371391 0 -0.23790183421053479 -0.38255940426400398 0 -0.2452998416640946 -0.36477673389921211 0 -0.23334431644894679 -0.37067442711117121 0 -0.236612272716479 -0.35196393625907768 0 -0.23790183421053479 -0.38255940426400398 0 -0.2452998416640946 -0.36477673389921211 0 -0.23790183421053479 -0.38255940426400398 0 -0.2452998416640946 -0.36477673389921211 0 -0.23334431644894679 -0.37067442711117121 0 -0.22424182443051541 -0.37765757455433779 0 -0.23334431644894679 -0.37067442711117121 0 -0.2233560944082246 -0.363712965125564 0 -0.23334431644894679 -0.37067442711117121 0 -0.2233560944082246 -0.363712965125564 0 -0.236612272716479 -0.35196393625907768 0 -0.22424182443051541 -0.37765757455433779 0 -0.2233560944082246 -0.363712965125564 0 -0.2146411550785581 -0.37365584976636601 0 -0.2233560944082246 -0.363712965125564 0 -0.22090871978274521 -0.34750939462453567 0 -0.236612272716479 -0.35196393625907768 0 -0.25269784911765092 -0.34699406353441858 0 -0.2452998416640946 -0.36477673389921211 0 -0.25269784911765092 -0.34699406353441858 0 -0.2452998416640946 -0.36477673389921211 0 -0.236612272716479 -0.35196393625907768 0 -0.25269784911765092 -0.34699406353441858 0 -0.2601150759189611 -0.3291651954159735 0 -0.2357068878863986 -0.32570661601735368 0 -0.25269784911765092 -0.34699406353441858 0 -0.236612272716479 -0.35196393625907768 0 -0.2357068878863986 -0.32570661601735368 0 -0.25269784911765092 -0.34699406353441858 0 -0.2357068878863986 -0.32570661601735368 0 -0.2601150759189611 -0.3291651954159735 0 -0.2357068878863986 -0.32570661601735368 0 -0.2494260049788683 -0.31746489113439402 0 -0.2357068878863986 -0.32570661601735368 0 -0.2494260049788683 -0.31746489113439402 0 -0.24072416822125611 -0.30184362229434508 0 -0.2357068878863986 -0.32570661601735368 0 -0.2119173650848751 -0.32804843985645959 0 -0.21871592665514519 -0.30441916850028972 0 -0.2357068878863986 -0.32570661601735368 0 -0.21871592665514519 -0.30441916850028972 0 -0.22090871978274521 -0.34750939462453567 0 -0.236612272716479 -0.35196393625907768 0 -0.2357068878863986 -0.32570661601735368 0 -0.22090871978274521 -0.34750939462453567 0 -0.2357068878863986 -0.32570661601735368 0 -0.2119173650848751 -0.32804843985645959 0 -0.22090871978274521 -0.34750939462453567 0 -0.2119173650848751 -0.32804843985645959 0 -0.20038300345158319 -0.34252625431289602 0 -0.2119173650848751 -0.32804843985645959 0 -0.19064882261902269 -0.32209845877770238 0 -0.21871592665514519 -0.30441916850028972 0 -0.2119173650848751 -0.32804843985645959 0 -0.19064882261902269 -0.32209845877770238 0 -0.20038300345158319 -0.34252625431289602 0 -0.19064882261902269 -0.32209845877770238 0 -0.20038300345158319 -0.34252625431289602 0 -0.1786038551756757 -0.34069824763179102 0 -0.20038300345158319 -0.34252625431289602 0 -0.19095175091145111 -0.35539174743908392 0 -0.20926750713572939 -0.36141123754780358 0 -0.20038300345158319 -0.34252625431289602 0 -0.19095175091145111 -0.35539174743908392 0 -0.1786038551756757 -0.34069824763179102 0 -0.20016307088585741 -0.38279972512817662 0 -0.19095175091145111 -0.35539174743908392 0 -0.20926750713572939 -0.36141123754780358 0 -0.17658526827330981 -0.3829498688371939 0 -0.20016307088585741 -0.38279972512817662 0 -0.19095175091145111 -0.35539174743908392 0 -0.20016307088585741 -0.38279972512817662 0 -0.19095175091145111 -0.35539174743908392 0 -0.20016307088585741 -0.38279972512817662 0 -0.20926750713572939 -0.36141123754780358 0 -0.2146411550785581 -0.37365584976636601 0 -0.2233560944082246 -0.363712965125564 0 -0.20926750713572939 -0.36141123754780358 0 -0.2146411550785581 -0.37365584976636601 0 -0.2233560944082246 -0.363712965125564 0 -0.22090871978274521 -0.34750939462453567 0 -0.20926750713572939 -0.36141123754780358 0 -0.22090871978274521 -0.34750939462453567 0 -0.20038300345158319 -0.34252625431289602 0 -0.20926750713572939 -0.36141123754780358 0 -0.23269942211958819 -0.26632599736311829 0 -0.2113475615474098 -0.26183595308539898 0 -0.22937054978906041 -0.24331512362502869 0 -0.2483490975252734 -0.26098873334868322 0 -0.23269942211958819 -0.26632599736311829 0 -0.22937054978906041 -0.24331512362502869 0 -0.2483490975252734 -0.26098873334868322 0 -0.24718685023563691 -0.27875123027958087 0 -0.23269942211958819 -0.26632599736311829 0 -0.24718685023563691 -0.27875123027958087 0 -0.23269942211958819 -0.26632599736311829 0 -0.22621925119092889 -0.28512311723799683 0 -0.23269942211958819 -0.26632599736311829 0 -0.22621925119092889 -0.28512311723799683 0 -0.2113475615474098 -0.26183595308539898 0 -0.24718685023563691 -0.27875123027958087 0 -0.22621925119092889 -0.28512311723799683 0 -0.24072416822125611 -0.30184362229434508 0 -0.25754389589834492 -0.29267207960278718 0 -0.24718685023563691 -0.27875123027958087 0 -0.24072416822125611 -0.30184362229434508 0 -0.25469452373499762 -0.30722313484128749 0 -0.2494260049788683 -0.31746489113439402 0 -0.24072416822125611 -0.30184362229434508 0 -0.22621925119092889 -0.28512311723799683 0 -0.24072416822125611 -0.30184362229434508 0 -0.21871592665514519 -0.30441916850028972 0 -0.2357068878863986 -0.32570661601735368 0 -0.24072416822125611 -0.30184362229434508 0 -0.21871592665514519 -0.30441916850028972 0 -0.21871592665514519 -0.30441916850028972 0 -0.20172496542389179 -0.28313172098322592 0 -0.18547182867621881 -0.29890397395307688 0 -0.19064882261902269 -0.32209845877770238 0 -0.21871592665514519 -0.30441916850028972 0 -0.18547182867621881 -0.29890397395307688 0 -0.20172496542389179 -0.28313172098322592 0 -0.17865973542483601 -0.28159672660659713 0 -0.18547182867621881 -0.29890397395307688 0 -0.22621925119092889 -0.28512311723799683 0 -0.21871592665514519 -0.30441916850028972 0 -0.20172496542389179 -0.28313172098322592 0 -0.21871592665514519 -0.30441916850028972 0 -0.20172496542389179 -0.28313172098322592 0 -0.22621925119092889 -0.28512311723799683 0 -0.20172496542389179 -0.28313172098322592 0 -0.2113475615474098 -0.26183595308539898 0 -0.20172496542389179 -0.28313172098322592 0 -0.2113475615474098 -0.26183595308539898 0 -0.18473400419263841 -0.26184427346616201 0 -0.20172496542389179 -0.28313172098322592 0 -0.18473400419263841 -0.26184427346616201 0 -0.20172496542389179 -0.28313172098322592 0 -0.18473400419263841 -0.26184427346616201 0 -0.17865973542483601 -0.28159672660659713 0 -0.2113475615474098 -0.26183595308539898 0 -0.18473400419263841 -0.26184427346616201 0 -0.1994177047143332 -0.2432145052078287 0 -0.18473400419263841 -0.26184427346616201 0 -0.15229660666407671 -0.25401824511238591 0 -0.16774304296138501 -0.24055682594909811 0 -0.18473400419263841 -0.26184427346616201 0 -0.1593348892574955 -0.27433293932196051 0 -0.15229660666407671 -0.25401824511238591 0 -0.18473400419263841 -0.26184427346616201 0 -0.16774304296138501 -0.24055682594909811 0 -0.18473400419263841 -0.26184427346616201 0 -0.1593348892574955 -0.27433293932196051 0 -0.17865973542483601 -0.28159672660659713 0 -0.1593348892574955 -0.27433293932196051 0 -0.17865973542483601 -0.28159672660659713 0 -0.1628273235241636 -0.29929742573166879 0 -0.17865973542483601 -0.28159672660659713 0 -0.18547182867621881 -0.29890397395307688 0 -0.1628273235241636 -0.29929742573166879 0 -0.18547182867621881 -0.29890397395307688 0 -0.1628273235241636 -0.29929742573166879 0 -0.16388410446163609 -0.32460269768425593 0 -0.1628273235241636 -0.29929742573166879 0 -0.13242221189995379 -0.30543756500551722 0 -0.16388410446163609 -0.32460269768425593 0 -0.13242221189995379 -0.30543756500551722 0 -0.14127367617284931 -0.28459822767558379 0 -0.1188334035936548 -0.28113848219864679 0 -0.1628273235241636 -0.29929742573166879 0 -0.13242221189995379 -0.30543756500551722 0 -0.14127367617284931 -0.28459822767558379 0 -0.1593348892574955 -0.27433293932196051 0 -0.1628273235241636 -0.29929742573166879 0 -0.14127367617284931 -0.28459822767558379 0 -0.1593348892574955 -0.27433293932196051 0 -0.14127367617284931 -0.28459822767558379 0 -0.132950552588979 -0.26278472612012599 0 -0.14127367617284931 -0.28459822767558379 0 -0.132950552588979 -0.26278472612012599 0 -0.1188334035936548 -0.28113848219864679 0 -0.132950552588979 -0.26278472612012599 0 -0.1192340303868117 -0.24478318800158869 0 -0.13450504990001219 -0.2438564190910647 0 -0.132950552588979 -0.26278472612012599 0 -0.15229660666407671 -0.25401824511238591 0 -0.13450504990001219 -0.2438564190910647 0 -0.1593348892574955 -0.27433293932196051 0 -0.132950552588979 -0.26278472612012599 0 -0.15229660666407671 -0.25401824511238591 0 -0.15300746566076209 -0.38310001254620968 0 -0.17658526827330981 -0.3829498688371939 0 -0.16187875486605491 -0.35541355732776547 0 -0.17658526827330981 -0.3829498688371939 0 -0.19095175091145111 -0.35539174743908392 0 -0.16187875486605491 -0.35541355732776547 0 -0.19095175091145111 -0.35539174743908392 0 -0.16187875486605491 -0.35541355732776547 0 -0.1786038551756757 -0.34069824763179102 0 -0.19064882261902269 -0.32209845877770238 0 -0.1786038551756757 -0.34069824763179102 0 -0.16388410446163609 -0.32460269768425593 0 -0.19064882261902269 -0.32209845877770238 0 -0.18547182867621881 -0.29890397395307688 0 -0.16388410446163609 -0.32460269768425593 0 -0.16187875486605491 -0.35541355732776547 0 -0.1786038551756757 -0.34069824763179102 0 -0.16388410446163609 -0.32460269768425593 0 -0.13242221189995379 -0.30543756500551722 0 -0.16388410446163609 -0.32460269768425593 0 -0.13821757510299509 -0.3384513750534191 0 -0.13242221189995379 -0.30543756500551722 0 -0.13821757510299509 -0.3384513750534191 0 -0.1101747460075988 -0.32953608121607292 0 -0.16187875486605491 -0.35541355732776547 0 -0.16388410446163609 -0.32460269768425593 0 -0.13821757510299509 -0.3384513750534191 0 -0.13821757510299509 -0.3384513750534191 0 -0.13644034466196819 -0.36544341997203661 0 -0.1196241940514999 -0.3542658853942362 0 -0.16187875486605491 -0.35541355732776547 0 -0.13821757510299509 -0.3384513750534191 0 -0.13644034466196819 -0.36544341997203661 0 -0.15300746566076209 -0.38310001254620968 0 -0.16187875486605491 -0.35541355732776547 0 -0.13644034466196819 -0.36544341997203661 0 -0.12942966304821441 -0.38325015625522552 0 -0.13644034466196819 -0.36544341997203661 0 -0.1177797586078463 -0.37381446098417098 0 -0.13644034466196819 -0.36544341997203661 0 -0.1177797586078463 -0.37381446098417098 0 -0.1196241940514999 -0.3542658853942362 0 -0.1177797586078463 -0.37381446098417098 0 -0.10407214500130089 -0.36661499140206938 0 -0.1196241940514999 -0.3542658853942362 0 -0.1177797586078463 -0.37381446098417098 0 -0.10407214500130089 -0.36661499140206938 0 -0.1034929330021967 -0.38313049756236911 0 -0.10407214500130089 -0.36661499140206938 0 -0.092143069441117886 -0.37288061806212591 0 -0.1034929330021967 -0.38313049756236911 0 -0.10407214500130089 -0.36661499140206938 0 -0.092143069441117886 -0.37288061806212591 0 -0.090292011953311629 -0.3597231114641114 0 -0.10407214500130089 -0.36661499140206938 0 -0.10297576120334009 -0.35054559799579871 0 -0.1196241940514999 -0.3542658853942362 0 -0.10297576120334009 -0.35054559799579871 0 -0.091874738774876785 -0.34065851114568052 0 -0.090292011953311629 -0.3597231114641114 0 -0.10407214500130089 -0.36661499140206938 0 -0.10297576120334009 -0.35054559799579871 0 -0.090292011953311629 -0.3597231114641114 0 -0.10297576120334009 -0.35054559799579871 0 -0.1196241940514999 -0.3542658853942362 0 -0.1101747460075988 -0.32953608121607292 0 -0.13821757510299509 -0.3384513750534191 0 -0.1196241940514999 -0.3542658853942362 0 -0.1101747460075988 -0.32953608121607292 0 -0.1101747460075988 -0.32953608121607292 0 -0.085227450549862166 -0.32028838060126541 0 -0.10233633129899709 -0.29788694174330338 0 -0.1101747460075988 -0.32953608121607292 0 -0.091874738774876785 -0.34065851114568052 0 -0.085227450549862166 -0.32028838060126541 0 -0.10297576120334009 -0.35054559799579871 0 -0.1101747460075988 -0.32953608121607292 0 -0.091874738774876785 -0.34065851114568052 0 -0.091874738774876785 -0.34065851114568052 0 -0.085227450549862166 -0.32028838060126541 0 -0.076063335717399538 -0.33750887212749098 0 -0.085227450549862166 -0.32028838060126541 0 -0.063011241542060503 -0.32804507108198161 0 -0.072947339386401744 -0.29815403057856332 0 -0.063011241542060503 -0.32804507108198161 0 -0.076063335717399538 -0.33750887212749098 0 -0.056103847272524453 -0.34401699257208418 0 -0.085227450549862166 -0.32028838060126541 0 -0.063011241542060503 -0.32804507108198161 0 -0.076063335717399538 -0.33750887212749098 0 -0.076063335717399538 -0.33750887212749098 0 -0.071250752086046532 -0.35335887697158019 0 -0.056103847272524453 -0.34401699257208418 0 -0.071250752086046532 -0.35335887697158019 0 -0.076899216694667677 -0.36865863427987439 0 -0.059008804616476777 -0.3736816009534113 0 -0.071250752086046532 -0.35335887697158019 0 -0.076899216694667677 -0.36865863427987439 0 -0.090292011953311629 -0.3597231114641114 0 -0.076899216694667677 -0.36865863427987439 0 -0.092143069441117886 -0.37288061806212591 0 -0.090292011953311629 -0.3597231114641114 0 -0.091874738774876785 -0.34065851114568052 0 -0.071250752086046532 -0.35335887697158019 0 -0.090292011953311629 -0.3597231114641114 0 -0.091874738774876785 -0.34065851114568052 0 -0.076063335717399538 -0.33750887212749098 0 -0.071250752086046532 -0.35335887697158019 0 -0.10928029933534041 -0.25911330461652088 0 -0.093765691765433312 -0.25258281812082478 0 -0.1064059993424292 -0.23999004584722569 0 -0.10928029933534041 -0.25911330461652088 0 -0.093765691765433312 -0.25258281812082478 0 -0.091378819945462819 -0.27405960529517892 0 -0.132950552588979 -0.26278472612012599 0 -0.10928029933534041 -0.25911330461652088 0 -0.1192340303868117 -0.24478318800158869 0 -0.132950552588979 -0.26278472612012599 0 -0.10928029933534041 -0.25911330461652088 0 -0.1188334035936548 -0.28113848219864679 0 -0.10928029933534041 -0.25911330461652088 0 -0.1188334035936548 -0.28113848219864679 0 -0.091378819945462819 -0.27405960529517892 0 -0.13242221189995379 -0.30543756500551722 0 -0.1101747460075988 -0.32953608121607292 0 -0.10233633129899709 -0.29788694174330338 0 -0.1188334035936548 -0.28113848219864679 0 -0.10233633129899709 -0.29788694174330338 0 -0.091378819945462819 -0.27405960529517892 0 -0.13242221189995379 -0.30543756500551722 0 -0.1188334035936548 -0.28113848219864679 0 -0.10233633129899709 -0.29788694174330338 0 -0.085227450549862166 -0.32028838060126541 0 -0.10233633129899709 -0.29788694174330338 0 -0.072947339386401744 -0.29815403057856332 0 -0.10233633129899709 -0.29788694174330338 0 -0.072947339386401744 -0.29815403057856332 0 -0.072947339386401744 -0.29815403057856332 0 -0.068721828444096633 -0.2698787542887045 0 -0.051386271478722378 -0.27925540101153468 0 -0.10233633129899709 -0.29788694174330338 0 -0.072947339386401744 -0.29815403057856332 0 -0.091378819945462819 -0.27405960529517892 0 -0.091378819945462819 -0.27405960529517892 0 -0.068721828444096633 -0.2698787542887045 0 -0.079465288233698042 -0.25846821731041458 0 -0.072947339386401744 -0.29815403057856332 0 -0.091378819945462819 -0.27405960529517892 0 -0.068721828444096633 -0.2698787542887045 0 -0.068721828444096633 -0.2698787542887045 0 -0.065421878849430556 -0.25167039592025259 0 -0.079465288233698042 -0.25846821731041458 0 -0.093765691765433312 -0.25258281812082478 0 -0.091378819945462819 -0.27405960529517892 0 -0.079465288233698042 -0.25846821731041458 0 -0.093765691765433312 -0.25258281812082478 0 -0.079465288233698042 -0.25846821731041458 0 -0.078278243085297239 -0.23951664672932549 0 -0.036856198389287782 -0.25899730250271491 0 -0.027326811110253871 -0.25121816526868662 0 -0.040785035177160277 -0.24958968680164759 0 -0.036856198389287782 -0.25899730250271491 0 -0.03708476385319625 -0.2699613192856723 0 -0.027769846617742091 -0.26444130564156609 0 -0.036856198389287782 -0.25899730250271491 0 -0.051314535188086402 -0.25977603551600209 0 -0.03708476385319625 -0.2699613192856723 0 -0.036856198389287782 -0.25899730250271491 0 -0.051314535188086402 -0.25977603551600209 0 -0.040785035177160277 -0.24958968680164759 0 -0.051314535188086402 -0.25977603551600209 0 -0.052406799216804557 -0.24459198769464191 0 -0.040785035177160277 -0.24958968680164759 0 -0.068721828444096633 -0.2698787542887045 0 -0.065421878849430556 -0.25167039592025259 0 -0.051314535188086402 -0.25977603551600209 0 -0.065421878849430556 -0.25167039592025259 0 -0.051314535188086402 -0.25977603551600209 0 -0.052406799216804557 -0.24459198769464191 0 -0.068721828444096633 -0.2698787542887045 0 -0.051314535188086402 -0.25977603551600209 0 -0.051386271478722378 -0.27925540101153468 0 -0.051386271478722378 -0.27925540101153468 0 -0.03708476385319625 -0.2699613192856723 0 -0.030508603843899348 -0.2838920637904252 0 -0.051314535188086402 -0.25977603551600209 0 -0.051386271478722378 -0.27925540101153468 0 -0.03708476385319625 -0.2699613192856723 0 -0.051386271478722378 -0.27925540101153468 0 -0.043558347473806387 -0.2984211194138231 0 -0.030508603843899348 -0.2838920637904252 0 -0.072947339386401744 -0.29815403057856332 0 -0.051386271478722378 -0.27925540101153468 0 -0.043558347473806387 -0.2984211194138231 0 -0.072947339386401744 -0.29815403057856332 0 -0.043558347473806387 -0.2984211194138231 0 -0.072947339386401744 -0.29815403057856332 0 -0.043558347473806387 -0.2984211194138231 0 -0.051420852876661483 -0.31380047181538612 0 -0.043558347473806387 -0.2984211194138231 0 -0.051420852876661483 -0.31380047181538612 0 -0.030582351458593698 -0.31403506648659951 0 -0.014169355561211039 -0.29868820824908299 0 -0.030582351458593698 -0.31403506648659951 0 -0.0093546214437348063 -0.3154421594820554 0 -0.043558347473806387 -0.2984211194138231 0 -0.014169355561211039 -0.29868820824908299 0 -0.030582351458593698 -0.31403506648659951 0 -0.043558347473806387 -0.2984211194138231 0 -0.014169355561211039 -0.29868820824908299 0 -0.014169355561211039 -0.29868820824908299 0 -0.0093546214437348063 -0.3154421594820554 0 0.0025702240157044749 -0.30194718224499639 0 -0.014169355561211039 -0.29868820824908299 0 0.0025702240157044749 -0.30194718224499639 0 0.001953977901653102 -0.28749824366549498 0 -0.014169355561211039 -0.29868820824908299 0 -0.01355692824822796 -0.28271954505438091 0 0.001953977901653102 -0.28749824366549498 0 -0.01355692824822796 -0.28271954505438091 0 -0.002131649244152236 -0.27375645946249172 0 0.001953977901653102 -0.28749824366549498 0 -0.014169355561211039 -0.29868820824908299 0 -0.01355692824822796 -0.28271954505438091 0 -0.030508603843899348 -0.2838920637904252 0 -0.043558347473806387 -0.2984211194138231 0 -0.014169355561211039 -0.29868820824908299 0 -0.030508603843899348 -0.2838920637904252 0 -0.01355692824822796 -0.28271954505438091 0 -0.030508603843899348 -0.2838920637904252 0 -0.0232959564482321 -0.27430678972805739 0 -0.03708476385319625 -0.2699613192856723 0 -0.030508603843899348 -0.2838920637904252 0 -0.0232959564482321 -0.27430678972805739 0 -0.03708476385319625 -0.2699613192856723 0 -0.0232959564482321 -0.27430678972805739 0 -0.027769846617742091 -0.26444130564156609 0 -0.0232959564482321 -0.27430678972805739 0 -0.01453475649827142 -0.26699160201657218 0 -0.027769846617742091 -0.26444130564156609 0 -0.0232959564482321 -0.27430678972805739 0 -0.01264771782334753 -0.27382178896806042 0 -0.01453475649827142 -0.26699160201657218 0 -0.01355692824822796 -0.28271954505438091 0 -0.0232959564482321 -0.27430678972805739 0 -0.01264771782334753 -0.27382178896806042 0 -0.01355692824822796 -0.28271954505438091 0 -0.01264771782334753 -0.27382178896806042 0 -0.002131649244152236 -0.27375645946249172 0 -0.002131649244152236 -0.27375645946249172 0 -0.0028944004114581372 -0.26277522582270341 0 0.0049597396345670026 -0.26452376434945218 0 -0.002131649244152236 -0.27375645946249172 0 -0.0081433199175628083 -0.26887389345264789 0 -0.0028944004114581372 -0.26277522582270341 0 -0.01264771782334753 -0.27382178896806042 0 -0.002131649244152236 -0.27375645946249172 0 -0.0081433199175628083 -0.26887389345264789 0 -0.01264771782334753 -0.27382178896806042 0 -0.0081433199175628083 -0.26887389345264789 0 -0.01453475649827142 -0.26699160201657218 0 -0.0081433199175628083 -0.26887389345264789 0 -0.01453475649827142 -0.26699160201657218 0 -0.012379740604400009 -0.25371681360357518 0 -0.0081433199175628083 -0.26887389345264789 0 -0.012379740604400009 -0.25371681360357518 0 -0.0081433199175628083 -0.26887389345264789 0 -0.0050603712554523096 -0.25502580822232418 0 -0.012379740604400009 -0.25371681360357518 0 -0.0081433199175628083 -0.26887389345264789 0 -0.0028944004114581372 -0.26277522582270341 0 -0.0050603712554523096 -0.25502580822232418 0 -0.0028944004114581372 -0.26277522582270341 0 -0.0050603712554523096 -0.25502580822232418 0 0.0049597396345670026 -0.26452376434945218 0 -0.0050603712554523096 -0.25502580822232418 0 -0.012379740604400009 -0.25371681360357518 0 -0.01487672558591642 -0.24478309253466149 0 -0.01453475649827142 -0.26699160201657218 0 -0.027326811110253871 -0.25121816526868662 0 -0.01453475649827142 -0.26699160201657218 0 -0.027769846617742091 -0.26444130564156609 0 -0.027326811110253871 -0.25121816526868662 0 -0.01453475649827142 -0.26699160201657218 0 -0.012379740604400009 -0.25371681360357518 0 -0.027326811110253871 -0.25121816526868662 0 -0.036856198389287782 -0.25899730250271491 0 -0.027769846617742091 -0.26444130564156609 0 -0.027326811110253871 -0.25121816526868662 0 -0.039399855887372083 -0.348894598899534 0 -0.034096369460313788 -0.36339656310703322 0 -0.051971925864546728 -0.35666972650072859 0 -0.039399855887372083 -0.348894598899534 0 -0.034096369460313788 -0.36339656310703322 0 -0.026210886027733249 -0.34369915139989571 0 -0.039399855887372083 -0.348894598899534 0 -0.034096369460313788 -0.36339656310703322 0 -0.034096369460313788 -0.36339656310703322 0 -0.059008804616476777 -0.3736816009534113 0 -0.034096369460313788 -0.36339656310703322 0 -0.059008804616476777 -0.3736816009534113 0 -0.054792379857709787 -0.38521108099946061 0 -0.071250752086046532 -0.35335887697158019 0 -0.059008804616476777 -0.3736816009534113 0 -0.051971925864546728 -0.35666972650072859 0 -0.034096369460313788 -0.36339656310703322 0 -0.059008804616476777 -0.3736816009534113 0 -0.051971925864546728 -0.35666972650072859 0 -0.039399855887372083 -0.348894598899534 0 -0.056103847272524453 -0.34401699257208418 0 -0.051971925864546728 -0.35666972650072859 0 -0.071250752086046532 -0.35335887697158019 0 -0.056103847272524453 -0.34401699257208418 0 -0.051971925864546728 -0.35666972650072859 0 -0.063011241542060503 -0.32804507108198161 0 -0.056103847272524453 -0.34401699257208418 0 -0.04119870814000013 -0.33100814093665459 0 -0.063011241542060503 -0.32804507108198161 0 -0.072947339386401744 -0.29815403057856332 0 -0.051420852876661483 -0.31380047181538612 0 -0.063011241542060503 -0.32804507108198161 0 -0.051420852876661483 -0.31380047181538612 0 -0.04119870814000013 -0.33100814093665459 0 -0.04119870814000013 -0.33100814093665459 0 -0.030582351458593698 -0.31403506648659951 0 -0.022582582343139011 -0.32698802181857289 0 -0.051420852876661483 -0.31380047181538612 0 -0.04119870814000013 -0.33100814093665459 0 -0.030582351458593698 -0.31403506648659951 0 -0.039399855887372083 -0.348894598899534 0 -0.04119870814000013 -0.33100814093665459 0 -0.026210886027733249 -0.34369915139989571 0 -0.039399855887372083 -0.348894598899534 0 -0.056103847272524453 -0.34401699257208418 0 -0.04119870814000013 -0.33100814093665459 0 -0.04119870814000013 -0.33100814093665459 0 -0.026210886027733249 -0.34369915139989571 0 -0.022582582343139011 -0.32698802181857289 0 -0.026210886027733249 -0.34369915139989571 0 -0.022582582343139011 -0.32698802181857289 0 -0.008605873932596356 -0.33624452634938418 0 -0.030582351458593698 -0.31403506648659951 0 -0.022582582343139011 -0.32698802181857289 0 -0.0093546214437348063 -0.3154421594820554 0 -0.022582582343139011 -0.32698802181857289 0 -0.0093546214437348063 -0.3154421594820554 0 -0.008605873932596356 -0.33624452634938418 0 -0.0093546214437348063 -0.3154421594820554 0 -0.008605873932596356 -0.33624452634938418 0 0.0035141492887302548 -0.32519051246028208 0 -0.0019921573348008 -0.35014241775074068 0 -0.018044263397557131 -0.35676949042888739 0 -0.0042332821090469977 -0.36931681778231101 0 -0.0019921573348008 -0.35014241775074068 0 -0.018044263397557131 -0.35676949042888739 0 -0.008605873932596356 -0.33624452634938418 0 -0.0019921573348008 -0.35014241775074068 0 -0.018044263397557131 -0.35676949042888739 0 -0.026210886027733249 -0.34369915139989571 0 -0.008605873932596356 -0.33624452634938418 0 -0.018044263397557131 -0.35676949042888739 0 -0.034096369460313788 -0.36339656310703322 0 -0.026210886027733249 -0.34369915139989571 0 -0.018044263397557131 -0.35676949042888739 0 -0.034096369460313788 -0.36339656310703322 0 -0.018044263397557131 -0.35676949042888739 0 -0.034096369460313788 -0.36339656310703322 0 -0.018686911073243041 -0.37245057318461761 0 -0.025663519942779139 -0.38645552319913151 0 -0.034096369460313788 -0.36339656310703322 0 -0.025663519942779139 -0.38645552319913151 0 -0.034096369460313788 -0.36339656310703322 0 -0.018044263397557131 -0.35676949042888739 0 -0.018686911073243041 -0.37245057318461761 0 -0.018044263397557131 -0.35676949042888739 0 -0.018686911073243041 -0.37245057318461761 0 -0.0042332821090469977 -0.36931681778231101 0 -0.0042332821090469977 -0.36931681778231101 0 -0.0014384839491562609 -0.38294108750953337 0 -0.01293018069981793 -0.38699951650140929 0 -0.018686911073243041 -0.37245057318461761 0 -0.0042332821090469977 -0.36931681778231101 0 -0.01293018069981793 -0.38699951650140929 0 -0.0014384839491562609 -0.38294108750953337 0 -0.01063129593948554 -0.39508981091663592 0 0.011472045166716269 -0.38952867199447438 0 -0.0014384839491562609 -0.38294108750953337 0 -0.01293018069981793 -0.38699951650140929 0 -0.01063129593948554 -0.39508981091663592 0 -0.01063129593948554 -0.39508981091663592 0 -0.0091670491733258502 -0.407137417147723 0 0.011472045166716269 -0.38952867199447438 0 -0.01063129593948554 -0.39508981091663592 0 -0.018873559194732051 -0.4050221338792524 0 -0.0091670491733258502 -0.407137417147723 0 -0.018873559194732051 -0.4050221338792524 0 -0.02836285586948685 -0.40056267234101323 0 -0.025663519942779139 -0.38645552319913151 0 -0.018873559194732051 -0.4050221338792524 0 -0.025663519942779139 -0.38645552319913151 0 -0.01063129593948554 -0.39508981091663592 0 -0.018873559194732051 -0.4050221338792524 0 -0.025663519942779139 -0.38645552319913151 0 -0.018873559194732051 -0.4050221338792524 0 -0.02836285586948685 -0.40056267234101323 0 -0.030977517198131951 -0.41001184184548872 0 -0.018686911073243041 -0.37245057318461761 0 -0.01293018069981793 -0.38699951650140929 0 -0.025663519942779139 -0.38645552319913151 0 -0.01293018069981793 -0.38699951650140929 0 -0.01063129593948554 -0.39508981091663592 0 -0.025663519942779139 -0.38645552319913151 0 -0.01293018069981793 -0.38699951650140929 0 -0.025663519942779139 -0.38645552319913151 0 -0.025663519942779139 -0.38645552319913151 0 -0.054792379857709787 -0.38521108099946061 0 -0.034096369460313788 -0.36339656310703322 0 -0.025663519942779139 -0.38645552319913151 0 -0.054792379857709787 -0.38521108099946061 0 -0.025663519942779139 -0.38645552319913151 0 -0.040378871001035203 -0.4023619242499753 0 -0.054792379857709787 -0.38521108099946061 0 -0.02836285586948685 -0.40056267234101323 0 -0.025663519942779139 -0.38645552319913151 0 -0.040378871001035203 -0.4023619242499753 0 -0.02836285586948685 -0.40056267234101323 0 -0.040378871001035203 -0.4023619242499753 0 -0.030977517198131951 -0.41001184184548872 0 -0.054792379857709787 -0.38521108099946061 0 -0.059825167014939118 -0.40722915412089022 0 -0.072775681732521871 -0.39584784537067902 0 -0.040378871001035203 -0.4023619242499753 0 -0.054792379857709787 -0.38521108099946061 0 -0.059825167014939118 -0.40722915412089022 0 -0.042229656958243142 -0.42347410177567479 0 -0.050515785400197619 -0.44529677996352279 0 -0.072027503688391378 -0.4304363902392051 0 -0.040378871001035203 -0.4023619242499753 0 -0.059825167014939118 -0.40722915412089022 0 -0.042229656958243142 -0.42347410177567479 0 -0.059825167014939118 -0.40722915412089022 0 -0.042229656958243142 -0.42347410177567479 0 -0.072027503688391378 -0.4304363902392051 0 -0.040378871001035203 -0.4023619242499753 0 -0.042229656958243142 -0.42347410177567479 0 -0.030977517198131951 -0.41001184184548872 0 -0.042229656958243142 -0.42347410177567479 0 -0.030977517198131951 -0.41001184184548872 0 -0.025042642967162548 -0.41863837698152778 0 -0.042229656958243142 -0.42347410177567479 0 -0.02466563579619491 -0.43258924065094212 0 -0.036391946892689743 -0.43794750258320281 0 -0.042229656958243142 -0.42347410177567479 0 -0.036391946892689743 -0.43794750258320281 0 -0.050515785400197619 -0.44529677996352279 0 -0.042229656958243142 -0.42347410177567479 0 -0.02466563579619491 -0.43258924065094212 0 -0.025042642967162548 -0.41863837698152778 0 -0.02466563579619491 -0.43258924065094212 0 -0.01208359844668536 -0.42358874455937362 0 -0.01135633175650611 -0.44080857306714882 0 -0.02466563579619491 -0.43258924065094212 0 -0.025042642967162548 -0.41863837698152778 0 -0.01208359844668536 -0.42358874455937362 0 -0.018873559194732051 -0.4050221338792524 0 -0.025042642967162548 -0.41863837698152778 0 -0.01208359844668536 -0.42358874455937362 0 -0.018873559194732051 -0.4050221338792524 0 -0.030977517198131951 -0.41001184184548872 0 -0.025042642967162548 -0.41863837698152778 0 -0.0091670491733258502 -0.407137417147723 0 -0.01208359844668536 -0.42358874455937362 0 0.0037810136158822729 -0.41791708709875131 0 -0.018873559194732051 -0.4050221338792524 0 -0.01208359844668536 -0.42358874455937362 0 -0.018873559194732051 -0.4050221338792524 0 -0.0091670491733258502 -0.407137417147723 0 -0.01208359844668536 -0.42358874455937362 0 -0.0091670491733258502 -0.407137417147723 0 0.005108664055598287 -0.40528738143041459 0 0.0037810136158822729 -0.41791708709875131 0 -0.01208359844668536 -0.42358874455937362 0 -0.01135633175650611 -0.44080857306714882 0 0.00079488181500260609 -0.42987501851034571 0 -0.01208359844668536 -0.42358874455937362 0 0.0037810136158822729 -0.41791708709875131 0 0.00079488181500260609 -0.42987501851034571 0 -0.01135633175650611 -0.44080857306714882 0 -0.0057475739345891896 -0.4549207533069245 0 -0.026821380350943221 -0.45052187300253432 0 -0.01135633175650611 -0.44080857306714882 0 -0.0057475739345891896 -0.4549207533069245 0 0.0068165806591294316 -0.44348526320397952 0 -0.01135633175650611 -0.44080857306714882 0 0.00079488181500260609 -0.42987501851034571 0 0.0068165806591294316 -0.44348526320397952 0 -0.0057475739345891896 -0.4549207533069245 0 -0.01053281578453142 -0.47284051234843588 0 0.013156077559905371 -0.46694754491252372 0 -0.0057475739345891896 -0.4549207533069245 0 -0.026821380350943221 -0.45052187300253432 0 -0.01053281578453142 -0.47284051234843588 0 -0.026821380350943221 -0.45052187300253432 0 -0.01053281578453142 -0.47284051234843588 0 -0.034221709128968207 -0.47873347978434821 0 -0.02466563579619491 -0.43258924065094212 0 -0.026821380350943221 -0.45052187300253432 0 -0.036391946892689743 -0.43794750258320281 0 -0.02466563579619491 -0.43258924065094212 0 -0.01135633175650611 -0.44080857306714882 0 -0.026821380350943221 -0.45052187300253432 0 -0.01053281578453142 -0.47284051234843588 0 -0.021528721160628209 -0.5 0 0.0082051736105589468 -0.5 0 -0.01053281578453142 -0.47284051234843588 0 -0.034221709128968207 -0.47873347978434821 0 -0.01053281578453142 -0.47284051234843588 0 -0.021528721160628209 -0.5 0 -0.034221709128968207 -0.47873347978434821 0 -0.021528721160628209 -0.5 0 -0.034221709128968207 -0.47873347978434821 0 -0.051262615931815303 -0.5 0 -0.059523740010860512 -0.4805696461841214 0 -0.046928985533113317 -0.46386793679958732 0 -0.064864185923778739 -0.46315270411222448 0 -0.034221709128968207 -0.47873347978434821 0 -0.059523740010860512 -0.4805696461841214 0 -0.046928985533113317 -0.46386793679958732 0 -0.034221709128968207 -0.47873347978434821 0 -0.059523740010860512 -0.4805696461841214 0 -0.051262615931815303 -0.5 0 -0.026821380350943221 -0.45052187300253432 0 -0.036391946892689743 -0.43794750258320281 0 -0.050515785400197619 -0.44529677996352279 0 -0.026821380350943221 -0.45052187300253432 0 -0.034221709128968207 -0.47873347978434821 0 -0.046928985533113317 -0.46386793679958732 0 -0.026821380350943221 -0.45052187300253432 0 -0.046928985533113317 -0.46386793679958732 0 -0.050515785400197619 -0.44529677996352279 0 -0.046928985533113317 -0.46386793679958732 0 -0.050515785400197619 -0.44529677996352279 0 -0.064864185923778739 -0.46315270411222448 0 -0.050515785400197619 -0.44529677996352279 0 -0.067207280617084753 -0.44732106669938188 0 -0.064864185923778739 -0.46315270411222448 0 -0.050515785400197619 -0.44529677996352279 0 -0.067207280617084753 -0.44732106669938188 0 -0.072027503688391378 -0.4304363902392051 0 -0.067207280617084753 -0.44732106669938188 0 -0.082815891533118816 -0.45534181676778152 0 -0.072027503688391378 -0.4304363902392051 0 -0.067207280617084753 -0.44732106669938188 0 -0.064864185923778739 -0.46315270411222448 0 -0.082815891533118816 -0.45534181676778152 0 -0.064864185923778739 -0.46315270411222448 0 -0.082815891533118816 -0.45534181676778152 0 -0.078868432844485067 -0.47766375640856817 0 -0.082815891533118816 -0.45534181676778152 0 -0.098405376953540707 -0.43777035074814158 0 -0.072027503688391378 -0.4304363902392051 0 -0.059523740010860512 -0.4805696461841214 0 -0.078868432844485067 -0.47766375640856817 0 -0.080996510703002414 -0.50000000000000011 0 -0.059523740010860512 -0.4805696461841214 0 -0.051262615931815303 -0.5 0 -0.080996510703002414 -0.50000000000000011 0 -0.059523740010860512 -0.4805696461841214 0 -0.064864185923778739 -0.46315270411222448 0 -0.078868432844485067 -0.47766375640856817 0 -0.082815891533118816 -0.45534181676778152 0 -0.078868432844485067 -0.47766375640856817 0 -0.097649384782090676 -0.47348966161849648 0 -0.078868432844485067 -0.47766375640856817 0 -0.091101191517426794 -0.4855812854125191 0 -0.097649384782090676 -0.47348966161849648 0 -0.080996510703002414 -0.50000000000000011 0 -0.091101191517426794 -0.4855812854125191 0 -0.106890437740129 -0.49117172362301192 0 -0.078868432844485067 -0.47766375640856817 0 -0.080996510703002414 -0.50000000000000011 0 -0.091101191517426794 -0.4855812854125191 0 -0.080996510703002414 -0.50000000000000011 0 -0.106890437740129 -0.49117172362301192 0 -0.080996510703002414 -0.50000000000000011 0 -0.1052795491262605 -0.5 0 -0.106890437740129 -0.49117172362301192 0 -0.091101191517426794 -0.4855812854125191 0 -0.106890437740129 -0.49117172362301192 0 -0.097649384782090676 -0.47348966161849648 0 -0.106890437740129 -0.49117172362301192 0 -0.097649384782090676 -0.47348966161849648 0 -0.1161667412357628 -0.47599129326682099 0 -0.097649384782090676 -0.47348966161849648 0 -0.1161667412357628 -0.47599129326682099 0 -0.11918173836773351 -0.45845832247928869 0 -0.13278436477725561 -0.4823434472460234 0 -0.106890437740129 -0.49117172362301192 0 -0.1161667412357628 -0.47599129326682099 0 -0.13278436477725561 -0.4823434472460234 0 -0.12956258754951869 -0.5 0 -0.106890437740129 -0.49117172362301192 0 -0.12956258754951869 -0.5 0 -0.1052795491262605 -0.5 0 -0.106890437740129 -0.49117172362301192 0 -0.13278436477725561 -0.4823434472460234 0 -0.106890437740129 -0.49117172362301192 0 -0.098405376953540707 -0.43777035074814158 0 -0.1032934630365307 -0.45295297384024952 0 -0.1184149235461696 -0.43970471758753887 0 -0.082815891533118816 -0.45534181676778152 0 -0.098405376953540707 -0.43777035074814158 0 -0.1032934630365307 -0.45295297384024952 0 -0.082815891533118816 -0.45534181676778152 0 -0.097649384782090676 -0.47348966161849648 0 -0.1032934630365307 -0.45295297384024952 0 -0.097649384782090676 -0.47348966161849648 0 -0.11918173836773351 -0.45845832247928869 0 -0.097649384782090676 -0.47348966161849648 0 -0.1032934630365307 -0.45295297384024952 0 -0.11918173836773351 -0.45845832247928869 0 -0.1272556728232932 -0.47013049556587211 0 -0.1161667412357628 -0.47599129326682099 0 -0.11918173836773351 -0.45845832247928869 0 -0.1032934630365307 -0.45295297384024952 0 -0.11918173836773351 -0.45845832247928869 0 -0.1184149235461696 -0.43970471758753887 0 -0.13370262722300191 -0.42485153358840111 0 -0.1184149235461696 -0.43970471758753887 0 -0.116306788879599 -0.41668109890019722 0 -0.098405376953540707 -0.43777035074814158 0 -0.1184149235461696 -0.43970471758753887 0 -0.116306788879599 -0.41668109890019722 0 -0.098405376953540707 -0.43777035074814158 0 -0.097023176649951706 -0.41709708103231641 0 -0.116306788879599 -0.41668109890019722 0 -0.097023176649951706 -0.41709708103231641 0 -0.116306788879599 -0.41668109890019722 0 -0.1080069522975812 -0.4033851446609884 0 -0.097023176649951706 -0.41709708103231641 0 -0.1080069522975812 -0.4033851446609884 0 -0.093849536080233595 -0.40171885712620059 0 -0.116306788879599 -0.41668109890019722 0 -0.1246151037146196 -0.40215144471962733 0 -0.1080069522975812 -0.4033851446609884 0 -0.13370262722300191 -0.42485153358840111 0 -0.116306788879599 -0.41668109890019722 0 -0.1246151037146196 -0.40215144471962733 0 -0.12942966304821441 -0.38325015625522552 0 -0.1246151037146196 -0.40215144471962733 0 -0.11435095473318441 -0.38971939249289739 0 -0.1246151037146196 -0.40215144471962733 0 -0.11435095473318441 -0.38971939249289739 0 -0.1080069522975812 -0.4033851446609884 0 -0.12942966304821441 -0.38325015625522552 0 -0.1177797586078463 -0.37381446098417098 0 -0.11435095473318441 -0.38971939249289739 0 -0.1177797586078463 -0.37381446098417098 0 -0.11435095473318441 -0.38971939249289739 0 -0.1034929330021967 -0.38313049756236911 0 -0.1034929330021967 -0.38313049756236911 0 -0.09434009405236482 -0.38826803727453157 0 -0.083921239772640238 -0.38396663879978871 0 -0.11435095473318441 -0.38971939249289739 0 -0.1034929330021967 -0.38313049756236911 0 -0.1028080940331122 -0.39324438582339738 0 -0.1034929330021967 -0.38313049756236911 0 -0.09434009405236482 -0.38826803727453157 0 -0.1028080940331122 -0.39324438582339738 0 -0.11435095473318441 -0.38971939249289739 0 -0.1080069522975812 -0.4033851446609884 0 -0.1028080940331122 -0.39324438582339738 0 -0.09434009405236482 -0.38826803727453157 0 -0.1028080940331122 -0.39324438582339738 0 -0.093849536080233595 -0.40171885712620059 0 -0.1080069522975812 -0.4033851446609884 0 -0.1028080940331122 -0.39324438582339738 0 -0.093849536080233595 -0.40171885712620059 0 -0.093849536080233595 -0.40171885712620059 0 -0.084931705096709012 -0.39557720875243713 0 -0.079771973845784508 -0.40808466519098552 0 -0.09434009405236482 -0.38826803727453157 0 -0.093849536080233595 -0.40171885712620059 0 -0.084931705096709012 -0.39557720875243713 0 -0.084931705096709012 -0.39557720875243713 0 -0.083921239772640238 -0.38396663879978871 0 -0.072775681732521871 -0.39584784537067902 0 -0.084931705096709012 -0.39557720875243713 0 -0.072775681732521871 -0.39584784537067902 0 -0.079771973845784508 -0.40808466519098552 0 -0.1034929330021967 -0.38313049756236911 0 -0.083921239772640238 -0.38396663879978871 0 -0.092143069441117886 -0.37288061806212591 0 -0.1034929330021967 -0.38313049756236911 0 -0.083921239772640238 -0.38396663879978871 0 -0.09434009405236482 -0.38826803727453157 0 -0.083921239772640238 -0.38396663879978871 0 -0.09434009405236482 -0.38826803727453157 0 -0.084931705096709012 -0.39557720875243713 0 -0.083921239772640238 -0.38396663879978871 0 -0.076899216694667677 -0.36865863427987439 0 -0.092143069441117886 -0.37288061806212591 0 -0.083921239772640238 -0.38396663879978871 0 -0.076899216694667677 -0.36865863427987439 0 -0.059008804616476777 -0.3736816009534113 0 -0.083921239772640238 -0.38396663879978871 0 -0.059008804616476777 -0.3736816009534113 0 -0.054792379857709787 -0.38521108099946061 0 -0.083921239772640238 -0.38396663879978871 0 -0.054792379857709787 -0.38521108099946061 0 -0.083921239772640238 -0.38396663879978871 0 -0.054792379857709787 -0.38521108099946061 0 -0.083921239772640238 -0.38396663879978871 0 -0.072775681732521871 -0.39584784537067902 0 -0.059008804616476777 -0.3736816009534113 0 -0.083921239772640238 -0.38396663879978871 0 -0.059825167014939118 -0.40722915412089022 0 -0.072775681732521871 -0.39584784537067902 0 -0.079771973845784508 -0.40808466519098552 0 -0.059825167014939118 -0.40722915412089022 0 -0.072027503688391378 -0.4304363902392051 0 -0.079771973845784508 -0.40808466519098552 0 -0.098405376953540707 -0.43777035074814158 0 -0.097023176649951706 -0.41709708103231641 0 -0.072027503688391378 -0.4304363902392051 0 -0.097023176649951706 -0.41709708103231641 0 -0.072027503688391378 -0.4304363902392051 0 -0.079771973845784508 -0.40808466519098552 0 -0.097023176649951706 -0.41709708103231641 0 -0.093849536080233595 -0.40171885712620059 0 -0.079771973845784508 -0.40808466519098552 0 -0.080332479827855185 -0.089132189148723034 0 -0.087659787804267197 -0.1053579589647711 0 -0.098653139325870498 -0.078072759780639212 0 -0.080332479827855185 -0.089132189148723034 0 -0.08392236851191634 -0.073343044769479643 0 -0.098653139325870498 -0.078072759780639212 0 -0.087659787804267197 -0.1053579589647711 0 -0.098653139325870498 -0.078072759780639212 0 -0.093078549589984544 -0.062615985124124363 0 -0.08392236851191634 -0.073343044769479643 0 -0.074194079442307964 -0.055813170303027348 0 -0.093078549589984544 -0.062615985124124363 0 -0.08392236851191634 -0.073343044769479643 0 -0.098653139325870498 -0.078072759780639212 0 -0.069502852475768331 -0.077808897141633637 0 -0.074194079442307964 -0.055813170303027348 0 -0.056896828677456698 -0.064957726782933892 0 -0.08392236851191634 -0.073343044769479643 0 -0.069502852475768331 -0.077808897141633637 0 -0.074194079442307964 -0.055813170303027348 0 -0.069502852475768331 -0.077808897141633637 0 -0.074194079442307964 -0.055813170303027348 0 -0.080332479827855185 -0.089132189148723034 0 -0.08392236851191634 -0.073343044769479643 0 -0.069502852475768331 -0.077808897141633637 0 -0.080332479827855185 -0.089132189148723034 0 -0.069502852475768331 -0.077808897141633637 0 -0.064978262980951509 -0.095744309556548293 0 -0.069502852475768331 -0.077808897141633637 0 -0.064978262980951509 -0.095744309556548293 0 -0.053466751150831528 -0.085728027791416223 0 -0.064978262980951509 -0.095744309556548293 0 -0.069413139924847295 -0.1120169614824971 0 -0.055973796613101583 -0.11154457769597879 0 -0.064978262980951509 -0.095744309556548293 0 -0.075595917634480286 -0.1005628547881349 0 -0.069413139924847295 -0.1120169614824971 0 -0.075595917634480286 -0.1005628547881349 0 -0.069413139924847295 -0.1120169614824971 0 -0.087659787804267197 -0.1053579589647711 0 -0.080332479827855185 -0.089132189148723034 0 -0.064978262980951509 -0.095744309556548293 0 -0.075595917634480286 -0.1005628547881349 0 -0.069413139924847295 -0.1120169614824971 0 -0.072499038737136423 -0.12336773177227039 0 -0.087659787804267197 -0.1053579589647711 0 -0.063965210873385206 -0.121372291062271 0 -0.069413139924847295 -0.1120169614824971 0 -0.072499038737136423 -0.12336773177227039 0 -0.063965210873385206 -0.121372291062271 0 -0.069413139924847295 -0.1120169614824971 0 -0.055973796613101583 -0.11154457769597879 0 -0.093729858762440374 -0.11631984424608149 0 -0.087659787804267197 -0.1053579589647711 0 -0.076666436282660663 -0.13264315814890179 0 -0.087659787804267197 -0.1053579589647711 0 -0.076666436282660663 -0.13264315814890179 0 -0.072499038737136423 -0.12336773177227039 0 -0.087659787804267197 -0.1053579589647711 0 -0.076666436282660663 -0.13264315814890179 0 -0.093729858762440374 -0.11631984424608149 0 -0.076666436282660663 -0.13264315814890179 0 -0.096101065320712109 -0.1258911452360538 0 -0.080332479827855185 -0.089132189148723034 0 -0.075595917634480286 -0.1005628547881349 0 -0.087659787804267197 -0.1053579589647711 0 -0.087659787804267197 -0.1053579589647711 0 -0.1004265812101162 -0.1089643198262948 0 -0.1006655882856296 -0.09175432640411825 0 -0.1004265812101162 -0.1089643198262948 0 -0.11487650466180439 -0.1160490357388697 0 -0.1006655882856296 -0.09175432640411825 0 -0.11487650466180439 -0.1160490357388697 0 -0.1117238545323833 -0.101270295352793 0 -0.1006655882856296 -0.09175432640411825 0 -0.11487650466180439 -0.1160490357388697 0 -0.1006655882856296 -0.09175432640411825 0 -0.10451846741591179 -0.1170766955469076 0 -0.11649007265168369 -0.1188075605425003 0 -0.096101065320712109 -0.1258911452360538 0 -0.11649007265168369 -0.1188075605425003 0 -0.096101065320712109 -0.1258911452360538 0 -0.093729858762440374 -0.11631984424608149 0 -0.10451846741591179 -0.1170766955469076 0 -0.096101065320712109 -0.1258911452360538 0 -0.093729858762440374 -0.11631984424608149 0 -0.087659787804267197 -0.1053579589647711 0 -0.1004265812101162 -0.1089643198262948 0 -0.093729858762440374 -0.11631984424608149 0 -0.1004265812101162 -0.1089643198262948 0 -0.10451846741591179 -0.1170766955469076 0 -0.1004265812101162 -0.1089643198262948 0 -0.10451846741591179 -0.1170766955469076 0 -0.11487650466180439 -0.1160490357388697 0 -0.10451846741591179 -0.1170766955469076 0 -0.11649007265168369 -0.1188075605425003 0 -0.11487650466180439 -0.1160490357388697 0 -0.11649007265168369 -0.1188075605425003 0 -0.11487650466180439 -0.1160490357388697 0 -0.11649007265168369 -0.1188075605425003 0 -0.11487650466180439 -0.1160490357388697 0 -0.12599987765418549 -0.11550364740632391 0 -0.11487650466180439 -0.1160490357388697 0 -0.12182531397588869 -0.1044134543712442 0 -0.12599987765418549 -0.11550364740632391 0 -0.11649007265168369 -0.1188075605425003 0 -0.12599987765418549 -0.11550364740632391 0 -0.11649007265168369 -0.1188075605425003 0 -0.12599987765418549 -0.11550364740632391 0 -0.1252704192176744 -0.1172440966648565 0 -0.11487650466180439 -0.1160490357388697 0 -0.1117238545323833 -0.101270295352793 0 -0.12182531397588869 -0.1044134543712442 0 -0.11487650466180439 -0.1160490357388697 0 -0.1117238545323833 -0.101270295352793 0 -0.1117238545323833 -0.101270295352793 0 -0.12182531397588869 -0.1044134543712442 0 -0.12067370026095731 -0.092005587950159118 0 -0.1117238545323833 -0.101270295352793 0 -0.12067370026095731 -0.092005587950159118 0 -0.1096737611153919 -0.085603154438093937 0 -0.12067370026095731 -0.092005587950159118 0 -0.1179915177927765 -0.081714148456293267 0 -0.12737817104852411 -0.080741270387750683 0 -0.1179915177927765 -0.081714148456293267 0 -0.1096737611153919 -0.085603154438093937 0 -0.1121838893690176 -0.075324773267663084 0 -0.12067370026095731 -0.092005587950159118 0 -0.1179915177927765 -0.081714148456293267 0 -0.1096737611153919 -0.085603154438093937 0 -0.087659787804267197 -0.1053579589647711 0 -0.1006655882856296 -0.09175432640411825 0 -0.098653139325870498 -0.078072759780639212 0 -0.1117238545323833 -0.101270295352793 0 -0.1096737611153919 -0.085603154438093937 0 -0.1006655882856296 -0.09175432640411825 0 -0.1096737611153919 -0.085603154438093937 0 -0.098653139325870498 -0.078072759780639212 0 -0.1121838893690176 -0.075324773267663084 0 -0.1096737611153919 -0.085603154438093937 0 -0.1006655882856296 -0.09175432640411825 0 -0.098653139325870498 -0.078072759780639212 0 -0.093078549589984544 -0.062615985124124363 0 -0.098653139325870498 -0.078072759780639212 0 -0.10811729135418539 -0.065091756711675844 0 -0.098653139325870498 -0.078072759780639212 0 -0.10811729135418539 -0.065091756711675844 0 -0.1121838893690176 -0.075324773267663084 0 -0.10811729135418539 -0.065091756711675844 0 -0.1121838893690176 -0.075324773267663084 0 -0.1232756904161693 -0.070411489051666373 0 -0.1179915177927765 -0.081714148456293267 0 -0.1121838893690176 -0.075324773267663084 0 -0.1232756904161693 -0.070411489051666373 0 -0.1179915177927765 -0.081714148456293267 0 -0.1232756904161693 -0.070411489051666373 0 -0.12737817104852411 -0.080741270387750683 0 -0.10811729135418539 -0.065091756711675844 0 -0.1232756904161693 -0.070411489051666373 0 -0.12131955324210091 -0.059181462630683621 0 -0.12131955324210091 -0.059181462630683621 0 -0.1197314047957487 -0.044466417495601512 0 -0.1050545945384474 -0.053665832172193451 0 -0.10811729135418539 -0.065091756711675844 0 -0.12131955324210091 -0.059181462630683621 0 -0.1050545945384474 -0.053665832172193451 0 -0.12131955324210091 -0.059181462630683621 0 -0.1197314047957487 -0.044466417495601512 0 -0.1315211872564446 -0.050314657740016588 0 -0.1197314047957487 -0.044466417495601512 0 -0.1068389650378473 -0.041887213400145028 0 -0.1185057960264221 -0.028529017004706999 0 -0.1197314047957487 -0.044466417495601512 0 -0.1185057960264221 -0.028529017004706999 0 -0.13361245343545181 -0.030305793086055629 0 -0.1197314047957487 -0.044466417495601512 0 -0.1068389650378473 -0.041887213400145028 0 -0.1050545945384474 -0.053665832172193451 0 -0.1068389650378473 -0.041887213400145028 0 -0.093783258566811134 -0.025165556691727101 0 -0.092485611966423034 -0.037114626304880938 0 -0.1068389650378473 -0.041887213400145028 0 -0.090434917852185284 -0.047588291663230448 0 -0.092485611966423034 -0.037114626304880938 0 -0.093078549589984544 -0.062615985124124363 0 -0.1050545945384474 -0.053665832172193451 0 -0.090434917852185284 -0.047588291663230448 0 -0.1068389650378473 -0.041887213400145028 0 -0.1050545945384474 -0.053665832172193451 0 -0.090434917852185284 -0.047588291663230448 0 -0.093078549589984544 -0.062615985124124363 0 -0.10811729135418539 -0.065091756711675844 0 -0.1050545945384474 -0.053665832172193451 0 -0.1236122261121546 -0.0078425818954372464 0 -0.10868121072477301 -0.016513669919031759 0 -0.1099986790197032 0.001632030897992919 0 -0.1236122261121546 -0.0078425818954372464 0 -0.10868121072477301 -0.016513669919031759 0 -0.1068389650378473 -0.041887213400145028 0 -0.1185057960264221 -0.028529017004706999 0 -0.10868121072477301 -0.016513669919031759 0 -0.1236122261121546 -0.0078425818954372464 0 -0.1185057960264221 -0.028529017004706999 0 -0.10868121072477301 -0.016513669919031759 0 -0.1068389650378473 -0.041887213400145028 0 -0.104837062895502 -0.02019526763349536 0 -0.10868121072477301 -0.016513669919031759 0 -0.1068389650378473 -0.041887213400145028 0 -0.10868121072477301 -0.016513669919031759 0 -0.1068389650378473 -0.041887213400145028 0 -0.093783258566811134 -0.025165556691727101 0 -0.104837062895502 -0.02019526763349536 0 -0.093783258566811134 -0.025165556691727101 0 -0.10868121072477301 -0.016513669919031759 0 -0.093783258566811134 -0.025165556691727101 0 -0.10868121072477301 -0.016513669919031759 0 -0.095747033840698895 -0.01524308727968717 0 -0.093783258566811134 -0.025165556691727101 0 -0.104837062895502 -0.02019526763349536 0 -0.10868121072477301 -0.016513669919031759 0 -0.104837062895502 -0.02019526763349536 0 -0.10868121072477301 -0.016513669919031759 0 -0.10868121072477301 -0.016513669919031759 0 -0.1099986790197032 0.001632030897992919 0 -0.10868121072477301 -0.016513669919031759 0 -0.097318817554363779 -0.0057286893867275063 0 -0.1099986790197032 0.001632030897992919 0 -0.10868121072477301 -0.016513669919031759 0 -0.095747033840698895 -0.01524308727968717 0 -0.097318817554363779 -0.0057286893867275063 0 -0.097318817554363779 -0.0057286893867275063 0 -0.083204848516847923 -0.01356443312126232 0 -0.087524390624848222 0.006688577221896419 0 -0.083204848516847923 -0.01356443312126232 0 -0.087524390624848222 0.006688577221896419 0 -0.083204848516847923 -0.01356443312126232 0 -0.065966226425225663 -0.0060274066981548767 0 -0.087524390624848222 0.006688577221896419 0 -0.095747033840698895 -0.01524308727968717 0 -0.097318817554363779 -0.0057286893867275063 0 -0.083204848516847923 -0.01356443312126232 0 -0.083204848516847923 -0.01356443312126232 0 -0.07434952191593272 -0.025061702399879319 0 -0.078885306408848499 -0.033817443464421199 0 -0.093783258566811134 -0.025165556691727101 0 -0.083204848516847923 -0.01356443312126232 0 -0.078885306408848499 -0.033817443464421199 0 -0.083204848516847923 -0.01356443312126232 0 -0.078885306408848499 -0.033817443464421199 0 -0.093783258566811134 -0.025165556691727101 0 -0.095747033840698895 -0.01524308727968717 0 -0.083204848516847923 -0.01356443312126232 0 -0.093783258566811134 -0.025165556691727101 0 -0.078885306408848499 -0.033817443464421199 0 -0.07434952191593272 -0.025061702399879319 0 -0.065966226425225663 -0.0060274066981548767 0 -0.069170669720302794 -0.035546986895945307 0 -0.065966226425225663 -0.0060274066981548767 0 -0.069170669720302794 -0.035546986895945307 0 -0.060499849025326763 -0.027113091598361162 0 -0.065966226425225663 -0.0060274066981548767 0 -0.069170669720302794 -0.035546986895945307 0 -0.083204848516847923 -0.01356443312126232 0 -0.07434952191593272 -0.025061702399879319 0 -0.065966226425225663 -0.0060274066981548767 0 -0.093078549589984544 -0.062615985124124363 0 -0.090434917852185284 -0.047588291663230448 0 -0.074194079442307964 -0.055813170303027348 0 -0.090434917852185284 -0.047588291663230448 0 -0.078885306408848499 -0.033817443464421199 0 -0.074194079442307964 -0.055813170303027348 0 -0.090434917852185284 -0.047588291663230448 0 -0.092485611966423034 -0.037114626304880938 0 -0.078885306408848499 -0.033817443464421199 0 -0.093783258566811134 -0.025165556691727101 0 -0.092485611966423034 -0.037114626304880938 0 -0.078885306408848499 -0.033817443464421199 0 -0.078885306408848499 -0.033817443464421199 0 -0.074194079442307964 -0.055813170303027348 0 -0.070330568719734213 -0.04601515277555971 0 -0.074520558508438778 -0.036352241819612927 0 -0.069170669720302794 -0.035546986895945307 0 -0.078885306408848499 -0.033817443464421199 0 -0.070330568719734213 -0.04601515277555971 0 -0.074194079442307964 -0.055813170303027348 0 -0.078885306408848499 -0.033817443464421199 0 -0.070330568719734213 -0.04601515277555971 0 -0.074520558508438778 -0.036352241819612927 0 -0.07434952191593272 -0.025061702399879319 0 -0.074520558508438778 -0.036352241819612927 0 -0.069170669720302794 -0.035546986895945307 0 -0.07434952191593272 -0.025061702399879319 0 -0.078885306408848499 -0.033817443464421199 0 -0.074520558508438778 -0.036352241819612927 0 -0.078885306408848499 -0.033817443464421199 0 -0.074520558508438778 -0.036352241819612927 0 -0.069170669720302794 -0.035546986895945307 0 -0.063362765034716981 -0.039125320738808887 0 -0.060499849025326763 -0.027113091598361162 0 -0.070330568719734213 -0.04601515277555971 0 -0.069170669720302794 -0.035546986895945307 0 -0.063362765034716981 -0.039125320738808887 0 -0.070330568719734213 -0.04601515277555971 0 -0.063362765034716981 -0.039125320738808887 0 -0.059858302453952031 -0.048952151576379901 0 -0.070330568719734213 -0.04601515277555971 0 -0.074194079442307964 -0.055813170303027348 0 -0.059858302453952031 -0.048952151576379901 0 -0.074194079442307964 -0.055813170303027348 0 -0.059858302453952031 -0.048952151576379901 0 -0.056896828677456698 -0.064957726782933892 0 -0.059858302453952031 -0.048952151576379901 0 -0.044923942794737923 -0.054691691027005551 0 -0.056896828677456698 -0.064957726782933892 0 -0.059858302453952031 -0.048952151576379901 0 -0.049734296148808359 -0.042485020192698987 0 -0.044923942794737923 -0.054691691027005551 0 -0.059858302453952031 -0.048952151576379901 0 -0.056954435254269083 -0.037999220847798339 0 -0.049734296148808359 -0.042485020192698987 0 -0.063362765034716981 -0.039125320738808887 0 -0.059858302453952031 -0.048952151576379901 0 -0.056954435254269083 -0.037999220847798339 0 -0.063362765034716981 -0.039125320738808887 0 -0.056954435254269083 -0.037999220847798339 0 -0.060499849025326763 -0.027113091598361162 0 -0.056954435254269083 -0.037999220847798339 0 -0.047200384798774982 -0.033276672805742737 0 -0.049734296148808359 -0.042485020192698987 0 -0.056954435254269083 -0.037999220847798339 0 -0.047200384798774982 -0.033276672805742737 0 -0.052646608023139009 -0.028133593701314161 0 -0.049734296148808359 -0.042485020192698987 0 -0.038309454021287423 -0.037485304465473157 0 -0.044923942794737923 -0.054691691027005551 0 -0.047200384798774982 -0.033276672805742737 0 -0.038309454021287423 -0.037485304465473157 0 -0.041340635405623813 -0.023634308371219701 0 -0.047200384798774982 -0.033276672805742737 0 -0.049734296148808359 -0.042485020192698987 0 -0.038309454021287423 -0.037485304465473157 0 -0.038309454021287423 -0.037485304465473157 0 -0.03208775864781041 -0.029071100487059381 0 -0.02346135141751398 -0.035355058972579741 0 -0.038309454021287423 -0.037485304465473157 0 -0.044923942794737923 -0.054691691027005551 0 -0.02964595896144296 -0.052602220053598318 0 -0.044923942794737923 -0.054691691027005551 0 -0.02964595896144296 -0.052602220053598318 0 -0.02933827121860667 -0.069671405985324328 0 -0.065966226425225663 -0.0060274066981548767 0 -0.052851520708108592 -0.013709279578128279 0 -0.060499849025326763 -0.027113091598361162 0 -0.065966226425225663 -0.0060274066981548767 0 -0.052851520708108592 -0.013709279578128279 0 -0.041285176168578859 0.002941795093874656 0 -0.052851520708108592 -0.013709279578128279 0 -0.052646608023139009 -0.028133593701314161 0 -0.041340635405623813 -0.023634308371219701 0 -0.052851520708108592 -0.013709279578128279 0 -0.060499849025326763 -0.027113091598361162 0 -0.052646608023139009 -0.028133593701314161 0 -0.056954435254269083 -0.037999220847798339 0 -0.060499849025326763 -0.027113091598361162 0 -0.052646608023139009 -0.028133593701314161 0 -0.047200384798774982 -0.033276672805742737 0 -0.052646608023139009 -0.028133593701314161 0 -0.041340635405623813 -0.023634308371219701 0 -0.041340635405623813 -0.023634308371219701 0 -0.03208775864781041 -0.029071100487059381 0 -0.025239593746816429 -0.019809730138964948 0 -0.041340635405623813 -0.023634308371219701 0 -0.035761471768298317 -0.01187809368403442 0 -0.025239593746816429 -0.019809730138964948 0 -0.052851520708108592 -0.013709279578128279 0 -0.041340635405623813 -0.023634308371219701 0 -0.035761471768298317 -0.01187809368403442 0 -0.038309454021287423 -0.037485304465473157 0 -0.041340635405623813 -0.023634308371219701 0 -0.03208775864781041 -0.029071100487059381 0 -0.052851520708108592 -0.013709279578128279 0 -0.035761471768298317 -0.01187809368403442 0 -0.041285176168578859 0.002941795093874656 0 -0.035761471768298317 -0.01187809368403442 0 -0.018090432812363919 -0.0051789454257338127 0 -0.041285176168578859 0.002941795093874656 0 -0.035761471768298317 -0.01187809368403442 0 -0.018090432812363919 -0.0051789454257338127 0 -0.025239593746816429 -0.019809730138964948 0 -0.018090432812363919 -0.0051789454257338127 0 -0.025239593746816429 -0.019809730138964948 0 -0.013061188317162169 -0.01291647294893521 0 -0.025239593746816429 -0.019809730138964948 0 -0.011210459174411659 -0.020702551241823321 0 -0.013061188317162169 -0.01291647294893521 0 -0.03208775864781041 -0.029071100487059381 0 -0.025239593746816429 -0.019809730138964948 0 -0.02346135141751398 -0.035355058972579741 0 -0.025239593746816429 -0.019809730138964948 0 -0.011210459174411659 -0.020702551241823321 0 -0.02346135141751398 -0.035355058972579741 0 -0.011210459174411659 -0.020702551241823321 0 -0.02346135141751398 -0.035355058972579741 0 -0.003476286599935095 -0.036271506326322138 0 -0.011210459174411659 -0.020702551241823321 0 -0.003476286599935095 -0.036271506326322138 0 0.0014199230119024339 -0.021574900853890581 0 -0.011210459174411659 -0.020702551241823321 0 0.0006213327713558641 -0.0089396406014967747 0 0.0014199230119024339 -0.021574900853890581 0 -0.001488115343110989 -0.0087397640735148233 0 -0.01693898921702304 0.0117618500821222 0 0.002394805847480138 -0.0071764921779012506 0 -0.018090432812363919 -0.0051789454257338127 0 -0.001488115343110989 -0.0087397640735148233 0 -0.01693898921702304 0.0117618500821222 0 -0.018090432812363919 -0.0051789454257338127 0 -0.013061188317162169 -0.01291647294893521 0 -0.001488115343110989 -0.0087397640735148233 0 -0.011210459174411659 -0.020702551241823321 0 -0.013061188317162169 -0.01291647294893521 0 -0.001488115343110989 -0.0087397640735148233 0 -0.011210459174411659 -0.020702551241823321 0 -0.001488115343110989 -0.0087397640735148233 0 0.0006213327713558641 -0.0089396406014967747 0 -0.011210459174411659 -0.020702551241823321 0 0.0006213327713558641 -0.0089396406014967747 0 -0.001488115343110989 -0.0087397640735148233 0 0.0006213327713558641 -0.0089396406014967747 0 -0.02964595896144296 -0.052602220053598318 0 -0.01526094355706222 -0.064007872731860899 0 -0.02933827121860667 -0.069671405985324328 0 -0.02964595896144296 -0.052602220053598318 0 -0.01441383554066036 -0.048546622235137428 0 -0.01526094355706222 -0.064007872731860899 0 -0.02964595896144296 -0.052602220053598318 0 -0.02346135141751398 -0.035355058972579741 0 -0.01441383554066036 -0.048546622235137428 0 -0.038309454021287423 -0.037485304465473157 0 -0.02964595896144296 -0.052602220053598318 0 -0.02346135141751398 -0.035355058972579741 0 -0.003476286599935095 -0.036271506326322138 0 -0.00022463716734756899 -0.054496453091326037 0 -0.01441383554066036 -0.048546622235137428 0 -0.02346135141751398 -0.035355058972579741 0 -0.003476286599935095 -0.036271506326322138 0 -0.01441383554066036 -0.048546622235137428 0 -0.00022463716734756899 -0.054496453091326037 0 -0.01441383554066036 -0.048546622235137428 0 -0.01526094355706222 -0.064007872731860899 0 -0.00022463716734756899 -0.054496453091326037 0 -0.01526094355706222 -0.064007872731860899 0 0.003886405537072308 -0.074985287574065307 0 -0.01526094355706222 -0.064007872731860899 0 -0.020242120847587721 -0.083511357097035596 0 0.003886405537072308 -0.074985287574065307 0 -0.0041979068999104599 -0.092692987180200151 0 -0.020242120847587721 -0.083511357097035596 0 0.003886405537072308 -0.074985287574065307 0 -0.020242120847587721 -0.083511357097035596 0 -0.037149979327061843 -0.086545702414286968 0 -0.027814197350204149 -0.1002222595639333 0 -0.020242120847587721 -0.083511357097035596 0 -0.02933827121860667 -0.069671405985324328 0 -0.037149979327061843 -0.086545702414286968 0 -0.0041979068999104599 -0.092692987180200151 0 -0.020242120847587721 -0.083511357097035596 0 -0.027814197350204149 -0.1002222595639333 0 -0.01526094355706222 -0.064007872731860899 0 -0.020242120847587721 -0.083511357097035596 0 -0.02933827121860667 -0.069671405985324328 0 -0.044923942794737923 -0.054691691027005551 0 -0.02933827121860667 -0.069671405985324328 0 -0.043795121567553899 -0.073512069705660321 0 -0.02933827121860667 -0.069671405985324328 0 -0.043795121567553899 -0.073512069705660321 0 -0.037149979327061843 -0.086545702414286968 0 -0.043795121567553899 -0.073512069705660321 0 -0.037149979327061843 -0.086545702414286968 0 -0.053466751150831528 -0.085728027791416223 0 -0.037149979327061843 -0.086545702414286968 0 -0.053466751150831528 -0.085728027791416223 0 -0.046895924631556341 -0.099640457450003272 0 -0.064978262980951509 -0.095744309556548293 0 -0.053466751150831528 -0.085728027791416223 0 -0.046895924631556341 -0.099640457450003272 0 -0.069502852475768331 -0.077808897141633637 0 -0.053466751150831528 -0.085728027791416223 0 -0.056896828677456698 -0.064957726782933892 0 -0.043795121567553899 -0.073512069705660321 0 -0.053466751150831528 -0.085728027791416223 0 -0.056896828677456698 -0.064957726782933892 0 -0.044923942794737923 -0.054691691027005551 0 -0.043795121567553899 -0.073512069705660321 0 -0.056896828677456698 -0.064957726782933892 0 -0.055973796613101583 -0.11154457769597879 0 -0.041972484009239593 -0.11125691353498 0 -0.051469099840166933 -0.12560748285855791 0 -0.063965210873385206 -0.121372291062271 0 -0.055973796613101583 -0.11154457769597879 0 -0.051469099840166933 -0.12560748285855791 0 -0.064978262980951509 -0.095744309556548293 0 -0.055973796613101583 -0.11154457769597879 0 -0.046895924631556341 -0.099640457450003272 0 -0.055973796613101583 -0.11154457769597879 0 -0.046895924631556341 -0.099640457450003272 0 -0.041972484009239593 -0.11125691353498 0 -0.046895924631556341 -0.099640457450003272 0 -0.041972484009239593 -0.11125691353498 0 -0.027814197350204149 -0.1002222595639333 0 -0.037149979327061843 -0.086545702414286968 0 -0.046895924631556341 -0.099640457450003272 0 -0.027814197350204149 -0.1002222595639333 0 -0.027958050649480481 -0.11798595469309241 0 -0.051469099840166933 -0.12560748285855791 0 -0.041972484009239593 -0.11125691353498 0 -0.027958050649480481 -0.11798595469309241 0 -0.051469099840166933 -0.12560748285855791 0 -0.041972484009239593 -0.11125691353498 0 -0.027958050649480481 -0.11798595469309241 0 -0.027814197350204149 -0.1002222595639333 0 -0.027958050649480481 -0.11798595469309241 0 -0.051469099840166933 -0.12560748285855791 0 -0.035009396245865847 -0.13138946507283039 0 -0.027958050649480481 -0.11798595469309241 0 -0.027814197350204149 -0.1002222595639333 0 -0.004447001458793981 -0.1103644265276268 0 -0.027958050649480481 -0.11798595469309241 0 -0.004447001458793981 -0.1103644265276268 0 -0.0041979068999104599 -0.092692987180200151 0 -0.027814197350204149 -0.1002222595639333 0 -0.004447001458793981 -0.1103644265276268 0 -0.027958050649480481 -0.11798595469309241 0 -0.004447001458793981 -0.1103644265276268 0 -0.0095835093286126792 -0.13067357323387099 0 -0.0095835093286126792 -0.13067357323387099 0 -0.02380622872257708 -0.13863305153198521 0 -0.011420010772425999 -0.14358906931216731 0 -0.0095835093286126792 -0.13067357323387099 0 -0.02380622872257708 -0.13863305153198521 0 -0.035009396245865847 -0.13138946507283039 0 -0.0095835093286126792 -0.13067357323387099 0 -0.035009396245865847 -0.13138946507283039 0 -0.027958050649480481 -0.11798595469309241 0 -0.0095835093286126792 -0.13067357323387099 0 -0.035009396245865847 -0.13138946507283039 0 -0.02380622872257708 -0.13863305153198521 0 -0.02156928320199206 -0.15178510772423359 0 -0.048274716116422638 -0.14250705937413011 0 -0.02380622872257708 -0.13863305153198521 0 -0.02156928320199206 -0.15178510772423359 0 -0.011420010772425999 -0.14358906931216731 0 -0.02156928320199206 -0.15178510772423359 0 0.0051361497124387812 -0.16106315607433669 0 0.00014451492137988051 -0.1496259991592768 0 -0.0095835093286126792 -0.13067357323387099 0 -0.011420010772425999 -0.14358906931216731 0 0.00014451492137988051 -0.1496259991592768 0 -0.02156928320199206 -0.15178510772423359 0 -0.011420010772425999 -0.14358906931216731 0 0.00014451492137988051 -0.1496259991592768 0 -0.011473423231508561 -0.16625464439919799 0 -0.001198061652550745 -0.17280609881212911 0 0.0051361497124387812 -0.16106315607433669 0 -0.011473423231508561 -0.16625464439919799 0 0.0051361497124387812 -0.16106315607433669 0 -0.02156928320199206 -0.15178510772423359 0 -0.011473423231508561 -0.16625464439919799 0 0.0051361497124387812 -0.16106315607433669 0 -0.02156928320199206 -0.15178510772423359 0 0.0051361497124387812 -0.16106315607433669 0 -0.011473423231508561 -0.16625464439919799 0 -0.011684220618858611 -0.1828185141711022 0 -0.001198061652550745 -0.17280609881212911 0 -0.011684220618858611 -0.1828185141711022 0 -0.001198061652550745 -0.17280609881212911 0 0.0039750345954989988 -0.18651425943902311 0 -0.011684220618858611 -0.1828185141711022 0 -0.028082996175455729 -0.1714461327240597 0 -0.02834353692262364 -0.19660149069868879 0 -0.011473423231508561 -0.16625464439919799 0 -0.011684220618858611 -0.1828185141711022 0 -0.028082996175455729 -0.1714461327240597 0 -0.028082996175455729 -0.1714461327240597 0 -0.035076942590977253 -0.17251068978070239 0 -0.02834353692262364 -0.19660149069868879 0 -0.011473423231508561 -0.16625464439919799 0 -0.028082996175455729 -0.1714461327240597 0 -0.011473423231508561 -0.16625464439919799 0 -0.022251169661310358 -0.16246870980996381 0 -0.028082996175455729 -0.1714461327240597 0 -0.02156928320199206 -0.15178510772423359 0 -0.011473423231508561 -0.16625464439919799 0 -0.022251169661310358 -0.16246870980996381 0 -0.022251169661310358 -0.16246870980996381 0 -0.028082996175455729 -0.1714461327240597 0 -0.031809345178707003 -0.1640816166355436 0 -0.02156928320199206 -0.15178510772423359 0 -0.022251169661310358 -0.16246870980996381 0 -0.031809345178707003 -0.1640816166355436 0 -0.02156928320199206 -0.15178510772423359 0 -0.031809345178707003 -0.1640816166355436 0 -0.040578875443760723 -0.15702635465982459 0 -0.031809345178707003 -0.1640816166355436 0 -0.043296803998745907 -0.16925270511447771 0 -0.040578875443760723 -0.15702635465982459 0 -0.031809345178707003 -0.1640816166355436 0 -0.043296803998745907 -0.16925270511447771 0 -0.035076942590977253 -0.17251068978070239 0 -0.028082996175455729 -0.1714461327240597 0 -0.031809345178707003 -0.1640816166355436 0 -0.035076942590977253 -0.17251068978070239 0 -0.043296803998745907 -0.16925270511447771 0 -0.040578875443760723 -0.15702635465982459 0 -0.04778301199147586 -0.16221110159835439 0 -0.035076942590977253 -0.17251068978070239 0 -0.045101912546314182 -0.17781348514508699 0 -0.045384173352602211 -0.1896086705553881 0 -0.035076942590977253 -0.17251068978070239 0 -0.02834353692262364 -0.19660149069868879 0 -0.035076942590977253 -0.17251068978070239 0 -0.02834353692262364 -0.19660149069868879 0 -0.045384173352602211 -0.1896086705553881 0 -0.043296803998745907 -0.16925270511447771 0 -0.035076942590977253 -0.17251068978070239 0 -0.045101912546314182 -0.17781348514508699 0 -0.043296803998745907 -0.16925270511447771 0 -0.045101912546314182 -0.17781348514508699 0 -0.050116399936897628 -0.17439367801967379 0 -0.053826302631423108 -0.18719098183538219 0 -0.0513777658433901 -0.18144884671813011 0 -0.045384173352602211 -0.1896086705553881 0 -0.045101912546314182 -0.17781348514508699 0 -0.0513777658433901 -0.18144884671813011 0 -0.045384173352602211 -0.1896086705553881 0 -0.053826302631423108 -0.18719098183538219 0 -0.0513777658433901 -0.18144884671813011 0 -0.05724186851000123 -0.18306086139846869 0 -0.050116399936897628 -0.17439367801967379 0 -0.056462731779267583 -0.17707926816758701 0 -0.053733136905861317 -0.1679726515631198 0 -0.0513777658433901 -0.18144884671813011 0 -0.050116399936897628 -0.17439367801967379 0 -0.056462731779267583 -0.17707926816758701 0 -0.045101912546314182 -0.17781348514508699 0 -0.0513777658433901 -0.18144884671813011 0 -0.050116399936897628 -0.17439367801967379 0 -0.061772453938110018 -0.1722676601875073 0 -0.056462731779267583 -0.17707926816758701 0 -0.064464826801710964 -0.18158017590305259 0 -0.061772453938110018 -0.1722676601875073 0 -0.056462731779267583 -0.17707926816758701 0 -0.053733136905861317 -0.1679726515631198 0 -0.056462731779267583 -0.17707926816758701 0 -0.05724186851000123 -0.18306086139846869 0 -0.064464826801710964 -0.18158017590305259 0 -0.0513777658433901 -0.18144884671813011 0 -0.056462731779267583 -0.17707926816758701 0 -0.05724186851000123 -0.18306086139846869 0 -0.05724186851000123 -0.18306086139846869 0 -0.060077715494214402 -0.1880050343681916 0 -0.064464826801710964 -0.18158017590305259 0 -0.053826302631423108 -0.18719098183538219 0 -0.05724186851000123 -0.18306086139846869 0 -0.060077715494214402 -0.1880050343681916 0 -0.04778301199147586 -0.16221110159835439 0 -0.053733136905861317 -0.1679726515631198 0 -0.054318116428342743 -0.1550095253668563 0 -0.040578875443760723 -0.15702635465982459 0 -0.04778301199147586 -0.16221110159835439 0 -0.054318116428342743 -0.1550095253668563 0 -0.043296803998745907 -0.16925270511447771 0 -0.04778301199147586 -0.16221110159835439 0 -0.053733136905861317 -0.1679726515631198 0 -0.043296803998745907 -0.16925270511447771 0 -0.050116399936897628 -0.17439367801967379 0 -0.053733136905861317 -0.1679726515631198 0 -0.061772453938110018 -0.1722676601875073 0 -0.053733136905861317 -0.1679726515631198 0 -0.064150653413557149 -0.1630994165534029 0 -0.053733136905861317 -0.1679726515631198 0 -0.054318116428342743 -0.1550095253668563 0 -0.064150653413557149 -0.1630994165534029 0 -0.054318116428342743 -0.1550095253668563 0 -0.06193597557114254 -0.14487761168208729 0 -0.07017092070895159 -0.14876485096333639 0 -0.040578875443760723 -0.15702635465982459 0 -0.054318116428342743 -0.1550095253668563 0 -0.048274716116422638 -0.14250705937413011 0 -0.054318116428342743 -0.1550095253668563 0 -0.048274716116422638 -0.14250705937413011 0 -0.06193597557114254 -0.14487761168208729 0 -0.048274716116422638 -0.14250705937413011 0 -0.06193597557114254 -0.14487761168208729 0 -0.074980149030852788 -0.13322901102402521 0 -0.048274716116422638 -0.14250705937413011 0 -0.074980149030852788 -0.13322901102402521 0 -0.048274716116422638 -0.14250705937413011 0 -0.060435283163119087 -0.13210535691178979 0 -0.035009396245865847 -0.13138946507283039 0 -0.060435283163119087 -0.13210535691178979 0 -0.051469099840166933 -0.12560748285855791 0 -0.035009396245865847 -0.13138946507283039 0 -0.060435283163119087 -0.13210535691178979 0 -0.051469099840166933 -0.12560748285855791 0 -0.074980149030852788 -0.13322901102402521 0 -0.048274716116422638 -0.14250705937413011 0 -0.060435283163119087 -0.13210535691178979 0 -0.074980149030852788 -0.13322901102402521 0 -0.060435283163119087 -0.13210535691178979 0 -0.035009396245865847 -0.13138946507283039 0 -0.02380622872257708 -0.13863305153198521 0 -0.048274716116422638 -0.14250705937413011 0 -0.035009396245865847 -0.13138946507283039 0 -0.02156928320199206 -0.15178510772423359 0 -0.048274716116422638 -0.14250705937413011 0 -0.02156928320199206 -0.15178510772423359 0 -0.040578875443760723 -0.15702635465982459 0 -0.048274716116422638 -0.14250705937413011 0 -0.012379740604400009 -0.25371681360357518 0 -0.01487672558591642 -0.24478309253466149 0 -0.032983601381048028 -0.2367885997845538 0 -0.012379740604400009 -0.25371681360357518 0 -0.032983601381048028 -0.2367885997845538 0 -0.012379740604400009 -0.25371681360357518 0 -0.027326811110253871 -0.25121816526868662 0 -0.032983601381048028 -0.2367885997845538 0 -0.012379740604400009 -0.25371681360357518 0 -0.01487672558591642 -0.24478309253466149 0 -0.0050603712554523096 -0.25502580822232418 0 -0.01487672558591642 -0.24478309253466149 0 -0.0012779613340340411 -0.24176494305706761 0 -0.01487672558591642 -0.24478309253466149 0 -0.0012779613340340411 -0.24176494305706761 0 -0.0098443816872556354 -0.23359128343904409 0 -0.01487672558591642 -0.24478309253466149 0 -0.0098443816872556354 -0.23359128343904409 0 -0.02161013125427003 -0.22069229161667511 0 -0.0098443816872556354 -0.23359128343904409 0 -0.0016127085748020571 -0.22712480654777251 0 -0.02161013125427003 -0.22069229161667511 0 -0.0012779613340340411 -0.24176494305706761 0 -0.0098443816872556354 -0.23359128343904409 0 -0.0016127085748020571 -0.22712480654777251 0 -0.02161013125427003 -0.22069229161667511 0 -0.037749047324124332 -0.2222456785719269 0 -0.032983601381048028 -0.2367885997845538 0 -0.01487672558591642 -0.24478309253466149 0 -0.02161013125427003 -0.22069229161667511 0 -0.01487672558591642 -0.24478309253466149 0 -0.02161013125427003 -0.22069229161667511 0 -0.032983601381048028 -0.2367885997845538 0 -0.02161013125427003 -0.22069229161667511 0 -0.0048422933519348798 -0.20657909219758999 0 -0.02834353692262364 -0.19660149069868879 0 -0.02161013125427003 -0.22069229161667511 0 -0.02834353692262364 -0.19660149069868879 0 -0.04042466355054887 -0.21142906939722611 0 -0.02161013125427003 -0.22069229161667511 0 -0.02834353692262364 -0.19660149069868879 0 -0.0016127085748020571 -0.22712480654777251 0 -0.02161013125427003 -0.22069229161667511 0 -0.0048422933519348798 -0.20657909219758999 0 -0.011684220618858611 -0.1828185141711022 0 -0.0048422933519348798 -0.20657909219758999 0 -0.02834353692262364 -0.19660149069868879 0 -0.011684220618858611 -0.1828185141711022 0 -0.0048422933519348798 -0.20657909219758999 0 0.0039750345954989988 -0.18651425943902311 0 -0.02834353692262364 -0.19660149069868879 0 -0.045384173352602211 -0.1896086705553881 0 -0.048680880466514129 -0.20143667782743011 0 -0.045384173352602211 -0.1896086705553881 0 -0.054600152190027743 -0.1938329285883432 0 -0.048680880466514129 -0.20143667782743011 0 -0.053826302631423108 -0.18719098183538219 0 -0.045384173352602211 -0.1896086705553881 0 -0.054600152190027743 -0.1938329285883432 0 -0.053826302631423108 -0.18719098183538219 0 -0.054600152190027743 -0.1938329285883432 0 -0.060077715494214402 -0.1880050343681916 0 -0.054600152190027743 -0.1938329285883432 0 -0.062207823669324508 -0.19415899925277841 0 -0.060077715494214402 -0.1880050343681916 0 -0.05727161150443684 -0.20059064904333551 0 -0.063912376375580449 -0.2061057797213553 0 -0.063099371948942468 -0.19895763039768499 0 -0.062207823669324508 -0.19415899925277841 0 -0.05727161150443684 -0.20059064904333551 0 -0.063099371948942468 -0.19895763039768499 0 -0.054600152190027743 -0.1938329285883432 0 -0.062207823669324508 -0.19415899925277841 0 -0.05727161150443684 -0.20059064904333551 0 -0.054600152190027743 -0.1938329285883432 0 -0.05727161150443684 -0.20059064904333551 0 -0.048680880466514129 -0.20143667782743011 0 -0.05727161150443684 -0.20059064904333551 0 -0.048680880466514129 -0.20143667782743011 0 -0.053253465001542127 -0.20792698589572001 0 -0.052910920334218993 -0.21967129177291539 0 -0.069612749235620427 -0.2166114240769427 0 -0.064663204576268285 -0.2095762323379651 0 -0.048680880466514129 -0.20143667782743011 0 -0.053253465001542127 -0.20792698589572001 0 -0.04042466355054887 -0.21142906939722611 0 -0.05727161150443684 -0.20059064904333551 0 -0.053253465001542127 -0.20792698589572001 0 -0.063912376375580449 -0.2061057797213553 0 -0.053253465001542127 -0.20792698589572001 0 -0.052910920334218993 -0.21967129177291539 0 -0.063912376375580449 -0.2061057797213553 0 -0.052910920334218993 -0.21967129177291539 0 -0.064663204576268285 -0.2095762323379651 0 -0.052910920334218993 -0.21967129177291539 0 -0.063912376375580449 -0.2061057797213553 0 -0.064663204576268285 -0.2095762323379651 0 -0.052910920334218993 -0.21967129177291539 0 -0.063912376375580449 -0.2061057797213553 0 -0.053253465001542127 -0.20792698589572001 0 -0.04042466355054887 -0.21142906939722611 0 -0.052910920334218993 -0.21967129177291539 0 -0.02834353692262364 -0.19660149069868879 0 -0.048680880466514129 -0.20143667782743011 0 -0.04042466355054887 -0.21142906939722611 0 -0.02161013125427003 -0.22069229161667511 0 -0.04042466355054887 -0.21142906939722611 0 -0.037749047324124332 -0.2222456785719269 0 -0.04042466355054887 -0.21142906939722611 0 -0.037749047324124332 -0.2222456785719269 0 -0.052910920334218993 -0.21967129177291539 0 -0.037749047324124332 -0.2222456785719269 0 -0.052910920334218993 -0.21967129177291539 0 -0.032983601381048028 -0.2367885997845538 0 -0.052910920334218993 -0.21967129177291539 0 -0.032983601381048028 -0.2367885997845538 0 -0.052910920334218993 -0.21967129177291539 0 -0.032983601381048028 -0.2367885997845538 0 -0.040118865722236351 -0.23544472852080089 0 -0.052910920334218993 -0.21967129177291539 0 -0.040118865722236351 -0.23544472852080089 0 -0.052910920334218993 -0.21967129177291539 0 -0.054603171266369793 -0.23243375726732241 0 -0.069083472660325121 -0.22748117926656231 0 -0.052910920334218993 -0.21967129177291539 0 -0.054603171266369793 -0.23243375726732241 0 -0.040118865722236351 -0.23544472852080089 0 -0.054603171266369793 -0.23243375726732241 0 -0.062344578928600528 -0.23779073398242739 0 -0.069083472660325121 -0.22748117926656231 0 -0.054603171266369793 -0.23243375726732241 0 -0.052406799216804557 -0.24459198769464191 0 -0.040118865722236351 -0.23544472852080089 0 -0.054603171266369793 -0.23243375726732241 0 -0.062344578928600528 -0.23779073398242739 0 -0.052406799216804557 -0.24459198769464191 0 -0.065421878849430556 -0.25167039592025259 0 -0.062344578928600528 -0.23779073398242739 0 -0.052406799216804557 -0.24459198769464191 0 -0.027326811110253871 -0.25121816526868662 0 -0.040785035177160277 -0.24958968680164759 0 -0.040118865722236351 -0.23544472852080089 0 -0.027326811110253871 -0.25121816526868662 0 -0.032983601381048028 -0.2367885997845538 0 -0.040118865722236351 -0.23544472852080089 0 -0.027326811110253871 -0.25121816526868662 0 -0.040118865722236351 -0.23544472852080089 0 -0.052406799216804557 -0.24459198769464191 0 -0.040785035177160277 -0.24958968680164759 0 -0.040118865722236351 -0.23544472852080089 0 -0.078278243085297239 -0.23951664672932549 0 -0.086153706899138552 -0.22983104630755541 0 -0.09423246880553815 -0.23787512664900909 0 -0.093765691765433312 -0.25258281812082478 0 -0.078278243085297239 -0.23951664672932549 0 -0.09423246880553815 -0.23787512664900909 0 -0.062344578928600528 -0.23779073398242739 0 -0.078278243085297239 -0.23951664672932549 0 -0.069083472660325121 -0.22748117926656231 0 -0.065421878849430556 -0.25167039592025259 0 -0.062344578928600528 -0.23779073398242739 0 -0.078278243085297239 -0.23951664672932549 0 -0.065421878849430556 -0.25167039592025259 0 -0.079465288233698042 -0.25846821731041458 0 -0.078278243085297239 -0.23951664672932549 0 -0.052910920334218993 -0.21967129177291539 0 -0.069083472660325121 -0.22748117926656231 0 -0.069612749235620427 -0.2166114240769427 0 -0.078278243085297239 -0.23951664672932549 0 -0.069083472660325121 -0.22748117926656231 0 -0.086153706899138552 -0.22983104630755541 0 -0.069083472660325121 -0.22748117926656231 0 -0.082890498454507591 -0.21890744373665691 0 -0.069612749235620427 -0.2166114240769427 0 -0.082890498454507591 -0.21890744373665691 0 -0.086153706899138552 -0.22983104630755541 0 -0.098908818798469189 -0.22405916704643611 0 -0.082890498454507591 -0.21890744373665691 0 -0.092414465742116453 -0.21356058677725129 0 -0.098908818798469189 -0.22405916704643611 0 -0.069083472660325121 -0.22748117926656231 0 -0.082890498454507591 -0.21890744373665691 0 -0.086153706899138552 -0.22983104630755541 0 -0.086153706899138552 -0.22983104630755541 0 -0.098908818798469189 -0.22405916704643611 0 -0.09423246880553815 -0.23787512664900909 0 -0.082890498454507591 -0.21890744373665691 0 -0.092414465742116453 -0.21356058677725129 0 -0.085039292724931326 -0.20636870672523311 0 -0.092414465742116453 -0.21356058677725129 0 -0.085039292724931326 -0.20636870672523311 0 -0.094924882140715844 -0.2023400251814354 0 -0.085039292724931326 -0.20636870672523311 0 -0.076791362556699633 -0.2103212049296195 0 -0.076415488818317417 -0.19948117290301459 0 -0.082890498454507591 -0.21890744373665691 0 -0.085039292724931326 -0.20636870672523311 0 -0.076791362556699633 -0.2103212049296195 0 -0.082890498454507591 -0.21890744373665691 0 -0.069612749235620427 -0.2166114240769427 0 -0.076791362556699633 -0.2103212049296195 0 -0.069612749235620427 -0.2166114240769427 0 -0.07187070129672643 -0.20899750856188551 0 -0.076791362556699633 -0.2103212049296195 0 -0.069612749235620427 -0.2166114240769427 0 -0.064663204576268285 -0.2095762323379651 0 -0.07187070129672643 -0.20899750856188551 0 -0.063912376375580449 -0.2061057797213553 0 -0.064663204576268285 -0.2095762323379651 0 -0.076415488818317417 -0.19948117290301459 0 -0.064663204576268285 -0.2095762323379651 0 -0.07187070129672643 -0.20899750856188551 0 -0.076415488818317417 -0.19948117290301459 0 -0.07187070129672643 -0.20899750856188551 0 -0.076791362556699633 -0.2103212049296195 0 -0.076415488818317417 -0.19948117290301459 0 -0.064663204576268285 -0.2095762323379651 0 -0.076415488818317417 -0.19948117290301459 0 -0.063912376375580449 -0.2061057797213553 0 -0.076415488818317417 -0.19948117290301459 0 -0.074913832416942036 -0.19254026766979529 0 -0.063912376375580449 -0.2061057797213553 0 -0.074913832416942036 -0.19254026766979529 0 -0.063912376375580449 -0.2061057797213553 0 -0.067162409966087119 -0.19576756974744089 0 -0.074913832416942036 -0.19254026766979529 0 -0.063912376375580449 -0.2061057797213553 0 -0.067162409966087119 -0.19576756974744089 0 -0.063099371948942468 -0.19895763039768499 0 -0.062207823669324508 -0.19415899925277841 0 -0.067162409966087119 -0.19576756974744089 0 -0.063099371948942468 -0.19895763039768499 0 -0.062207823669324508 -0.19415899925277841 0 -0.060077715494214402 -0.1880050343681916 0 -0.067992112858964282 -0.18866012404393079 0 -0.062207823669324508 -0.19415899925277841 0 -0.067162409966087119 -0.19576756974744089 0 -0.067992112858964282 -0.18866012404393079 0 -0.067162409966087119 -0.19576756974744089 0 -0.067992112858964282 -0.18866012404393079 0 -0.074913832416942036 -0.19254026766979529 0 -0.067992112858964282 -0.18866012404393079 0 -0.074913832416942036 -0.19254026766979529 0 -0.075495957942860306 -0.18151306003065079 0 -0.076415488818317417 -0.19948117290301459 0 -0.074913832416942036 -0.19254026766979529 0 -0.086799058637230975 -0.19360180682342101 0 -0.074913832416942036 -0.19254026766979529 0 -0.086799058637230975 -0.19360180682342101 0 -0.081197999186964104 -0.18678207382066461 0 -0.085039292724931326 -0.20636870672523311 0 -0.076415488818317417 -0.19948117290301459 0 -0.086799058637230975 -0.19360180682342101 0 -0.085039292724931326 -0.20636870672523311 0 -0.086799058637230975 -0.19360180682342101 0 -0.094924882140715844 -0.2023400251814354 0 -0.086799058637230975 -0.19360180682342101 0 -0.095726771505572558 -0.1875603531079979 0 -0.094924882140715844 -0.2023400251814354 0 -0.094924882140715844 -0.2023400251814354 0 -0.111160472432858 -0.1885386204747187 0 -0.094924882140715844 -0.2023400251814354 0 -0.111160472432858 -0.1885386204747187 0 -0.1114495577303883 -0.20340811176391119 0 -0.095726771505572558 -0.1875603531079979 0 -0.094924882140715844 -0.2023400251814354 0 -0.111160472432858 -0.1885386204747187 0 -0.111160472432858 -0.1885386204747187 0 -0.1221143178041114 -0.19234248283227301 0 -0.1210277983726237 -0.20080419496638871 0 -0.1221143178041114 -0.19234248283227301 0 -0.1210277983726237 -0.20080419496638871 0 -0.1287375196768317 -0.1989974444917289 0 -0.111160472432858 -0.1885386204747187 0 -0.1210277983726237 -0.20080419496638871 0 -0.1114495577303883 -0.20340811176391119 0 -0.1210277983726237 -0.20080419496638871 0 -0.1114495577303883 -0.20340811176391119 0 -0.1178360582138414 -0.2087755546500478 0 -0.1114495577303883 -0.20340811176391119 0 -0.1178360582138414 -0.2087755546500478 0 -0.1085815399970629 -0.214445376318082 0 -0.1210277983726237 -0.20080419496638871 0 -0.1178360582138414 -0.2087755546500478 0 -0.1261734044947341 -0.20832382066201691 0 -0.1178360582138414 -0.2087755546500478 0 -0.121947990474398 -0.21689626953984009 0 -0.1261734044947341 -0.20832382066201691 0 -0.1178360582138414 -0.2087755546500478 0 -0.121947990474398 -0.21689626953984009 0 -0.1085815399970629 -0.214445376318082 0 -0.092414465742116453 -0.21356058677725129 0 -0.094924882140715844 -0.2023400251814354 0 -0.1085815399970629 -0.214445376318082 0 -0.092414465742116453 -0.21356058677725129 0 -0.1085815399970629 -0.214445376318082 0 -0.098908818798469189 -0.22405916704643611 0 -0.094924882140715844 -0.2023400251814354 0 -0.1114495577303883 -0.20340811176391119 0 -0.1085815399970629 -0.214445376318082 0 -0.098908818798469189 -0.22405916704643611 0 -0.1146679177639674 -0.22763479024990699 0 -0.1064059993424292 -0.23999004584722569 0 -0.098908818798469189 -0.22405916704643611 0 -0.1064059993424292 -0.23999004584722569 0 -0.09423246880553815 -0.23787512664900909 0 -0.1085815399970629 -0.214445376318082 0 -0.098908818798469189 -0.22405916704643611 0 -0.1146679177639674 -0.22763479024990699 0 -0.1146679177639674 -0.22763479024990699 0 -0.1192340303868117 -0.24478318800158869 0 -0.13163987617815839 -0.22779776194380719 0 -0.121947990474398 -0.21689626953984009 0 -0.1085815399970629 -0.214445376318082 0 -0.1146679177639674 -0.22763479024990699 0 -0.121947990474398 -0.21689626953984009 0 -0.1146679177639674 -0.22763479024990699 0 -0.13163987617815839 -0.22779776194380719 0 -0.10928029933534041 -0.25911330461652088 0 -0.1192340303868117 -0.24478318800158869 0 -0.1064059993424292 -0.23999004584722569 0 -0.1146679177639674 -0.22763479024990699 0 -0.1192340303868117 -0.24478318800158869 0 -0.1064059993424292 -0.23999004584722569 0 -0.093765691765433312 -0.25258281812082478 0 -0.1064059993424292 -0.23999004584722569 0 -0.09423246880553815 -0.23787512664900909 0 -0.087025139202339175 -0.14924119698846519 0 -0.093760481790990557 -0.16258763704399551 0 -0.10010201785652401 -0.1437821866573995 0 -0.087025139202339175 -0.14924119698846519 0 -0.083645274202728603 -0.1360379667205176 0 -0.10010201785652401 -0.1437821866573995 0 -0.078981128367974607 -0.14447571604620801 0 -0.087025139202339175 -0.14924119698846519 0 -0.083645274202728603 -0.1360379667205176 0 -0.078981128367974607 -0.14447571604620801 0 -0.087025139202339175 -0.14924119698846519 0 -0.078636793793478016 -0.15932247847420561 0 -0.083645274202728603 -0.1360379667205176 0 -0.10010201785652401 -0.1437821866573995 0 -0.096101065320712109 -0.1258911452360538 0 -0.076666436282660663 -0.13264315814890179 0 -0.096101065320712109 -0.1258911452360538 0 -0.083645274202728603 -0.1360379667205176 0 -0.076666436282660663 -0.13264315814890179 0 -0.096101065320712109 -0.1258911452360538 0 -0.078981128367974607 -0.14447571604620801 0 -0.083645274202728603 -0.1360379667205176 0 -0.074980149030852788 -0.13322901102402521 0 -0.083645274202728603 -0.1360379667205176 0 -0.074980149030852788 -0.13322901102402521 0 -0.076666436282660663 -0.13264315814890179 0 -0.083645274202728603 -0.1360379667205176 0 -0.074980149030852788 -0.13322901102402521 0 -0.063965210873385206 -0.121372291062271 0 -0.051469099840166933 -0.12560748285855791 0 -0.074980149030852788 -0.13322901102402521 0 -0.051469099840166933 -0.12560748285855791 0 -0.074980149030852788 -0.13322901102402521 0 -0.074980149030852788 -0.13322901102402521 0 -0.076666436282660663 -0.13264315814890179 0 -0.072499038737136423 -0.12336773177227039 0 -0.074980149030852788 -0.13322901102402521 0 -0.076666436282660663 -0.13264315814890179 0 -0.063965210873385206 -0.121372291062271 0 -0.072499038737136423 -0.12336773177227039 0 -0.074980149030852788 -0.13322901102402521 0 -0.054318116428342743 -0.1550095253668563 0 -0.07017092070895159 -0.14876485096333639 0 -0.064150653413557149 -0.1630994165534029 0 -0.06193597557114254 -0.14487761168208729 0 -0.074980149030852788 -0.13322901102402521 0 -0.07017092070895159 -0.14876485096333639 0 -0.078981128367974607 -0.14447571604620801 0 -0.074980149030852788 -0.13322901102402521 0 -0.07017092070895159 -0.14876485096333639 0 -0.074980149030852788 -0.13322901102402521 0 -0.07017092070895159 -0.14876485096333639 0 -0.078981128367974607 -0.14447571604620801 0 -0.07017092070895159 -0.14876485096333639 0 -0.078636793793478016 -0.15932247847420561 0 -0.061772453938110018 -0.1722676601875073 0 -0.064150653413557149 -0.1630994165534029 0 -0.070050920790153071 -0.171606788750374 0 -0.064150653413557149 -0.1630994165534029 0 -0.070050920790153071 -0.171606788750374 0 -0.078636793793478016 -0.15932247847420561 0 -0.070050920790153071 -0.171606788750374 0 -0.079209040401629252 -0.1719092953843511 0 -0.078636793793478016 -0.15932247847420561 0 -0.07017092070895159 -0.14876485096333639 0 -0.064150653413557149 -0.1630994165534029 0 -0.078636793793478016 -0.15932247847420561 0 -0.060077715494214402 -0.1880050343681916 0 -0.067992112858964282 -0.18866012404393079 0 -0.064464826801710964 -0.18158017590305259 0 -0.067992112858964282 -0.18866012404393079 0 -0.064464826801710964 -0.18158017590305259 0 -0.075495957942860306 -0.18151306003065079 0 -0.061772453938110018 -0.1722676601875073 0 -0.070050920790153071 -0.171606788750374 0 -0.064464826801710964 -0.18158017590305259 0 -0.070050920790153071 -0.171606788750374 0 -0.064464826801710964 -0.18158017590305259 0 -0.075495957942860306 -0.18151306003065079 0 -0.070050920790153071 -0.171606788750374 0 -0.075495957942860306 -0.18151306003065079 0 -0.079209040401629252 -0.1719092953843511 0 -0.074913832416942036 -0.19254026766979529 0 -0.075495957942860306 -0.18151306003065079 0 -0.081197999186964104 -0.18678207382066461 0 -0.08758314775082314 -0.17947316075879149 0 -0.093760481790990557 -0.16258763704399551 0 -0.099296370832405903 -0.1778108956523228 0 -0.075495957942860306 -0.18151306003065079 0 -0.081197999186964104 -0.18678207382066461 0 -0.08758314775082314 -0.17947316075879149 0 -0.086799058637230975 -0.19360180682342101 0 -0.081197999186964104 -0.18678207382066461 0 -0.08758314775082314 -0.17947316075879149 0 -0.075495957942860306 -0.18151306003065079 0 -0.079209040401629252 -0.1719092953843511 0 -0.08758314775082314 -0.17947316075879149 0 -0.086799058637230975 -0.19360180682342101 0 -0.095726771505572558 -0.1875603531079979 0 -0.08758314775082314 -0.17947316075879149 0 -0.079209040401629252 -0.1719092953843511 0 -0.08758314775082314 -0.17947316075879149 0 -0.093760481790990557 -0.16258763704399551 0 -0.079209040401629252 -0.1719092953843511 0 -0.078636793793478016 -0.15932247847420561 0 -0.093760481790990557 -0.16258763704399551 0 -0.087025139202339175 -0.14924119698846519 0 -0.078636793793478016 -0.15932247847420561 0 -0.093760481790990557 -0.16258763704399551 0 -0.093760481790990557 -0.16258763704399551 0 -0.10825098068178519 -0.1708947068761103 0 -0.099296370832405903 -0.1778108956523228 0 -0.093760481790990557 -0.16258763704399551 0 -0.10825098068178519 -0.1708947068761103 0 -0.1079275826681496 -0.15587426481125419 0 -0.111160472432858 -0.1885386204747187 0 -0.10825098068178519 -0.1708947068761103 0 -0.099296370832405903 -0.1778108956523228 0 -0.095726771505572558 -0.1875603531079979 0 -0.08758314775082314 -0.17947316075879149 0 -0.099296370832405903 -0.1778108956523228 0 -0.095726771505572558 -0.1875603531079979 0 -0.111160472432858 -0.1885386204747187 0 -0.099296370832405903 -0.1778108956523228 0 -0.111160472432858 -0.1885386204747187 0 -0.12739606272500029 -0.17473721576800191 0 -0.111160472432858 -0.1885386204747187 0 -0.1221143178041114 -0.19234248283227301 0 -0.12739606272500029 -0.17473721576800191 0 -0.111160472432858 -0.1885386204747187 0 -0.10825098068178519 -0.1708947068761103 0 -0.12739606272500029 -0.17473721576800191 0 -0.1214658785418825 -0.14693817404560541 0 -0.12739606272500029 -0.17473721576800191 0 -0.1214658785418825 -0.14693817404560541 0 -0.1079275826681496 -0.15587426481125419 0 -0.12739606272500029 -0.17473721576800191 0 -0.10825098068178519 -0.1708947068761103 0 -0.1079275826681496 -0.15587426481125419 0 -0.12739606272500029 -0.17473721576800191 0 -0.1214658785418825 -0.14693817404560541 0 -0.10010201785652401 -0.1437821866573995 0 -0.10830116401947081 -0.1339376595655668 0 -0.1214658785418825 -0.14693817404560541 0 -0.10010201785652401 -0.1437821866573995 0 -0.1079275826681496 -0.15587426481125419 0 -0.093760481790990557 -0.16258763704399551 0 -0.10010201785652401 -0.1437821866573995 0 -0.1079275826681496 -0.15587426481125419 0 -0.10010201785652401 -0.1437821866573995 0 -0.10830116401947081 -0.1339376595655668 0 -0.096101065320712109 -0.1258911452360538 0 -0.11649007265168369 -0.1188075605425003 0 -0.10830116401947081 -0.1339376595655668 0 -0.096101065320712109 -0.1258911452360538 0 -0.11649007265168369 -0.1188075605425003 0 -0.12922628187284879 -0.14058113888636839 0 -0.1252704192176744 -0.1172440966648565 0 -0.11649007265168369 -0.1188075605425003 0 -0.12922628187284879 -0.14058113888636839 0 -0.11649007265168369 -0.1188075605425003 0 -0.1214658785418825 -0.14693817404560541 0 -0.11649007265168369 -0.1188075605425003 0 -0.1214658785418825 -0.14693817404560541 0 -0.10830116401947081 -0.1339376595655668 0 -0.11649007265168369 -0.1188075605425003 0 -0.1214658785418825 -0.14693817404560541 0 -0.12922628187284879 -0.14058113888636839 0 -0.12922628187284879 -0.14058113888636839 0 -0.1355018371655794 -0.1265678790332187 0 -0.1252704192176744 -0.1172440966648565 0 -0.12922628187284879 -0.14058113888636839 0 -0.1355018371655794 -0.1265678790332187 0 -0.14553009116939669 -0.13537661130197329 0 -0.1355018371655794 -0.1265678790332187 0 -0.14553009116939669 -0.13537661130197329 0 -0.14420813470266419 -0.11805716313719079 0 -0.14553009116939669 -0.13537661130197329 0 -0.15056350488257919 -0.15504324471534639 0 -0.1628079644011253 -0.13038477387159439 0 -0.14553009116939669 -0.13537661130197329 0 -0.1628079644011253 -0.13038477387159439 0 -0.14420813470266419 -0.11805716313719079 0 -0.12922628187284879 -0.14058113888636839 0 -0.14553009116939669 -0.13537661130197329 0 -0.15056350488257919 -0.15504324471534639 0 -0.12922628187284879 -0.14058113888636839 0 -0.15056350488257919 -0.15504324471534639 0 -0.14196249109401421 -0.16235471723023651 0 -0.1214658785418825 -0.14693817404560541 0 -0.12922628187284879 -0.14058113888636839 0 -0.14196249109401421 -0.16235471723023651 0 -0.12922628187284879 -0.14058113888636839 0 -0.14196249109401421 -0.16235471723023651 0 -0.1214658785418825 -0.14693817404560541 0 -0.12739606272500029 -0.17473721576800191 0 -0.14196249109401421 -0.16235471723023651 0 -0.12739606272500029 -0.17473721576800191 0 -0.14196249109401421 -0.16235471723023651 0 -0.14465078136409831 -0.16695056657522339 0 -0.12739606272500029 -0.17473721576800191 0 -0.14196249109401421 -0.16235471723023651 0 -0.14465078136409831 -0.16695056657522339 0 -0.1314192587983791 -0.19359683159909061 0 -0.12739606272500029 -0.17473721576800191 0 -0.14465078136409831 -0.16695056657522339 0 -0.1314192587983791 -0.19359683159909061 0 -0.12739606272500029 -0.17473721576800191 0 -0.1314192587983791 -0.19359683159909061 0 -0.1221143178041114 -0.19234248283227301 0 -0.12739606272500029 -0.17473721576800191 0 -0.1314192587983791 -0.19359683159909061 0 -0.1506253399441001 -0.18191391990730801 0 -0.14704446987800041 -0.17104277042357799 0 -0.1314192587983791 -0.19359683159909061 0 -0.14704446987800041 -0.17104277042357799 0 -0.14465078136409831 -0.16695056657522339 0 -0.1314192587983791 -0.19359683159909061 0 -0.1506253399441001 -0.18191391990730801 0 -0.14704446987800041 -0.17104277042357799 0 -0.15648019532635571 -0.17138255085024329 0 -0.1506253399441001 -0.18191391990730801 0 -0.16533888001856381 -0.18602690419207779 0 -0.1512090652639769 -0.1911736867042346 0 -0.15056350488257919 -0.15504324471534639 0 -0.14196249109401421 -0.16235471723023651 0 -0.15056350488257919 -0.15504324471534639 0 -0.14196249109401421 -0.16235471723023651 0 -0.14465078136409831 -0.16695056657522339 0 -0.15056350488257919 -0.15504324471534639 0 -0.14465078136409831 -0.16695056657522339 0 -0.14196249109401421 -0.16235471723023651 0 -0.14465078136409831 -0.16695056657522339 0 -0.14704446987800041 -0.17104277042357799 0 -0.14465078136409831 -0.16695056657522339 0 -0.14704446987800041 -0.17104277042357799 0 -0.14465078136409831 -0.16695056657522339 0 -0.15229814259742869 -0.1644326064251338 0 -0.14704446987800041 -0.17104277042357799 0 -0.15229814259742869 -0.1644326064251338 0 -0.15648019532635571 -0.17138255085024329 0 -0.15056350488257919 -0.15504324471534639 0 -0.14465078136409831 -0.16695056657522339 0 -0.15229814259742869 -0.1644326064251338 0 -0.15056350488257919 -0.15504324471534639 0 -0.15229814259742869 -0.1644326064251338 0 -0.16275176153611051 -0.15774389956127821 0 -0.16275176153611051 -0.15774389956127821 0 -0.15648019532635571 -0.17138255085024329 0 -0.17757024440875549 -0.16111115580157981 0 -0.15229814259742869 -0.1644326064251338 0 -0.16275176153611051 -0.15774389956127821 0 -0.15648019532635571 -0.17138255085024329 0 -0.15648019532635571 -0.17138255085024329 0 -0.18421608521209271 -0.17558962027652111 0 -0.15648019532635571 -0.17138255085024329 0 -0.16533888001856381 -0.18602690419207779 0 -0.18421608521209271 -0.17558962027652111 0 -0.1506253399441001 -0.18191391990730801 0 -0.15648019532635571 -0.17138255085024329 0 -0.16533888001856381 -0.18602690419207779 0 -0.16533888001856381 -0.18602690419207779 0 -0.18421608521209271 -0.17558962027652111 0 -0.1786295148813212 -0.19556646452315241 0 -0.15648019532635571 -0.17138255085024329 0 -0.18421608521209271 -0.17558962027652111 0 -0.17757024440875549 -0.16111115580157981 0 -0.18421608521209271 -0.17558962027652111 0 -0.17757024440875549 -0.16111115580157981 0 -0.1979143625406167 -0.1642252661741595 0 -0.17521357040146851 -0.14833135074901779 0 -0.18000311622314791 -0.13001748444371289 0 -0.188845491435889 -0.14939424719825839 0 -0.17757024440875549 -0.16111115580157981 0 -0.17521357040146851 -0.14833135074901779 0 -0.188845491435889 -0.14939424719825839 0 -0.18000311622314791 -0.13001748444371289 0 -0.1628079644011253 -0.13038477387159439 0 -0.18027610093587751 -0.1196181089702751 0 -0.17521357040146851 -0.14833135074901779 0 -0.18000311622314791 -0.13001748444371289 0 -0.16528331055286391 -0.14253036457953011 0 -0.18000311622314791 -0.13001748444371289 0 -0.16528331055286391 -0.14253036457953011 0 -0.18000311622314791 -0.13001748444371289 0 -0.1628079644011253 -0.13038477387159439 0 -0.16528331055286391 -0.14253036457953011 0 -0.15056350488257919 -0.15504324471534639 0 -0.1628079644011253 -0.13038477387159439 0 -0.15056350488257919 -0.15504324471534639 0 -0.1628079644011253 -0.13038477387159439 0 -0.16528331055286391 -0.14253036457953011 0 -0.15056350488257919 -0.15504324471534639 0 -0.16275176153611051 -0.15774389956127821 0 -0.16528331055286391 -0.14253036457953011 0 -0.15056350488257919 -0.15504324471534639 0 -0.16528331055286391 -0.14253036457953011 0 -0.16275176153611051 -0.15774389956127821 0 -0.17521357040146851 -0.14833135074901779 0 -0.16528331055286391 -0.14253036457953011 0 -0.16275176153611051 -0.15774389956127821 0 -0.17757024440875549 -0.16111115580157981 0 -0.17521357040146851 -0.14833135074901779 0 -0.15229660666407671 -0.25401824511238591 0 -0.14920126421366381 -0.23878179657915319 0 -0.13450504990001219 -0.2438564190910647 0 -0.1192340303868117 -0.24478318800158869 0 -0.13450504990001219 -0.2438564190910647 0 -0.13163987617815839 -0.22779776194380719 0 -0.14920126421366381 -0.23878179657915319 0 -0.13450504990001219 -0.2438564190910647 0 -0.13163987617815839 -0.22779776194380719 0 -0.121947990474398 -0.21689626953984009 0 -0.13163987617815839 -0.22779776194380719 0 -0.12955498125585521 -0.21362166548107719 0 -0.13163987617815839 -0.22779776194380719 0 -0.14668655776667011 -0.2223990925877565 0 -0.13817373448855541 -0.2139466733801943 0 -0.14920126421366381 -0.23878179657915319 0 -0.13163987617815839 -0.22779776194380719 0 -0.14668655776667011 -0.2223990925877565 0 -0.14920126421366381 -0.23878179657915319 0 -0.14668655776667011 -0.2223990925877565 0 -0.1666111544691056 -0.22171119925505031 0 -0.14668655776667011 -0.2223990925877565 0 -0.14920765704353961 -0.2069242839694774 0 -0.1666111544691056 -0.22171119925505031 0 -0.14920765704353961 -0.2069242839694774 0 -0.13817373448855541 -0.2139466733801943 0 -0.13929463799343569 -0.2052160077695602 0 -0.14920765704353961 -0.2069242839694774 0 -0.13929463799343569 -0.2052160077695602 0 -0.1420465959208794 -0.1984943042809322 0 -0.14668655776667011 -0.2223990925877565 0 -0.14920765704353961 -0.2069242839694774 0 -0.13817373448855541 -0.2139466733801943 0 -0.13163987617815839 -0.22779776194380719 0 -0.13817373448855541 -0.2139466733801943 0 -0.12955498125585521 -0.21362166548107719 0 -0.13817373448855541 -0.2139466733801943 0 -0.12955498125585521 -0.21362166548107719 0 -0.1326745573724277 -0.20747677911892251 0 -0.121947990474398 -0.21689626953984009 0 -0.12955498125585521 -0.21362166548107719 0 -0.1261734044947341 -0.20832382066201691 0 -0.1210277983726237 -0.20080419496638871 0 -0.12833971984693959 -0.20340181913978941 0 -0.1261734044947341 -0.20832382066201691 0 -0.12955498125585521 -0.21362166548107719 0 -0.1261734044947341 -0.20832382066201691 0 -0.1326745573724277 -0.20747677911892251 0 -0.12833971984693959 -0.20340181913978941 0 -0.1261734044947341 -0.20832382066201691 0 -0.1326745573724277 -0.20747677911892251 0 -0.12833971984693959 -0.20340181913978941 0 -0.1326745573724277 -0.20747677911892251 0 -0.13308531931808101 -0.2014068564598902 0 -0.13817373448855541 -0.2139466733801943 0 -0.1326745573724277 -0.20747677911892251 0 -0.13929463799343569 -0.2052160077695602 0 -0.1326745573724277 -0.20747677911892251 0 -0.13929463799343569 -0.2052160077695602 0 -0.13308531931808101 -0.2014068564598902 0 -0.13929463799343569 -0.2052160077695602 0 -0.13308531931808101 -0.2014068564598902 0 -0.1420465959208794 -0.1984943042809322 0 -0.13308531931808101 -0.2014068564598902 0 -0.1314192587983791 -0.19359683159909061 0 -0.1420465959208794 -0.1984943042809322 0 -0.12833971984693959 -0.20340181913978941 0 -0.13308531931808101 -0.2014068564598902 0 -0.1287375196768317 -0.1989974444917289 0 -0.13308531931808101 -0.2014068564598902 0 -0.1287375196768317 -0.1989974444917289 0 -0.1314192587983791 -0.19359683159909061 0 -0.13308531931808101 -0.2014068564598902 0 -0.1314192587983791 -0.19359683159909061 0 -0.1287375196768317 -0.1989974444917289 0 -0.1314192587983791 -0.19359683159909061 0 -0.1210277983726237 -0.20080419496638871 0 -0.12833971984693959 -0.20340181913978941 0 -0.1287375196768317 -0.1989974444917289 0 -0.1221143178041114 -0.19234248283227301 0 -0.1287375196768317 -0.1989974444917289 0 -0.1314192587983791 -0.19359683159909061 0 -0.1314192587983791 -0.19359683159909061 0 -0.1420465959208794 -0.1984943042809322 0 -0.1512090652639769 -0.1911736867042346 0 -0.14920765704353961 -0.2069242839694774 0 -0.1512090652639769 -0.1911736867042346 0 -0.16613147043060339 -0.2018841564818957 0 -0.14920765704353961 -0.2069242839694774 0 -0.1420465959208794 -0.1984943042809322 0 -0.1512090652639769 -0.1911736867042346 0 -0.1506253399441001 -0.18191391990730801 0 -0.1314192587983791 -0.19359683159909061 0 -0.1512090652639769 -0.1911736867042346 0 -0.16533888001856381 -0.18602690419207779 0 -0.1512090652639769 -0.1911736867042346 0 -0.16613147043060339 -0.2018841564818957 0 -0.16533888001856381 -0.18602690419207779 0 -0.16613147043060339 -0.2018841564818957 0 -0.1786295148813212 -0.19556646452315241 0 -0.1786295148813212 -0.19556646452315241 0 -0.17958500981378461 -0.2107334264309661 0 -0.1981990761364697 -0.20254736480388241 0 -0.18421608521209271 -0.17558962027652111 0 -0.1786295148813212 -0.19556646452315241 0 -0.1981990761364697 -0.20254736480388241 0 -0.16613147043060339 -0.2018841564818957 0 -0.1786295148813212 -0.19556646452315241 0 -0.17958500981378461 -0.2107334264309661 0 -0.17958500981378461 -0.2107334264309661 0 -0.1666111544691056 -0.22171119925505031 0 -0.19116993277822331 -0.22279453133759641 0 -0.16613147043060339 -0.2018841564818957 0 -0.17958500981378461 -0.2107334264309661 0 -0.1666111544691056 -0.22171119925505031 0 -0.14920765704353961 -0.2069242839694774 0 -0.16613147043060339 -0.2018841564818957 0 -0.1666111544691056 -0.22171119925505031 0 -0.16774304296138501 -0.24055682594909811 0 -0.1994177047143332 -0.2432145052078287 0 -0.19116993277822331 -0.22279453133759641 0 -0.18473400419263841 -0.26184427346616201 0 -0.16774304296138501 -0.24055682594909811 0 -0.1994177047143332 -0.2432145052078287 0 -0.14920126421366381 -0.23878179657915319 0 -0.1666111544691056 -0.22171119925505031 0 -0.16774304296138501 -0.24055682594909811 0 -0.1666111544691056 -0.22171119925505031 0 -0.16774304296138501 -0.24055682594909811 0 -0.19116993277822331 -0.22279453133759641 0 -0.15229660666407671 -0.25401824511238591 0 -0.14920126421366381 -0.23878179657915319 0 -0.16774304296138501 -0.24055682594909811 0 -0.1994177047143332 -0.2432145052078287 0 -0.21214113701728249 -0.228940323783688 0 -0.22937054978906041 -0.24331512362502869 0 -0.2113475615474098 -0.26183595308539898 0 -0.1994177047143332 -0.2432145052078287 0 -0.22937054978906041 -0.24331512362502869 0 -0.1994177047143332 -0.2432145052078287 0 -0.19116993277822331 -0.22279453133759641 0 -0.21214113701728249 -0.228940323783688 0 -0.19116993277822331 -0.22279453133759641 0 -0.21214113701728249 -0.228940323783688 0 -0.21151629669390881 -0.21291663877559669 0 -0.21214113701728249 -0.228940323783688 0 -0.21151629669390881 -0.21291663877559669 0 -0.2275824975951227 -0.2207461827585098 0 -0.21151629669390881 -0.21291663877559669 0 -0.1981990761364697 -0.20254736480388241 0 -0.21430725265311781 -0.19815896184605211 0 -0.21151629669390881 -0.21291663877559669 0 -0.21430725265311781 -0.19815896184605211 0 -0.22569788398323701 -0.20431246812385209 0 -0.19116993277822331 -0.22279453133759641 0 -0.21151629669390881 -0.21291663877559669 0 -0.1981990761364697 -0.20254736480388241 0 -0.17958500981378461 -0.2107334264309661 0 -0.19116993277822331 -0.22279453133759641 0 -0.1981990761364697 -0.20254736480388241 0 -0.21430725265311781 -0.19815896184605211 0 -0.2251169230399053 -0.19244957551320049 0 -0.21195197509782959 -0.17979668970279891 0 -0.1981990761364697 -0.20254736480388241 0 -0.21430725265311781 -0.19815896184605211 0 -0.21195197509782959 -0.17979668970279891 0 -0.21430725265311781 -0.19815896184605211 0 -0.2251169230399053 -0.19244957551320049 0 -0.22569788398323701 -0.20431246812385209 0 -0.2251169230399053 -0.19244957551320049 0 -0.23600322778131949 -0.19814692121484651 0 -0.22569788398323701 -0.20431246812385209 0 -0.2251169230399053 -0.19244957551320049 0 -0.23600322778131949 -0.19814692121484651 0 -0.23968786498356659 -0.18400375912907671 0 -0.23600322778131949 -0.19814692121484651 0 -0.23968786498356659 -0.18400375912907671 0 -0.25047429362874257 -0.200219847641955 0 -0.23600322778131949 -0.19814692121484651 0 -0.23949462900920199 -0.21027573078813011 0 -0.25047429362874257 -0.200219847641955 0 -0.23949462900920199 -0.21027573078813011 0 -0.25247744799357308 -0.21261594090752481 0 -0.25047429362874257 -0.200219847641955 0 -0.23949462900920199 -0.21027573078813011 0 -0.24510877540263959 -0.22548599802342939 0 -0.25247744799357308 -0.21261594090752481 0 -0.23949462900920199 -0.21027573078813011 0 -0.22569788398323701 -0.20431246812385209 0 -0.2275824975951227 -0.2207461827585098 0 -0.21151629669390881 -0.21291663877559669 0 -0.22569788398323701 -0.20431246812385209 0 -0.2275824975951227 -0.2207461827585098 0 -0.23600322778131949 -0.19814692121484651 0 -0.23949462900920199 -0.21027573078813011 0 -0.22569788398323701 -0.20431246812385209 0 -0.21214113701728249 -0.228940323783688 0 -0.2275824975951227 -0.2207461827585098 0 -0.22937054978906041 -0.24331512362502869 0 -0.2275824975951227 -0.2207461827585098 0 -0.24510877540263959 -0.22548599802342939 0 -0.22937054978906041 -0.24331512362502869 0 -0.23949462900920199 -0.21027573078813011 0 -0.2275824975951227 -0.2207461827585098 0 -0.24510877540263959 -0.22548599802342939 0 -0.24510877540263959 -0.22548599802342939 0 -0.22937054978906041 -0.24331512362502869 0 -0.2582168116042447 -0.2439014490639565 0 -0.2483490975252734 -0.26098873334868322 0 -0.22937054978906041 -0.24331512362502869 0 -0.2582168116042447 -0.2439014490639565 0 -0.2067502249108786 -0.1536135545564879 0 -0.21547877813771771 -0.14332314171572449 0 -0.20152593766547949 -0.13633519349348669 0 -0.2067502249108786 -0.1536135545564879 0 -0.21547877813771771 -0.14332314171572449 0 -0.22184111984059729 -0.15282479907953789 0 -0.21547877813771771 -0.14332314171572449 0 -0.21860961385214961 -0.13100792014620721 0 -0.20152593766547949 -0.13633519349348669 0 -0.21860961385214961 -0.13100792014620721 0 -0.20152593766547949 -0.13633519349348669 0 -0.2099810947540583 -0.12129541974841899 0 -0.18000311622314791 -0.13001748444371289 0 -0.20152593766547949 -0.13633519349348669 0 -0.19534617212360411 -0.121013351703841 0 -0.18000311622314791 -0.13001748444371289 0 -0.20152593766547949 -0.13633519349348669 0 -0.188845491435889 -0.14939424719825839 0 -0.20152593766547949 -0.13633519349348669 0 -0.2099810947540583 -0.12129541974841899 0 -0.19534617212360411 -0.121013351703841 0 -0.2067502249108786 -0.1536135545564879 0 -0.188845491435889 -0.14939424719825839 0 -0.1979143625406167 -0.1642252661741595 0 -0.2067502249108786 -0.1536135545564879 0 -0.20152593766547949 -0.13633519349348669 0 -0.188845491435889 -0.14939424719825839 0 -0.17757024440875549 -0.16111115580157981 0 -0.188845491435889 -0.14939424719825839 0 -0.1979143625406167 -0.1642252661741595 0 -0.18421608521209271 -0.17558962027652111 0 -0.1981990761364697 -0.20254736480388241 0 -0.21195197509782959 -0.17979668970279891 0 -0.18421608521209271 -0.17558962027652111 0 -0.21195197509782959 -0.17979668970279891 0 -0.18421608521209271 -0.17558962027652111 0 -0.1979143625406167 -0.1642252661741595 0 -0.21195197509782959 -0.17979668970279891 0 -0.1979143625406167 -0.1642252661741595 0 -0.21195197509782959 -0.17979668970279891 0 -0.2165382263276793 -0.1649867273485818 0 -0.2067502249108786 -0.1536135545564879 0 -0.1979143625406167 -0.1642252661741595 0 -0.2165382263276793 -0.1649867273485818 0 -0.2067502249108786 -0.1536135545564879 0 -0.2165382263276793 -0.1649867273485818 0 -0.22184111984059729 -0.15282479907953789 0 -0.2165382263276793 -0.1649867273485818 0 -0.2313091397970973 -0.16435086132264101 0 -0.233842168872713 -0.17694121357944129 0 -0.2165382263276793 -0.1649867273485818 0 -0.2313091397970973 -0.16435086132264101 0 -0.22184111984059729 -0.15282479907953789 0 -0.21195197509782959 -0.17979668970279891 0 -0.233842168872713 -0.17694121357944129 0 -0.23968786498356659 -0.18400375912907671 0 -0.2251169230399053 -0.19244957551320049 0 -0.21195197509782959 -0.17979668970279891 0 -0.23968786498356659 -0.18400375912907671 0 -0.21195197509782959 -0.17979668970279891 0 -0.2165382263276793 -0.1649867273485818 0 -0.233842168872713 -0.17694121357944129 0 -0.21195197509782959 -0.17979668970279891 0 -0.23968786498356659 -0.18400375912907671 0 -0.233842168872713 -0.17694121357944129 0 -0.25982868842644607 -0.17021686968691641 0 -0.233842168872713 -0.17694121357944129 0 -0.23968786498356659 -0.18400375912907671 0 -0.25982868842644607 -0.17021686968691641 0 -0.2313091397970973 -0.16435086132264101 0 -0.24566481473353391 -0.1652464025747532 0 -0.25343568279415951 -0.15224923159364789 0 -0.233842168872713 -0.17694121357944129 0 -0.24566481473353391 -0.1652464025747532 0 -0.25982868842644607 -0.17021686968691641 0 -0.2313091397970973 -0.16435086132264101 0 -0.25343568279415951 -0.15224923159364789 0 -0.2313091397970973 -0.16435086132264101 0 -0.233842168872713 -0.17694121357944129 0 -0.24566481473353391 -0.1652464025747532 0 -0.2313091397970973 -0.16435086132264101 0 -0.23261035815430561 -0.14322336329666011 0 -0.25343568279415951 -0.15224923159364789 0 -0.23261035815430561 -0.14322336329666011 0 -0.2478381125959237 -0.13014188093155071 0 -0.25343568279415951 -0.15224923159364789 0 -0.21547877813771771 -0.14332314171572449 0 -0.23261035815430561 -0.14322336329666011 0 -0.22184111984059729 -0.15282479907953789 0 -0.2313091397970973 -0.16435086132264101 0 -0.23261035815430561 -0.14322336329666011 0 -0.22184111984059729 -0.15282479907953789 0 -0.21547877813771771 -0.14332314171572449 0 -0.21860961385214961 -0.13100792014620721 0 -0.23261035815430561 -0.14322336329666011 0 -0.21860961385214961 -0.13100792014620721 0 -0.23261035815430561 -0.14322336329666011 0 -0.23267318929165751 -0.1266142136656879 0 -0.23261035815430561 -0.14322336329666011 0 -0.23267318929165751 -0.1266142136656879 0 -0.2478381125959237 -0.13014188093155071 0 -0.2478381125959237 -0.13014188093155071 0 -0.2401350799320488 -0.1157431384930437 0 -0.25439292330372432 -0.11161035632906929 0 -0.23267318929165751 -0.1266142136656879 0 -0.2478381125959237 -0.13014188093155071 0 -0.2401350799320488 -0.1157431384930437 0 -0.2401350799320488 -0.1157431384930437 0 -0.2438502060585381 -0.1028583717612334 0 -0.25439292330372432 -0.11161035632906929 0 -0.2438502060585381 -0.1028583717612334 0 -0.2453315870002564 -0.095437246693633959 0 -0.2525882024947626 -0.098821099717938107 0 -0.2453315870002564 -0.095437246693633959 0 -0.25144169010332901 -0.091633326375329338 0 -0.2525882024947626 -0.098821099717938107 0 -0.2438502060585381 -0.1028583717612334 0 -0.2453315870002564 -0.095437246693633959 0 -0.23922762562760841 -0.098169318759804947 0 -0.23922762562760841 -0.098169318759804947 0 -0.23518849288928181 -0.10695649013526939 0 -0.23134854976794339 -0.097632931289006297 0 -0.2453315870002564 -0.095437246693633959 0 -0.23922762562760841 -0.098169318759804947 0 -0.2404192924220224 -0.087961553919881613 0 -0.23922762562760841 -0.098169318759804947 0 -0.23134854976794339 -0.097632931289006297 0 -0.2404192924220224 -0.087961553919881613 0 -0.2438502060585381 -0.1028583717612334 0 -0.23922762562760841 -0.098169318759804947 0 -0.23518849288928181 -0.10695649013526939 0 -0.2401350799320488 -0.1157431384930437 0 -0.2438502060585381 -0.1028583717612334 0 -0.23518849288928181 -0.10695649013526939 0 -0.23518849288928181 -0.10695649013526939 0 -0.23134854976794339 -0.097632931289006297 0 -0.22417278192385959 -0.11295476546097789 0 -0.23134854976794339 -0.097632931289006297 0 -0.22417278192385959 -0.11295476546097789 0 -0.2186303362545719 -0.093883136955868224 0 -0.2401350799320488 -0.1157431384930437 0 -0.23518849288928181 -0.10695649013526939 0 -0.22417278192385959 -0.11295476546097789 0 -0.21860961385214961 -0.13100792014620721 0 -0.23267318929165751 -0.1266142136656879 0 -0.22417278192385959 -0.11295476546097789 0 -0.23267318929165751 -0.1266142136656879 0 -0.2401350799320488 -0.1157431384930437 0 -0.22417278192385959 -0.11295476546097789 0 -0.24388885687392389 -0.071688150345257468 0 -0.2338744138803254 -0.062312468216533988 0 -0.2476323682116322 -0.061520987214930753 0 -0.24388885687392389 -0.071688150345257468 0 -0.2476323682116322 -0.061520987214930753 0 -0.2529882333064245 -0.070973901803662365 0 -0.24388885687392389 -0.071688150345257468 0 -0.24682403554985069 -0.077092069586417622 0 -0.2529882333064245 -0.070973901803662365 0 -0.24388885687392389 -0.071688150345257468 0 -0.24682403554985069 -0.077092069586417622 0 -0.23610695818539329 -0.077097104601848404 0 -0.24388885687392389 -0.071688150345257468 0 -0.23610695818539329 -0.077097104601848404 0 -0.2338744138803254 -0.062312468216533988 0 -0.2404192924220224 -0.087961553919881613 0 -0.23434786935979859 -0.086445608359767251 0 -0.25855249999409979 -0.079349971077516485 0 -0.23434786935979859 -0.086445608359767251 0 -0.25855249999409979 -0.079349971077516485 0 -0.24682403554985069 -0.077092069586417622 0 -0.23434786935979859 -0.086445608359767251 0 -0.25855249999409979 -0.079349971077516485 0 -0.24682403554985069 -0.077092069586417622 0 -0.23610695818539329 -0.077097104601848404 0 -0.23434786935979859 -0.086445608359767251 0 -0.2404192924220224 -0.087961553919881613 0 -0.25356789490128989 -0.088072195653340249 0 -0.25144169010332901 -0.091633326375329338 0 -0.2453315870002564 -0.095437246693633959 0 -0.2404192924220224 -0.087961553919881613 0 -0.25144169010332901 -0.091633326375329338 0 -0.23134854976794339 -0.097632931289006297 0 -0.2404192924220224 -0.087961553919881613 0 -0.2186303362545719 -0.093883136955868224 0 -0.23434786935979859 -0.086445608359767251 0 -0.21819510633345421 -0.084818126690887299 0 -0.2186303362545719 -0.093883136955868224 0 -0.23434786935979859 -0.086445608359767251 0 -0.22784347827361409 -0.07844521728239337 0 -0.21819510633345421 -0.084818126690887299 0 -0.2404192924220224 -0.087961553919881613 0 -0.2186303362545719 -0.093883136955868224 0 -0.2404192924220224 -0.087961553919881613 0 -0.23434786935979859 -0.086445608359767251 0 -0.2186303362545719 -0.093883136955868224 0 -0.23610695818539329 -0.077097104601848404 0 -0.23434786935979859 -0.086445608359767251 0 -0.22784347827361409 -0.07844521728239337 0 -0.22561928727888081 -0.069226289525945936 0 -0.21465014164525181 -0.057056120614390499 0 -0.2338744138803254 -0.062312468216533988 0 -0.23610695818539329 -0.077097104601848404 0 -0.22784347827361409 -0.07844521728239337 0 -0.22561928727888081 -0.069226289525945936 0 -0.22784347827361409 -0.07844521728239337 0 -0.22561928727888081 -0.069226289525945936 0 -0.21562144440981909 -0.071220536914563426 0 -0.23610695818539329 -0.077097104601848404 0 -0.22561928727888081 -0.069226289525945936 0 -0.2338744138803254 -0.062312468216533988 0 -0.20283299924243431 -0.077387366601351398 0 -0.20047874574939811 -0.054521575326106748 0 -0.21465014164525181 -0.057056120614390499 0 -0.22784347827361409 -0.07844521728239337 0 -0.20283299924243431 -0.077387366601351398 0 -0.21562144440981909 -0.071220536914563426 0 -0.20283299924243431 -0.077387366601351398 0 -0.21465014164525181 -0.057056120614390499 0 -0.22784347827361409 -0.07844521728239337 0 -0.21562144440981909 -0.071220536914563426 0 -0.20283299924243431 -0.077387366601351398 0 -0.20283299924243431 -0.077387366601351398 0 -0.21465014164525181 -0.057056120614390499 0 -0.22561928727888081 -0.069226289525945936 0 -0.21562144440981909 -0.071220536914563426 0 -0.21465014164525181 -0.057056120614390499 0 -0.22784347827361409 -0.07844521728239337 0 -0.21819510633345421 -0.084818126690887299 0 -0.20283299924243431 -0.077387366601351398 0 -0.21819510633345421 -0.084818126690887299 0 -0.20732084853685229 -0.087929304255056254 0 -0.20283299924243431 -0.077387366601351398 0 -0.21819510633345421 -0.084818126690887299 0 -0.20732084853685229 -0.087929304255056254 0 -0.2186303362545719 -0.093883136955868224 0 -0.19866559760639321 -0.08455732909318063 0 -0.19684138008712149 -0.099804719991854848 0 -0.1822294403993594 -0.091272888294312293 0 -0.19866559760639321 -0.08455732909318063 0 -0.18940645687904581 -0.076819473560781115 0 -0.1822294403993594 -0.091272888294312293 0 -0.20732084853685229 -0.087929304255056254 0 -0.19866559760639321 -0.08455732909318063 0 -0.19684138008712149 -0.099804719991854848 0 -0.20732084853685229 -0.087929304255056254 0 -0.19866559760639321 -0.08455732909318063 0 -0.20283299924243431 -0.077387366601351398 0 -0.19866559760639321 -0.08455732909318063 0 -0.20283299924243431 -0.077387366601351398 0 -0.18940645687904581 -0.076819473560781115 0 -0.19866559760639321 -0.08455732909318063 0 -0.20283299924243431 -0.077387366601351398 0 -0.20283299924243431 -0.077387366601351398 0 -0.18940645687904581 -0.076819473560781115 0 -0.20047874574939811 -0.054521575326106748 0 -0.18940645687904581 -0.076819473560781115 0 -0.18709502764393729 -0.061773717592220383 0 -0.20047874574939811 -0.054521575326106748 0 -0.18940645687904581 -0.076819473560781115 0 -0.20047874574939811 -0.054521575326106748 0 -0.20283299924243431 -0.077387366601351398 0 -0.18940645687904581 -0.076819473560781115 0 -0.22417278192385959 -0.11295476546097789 0 -0.2099810947540583 -0.12129541974841899 0 -0.20756026250284701 -0.1093706759350784 0 -0.21860961385214961 -0.13100792014620721 0 -0.22417278192385959 -0.11295476546097789 0 -0.2099810947540583 -0.12129541974841899 0 -0.2099810947540583 -0.12129541974841899 0 -0.20756026250284701 -0.1093706759350784 0 -0.19534617212360411 -0.121013351703841 0 -0.2186303362545719 -0.093883136955868224 0 -0.19684138008712149 -0.099804719991854848 0 -0.20732084853685229 -0.087929304255056254 0 -0.2186303362545719 -0.093883136955868224 0 -0.19684138008712149 -0.099804719991854848 0 -0.2186303362545719 -0.093883136955868224 0 -0.20756026250284701 -0.1093706759350784 0 -0.19684138008712149 -0.099804719991854848 0 -0.22417278192385959 -0.11295476546097789 0 -0.2186303362545719 -0.093883136955868224 0 -0.20756026250284701 -0.1093706759350784 0 -0.20756026250284701 -0.1093706759350784 0 -0.19684138008712149 -0.099804719991854848 0 -0.18817082801183779 -0.1109486318043842 0 -0.20756026250284701 -0.1093706759350784 0 -0.18817082801183779 -0.1109486318043842 0 -0.19534617212360411 -0.121013351703841 0 -0.18817082801183779 -0.1109486318043842 0 -0.19534617212360411 -0.121013351703841 0 -0.18027610093587751 -0.1196181089702751 0 -0.18000311622314791 -0.13001748444371289 0 -0.19534617212360411 -0.121013351703841 0 -0.18027610093587751 -0.1196181089702751 0 -0.1628079644011253 -0.13038477387159439 0 -0.18027610093587751 -0.1196181089702751 0 -0.17505242391967141 -0.10572630302784269 0 -0.18817082801183779 -0.1109486318043842 0 -0.18027610093587751 -0.1196181089702751 0 -0.17505242391967141 -0.10572630302784269 0 -0.1628079644011253 -0.13038477387159439 0 -0.16568054242800659 -0.1082732985805344 0 -0.17505242391967141 -0.10572630302784269 0 -0.1628079644011253 -0.13038477387159439 0 -0.16568054242800659 -0.1082732985805344 0 -0.1559183975343586 -0.1153029742025357 0 -0.1628079644011253 -0.13038477387159439 0 -0.17505242391967141 -0.10572630302784269 0 -0.15766897324155929 -0.10201766098942321 0 -0.16769957127680751 -0.09718714727553697 0 -0.15631644193457139 -0.088857398989056272 0 -0.15766897324155929 -0.10201766098942321 0 -0.16568054242800659 -0.1082732985805344 0 -0.16769957127680751 -0.09718714727553697 0 -0.15766897324155929 -0.10201766098942321 0 -0.16568054242800659 -0.1082732985805344 0 -0.1559183975343586 -0.1153029742025357 0 -0.16568054242800659 -0.1082732985805344 0 -0.16769957127680751 -0.09718714727553697 0 -0.17505242391967141 -0.10572630302784269 0 -0.16568054242800659 -0.1082732985805344 0 -0.17505242391967141 -0.10572630302784269 0 -0.19684138008712149 -0.099804719991854848 0 -0.18817082801183779 -0.1109486318043842 0 -0.17505242391967141 -0.10572630302784269 0 -0.19684138008712149 -0.099804719991854848 0 -0.17505242391967141 -0.10572630302784269 0 -0.16769957127680751 -0.09718714727553697 0 -0.17505242391967141 -0.10572630302784269 0 -0.1822294403993594 -0.091272888294312293 0 -0.19684138008712149 -0.099804719991854848 0 -0.17505242391967141 -0.10572630302784269 0 -0.1822294403993594 -0.091272888294312293 0 -0.17505242391967141 -0.10572630302784269 0 -0.1822294403993594 -0.091272888294312293 0 -0.16769957127680751 -0.09718714727553697 0 -0.1822294403993594 -0.091272888294312293 0 -0.16622085479676199 -0.075838808419480111 0 -0.18940645687904581 -0.076819473560781115 0 -0.1822294403993594 -0.091272888294312293 0 -0.16622085479676199 -0.075838808419480111 0 -0.18940645687904581 -0.076819473560781115 0 -0.1822294403993594 -0.091272888294312293 0 -0.18940645687904581 -0.076819473560781115 0 -0.16622085479676199 -0.075838808419480111 0 -0.18940645687904581 -0.076819473560781115 0 -0.17672291357829811 -0.064990721505459842 0 -0.16622085479676199 -0.075838808419480111 0 -0.18940645687904581 -0.076819473560781115 0 -0.17672291357829811 -0.064990721505459842 0 -0.18709502764393729 -0.061773717592220383 0 -0.17672291357829811 -0.064990721505459842 0 -0.16622085479676199 -0.075838808419480111 0 -0.16458020880549121 -0.059492387506912943 0 -0.16622085479676199 -0.075838808419480111 0 -0.15646239569026699 -0.065906604111614212 0 -0.16458020880549121 -0.059492387506912943 0 -0.16769957127680751 -0.09718714727553697 0 -0.16622085479676199 -0.075838808419480111 0 -0.15631644193457139 -0.088857398989056272 0 -0.15631644193457139 -0.088857398989056272 0 -0.14677991412428701 -0.093732051016317916 0 -0.1430352527144782 -0.074858143278179051 0 -0.16622085479676199 -0.075838808419480111 0 -0.15631644193457139 -0.088857398989056272 0 -0.1430352527144782 -0.074858143278179051 0 -0.14677991412428701 -0.093732051016317916 0 -0.1430352527144782 -0.074858143278179051 0 -0.13451756518433111 -0.095180895342251215 0 -0.1430352527144782 -0.074858143278179051 0 -0.1411001381629465 -0.060647222888288201 0 -0.15201326644433669 -0.053437077241884359 0 -0.16622085479676199 -0.075838808419480111 0 -0.15646239569026699 -0.065906604111614212 0 -0.1430352527144782 -0.074858143278179051 0 -0.16622085479676199 -0.075838808419480111 0 -0.1430352527144782 -0.074858143278179051 0 -0.1430352527144782 -0.074858143278179051 0 -0.15201326644433669 -0.053437077241884359 0 -0.15646239569026699 -0.065906604111614212 0 -0.1430352527144782 -0.074858143278179051 0 -0.15201326644433669 -0.053437077241884359 0 -0.13708859775349791 -0.067653843581906681 0 -0.130794656111274 -0.068530613083725267 0 -0.13379805028672059 -0.060142641530726633 0 -0.1430352527144782 -0.074858143278179051 0 -0.13708859775349791 -0.067653843581906681 0 -0.1411001381629465 -0.060647222888288201 0 -0.13708859775349791 -0.067653843581906681 0 -0.13379805028672059 -0.060142641530726633 0 -0.1411001381629465 -0.060647222888288201 0 -0.13708859775349791 -0.067653843581906681 0 -0.13568082893985359 -0.07454707837658528 0 -0.130794656111274 -0.068530613083725267 0 -0.1430352527144782 -0.074858143278179051 0 -0.13708859775349791 -0.067653843581906681 0 -0.13568082893985359 -0.07454707837658528 0 -0.1430352527144782 -0.074858143278179051 0 -0.13568082893985359 -0.07454707837658528 0 -0.1232756904161693 -0.070411489051666373 0 -0.130794656111274 -0.068530613083725267 0 -0.12737817104852411 -0.080741270387750683 0 -0.13568082893985359 -0.07454707837658528 0 -0.130794656111274 -0.068530613083725267 0 -0.12737817104852411 -0.080741270387750683 0 -0.12131955324210091 -0.059181462630683621 0 -0.130794656111274 -0.068530613083725267 0 -0.13379805028672059 -0.060142641530726633 0 -0.1232756904161693 -0.070411489051666373 0 -0.12131955324210091 -0.059181462630683621 0 -0.130794656111274 -0.068530613083725267 0 -0.13568082893985359 -0.07454707837658528 0 -0.12737817104852411 -0.080741270387750683 0 -0.13451756518433111 -0.095180895342251215 0 -0.1430352527144782 -0.074858143278179051 0 -0.13568082893985359 -0.07454707837658528 0 -0.13451756518433111 -0.095180895342251215 0 -0.1430352527144782 -0.074858143278179051 0 -0.13451756518433111 -0.095180895342251215 0 -0.12067370026095731 -0.092005587950159118 0 -0.12737817104852411 -0.080741270387750683 0 -0.13451756518433111 -0.095180895342251215 0 -0.13451756518433111 -0.095180895342251215 0 -0.12599987765418549 -0.11550364740632391 0 -0.13451756518433111 -0.095180895342251215 0 -0.139855014945965 -0.1081270544919556 0 -0.13238394533585049 -0.1132856834133564 0 -0.13451756518433111 -0.095180895342251215 0 -0.12599987765418549 -0.11550364740632391 0 -0.13238394533585049 -0.1132856834133564 0 -0.12182531397588869 -0.1044134543712442 0 -0.13451756518433111 -0.095180895342251215 0 -0.12599987765418549 -0.11550364740632391 0 -0.12182531397588869 -0.1044134543712442 0 -0.12067370026095731 -0.092005587950159118 0 -0.13451756518433111 -0.095180895342251215 0 -0.12599987765418549 -0.11550364740632391 0 -0.1252704192176744 -0.1172440966648565 0 -0.13114171751694609 -0.1183715484722116 0 -0.12599987765418549 -0.11550364740632391 0 -0.1252704192176744 -0.1172440966648565 0 -0.12599987765418549 -0.11550364740632391 0 -0.13238394533585049 -0.1132856834133564 0 -0.12599987765418549 -0.11550364740632391 0 -0.13238394533585049 -0.1132856834133564 0 -0.13114171751694609 -0.1183715484722116 0 -0.1355018371655794 -0.1265678790332187 0 -0.1252704192176744 -0.1172440966648565 0 -0.13114171751694609 -0.1183715484722116 0 -0.1355018371655794 -0.1265678790332187 0 -0.13114171751694609 -0.1183715484722116 0 -0.14420813470266419 -0.11805716313719079 0 -0.139855014945965 -0.1081270544919556 0 -0.13238394533585049 -0.1132856834133564 0 -0.14420813470266419 -0.11805716313719079 0 -0.13238394533585049 -0.1132856834133564 0 -0.13114171751694609 -0.1183715484722116 0 -0.14420813470266419 -0.11805716313719079 0 -0.139855014945965 -0.1081270544919556 0 -0.14420813470266419 -0.11805716313719079 0 -0.1483104145610141 -0.1059844760750239 0 -0.1628079644011253 -0.13038477387159439 0 -0.14420813470266419 -0.11805716313719079 0 -0.1559183975343586 -0.1153029742025357 0 -0.14420813470266419 -0.11805716313719079 0 -0.1559183975343586 -0.1153029742025357 0 -0.1483104145610141 -0.1059844760750239 0 -0.15766897324155929 -0.10201766098942321 0 -0.1559183975343586 -0.1153029742025357 0 -0.1483104145610141 -0.1059844760750239 0 -0.15766897324155929 -0.10201766098942321 0 -0.15631644193457139 -0.088857398989056272 0 -0.14677991412428701 -0.093732051016317916 0 -0.15766897324155929 -0.10201766098942321 0 -0.14677991412428701 -0.093732051016317916 0 -0.1483104145610141 -0.1059844760750239 0 -0.14677991412428701 -0.093732051016317916 0 -0.13451756518433111 -0.095180895342251215 0 -0.1483104145610141 -0.1059844760750239 0 -0.13451756518433111 -0.095180895342251215 0 -0.139855014945965 -0.1081270544919556 0 -0.1483104145610141 -0.1059844760750239 0 -0.1452248522035206 -0.0135074852317284 0 -0.13361245343545181 -0.030305793086055629 0 -0.1484749629479134 -0.038477035386196637 0 -0.1452248522035206 -0.0135074852317284 0 -0.1484749629479134 -0.038477035386196637 0 -0.16099128017419639 -0.03201601120559007 0 -0.1452248522035206 -0.0135074852317284 0 -0.1660829110182864 -0.0110115892886907 0 -0.1564869492866878 -0.00059129627401754796 0 -0.1452248522035206 -0.0135074852317284 0 -0.1564869492866878 -0.00059129627401754796 0 -0.1433170204333889 0.0042533116210359059 0 -0.1452248522035206 -0.0135074852317284 0 -0.13137048688310951 -0.003337023478303953 0 -0.1433170204333889 0.0042533116210359059 0 -0.1236122261121546 -0.0078425818954372464 0 -0.1452248522035206 -0.0135074852317284 0 -0.13137048688310951 -0.003337023478303953 0 -0.1236122261121546 -0.0078425818954372464 0 -0.13137048688310951 -0.003337023478303953 0 -0.1236122261121546 -0.0078425818954372464 0 -0.13361245343545181 -0.030305793086055629 0 -0.1236122261121546 -0.0078425818954372464 0 -0.1185057960264221 -0.028529017004706999 0 -0.13361245343545181 -0.030305793086055629 0 -0.1236122261121546 -0.0078425818954372464 0 -0.1452248522035206 -0.0135074852317284 0 -0.13361245343545181 -0.030305793086055629 0 -0.13361245343545181 -0.030305793086055629 0 -0.14346563865851419 -0.05243870800993642 0 -0.1197314047957487 -0.044466417495601512 0 -0.13361245343545181 -0.030305793086055629 0 -0.1315211872564446 -0.050314657740016588 0 -0.13361245343545181 -0.030305793086055629 0 -0.1315211872564446 -0.050314657740016588 0 -0.14346563865851419 -0.05243870800993642 0 -0.12131955324210091 -0.059181462630683621 0 -0.1315211872564446 -0.050314657740016588 0 -0.13379805028672059 -0.060142641530726633 0 -0.1315211872564446 -0.050314657740016588 0 -0.1374712535911565 -0.055885807542241962 0 -0.14346563865851419 -0.05243870800993642 0 -0.1315211872564446 -0.050314657740016588 0 -0.1374712535911565 -0.055885807542241962 0 -0.13379805028672059 -0.060142641530726633 0 -0.1374712535911565 -0.055885807542241962 0 -0.13379805028672059 -0.060142641530726633 0 -0.1411001381629465 -0.060647222888288201 0 -0.1411001381629465 -0.060647222888288201 0 -0.14346563865851419 -0.05243870800993642 0 -0.15201326644433669 -0.053437077241884359 0 -0.1374712535911565 -0.055885807542241962 0 -0.1411001381629465 -0.060647222888288201 0 -0.14346563865851419 -0.05243870800993642 0 -0.14346563865851419 -0.05243870800993642 0 -0.15201326644433669 -0.053437077241884359 0 -0.1484749629479134 -0.038477035386196637 0 -0.15201326644433669 -0.053437077241884359 0 -0.1484749629479134 -0.038477035386196637 0 -0.16099128017419639 -0.03201601120559007 0 -0.13361245343545181 -0.030305793086055629 0 -0.14346563865851419 -0.05243870800993642 0 -0.1484749629479134 -0.038477035386196637 0 -0.15201326644433669 -0.053437077241884359 0 -0.16099128017419639 -0.03201601120559007 0 -0.15201326644433669 -0.053437077241884359 0 -0.16099128017419639 -0.03201601120559007 0 -0.16622336588392531 -0.046665464390732471 0 -0.16099128017419639 -0.03201601120559007 0 -0.17705927752236811 -0.038294319471390781 0 -0.1772337338696203 -0.023645926918309929 0 -0.16099128017419639 -0.03201601120559007 0 -0.16622336588392531 -0.046665464390732471 0 -0.17705927752236811 -0.038294319471390781 0 -0.15646239569026699 -0.065906604111614212 0 -0.15201326644433669 -0.053437077241884359 0 -0.16458020880549121 -0.059492387506912943 0 -0.15201326644433669 -0.053437077241884359 0 -0.16622336588392531 -0.046665464390732471 0 -0.16458020880549121 -0.059492387506912943 0 -0.16622336588392531 -0.046665464390732471 0 -0.16458020880549121 -0.059492387506912943 0 -0.17631201976625371 -0.05102922044790497 0 -0.17672291357829811 -0.064990721505459842 0 -0.16458020880549121 -0.059492387506912943 0 -0.17631201976625371 -0.05102922044790497 0 -0.17631201976625371 -0.05102922044790497 0 -0.18709502764393729 -0.061773717592220383 0 -0.18868425509965489 -0.047684834797198213 0 -0.17672291357829811 -0.064990721505459842 0 -0.17631201976625371 -0.05102922044790497 0 -0.18709502764393729 -0.061773717592220383 0 -0.16622336588392531 -0.046665464390732471 0 -0.17631201976625371 -0.05102922044790497 0 -0.17705927752236811 -0.038294319471390781 0 -0.17631201976625371 -0.05102922044790497 0 -0.17705927752236811 -0.038294319471390781 0 -0.18868425509965489 -0.047684834797198213 0 -0.17705927752236811 -0.038294319471390781 0 -0.18868425509965489 -0.047684834797198213 0 -0.19198493650835269 -0.034148616047928453 0 -0.17705927752236811 -0.038294319471390781 0 -0.1772337338696203 -0.023645926918309929 0 -0.19198493650835269 -0.034148616047928453 0 -0.1772337338696203 -0.023645926918309929 0 -0.18418091461086311 -0.0067458590849352237 0 -0.19781487964127609 -0.018046172764705552 0 -0.16099128017419639 -0.03201601120559007 0 -0.1772337338696203 -0.023645926918309929 0 -0.1660829110182864 -0.0110115892886907 0 -0.1452248522035206 -0.0135074852317284 0 -0.16099128017419639 -0.03201601120559007 0 -0.1660829110182864 -0.0110115892886907 0 -0.1660829110182864 -0.0110115892886907 0 -0.1564869492866878 -0.00059129627401754796 0 -0.17208342559322409 0.0058404778805985873 0 -0.1660829110182864 -0.0110115892886907 0 -0.18418091461086311 -0.0067458590849352237 0 -0.17208342559322409 0.0058404778805985873 0 -0.1772337338696203 -0.023645926918309929 0 -0.1660829110182864 -0.0110115892886907 0 -0.18418091461086311 -0.0067458590849352237 0 -0.18418091461086311 -0.0067458590849352237 0 -0.2008908429601583 -0.001101000049535744 0 -0.19781487964127609 -0.018046172764705552 0 -0.19781487964127609 -0.018046172764705552 0 -0.19198493650835269 -0.034148616047928453 0 -0.21155103461974961 -0.032223677091432062 0 -0.1772337338696203 -0.023645926918309929 0 -0.19781487964127609 -0.018046172764705552 0 -0.19198493650835269 -0.034148616047928453 0 -0.19781487964127609 -0.018046172764705552 0 -0.21155103461974961 -0.032223677091432062 0 -0.21882158577424271 -0.0103131571922281 0 -0.2008908429601583 -0.001101000049535744 0 -0.19781487964127609 -0.018046172764705552 0 -0.21882158577424271 -0.0103131571922281 0 -0.18709502764393729 -0.061773717592220383 0 -0.18868425509965489 -0.047684834797198213 0 -0.20047874574939811 -0.054521575326106748 0 -0.18868425509965489 -0.047684834797198213 0 -0.20047874574939811 -0.054521575326106748 0 -0.19817474299428881 -0.04214467581566636 0 -0.19817474299428881 -0.04214467581566636 0 -0.19198493650835269 -0.034148616047928453 0 -0.21155103461974961 -0.032223677091432062 0 -0.18868425509965489 -0.047684834797198213 0 -0.19817474299428881 -0.04214467581566636 0 -0.19198493650835269 -0.034148616047928453 0 -0.20047874574939811 -0.054521575326106748 0 -0.21155103461974961 -0.032223677091432062 0 -0.20047874574939811 -0.054521575326106748 0 -0.19817474299428881 -0.04214467581566636 0 -0.21155103461974961 -0.032223677091432062 0 -0.21155103461974961 -0.032223677091432062 0 -0.21465014164525181 -0.057056120614390499 0 -0.22646728404806721 -0.036724874627428489 0 -0.20047874574939811 -0.054521575326106748 0 -0.21155103461974961 -0.032223677091432062 0 -0.21465014164525181 -0.057056120614390499 0 -0.21465014164525181 -0.057056120614390499 0 -0.2338744138803254 -0.062312468216533988 0 -0.22646728404806721 -0.036724874627428489 0 -0.2338744138803254 -0.062312468216533988 0 -0.22646728404806721 -0.036724874627428489 0 -0.21465014164525181 -0.057056120614390499 0 -0.22646728404806721 -0.036724874627428489 0 -0.22646728404806721 -0.036724874627428489 0 -0.2401414722927224 -0.032241302373577058 0 -0.24278742868549399 -0.046838078323859687 0 -0.2401414722927224 -0.032241302373577058 0 -0.25378175816230958 -0.02436733484642779 0 -0.25219715932032732 -0.038265850071314 0 -0.2401414722927224 -0.032241302373577058 0 -0.24278742868549399 -0.046838078323859687 0 -0.25219715932032732 -0.038265850071314 0 -0.2338744138803254 -0.062312468216533988 0 -0.22646728404806721 -0.036724874627428489 0 -0.24278742868549399 -0.046838078323859687 0 -0.24278742868549399 -0.046838078323859687 0 -0.2476323682116322 -0.061520987214930753 0 -0.25620744044593469 -0.049667056832747067 0 -0.2338744138803254 -0.062312468216533988 0 -0.24278742868549399 -0.046838078323859687 0 -0.2476323682116322 -0.061520987214930753 0 -0.21882158577424271 -0.0103131571922281 0 -0.2374946151573453 -0.01775248911154621 0 -0.23546354233931949 0.0078270751002715265 0 -0.22646728404806721 -0.036724874627428489 0 -0.2374946151573453 -0.01775248911154621 0 -0.21155103461974961 -0.032223677091432062 0 -0.22646728404806721 -0.036724874627428489 0 -0.21882158577424271 -0.0103131571922281 0 -0.22646728404806721 -0.036724874627428489 0 -0.21882158577424271 -0.0103131571922281 0 -0.22646728404806721 -0.036724874627428489 0 -0.21882158577424271 -0.0103131571922281 0 -0.2374946151573453 -0.01775248911154621 0 -0.2374946151573453 -0.01775248911154621 0 -0.25227296286688322 -0.0076793426536460041 0 -0.25378175816230958 -0.02436733484642779 0 -0.2401414722927224 -0.032241302373577058 0 -0.2374946151573453 -0.01775248911154621 0 -0.25378175816230958 -0.02436733484642779 0 -0.22646728404806721 -0.036724874627428489 0 -0.2401414722927224 -0.032241302373577058 0 -0.2374946151573453 -0.01775248911154621 0 -0.2374946151573453 -0.01775248911154621 0 -0.25227296286688322 -0.0076793426536460041 0 -0.23546354233931949 0.0078270751002715265 0 -0.25227296286688322 -0.0076793426536460041 0 -0.27504786807920711 -0.016522946018952021 0 -0.26249405175029211 0.007662734938978108 0 -0.25227296286688322 -0.0076793426536460041 0 -0.25378175816230958 -0.02436733484642779 0 -0.27504786807920711 -0.016522946018952021 0 -0.25378175816230958 -0.02436733484642779 0 -0.27504786807920711 -0.016522946018952021 0 -0.26471526887818231 -0.03538659961621915 0 -0.27504786807920711 -0.016522946018952021 0 -0.27907013255445939 -0.03491531901183742 0 -0.26471526887818231 -0.03538659961621915 0 -0.27504786807920711 -0.016522946018952021 0 -0.26249405175029211 0.007662734938978108 0 -0.29088909275279012 0.0052797473078289572 0 -0.27504786807920711 -0.016522946018952021 0 -0.29710775469227729 -0.014596668466157351 0 -0.29088909275279012 0.0052797473078289572 0 -0.27504786807920711 -0.016522946018952021 0 -0.29121836233921761 -0.027938763998333869 0 -0.27907013255445939 -0.03491531901183742 0 -0.27504786807920711 -0.016522946018952021 0 -0.29121836233921761 -0.027938763998333869 0 -0.29710775469227729 -0.014596668466157351 0 -0.29710775469227729 -0.014596668466157351 0 -0.31759413704845219 -0.011310857140017521 0 -0.31311363369768291 -0.03310849193739672 0 -0.29121836233921761 -0.027938763998333869 0 -0.29710775469227729 -0.014596668466157351 0 -0.31311363369768291 -0.03310849193739672 0 -0.29710775469227729 -0.014596668466157351 0 -0.30518798685158838 -0.0020929360932298849 0 -0.29088909275279012 0.0052797473078289572 0 -0.29710775469227729 -0.014596668466157351 0 -0.30518798685158838 -0.0020929360932298849 0 -0.31759413704845219 -0.011310857140017521 0 -0.3114594072847322 -0.049306726894047262 0 -0.29175242267246138 -0.04055039455732605 0 -0.29253753360804391 -0.057483018047446738 0 -0.3114594072847322 -0.049306726894047262 0 -0.29253753360804391 -0.057483018047446738 0 -0.30696176126270219 -0.065158696513015008 0 -0.3114594072847322 -0.049306726894047262 0 -0.29175242267246138 -0.04055039455732605 0 -0.31311363369768291 -0.03310849193739672 0 -0.29175242267246138 -0.04055039455732605 0 -0.31311363369768291 -0.03310849193739672 0 -0.3114594072847322 -0.049306726894047262 0 -0.29175242267246138 -0.04055039455732605 0 -0.29121836233921761 -0.027938763998333869 0 -0.29175242267246138 -0.04055039455732605 0 -0.31311363369768291 -0.03310849193739672 0 -0.29175242267246138 -0.04055039455732605 0 -0.27907013255445939 -0.03491531901183742 0 -0.29121836233921761 -0.027938763998333869 0 -0.29175242267246138 -0.04055039455732605 0 -0.27907013255445939 -0.03491531901183742 0 -0.29175242267246138 -0.04055039455732605 0 -0.29253753360804391 -0.057483018047446738 0 -0.27994708571901822 -0.057980160189140359 0 -0.27994708571901822 -0.057980160189140359 0 -0.26824156593179532 -0.048741199197032549 0 -0.26874039246249382 -0.069271675174266092 0 -0.29175242267246138 -0.04055039455732605 0 -0.27994708571901822 -0.057980160189140359 0 -0.26824156593179532 -0.048741199197032549 0 -0.29175242267246138 -0.04055039455732605 0 -0.26824156593179532 -0.048741199197032549 0 -0.27907013255445939 -0.03491531901183742 0 -0.29175242267246138 -0.04055039455732605 0 -0.26824156593179532 -0.048741199197032549 0 -0.26824156593179532 -0.048741199197032549 0 -0.27907013255445939 -0.03491531901183742 0 -0.26471526887818231 -0.03538659961621915 0 -0.26824156593179532 -0.048741199197032549 0 -0.26471526887818231 -0.03538659961621915 0 -0.25620744044593469 -0.049667056832747067 0 -0.24278742868549399 -0.046838078323859687 0 -0.25219715932032732 -0.038265850071314 0 -0.25620744044593469 -0.049667056832747067 0 -0.26471526887818231 -0.03538659961621915 0 -0.25219715932032732 -0.038265850071314 0 -0.25620744044593469 -0.049667056832747067 0 -0.25378175816230958 -0.02436733484642779 0 -0.26471526887818231 -0.03538659961621915 0 -0.25219715932032732 -0.038265850071314 0 -0.26824156593179532 -0.048741199197032549 0 -0.25818533518880471 -0.062204128102381351 0 -0.26874039246249382 -0.069271675174266092 0 -0.26824156593179532 -0.048741199197032549 0 -0.25818533518880471 -0.062204128102381351 0 -0.25620744044593469 -0.049667056832747067 0 -0.2476323682116322 -0.061520987214930753 0 -0.25818533518880471 -0.062204128102381351 0 -0.25620744044593469 -0.049667056832747067 0 -0.2476323682116322 -0.061520987214930753 0 -0.25818533518880471 -0.062204128102381351 0 -0.2529882333064245 -0.070973901803662365 0 -0.25818533518880471 -0.062204128102381351 0 -0.25865454608389071 -0.0715458776642144 0 -0.2529882333064245 -0.070973901803662365 0 -0.25818533518880471 -0.062204128102381351 0 -0.25865454608389071 -0.0715458776642144 0 -0.26874039246249382 -0.069271675174266092 0 -0.25865454608389071 -0.0715458776642144 0 -0.25855249999409979 -0.079349971077516485 0 -0.26874039246249382 -0.069271675174266092 0 -0.24682403554985069 -0.077092069586417622 0 -0.25425482873356642 -0.074740455032952721 0 -0.25855249999409979 -0.079349971077516485 0 -0.25865454608389071 -0.0715458776642144 0 -0.25425482873356642 -0.074740455032952721 0 -0.25855249999409979 -0.079349971077516485 0 -0.25865454608389071 -0.0715458776642144 0 -0.25425482873356642 -0.074740455032952721 0 -0.2529882333064245 -0.070973901803662365 0 -0.24682403554985069 -0.077092069586417622 0 -0.25425482873356642 -0.074740455032952721 0 -0.2529882333064245 -0.070973901803662365 0 -0.2404192924220224 -0.087961553919881613 0 -0.25356789490128989 -0.088072195653340249 0 -0.26220824858947278 -0.082039970883894989 0 -0.2404192924220224 -0.087961553919881613 0 -0.26220824858947278 -0.082039970883894989 0 -0.2404192924220224 -0.087961553919881613 0 -0.26220824858947278 -0.082039970883894989 0 -0.25855249999409979 -0.079349971077516485 0 -0.25356789490128989 -0.088072195653340249 0 -0.25144169010332901 -0.091633326375329338 0 -0.26020234849033591 -0.090653931434255125 0 -0.25144169010332901 -0.091633326375329338 0 -0.26020234849033591 -0.090653931434255125 0 -0.2525882024947626 -0.098821099717938107 0 -0.26020234849033591 -0.090653931434255125 0 -0.26220824858947278 -0.082039970883894989 0 -0.26803774644364831 -0.088990216861234941 0 -0.26020234849033591 -0.090653931434255125 0 -0.26803774644364831 -0.088990216861234941 0 -0.26237563885443332 -0.099092169843888092 0 -0.25356789490128989 -0.088072195653340249 0 -0.26020234849033591 -0.090653931434255125 0 -0.26220824858947278 -0.082039970883894989 0 -0.26220824858947278 -0.082039970883894989 0 -0.25855249999409979 -0.079349971077516485 0 -0.27123440961567508 -0.082288547260032208 0 -0.27123440961567508 -0.082288547260032208 0 -0.26803774644364831 -0.088990216861234941 0 -0.28416808666832472 -0.090876464884104322 0 -0.26220824858947278 -0.082039970883894989 0 -0.27123440961567508 -0.082288547260032208 0 -0.26803774644364831 -0.088990216861234941 0 -0.27123440961567508 -0.082288547260032208 0 -0.28275713062840102 -0.072254333795265746 0 -0.28416808666832472 -0.090876464884104322 0 -0.26803774644364831 -0.088990216861234941 0 -0.26237563885443332 -0.099092169843888092 0 -0.28416808666832472 -0.090876464884104322 0 -0.25855249999409979 -0.079349971077516485 0 -0.28275713062840102 -0.072254333795265746 0 -0.25855249999409979 -0.079349971077516485 0 -0.26874039246249382 -0.069271675174266092 0 -0.28275713062840102 -0.072254333795265746 0 -0.25855249999409979 -0.079349971077516485 0 -0.27123440961567508 -0.082288547260032208 0 -0.28275713062840102 -0.072254333795265746 0 -0.27994708571901822 -0.057980160189140359 0 -0.26874039246249382 -0.069271675174266092 0 -0.28275713062840102 -0.072254333795265746 0 -0.2478381125959237 -0.13014188093155071 0 -0.26471173226585809 -0.1241277151614352 0 -0.25439292330372432 -0.11161035632906929 0 -0.26471173226585809 -0.1241277151614352 0 -0.25439292330372432 -0.11161035632906929 0 -0.26925149092450551 -0.1104881183943958 0 -0.25439292330372432 -0.11161035632906929 0 -0.26237563885443332 -0.099092169843888092 0 -0.26925149092450551 -0.1104881183943958 0 -0.25439292330372432 -0.11161035632906929 0 -0.2525882024947626 -0.098821099717938107 0 -0.26237563885443332 -0.099092169843888092 0 -0.2438502060585381 -0.1028583717612334 0 -0.25439292330372432 -0.11161035632906929 0 -0.2525882024947626 -0.098821099717938107 0 -0.26020234849033591 -0.090653931434255125 0 -0.2525882024947626 -0.098821099717938107 0 -0.26237563885443332 -0.099092169843888092 0 -0.26237563885443332 -0.099092169843888092 0 -0.26925149092450551 -0.1104881183943958 0 -0.28416808666832472 -0.090876464884104322 0 -0.26237563885443332 -0.099092169843888092 0 -0.28416808666832472 -0.090876464884104322 0 -0.26925149092450551 -0.1104881183943958 0 -0.28362018306611941 -0.1149768545032684 0 -0.28416808666832472 -0.090876464884104322 0 -0.26471173226585809 -0.1241277151614352 0 -0.26925149092450551 -0.1104881183943958 0 -0.28362018306611941 -0.1149768545032684 0 -0.28362018306611941 -0.1149768545032684 0 -0.30012398023346848 -0.099943372585857088 0 -0.29756340944960558 -0.1135198660677226 0 -0.28362018306611941 -0.1149768545032684 0 -0.29756340944960558 -0.1135198660677226 0 -0.29768876878828382 -0.12804597213566191 0 -0.28362018306611941 -0.1149768545032684 0 -0.30012398023346848 -0.099943372585857088 0 -0.28416808666832472 -0.090876464884104322 0 -0.30012398023346848 -0.099943372585857088 0 -0.30783691459248808 -0.106447779092323 0 -0.31567959952596442 -0.097557764174788134 0 -0.30012398023346848 -0.099943372585857088 0 -0.30783691459248808 -0.106447779092323 0 -0.29756340944960558 -0.1135198660677226 0 -0.31981531178534578 -0.1159443424066684 0 -0.31168640084693722 -0.1309238984722621 0 -0.29768876878828382 -0.12804597213566191 0 -0.31097561465500489 -0.1146061177684144 0 -0.31981531178534578 -0.1159443424066684 0 -0.29768876878828382 -0.12804597213566191 0 -0.31981531178534578 -0.1159443424066684 0 -0.29768876878828382 -0.12804597213566191 0 -0.30783691459248808 -0.106447779092323 0 -0.29756340944960558 -0.1135198660677226 0 -0.31097561465500489 -0.1146061177684144 0 -0.30783691459248808 -0.106447779092323 0 -0.31097561465500489 -0.1146061177684144 0 -0.31588048179209449 -0.1075745667651056 0 -0.29756340944960558 -0.1135198660677226 0 -0.31097561465500489 -0.1146061177684144 0 -0.29768876878828382 -0.12804597213566191 0 -0.29253753360804391 -0.057483018047446738 0 -0.28275713062840102 -0.072254333795265746 0 -0.30696176126270219 -0.065158696513015008 0 -0.28275713062840102 -0.072254333795265746 0 -0.30696176126270219 -0.065158696513015008 0 -0.29253753360804391 -0.057483018047446738 0 -0.27994708571901822 -0.057980160189140359 0 -0.28275713062840102 -0.072254333795265746 0 -0.28275713062840102 -0.072254333795265746 0 -0.28416808666832472 -0.090876464884104322 0 -0.30596053448221622 -0.082660759924320565 0 -0.30012398023346848 -0.099943372585857088 0 -0.28416808666832472 -0.090876464884104322 0 -0.30596053448221622 -0.082660759924320565 0 -0.28416808666832472 -0.090876464884104322 0 -0.30596053448221622 -0.082660759924320565 0 -0.30012398023346848 -0.099943372585857088 0 -0.30596053448221622 -0.082660759924320565 0 -0.31567959952596442 -0.097557764174788134 0 -0.28275713062840102 -0.072254333795265746 0 -0.30596053448221622 -0.082660759924320565 0 -0.30696176126270219 -0.065158696513015008 0 -0.30696176126270219 -0.065158696513015008 0 -0.32775298229610761 -0.074445054964536822 0 -0.33116639189700398 -0.058063059230765962 0 -0.30596053448221622 -0.082660759924320565 0 -0.30696176126270219 -0.065158696513015008 0 -0.32775298229610761 -0.074445054964536822 0 -0.30596053448221622 -0.082660759924320565 0 -0.32775298229610761 -0.074445054964536822 0 -0.30596053448221622 -0.082660759924320565 0 -0.32775298229610761 -0.074445054964536822 0 -0.32362127966136711 -0.087321124884110049 0 -0.30596053448221622 -0.082660759924320565 0 -0.32362127966136711 -0.087321124884110049 0 -0.31567959952596442 -0.097557764174788134 0 -0.32362127966136711 -0.087321124884110049 0 -0.31567959952596442 -0.097557764174788134 0 -0.33099901797333198 -0.096034161481027461 0 -0.32775298229610761 -0.074445054964536822 0 -0.32362127966136711 -0.087321124884110049 0 -0.33771426402921512 -0.08590788387587725 0 -0.32775298229610761 -0.074445054964536822 0 -0.33771426402921512 -0.08590788387587725 0 -0.3410929925936918 -0.075329856076351967 0 -0.32362127966136711 -0.087321124884110049 0 -0.33771426402921512 -0.08590788387587725 0 -0.33099901797333198 -0.096034161481027461 0 -0.33771426402921512 -0.08590788387587725 0 -0.34583111956259749 -0.098435285946989581 0 -0.34764631593145701 -0.084003956848892683 0 -0.33771426402921512 -0.08590788387587725 0 -0.33099901797333198 -0.096034161481027461 0 -0.34583111956259749 -0.098435285946989581 0 -0.33771426402921512 -0.08590788387587725 0 -0.3410929925936918 -0.075329856076351967 0 -0.34764631593145701 -0.084003956848892683 0 -0.32775298229610761 -0.074445054964536822 0 -0.34954543010999922 -0.066229350004753773 0 -0.32775298229610761 -0.074445054964536822 0 -0.34954543010999922 -0.066229350004753773 0 -0.33116639189700398 -0.058063059230765962 0 -0.32775298229610761 -0.074445054964536822 0 -0.3410929925936918 -0.075329856076351967 0 -0.34954543010999922 -0.066229350004753773 0 -0.31981531178534578 -0.1159443424066684 0 -0.33811662782018509 -0.1187149432167614 0 -0.32501708124079648 -0.13103464252731351 0 -0.31097561465500489 -0.1146061177684144 0 -0.31981531178534578 -0.1159443424066684 0 -0.31588048179209449 -0.1075745667651056 0 -0.31097561465500489 -0.1146061177684144 0 -0.31981531178534578 -0.1159443424066684 0 -0.31981531178534578 -0.1159443424066684 0 -0.32413251233690038 -0.10459203082738 0 -0.33754729440195652 -0.1062462215562652 0 -0.31981531178534578 -0.1159443424066684 0 -0.32413251233690038 -0.10459203082738 0 -0.31588048179209449 -0.1075745667651056 0 -0.32413251233690038 -0.10459203082738 0 -0.31588048179209449 -0.1075745667651056 0 -0.31567959952596442 -0.097557764174788134 0 -0.30783691459248808 -0.106447779092323 0 -0.31588048179209449 -0.1075745667651056 0 -0.31567959952596442 -0.097557764174788134 0 -0.32413251233690038 -0.10459203082738 0 -0.31567959952596442 -0.097557764174788134 0 -0.33099901797333198 -0.096034161481027461 0 -0.33754729440195652 -0.1062462215562652 0 -0.33811662782018509 -0.1187149432167614 0 -0.34583111956259749 -0.098435285946989581 0 -0.33099901797333198 -0.096034161481027461 0 -0.33754729440195652 -0.1062462215562652 0 -0.34583111956259749 -0.098435285946989581 0 -0.32413251233690038 -0.10459203082738 0 -0.33099901797333198 -0.096034161481027461 0 -0.33754729440195652 -0.1062462215562652 0 -0.31981531178534578 -0.1159443424066684 0 -0.33754729440195652 -0.1062462215562652 0 -0.31981531178534578 -0.1159443424066684 0 -0.33754729440195652 -0.1062462215562652 0 -0.33811662782018509 -0.1187149432167614 0 -0.31981531178534578 -0.1159443424066684 0 -0.33811662782018509 -0.1187149432167614 0 -0.33811662782018509 -0.1187149432167614 0 -0.32501708124079648 -0.13103464252731351 0 -0.33811662782018509 -0.1187149432167614 0 -0.35957868311145441 -0.098530575294378642 0 -0.36560935282136869 -0.1228770136391782 0 -0.33811662782018509 -0.1187149432167614 0 -0.36560935282136869 -0.1228770136391782 0 -0.33811662782018509 -0.1187149432167614 0 -0.35957868311145441 -0.098530575294378642 0 -0.33811662782018509 -0.1187149432167614 0 -0.34583111956259749 -0.098435285946989581 0 -0.35957868311145441 -0.098530575294378642 0 -0.37338072534044958 -0.1015395423542827 0 -0.35957868311145441 -0.098530575294378642 0 -0.36560935282136869 -0.1228770136391782 0 -0.37338072534044958 -0.1015395423542827 0 -0.35957868311145441 -0.098530575294378642 0 -0.3750868287242039 -0.083945666598845156 0 -0.35957868311145441 -0.098530575294378642 0 -0.36560935282136869 -0.1228770136391782 0 -0.37338072534044958 -0.1015395423542827 0 -0.36560935282136869 -0.1228770136391782 0 -0.38088751658449588 -0.11177605152490321 0 -0.35337645997328532 -0.073491557988243944 0 -0.34954543010999922 -0.066229350004753773 0 -0.36110028685175177 -0.071363477205066639 0 -0.34954543010999922 -0.066229350004753773 0 -0.36113753062154968 -0.061859153573384271 0 -0.35391811348297447 -0.060268720819388867 0 -0.34954543010999922 -0.066229350004753773 0 -0.36113753062154968 -0.061859153573384271 0 -0.34954543010999922 -0.066229350004753773 0 -0.36110028685175177 -0.071363477205066639 0 -0.36113753062154968 -0.061859153573384271 0 -0.34954543010999922 -0.066229350004753773 0 -0.36110028685175177 -0.071363477205066639 0 -0.3410929925936918 -0.075329856076351967 0 -0.34954543010999922 -0.066229350004753773 0 -0.34762887643352081 -0.074048264607039227 0 -0.3410929925936918 -0.075329856076351967 0 -0.34762887643352081 -0.074048264607039227 0 -0.34764631593145701 -0.084003956848892683 0 -0.35337645997328532 -0.073491557988243944 0 -0.34762887643352081 -0.074048264607039227 0 -0.34764631593145701 -0.084003956848892683 0 -0.35337645997328532 -0.073491557988243944 0 -0.34954543010999922 -0.066229350004753773 0 -0.34762887643352081 -0.074048264607039227 0 -0.35957868311145441 -0.098530575294378642 0 -0.35337645997328532 -0.073491557988243944 0 -0.34764631593145701 -0.084003956848892683 0 -0.35957868311145441 -0.098530575294378642 0 -0.35337645997328532 -0.073491557988243944 0 -0.34583111956259749 -0.098435285946989581 0 -0.35957868311145441 -0.098530575294378642 0 -0.34764631593145701 -0.084003956848892683 0 -0.35957868311145441 -0.098530575294378642 0 -0.36565466293458038 -0.077117114018749447 0 -0.3750868287242039 -0.083945666598845156 0 -0.35957868311145441 -0.098530575294378642 0 -0.35337645997328532 -0.073491557988243944 0 -0.36565466293458038 -0.077117114018749447 0 -0.35957868311145441 -0.098530575294378642 0 -0.3750868287242039 -0.083945666598845156 0 -0.36565466293458038 -0.077117114018749447 0 -0.37683012181080239 -0.068733301298065499 0 -0.3750868287242039 -0.083945666598845156 0 -0.36565466293458038 -0.077117114018749447 0 -0.36795559713598469 -0.066638105727896774 0 -0.37683012181080239 -0.068733301298065499 0 -0.36565466293458038 -0.077117114018749447 0 -0.36110028685175177 -0.071363477205066639 0 -0.36795559713598469 -0.066638105727896774 0 -0.35337645997328532 -0.073491557988243944 0 -0.36565466293458038 -0.077117114018749447 0 -0.36110028685175177 -0.071363477205066639 0 -0.36110028685175177 -0.071363477205066639 0 -0.36795559713598469 -0.066638105727896774 0 -0.36113753062154968 -0.061859153573384271 0 -0.36795559713598469 -0.066638105727896774 0 -0.37470589733927712 -0.0545527271000322 0 -0.37683012181080239 -0.068733301298065499 0 -0.35650250053147359 -0.050635726844241939 0 -0.37707154236451451 -0.044605869900925722 0 -0.37470589733927712 -0.0545527271000322 0 -0.35650250053147359 -0.050635726844241939 0 -0.36795559713598469 -0.066638105727896774 0 -0.37470589733927712 -0.0545527271000322 0 -0.36113753062154968 -0.061859153573384271 0 -0.37470589733927712 -0.0545527271000322 0 -0.35650250053147359 -0.050635726844241939 0 -0.37707154236451451 -0.044605869900925722 0 -0.37470589733927712 -0.0545527271000322 0 -0.35970252298352262 -0.056514655867325403 0 -0.35650250053147359 -0.050635726844241939 0 -0.37470589733927712 -0.0545527271000322 0 -0.35970252298352262 -0.056514655867325403 0 -0.36113753062154968 -0.061859153573384271 0 -0.35391811348297447 -0.060268720819388867 0 -0.35527395769833642 -0.05300159300784036 0 -0.33116639189700398 -0.058063059230765962 0 -0.35527395769833642 -0.05300159300784036 0 -0.35507992259877907 -0.051052758492802497 0 -0.33116639189700398 -0.058063059230765962 0 -0.34954543010999922 -0.066229350004753773 0 -0.35391811348297447 -0.060268720819388867 0 -0.33116639189700398 -0.058063059230765962 0 -0.35970252298352262 -0.056514655867325403 0 -0.36113753062154968 -0.061859153573384271 0 -0.35391811348297447 -0.060268720819388867 0 -0.35970252298352262 -0.056514655867325403 0 -0.35391811348297447 -0.060268720819388867 0 -0.35527395769833642 -0.05300159300784036 0 -0.35650250053147359 -0.050635726844241939 0 -0.35507992259877907 -0.051052758492802497 0 -0.3484308880043866 -0.044087332347355908 0 -0.35970252298352262 -0.056514655867325403 0 -0.35650250053147359 -0.050635726844241939 0 -0.35527395769833642 -0.05300159300784036 0 -0.35650250053147359 -0.050635726844241939 0 -0.35527395769833642 -0.05300159300784036 0 -0.35650250053147359 -0.050635726844241939 0 -0.35527395769833642 -0.05300159300784036 0 -0.35507992259877907 -0.051052758492802497 0 -0.35650250053147359 -0.050635726844241939 0 -0.35507992259877907 -0.051052758492802497 0 -0.35507992259877907 -0.051052758492802497 0 -0.33978397050626657 -0.048324977944356091 0 -0.35507992259877907 -0.051052758492802497 0 -0.3484308880043866 -0.044087332347355908 0 -0.33978397050626657 -0.048324977944356091 0 -0.35650250053147359 -0.050635726844241939 0 -0.3501214739100334 -0.034607419809747728 0 -0.3484308880043866 -0.044087332347355908 0 -0.35650250053147359 -0.050635726844241939 0 -0.3501214739100334 -0.034607419809747728 0 -0.36684988365240911 -0.03070925546092473 0 -0.3501214739100334 -0.034607419809747728 0 -0.3484308880043866 -0.044087332347355908 0 -0.33506880487583801 -0.038565334792038719 0 -0.35650250053147359 -0.050635726844241939 0 -0.36684988365240911 -0.03070925546092473 0 -0.37707154236451451 -0.044605869900925722 0 -0.35650250053147359 -0.050635726844241939 0 -0.36684988365240911 -0.03070925546092473 0 -0.36684988365240911 -0.03070925546092473 0 -0.37719726677334758 -0.010782784077609161 0 -0.36684988365240911 -0.03070925546092473 0 -0.35583605574812599 -0.018224686697538489 0 -0.37719726677334758 -0.010782784077609161 0 -0.35583605574812599 -0.018224686697538489 0 -0.37719726677334758 -0.010782784077609161 0 -0.37145675818362223 0.001704133189072726 0 -0.35583605574812599 -0.018224686697538489 0 -0.37719726677334758 -0.010782784077609161 0 -0.35583605574812599 -0.018224686697538489 0 -0.35182631000740072 0.0068229147672093007 0 -0.37145675818362223 0.001704133189072726 0 -0.35583605574812599 -0.018224686697538489 0 -0.33449922093445961 -0.0040818700918973123 0 -0.35182631000740072 0.0068229147672093007 0 -0.3501214739100334 -0.034607419809747728 0 -0.35583605574812599 -0.018224686697538489 0 -0.33447484472290451 -0.025666589317467611 0 -0.3501214739100334 -0.034607419809747728 0 -0.36684988365240911 -0.03070925546092473 0 -0.35583605574812599 -0.018224686697538489 0 -0.35583605574812599 -0.018224686697538489 0 -0.33447484472290451 -0.025666589317467611 0 -0.35583605574812599 -0.018224686697538489 0 -0.33447484472290451 -0.025666589317467611 0 -0.33449922093445961 -0.0040818700918973123 0 -0.33447484472290451 -0.025666589317467611 0 -0.33449922093445961 -0.0040818700918973123 0 -0.31759413704845219 -0.011310857140017521 0 -0.33449922093445961 -0.0040818700918973123 0 -0.31759413704845219 -0.011310857140017521 0 -0.32049615199215492 0.0045280339304297253 0 -0.30518798685158838 -0.0020929360932298849 0 -0.31759413704845219 -0.011310857140017521 0 -0.32049615199215492 0.0045280339304297253 0 -0.33447484472290451 -0.025666589317467611 0 -0.31759413704845219 -0.011310857140017521 0 -0.31311363369768291 -0.03310849193739672 0 -0.33447484472290451 -0.025666589317467611 0 -0.31311363369768291 -0.03310849193739672 0 -0.3114594072847322 -0.049306726894047262 0 -0.31311363369768291 -0.03310849193739672 0 -0.32448801841375452 -0.045597197395908257 0 -0.33447484472290451 -0.025666589317467611 0 -0.31311363369768291 -0.03310849193739672 0 -0.33506880487583801 -0.038565334792038719 0 -0.31311363369768291 -0.03310849193739672 0 -0.32448801841375452 -0.045597197395908257 0 -0.33506880487583801 -0.038565334792038719 0 -0.3114594072847322 -0.049306726894047262 0 -0.32448801841375452 -0.045597197395908257 0 -0.33116639189700398 -0.058063059230765962 0 -0.30696176126270219 -0.065158696513015008 0 -0.33116639189700398 -0.058063059230765962 0 -0.3114594072847322 -0.049306726894047262 0 -0.33116639189700398 -0.058063059230765962 0 -0.3114594072847322 -0.049306726894047262 0 -0.30696176126270219 -0.065158696513015008 0 -0.33116639189700398 -0.058063059230765962 0 -0.32448801841375452 -0.045597197395908257 0 -0.33116639189700398 -0.058063059230765962 0 -0.33978397050626657 -0.048324977944356091 0 -0.34954543010999922 -0.066229350004753773 0 -0.33116639189700398 -0.058063059230765962 0 -0.35507992259877907 -0.051052758492802497 0 -0.33116639189700398 -0.058063059230765962 0 -0.33978397050626657 -0.048324977944356091 0 -0.35507992259877907 -0.051052758492802497 0 -0.33116639189700398 -0.058063059230765962 0 -0.32448801841375452 -0.045597197395908257 0 -0.33978397050626657 -0.048324977944356091 0 -0.3501214739100334 -0.034607419809747728 0 -0.33447484472290451 -0.025666589317467611 0 -0.33506880487583801 -0.038565334792038719 0 -0.3484308880043866 -0.044087332347355908 0 -0.33978397050626657 -0.048324977944356091 0 -0.33506880487583801 -0.038565334792038719 0 -0.32448801841375452 -0.045597197395908257 0 -0.33978397050626657 -0.048324977944356091 0 -0.33506880487583801 -0.038565334792038719 0 -0.29859701231105729 -0.25301700882560368 0 -0.3071375446623259 -0.2335196387236223 0 -0.31421725341188372 -0.24977587129631751 0 -0.29859701231105729 -0.25301700882560368 0 -0.3071375446623259 -0.2335196387236223 0 -0.29138670340076089 -0.23873921836977791 0 -0.3071375446623259 -0.2335196387236223 0 -0.29268109579257923 -0.22411955864172181 0 -0.3060605016315725 -0.21226103782782971 0 -0.3071375446623259 -0.2335196387236223 0 -0.3060605016315725 -0.21226103782782971 0 -0.32042736925848198 -0.22641527486886631 0 -0.3071375446623259 -0.2335196387236223 0 -0.29268109579257923 -0.22411955864172181 0 -0.29138670340076089 -0.23873921836977791 0 -0.29268109579257923 -0.22411955864172181 0 -0.27778266513963018 -0.23141617934605249 0 -0.2809246376312578 -0.20830770343947971 0 -0.29268109579257923 -0.22411955864172181 0 -0.29138670340076089 -0.23873921836977791 0 -0.27778266513963018 -0.23141617934605249 0 -0.28073519909821221 -0.25162370631188929 0 -0.29138670340076089 -0.23873921836977791 0 -0.27778266513963018 -0.23141617934605249 0 -0.28073519909821221 -0.25162370631188929 0 -0.29859701231105729 -0.25301700882560368 0 -0.29138670340076089 -0.23873921836977791 0 -0.28073519909821221 -0.25162370631188929 0 -0.2582168116042447 -0.2439014490639565 0 -0.27778266513963018 -0.23141617934605249 0 -0.24510877540263959 -0.22548599802342939 0 -0.2582168116042447 -0.2439014490639565 0 -0.26321090898949828 -0.22136191750140799 0 -0.24510877540263959 -0.22548599802342939 0 -0.26321090898949828 -0.22136191750140799 0 -0.25247744799357308 -0.21261594090752481 0 -0.26321090898949828 -0.22136191750140799 0 -0.27778266513963018 -0.23141617934605249 0 -0.2809246376312578 -0.20830770343947971 0 -0.2582168116042447 -0.2439014490639565 0 -0.26321090898949828 -0.22136191750140799 0 -0.27778266513963018 -0.23141617934605249 0 -0.26321090898949828 -0.22136191750140799 0 -0.2809246376312578 -0.20830770343947971 0 -0.26409863293778341 -0.20573621058270139 0 -0.26321090898949828 -0.22136191750140799 0 -0.26409863293778341 -0.20573621058270139 0 -0.25247744799357308 -0.21261594090752481 0 -0.26409863293778341 -0.20573621058270139 0 -0.25247744799357308 -0.21261594090752481 0 -0.25047429362874257 -0.200219847641955 0 -0.26409863293778341 -0.20573621058270139 0 -0.25047429362874257 -0.200219847641955 0 -0.26742375486930359 -0.1882108285553544 0 -0.25047429362874257 -0.200219847641955 0 -0.26742375486930359 -0.1882108285553544 0 -0.23968786498356659 -0.18400375912907671 0 -0.25047429362874257 -0.200219847641955 0 -0.26742375486930359 -0.1882108285553544 0 -0.2809246376312578 -0.20830770343947971 0 -0.26742375486930359 -0.1882108285553544 0 -0.29199909585561379 -0.19193849570898799 0 -0.26742375486930359 -0.1882108285553544 0 -0.29199909585561379 -0.19193849570898799 0 -0.2809246376312578 -0.20830770343947971 0 -0.26409863293778341 -0.20573621058270139 0 -0.26742375486930359 -0.1882108285553544 0 -0.2809246376312578 -0.20830770343947971 0 -0.3060605016315725 -0.21226103782782971 0 -0.2809246376312578 -0.20830770343947971 0 -0.29199909585561379 -0.19193849570898799 0 -0.3060605016315725 -0.21226103782782971 0 -0.29268109579257923 -0.22411955864172181 0 -0.2809246376312578 -0.20830770343947971 0 -0.3060605016315725 -0.21226103782782971 0 -0.29199909585561379 -0.19193849570898799 0 -0.3060605016315725 -0.21226103782782971 0 -0.3165744368419241 -0.19566616286262159 0 -0.29199909585561379 -0.19193849570898799 0 -0.3165744368419241 -0.19566616286262159 0 -0.29199909585561379 -0.19193849570898799 0 -0.29938476110462459 -0.18143496863655581 0 -0.3165744368419241 -0.19566616286262159 0 -0.29938476110462459 -0.18143496863655581 0 -0.31036357984341878 -0.17729064654437279 0 -0.3165744368419241 -0.19566616286262159 0 -0.29938476110462459 -0.18143496863655581 0 -0.30228981993539911 -0.17082195765291869 0 -0.28961274120160779 -0.1724895052286107 0 -0.29938476110462459 -0.18143496863655581 0 -0.31036357984341878 -0.17729064654437279 0 -0.30228981993539911 -0.17082195765291869 0 -0.31036357984341878 -0.17729064654437279 0 -0.31099079812705838 -0.16810657065420029 0 -0.30228981993539911 -0.17082195765291869 0 -0.31099079812705838 -0.16810657065420029 0 -0.31180172753391222 -0.15676818190186689 0 -0.30228981993539911 -0.17082195765291869 0 -0.31180172753391222 -0.15676818190186689 0 -0.28961274120160779 -0.1724895052286107 0 -0.31180172753391222 -0.15676818190186689 0 -0.28581520798017918 -0.16349252579439161 0 -0.31180172753391222 -0.15676818190186689 0 -0.28581520798017918 -0.16349252579439161 0 -0.30248732557626462 -0.14891872701938649 0 -0.31180172753391222 -0.15676818190186689 0 -0.30228981993539911 -0.17082195765291869 0 -0.28961274120160779 -0.1724895052286107 0 -0.31180172753391222 -0.15676818190186689 0 -0.28581520798017918 -0.16349252579439161 0 -0.28961274120160779 -0.1724895052286107 0 -0.28581520798017918 -0.16349252579439161 0 -0.28961274120160779 -0.1724895052286107 0 -0.27455339795200551 -0.17354596063111 0 -0.29199909585561379 -0.19193849570898799 0 -0.29938476110462459 -0.18143496863655581 0 -0.28961274120160779 -0.1724895052286107 0 -0.26742375486930359 -0.1882108285553544 0 -0.29199909585561379 -0.19193849570898799 0 -0.28961274120160779 -0.1724895052286107 0 -0.26742375486930359 -0.1882108285553544 0 -0.28961274120160779 -0.1724895052286107 0 -0.26742375486930359 -0.1882108285553544 0 -0.28961274120160779 -0.1724895052286107 0 -0.27455339795200551 -0.17354596063111 0 -0.26742375486930359 -0.1882108285553544 0 -0.27455339795200551 -0.17354596063111 0 -0.25982868842644607 -0.17021686968691641 0 -0.23968786498356659 -0.18400375912907671 0 -0.26742375486930359 -0.1882108285553544 0 -0.23968786498356659 -0.18400375912907671 0 -0.26742375486930359 -0.1882108285553544 0 -0.25982868842644607 -0.17021686968691641 0 -0.25982868842644607 -0.17021686968691641 0 -0.27013136078807137 -0.15645680560504849 0 -0.25343568279415951 -0.15224923159364789 0 -0.24566481473353391 -0.1652464025747532 0 -0.25982868842644607 -0.17021686968691641 0 -0.25343568279415951 -0.15224923159364789 0 -0.28581520798017918 -0.16349252579439161 0 -0.25982868842644607 -0.17021686968691641 0 -0.27013136078807137 -0.15645680560504849 0 -0.28581520798017918 -0.16349252579439161 0 -0.27455339795200551 -0.17354596063111 0 -0.25982868842644607 -0.17021686968691641 0 -0.28581520798017918 -0.16349252579439161 0 -0.27013136078807137 -0.15645680560504849 0 -0.281048741890911 -0.15139895950123519 0 -0.28581520798017918 -0.16349252579439161 0 -0.25982868842644607 -0.17021686968691641 0 -0.27013136078807137 -0.15645680560504849 0 -0.281048741890911 -0.15139895950123519 0 -0.27556222579122169 -0.14014760186465491 0 -0.27013136078807137 -0.15645680560504849 0 -0.25343568279415951 -0.15224923159364789 0 -0.27556222579122169 -0.14014760186465491 0 -0.25343568279415951 -0.15224923159364789 0 -0.26038693836179072 -0.13666660738782219 0 -0.27556222579122169 -0.14014760186465491 0 -0.25343568279415951 -0.15224923159364789 0 -0.27556222579122169 -0.14014760186465491 0 -0.2478381125959237 -0.13014188093155071 0 -0.26471173226585809 -0.1241277151614352 0 -0.26038693836179072 -0.13666660738782219 0 -0.2478381125959237 -0.13014188093155071 0 -0.25343568279415951 -0.15224923159364789 0 -0.26038693836179072 -0.13666660738782219 0 -0.26471173226585809 -0.1241277151614352 0 -0.28362018306611941 -0.1149768545032684 0 -0.27556222579122169 -0.14014760186465491 0 -0.26471173226585809 -0.1241277151614352 0 -0.26038693836179072 -0.13666660738782219 0 -0.27556222579122169 -0.14014760186465491 0 -0.27556222579122169 -0.14014760186465491 0 -0.29268617300417199 -0.1454989047408457 0 -0.29768876878828382 -0.12804597213566191 0 -0.28362018306611941 -0.1149768545032684 0 -0.27556222579122169 -0.14014760186465491 0 -0.29768876878828382 -0.12804597213566191 0 -0.27556222579122169 -0.14014760186465491 0 -0.29768876878828382 -0.12804597213566191 0 -0.28581520798017918 -0.16349252579439161 0 -0.29268617300417199 -0.1454989047408457 0 -0.30248732557626462 -0.14891872701938649 0 -0.28581520798017918 -0.16349252579439161 0 -0.281048741890911 -0.15139895950123519 0 -0.29268617300417199 -0.1454989047408457 0 -0.281048741890911 -0.15139895950123519 0 -0.27556222579122169 -0.14014760186465491 0 -0.29268617300417199 -0.1454989047408457 0 -0.29268617300417199 -0.1454989047408457 0 -0.30248732557626462 -0.14891872701938649 0 -0.30370630156068762 -0.1389224563049837 0 -0.31180172753391222 -0.15676818190186689 0 -0.30248732557626462 -0.14891872701938649 0 -0.31398283958777989 -0.14122477915676221 0 -0.30248732557626462 -0.14891872701938649 0 -0.30370630156068762 -0.1389224563049837 0 -0.31398283958777989 -0.14122477915676221 0 -0.29268617300417199 -0.1454989047408457 0 -0.29768876878828382 -0.12804597213566191 0 -0.30370630156068762 -0.1389224563049837 0 -0.31168640084693722 -0.1309238984722621 0 -0.30370630156068762 -0.1389224563049837 0 -0.31398283958777989 -0.14122477915676221 0 -0.31168640084693722 -0.1309238984722621 0 -0.29768876878828382 -0.12804597213566191 0 -0.30370630156068762 -0.1389224563049837 0 -0.32501708124079648 -0.13103464252731351 0 -0.31398283958777989 -0.14122477915676221 0 -0.32769326224381667 -0.1455087240973956 0 -0.31981531178534578 -0.1159443424066684 0 -0.31168640084693722 -0.1309238984722621 0 -0.32501708124079648 -0.13103464252731351 0 -0.31168640084693722 -0.1309238984722621 0 -0.32501708124079648 -0.13103464252731351 0 -0.31398283958777989 -0.14122477915676221 0 -0.31180172753391222 -0.15676818190186689 0 -0.32298463198440808 -0.15387446252221321 0 -0.32769326224381667 -0.1455087240973956 0 -0.31180172753391222 -0.15676818190186689 0 -0.32769326224381667 -0.1455087240973956 0 -0.31180172753391222 -0.15676818190186689 0 -0.31398283958777989 -0.14122477915676221 0 -0.32769326224381667 -0.1455087240973956 0 -0.31180172753391222 -0.15676818190186689 0 -0.32298463198440808 -0.15387446252221321 0 -0.32298463198440808 -0.15387446252221321 0 -0.33102430582003672 -0.15284086827415069 0 -0.32912678435276249 -0.16184097596254959 0 -0.32298463198440808 -0.15387446252221321 0 -0.32769326224381667 -0.1455087240973956 0 -0.33102430582003672 -0.15284086827415069 0 -0.32769326224381667 -0.1455087240973956 0 -0.33779330298695009 -0.14738175250870711 0 -0.34358479695372102 -0.13424926629292419 0 -0.32769326224381667 -0.1455087240973956 0 -0.33102430582003672 -0.15284086827415069 0 -0.33779330298695009 -0.14738175250870711 0 -0.33779330298695009 -0.14738175250870711 0 -0.34838845348846031 -0.14833884467229949 0 -0.33902784532518498 -0.15634369213364299 0 -0.33102430582003672 -0.15284086827415069 0 -0.33779330298695009 -0.14738175250870711 0 -0.33902784532518498 -0.15634369213364299 0 -0.33779330298695009 -0.14738175250870711 0 -0.34358479695372102 -0.13424926629292419 0 -0.34838845348846031 -0.14833884467229949 0 -0.32501708124079648 -0.13103464252731351 0 -0.32769326224381667 -0.1455087240973956 0 -0.34358479695372102 -0.13424926629292419 0 -0.33811662782018509 -0.1187149432167614 0 -0.32501708124079648 -0.13103464252731351 0 -0.34358479695372102 -0.13424926629292419 0 -0.32769326224381667 -0.1455087240973956 0 -0.34358479695372102 -0.13424926629292419 0 -0.33811662782018509 -0.1187149432167614 0 -0.36560935282136869 -0.1228770136391782 0 -0.34358479695372102 -0.13424926629292419 0 -0.36560935282136869 -0.1228770136391782 0 -0.34358479695372102 -0.13424926629292419 0 -0.35789225520722451 -0.13996819740399649 0 -0.36560935282136869 -0.1228770136391782 0 -0.37179133304014322 -0.14783430818272611 0 -0.38404989885292651 -0.1400792958384918 0 -0.36560935282136869 -0.1228770136391782 0 -0.37179133304014322 -0.14783430818272611 0 -0.36560935282136869 -0.1228770136391782 0 -0.35789225520722451 -0.13996819740399649 0 -0.37179133304014322 -0.14783430818272611 0 -0.35789225520722451 -0.13996819740399649 0 -0.37179133304014322 -0.14783430818272611 0 -0.35884313601860912 -0.15417852746750099 0 -0.35884313601860912 -0.15417852746750099 0 -0.34838845348846031 -0.14833884467229949 0 -0.34888414490412811 -0.1629439357986564 0 -0.35789225520722451 -0.13996819740399649 0 -0.35884313601860912 -0.15417852746750099 0 -0.34838845348846031 -0.14833884467229949 0 -0.34358479695372102 -0.13424926629292419 0 -0.35789225520722451 -0.13996819740399649 0 -0.34838845348846031 -0.14833884467229949 0 -0.34838845348846031 -0.14833884467229949 0 -0.34888414490412811 -0.1629439357986564 0 -0.33902784532518498 -0.15634369213364299 0 -0.34888414490412811 -0.1629439357986564 0 -0.34454825898434782 -0.17720191583282571 0 -0.33836769259919219 -0.1670464993373886 0 -0.34888414490412811 -0.1629439357986564 0 -0.35381843126239348 -0.1726746577785957 0 -0.34454825898434782 -0.17720191583282571 0 -0.34888414490412811 -0.1629439357986564 0 -0.36338268495294579 -0.16800377969191779 0 -0.35381843126239348 -0.1726746577785957 0 -0.35884313601860912 -0.15417852746750099 0 -0.34888414490412811 -0.1629439357986564 0 -0.36338268495294579 -0.16800377969191779 0 -0.37179133304014322 -0.14783430818272611 0 -0.37797331325891809 -0.17279160272627381 0 -0.37179133304014322 -0.14783430818272611 0 -0.35884313601860912 -0.15417852746750099 0 -0.36338268495294579 -0.16800377969191779 0 -0.37179133304014322 -0.14783430818272611 0 -0.36338268495294579 -0.16800377969191779 0 -0.37797331325891809 -0.17279160272627381 0 -0.36338268495294579 -0.16800377969191779 0 -0.37192204740575269 -0.18508240213403099 0 -0.3584586362081526 -0.18254899979098321 0 -0.36338268495294579 -0.16800377969191779 0 -0.37192204740575269 -0.18508240213403099 0 -0.37797331325891809 -0.17279160272627381 0 -0.36338268495294579 -0.16800377969191779 0 -0.3584586362081526 -0.18254899979098321 0 -0.35381843126239348 -0.1726746577785957 0 -0.3584586362081526 -0.18254899979098321 0 -0.35381843126239348 -0.1726746577785957 0 -0.34454825898434782 -0.17720191583282571 0 -0.3584586362081526 -0.18254899979098321 0 -0.34454825898434782 -0.17720191583282571 0 -0.34833703943659811 -0.1887712121410032 0 -0.34454825898434782 -0.17720191583282571 0 -0.33350934598544107 -0.1865060965460745 0 -0.34833703943659811 -0.1887712121410032 0 -0.33350934598544107 -0.1865060965460745 0 -0.33087698944707578 -0.17469400287398781 0 -0.32216648346267268 -0.18034048106893991 0 -0.34454825898434782 -0.17720191583282571 0 -0.33087698944707578 -0.17469400287398781 0 -0.33836769259919219 -0.1670464993373886 0 -0.34454825898434782 -0.17720191583282571 0 -0.33350934598544107 -0.1865060965460745 0 -0.33087698944707578 -0.17469400287398781 0 -0.34888414490412811 -0.1629439357986564 0 -0.33836769259919219 -0.1670464993373886 0 -0.33902784532518498 -0.15634369213364299 0 -0.33102430582003672 -0.15284086827415069 0 -0.33902784532518498 -0.15634369213364299 0 -0.32912678435276249 -0.16184097596254959 0 -0.33836769259919219 -0.1670464993373886 0 -0.33902784532518498 -0.15634369213364299 0 -0.32912678435276249 -0.16184097596254959 0 -0.33087698944707578 -0.17469400287398781 0 -0.33836769259919219 -0.1670464993373886 0 -0.32912678435276249 -0.16184097596254959 0 -0.33087698944707578 -0.17469400287398781 0 -0.32912678435276249 -0.16184097596254959 0 -0.31950806519550368 -0.16754549651764289 0 -0.32298463198440808 -0.15387446252221321 0 -0.32912678435276249 -0.16184097596254959 0 -0.31950806519550368 -0.16754549651764289 0 -0.31180172753391222 -0.15676818190186689 0 -0.32298463198440808 -0.15387446252221321 0 -0.31950806519550368 -0.16754549651764289 0 -0.31099079812705838 -0.16810657065420029 0 -0.31180172753391222 -0.15676818190186689 0 -0.31950806519550368 -0.16754549651764289 0 -0.31036357984341878 -0.17729064654437279 0 -0.31099079812705838 -0.16810657065420029 0 -0.31950806519550368 -0.16754549651764289 0 -0.31036357984341878 -0.17729064654437279 0 -0.31950806519550368 -0.16754549651764289 0 -0.32216648346267268 -0.18034048106893991 0 -0.31036357984341878 -0.17729064654437279 0 -0.32216648346267268 -0.18034048106893991 0 -0.3165744368419241 -0.19566616286262159 0 -0.33087698944707578 -0.17469400287398781 0 -0.31950806519550368 -0.16754549651764289 0 -0.32216648346267268 -0.18034048106893991 0 -0.33350934598544107 -0.1865060965460745 0 -0.32216648346267268 -0.18034048106893991 0 -0.3165744368419241 -0.19566616286262159 0 -0.3060605016315725 -0.21226103782782971 0 -0.33119636563188709 -0.2162143722161797 0 -0.32042736925848198 -0.22641527486886631 0 -0.3060605016315725 -0.21226103782782971 0 -0.33119636563188709 -0.2162143722161797 0 -0.3060605016315725 -0.21226103782782971 0 -0.3165744368419241 -0.19566616286262159 0 -0.33119636563188709 -0.2162143722161797 0 -0.33119636563188709 -0.2162143722161797 0 -0.34114977782823441 -0.19939383001625499 0 -0.35633222963220179 -0.22016770660452969 0 -0.3165744368419241 -0.19566616286262159 0 -0.33119636563188709 -0.2162143722161797 0 -0.34114977782823441 -0.19939383001625499 0 -0.3165744368419241 -0.19566616286262159 0 -0.34114977782823441 -0.19939383001625499 0 -0.33350934598544107 -0.1865060965460745 0 -0.3165744368419241 -0.19566616286262159 0 -0.34114977782823441 -0.19939383001625499 0 -0.33350934598544107 -0.1865060965460745 0 -0.34114977782823441 -0.19939383001625499 0 -0.34833703943659811 -0.1887712121410032 0 -0.34114977782823441 -0.19939383001625499 0 -0.36572511881454461 -0.20312149716988859 0 -0.34114977782823441 -0.19939383001625499 0 -0.34833703943659811 -0.1887712121410032 0 -0.36572511881454461 -0.20312149716988859 0 -0.3584586362081526 -0.18254899979098321 0 -0.34833703943659811 -0.1887712121410032 0 -0.36572511881454461 -0.20312149716988859 0 -0.37192204740575269 -0.18508240213403099 0 -0.3584586362081526 -0.18254899979098321 0 -0.36572511881454461 -0.20312149716988859 0 -0.37192204740575269 -0.18508240213403099 0 -0.36572511881454461 -0.20312149716988859 0 -0.37832751345100762 -0.19569708509895661 0 -0.36572511881454461 -0.20312149716988859 0 -0.35633222963220179 -0.22016770660452969 0 -0.37671868671049757 -0.21209106954761561 0 -0.33119636563188709 -0.2162143722161797 0 -0.35633222963220179 -0.22016770660452969 0 -0.34114977782823441 -0.19939383001625499 0 -0.36572511881454461 -0.20312149716988859 0 -0.35633222963220179 -0.22016770660452969 0 -0.34918985577357953 -0.22996643434813971 0 -0.35633222963220179 -0.22016770660452969 0 -0.3644368395520925 -0.23786219595255659 0 -0.33119636563188709 -0.2162143722161797 0 -0.34918985577357953 -0.22996643434813971 0 -0.35633222963220179 -0.22016770660452969 0 -0.35633222963220179 -0.22016770660452969 0 -0.38146809363251649 -0.22412104099287969 0 -0.35633222963220179 -0.22016770660452969 0 -0.37359243883566862 -0.23215909975287299 0 -0.3644368395520925 -0.23786219595255659 0 -0.35633222963220179 -0.22016770660452969 0 -0.37359243883566862 -0.23215909975287299 0 -0.38146809363251649 -0.22412104099287969 0 -0.35633222963220179 -0.22016770660452969 0 -0.38146809363251649 -0.22412104099287969 0 -0.37671868671049757 -0.21209106954761561 0 -0.36999160380854529 -0.25160890498862648 0 -0.3644368395520925 -0.23786219595255659 0 -0.37872015884544641 -0.2435614714605657 0 -0.37359243883566862 -0.23215909975287299 0 -0.3644368395520925 -0.23786219595255659 0 -0.37872015884544641 -0.2435614714605657 0 -0.36999160380854529 -0.25160890498862648 0 -0.3644368395520925 -0.23786219595255659 0 -0.35707845064694121 -0.24935767075674509 0 -0.34918985577357953 -0.22996643434813971 0 -0.3644368395520925 -0.23786219595255659 0 -0.35707845064694121 -0.24935767075674509 0 -0.34918985577357953 -0.22996643434813971 0 -0.35707845064694121 -0.24935767075674509 0 -0.34918985577357953 -0.22996643434813971 0 -0.35707845064694121 -0.24935767075674509 0 -0.34161545739809862 -0.2441761224370865 0 -0.32577683519746242 -0.25897579210934468 0 -0.34161545739809862 -0.2441761224370865 0 -0.32489287339017531 -0.23961736858555491 0 -0.34918985577357953 -0.22996643434813971 0 -0.34161545739809862 -0.2441761224370865 0 -0.33284956097644908 -0.23046395699114461 0 -0.34161545739809862 -0.2441761224370865 0 -0.33284956097644908 -0.23046395699114461 0 -0.32489287339017531 -0.23961736858555491 0 -0.33119636563188709 -0.2162143722161797 0 -0.34918985577357953 -0.22996643434813971 0 -0.33284956097644908 -0.23046395699114461 0 -0.33119636563188709 -0.2162143722161797 0 -0.33284956097644908 -0.23046395699114461 0 -0.32042736925848198 -0.22641527486886631 0 -0.3071375446623259 -0.2335196387236223 0 -0.32042736925848198 -0.22641527486886631 0 -0.32489287339017531 -0.23961736858555491 0 -0.33284956097644908 -0.23046395699114461 0 -0.32042736925848198 -0.22641527486886631 0 -0.32489287339017531 -0.23961736858555491 0 -0.3071375446623259 -0.2335196387236223 0 -0.31421725341188372 -0.24977587129631751 0 -0.32489287339017531 -0.23961736858555491 0 -0.32577683519746242 -0.25897579210934468 0 -0.31421725341188372 -0.24977587129631751 0 -0.32489287339017531 -0.23961736858555491 0 -0.429193077912078 -0.24092705066174019 0 -0.42560539866416353 -0.22692866047589191 0 -0.44336769959532257 -0.23972790925379969 0 -0.429193077912078 -0.24092705066174019 0 -0.42560539866416353 -0.22692866047589191 0 -0.41466813127082142 -0.24184035413310251 0 -0.42775875008346192 -0.25507980811954323 0 -0.429193077912078 -0.24092705066174019 0 -0.41466813127082142 -0.24184035413310251 0 -0.44165736388207272 -0.25360003737878889 0 -0.42775875008346192 -0.25507980811954323 0 -0.429193077912078 -0.24092705066174019 0 -0.42560539866416353 -0.22692866047589191 0 -0.43795718746300122 -0.2140778908121922 0 -0.44658841198271632 -0.22637890077404829 0 -0.42560539866416353 -0.22692866047589191 0 -0.41054768849444062 -0.2248275857939297 0 -0.41466813127082142 -0.24184035413310251 0 -0.42560539866416353 -0.22692866047589191 0 -0.41054768849444062 -0.2248275857939297 0 -0.41728712034711612 -0.21094258822191489 0 -0.42560539866416353 -0.22692866047589191 0 -0.41728712034711612 -0.21094258822191489 0 -0.41054768849444062 -0.2248275857939297 0 -0.41466813127082142 -0.24184035413310251 0 -0.39796822484346261 -0.23652916605093899 0 -0.40220594800304021 -0.25293233307518609 0 -0.39796822484346261 -0.23652916605093899 0 -0.39442967684708991 -0.25208667127465478 0 -0.39796822484346261 -0.23652916605093899 0 -0.38700487251608578 -0.2350830837538336 0 -0.40220594800304021 -0.25293233307518609 0 -0.41466813127082142 -0.24184035413310251 0 -0.39796822484346261 -0.23652916605093899 0 -0.39442967684708991 -0.25208667127465478 0 -0.38700487251608578 -0.2350830837538336 0 -0.37872015884544641 -0.2435614714605657 0 -0.37359243883566862 -0.23215909975287299 0 -0.38700487251608578 -0.2350830837538336 0 -0.37872015884544641 -0.2435614714605657 0 -0.37359243883566862 -0.23215909975287299 0 -0.38700487251608578 -0.2350830837538336 0 -0.38146809363251649 -0.22412104099287969 0 -0.38700487251608578 -0.2350830837538336 0 -0.38146809363251649 -0.22412104099287969 0 -0.39413434232215888 -0.2216891651872302 0 -0.38146809363251649 -0.22412104099287969 0 -0.39413434232215888 -0.2216891651872302 0 -0.38565539561650702 -0.2161876100128117 0 -0.41054768849444062 -0.2248275857939297 0 -0.39796822484346261 -0.23652916605093899 0 -0.39720956734663881 -0.20789716008779879 0 -0.39796822484346261 -0.23652916605093899 0 -0.39413434232215888 -0.2216891651872302 0 -0.39720956734663881 -0.20789716008779879 0 -0.39796822484346261 -0.23652916605093899 0 -0.39720956734663881 -0.20789716008779879 0 -0.39796822484346261 -0.23652916605093899 0 -0.38700487251608578 -0.2350830837538336 0 -0.39413434232215888 -0.2216891651872302 0 -0.39796822484346261 -0.23652916605093899 0 -0.39413434232215888 -0.2216891651872302 0 -0.39720956734663881 -0.20789716008779879 0 -0.40277518483810348 -0.20053664405661509 0 -0.41728712034711612 -0.21094258822191489 0 -0.39720956734663881 -0.20789716008779879 0 -0.39030045980085482 -0.20684916432352149 0 -0.39413434232215888 -0.2216891651872302 0 -0.39720956734663881 -0.20789716008779879 0 -0.39030045980085482 -0.20684916432352149 0 -0.39413434232215888 -0.2216891651872302 0 -0.39030045980085482 -0.20684916432352149 0 -0.36572511881454461 -0.20312149716988859 0 -0.39030045980085482 -0.20684916432352149 0 -0.39413434232215888 -0.2216891651872302 0 -0.38565539561650702 -0.2161876100128117 0 -0.39030045980085482 -0.20684916432352149 0 -0.38565539561650702 -0.2161876100128117 0 -0.39030045980085482 -0.20684916432352149 0 -0.37671868671049757 -0.21209106954761561 0 -0.36572511881454461 -0.20312149716988859 0 -0.39030045980085482 -0.20684916432352149 0 -0.37671868671049757 -0.21209106954761561 0 -0.38146809363251649 -0.22412104099287969 0 -0.38565539561650702 -0.2161876100128117 0 -0.37671868671049757 -0.21209106954761561 0 -0.39030045980085482 -0.20684916432352149 0 -0.38536242778287788 -0.1877352767683855 0 -0.39030045980085482 -0.20684916432352149 0 -0.37832751345100762 -0.19569708509895661 0 -0.38536242778287788 -0.1877352767683855 0 -0.36572511881454461 -0.20312149716988859 0 -0.39030045980085482 -0.20684916432352149 0 -0.37832751345100762 -0.19569708509895661 0 -0.37192204740575269 -0.18508240213403099 0 -0.37832751345100762 -0.19569708509895661 0 -0.38536242778287788 -0.1877352767683855 0 -0.39030045980085482 -0.20684916432352149 0 -0.38536242778287788 -0.1877352767683855 0 -0.39682758983152833 -0.1934811917008569 0 -0.39720956734663881 -0.20789716008779879 0 -0.39682758983152833 -0.1934811917008569 0 -0.39720956734663881 -0.20789716008779879 0 -0.39030045980085482 -0.20684916432352149 0 -0.39682758983152833 -0.1934811917008569 0 -0.39720956734663881 -0.20789716008779879 0 -0.39682758983152833 -0.1934811917008569 0 -0.40277518483810348 -0.20053664405661509 0 -0.39682758983152833 -0.1934811917008569 0 -0.40277518483810348 -0.20053664405661509 0 -0.40786839632368732 -0.19284167875001809 0 -0.40786839632368732 -0.19284167875001809 0 -0.42071188954671479 -0.1977783538484196 0 -0.41728712034711612 -0.21094258822191489 0 -0.40277518483810348 -0.20053664405661509 0 -0.40786839632368732 -0.19284167875001809 0 -0.41728712034711612 -0.21094258822191489 0 -0.40786839632368732 -0.19284167875001809 0 -0.41728712034711612 -0.21094258822191489 0 -0.40786839632368732 -0.19284167875001809 0 -0.42071188954671479 -0.1977783538484196 0 -0.41781993309639348 -0.18473776223631169 0 -0.39720956734663881 -0.20789716008779879 0 -0.41728712034711612 -0.21094258822191489 0 -0.41054768849444062 -0.2248275857939297 0 -0.39720956734663881 -0.20789716008779879 0 -0.41728712034711612 -0.21094258822191489 0 -0.41728712034711612 -0.21094258822191489 0 -0.43042781253814327 -0.20309513998401429 0 -0.43795718746300122 -0.2140778908121922 0 -0.41728712034711612 -0.21094258822191489 0 -0.43795718746300122 -0.2140778908121922 0 -0.42071188954671479 -0.1977783538484196 0 -0.41728712034711612 -0.21094258822191489 0 -0.43042781253814327 -0.20309513998401429 0 -0.42560539866416353 -0.22692866047589191 0 -0.41728712034711612 -0.21094258822191489 0 -0.43795718746300122 -0.2140778908121922 0 -0.43042781253814327 -0.20309513998401429 0 -0.43110417706379089 -0.19272761716818959 0 -0.44507868827009389 -0.1999492498693555 0 -0.42071188954671479 -0.1977783538484196 0 -0.43110417706379089 -0.19272761716818959 0 -0.41781993309639348 -0.18473776223631169 0 -0.42071188954671479 -0.1977783538484196 0 -0.43042781253814327 -0.20309513998401429 0 -0.43110417706379089 -0.19272761716818959 0 -0.43179072736577528 -0.17970529711169 0 -0.42986163711504638 -0.16701354152048811 0 -0.41699473597813752 -0.17063285726143029 0 -0.43179072736577528 -0.17970529711169 0 -0.41699473597813752 -0.17063285726143029 0 -0.41781993309639348 -0.18473776223631169 0 -0.43110417706379089 -0.19272761716818959 0 -0.43179072736577528 -0.17970529711169 0 -0.41781993309639348 -0.18473776223631169 0 -0.43110417706379089 -0.19272761716818959 0 -0.43179072736577528 -0.17970529711169 0 -0.44559792516655838 -0.1851633886427331 0 -0.43179072736577528 -0.17970529711169 0 -0.42986163711504638 -0.16701354152048811 0 -0.44303700991658518 -0.17026832712875151 0 -0.42986163711504638 -0.16701354152048811 0 -0.43823455075000578 -0.15580669622701629 0 -0.44303700991658518 -0.17026832712875151 0 -0.42986163711504638 -0.16701354152048811 0 -0.41699473597813752 -0.17063285726143029 0 -0.41985581490816198 -0.154444998856094 0 -0.42986163711504638 -0.16701354152048811 0 -0.41985581490816198 -0.154444998856094 0 -0.43823455075000578 -0.15580669622701629 0 -0.41699473597813752 -0.17063285726143029 0 -0.39844967230025591 -0.17474076927812279 0 -0.4045200176128938 -0.16008114399198281 0 -0.41699473597813752 -0.17063285726143029 0 -0.4045200176128938 -0.16008114399198281 0 -0.41985581490816198 -0.154444998856094 0 -0.41699473597813752 -0.17063285726143029 0 -0.41781993309639348 -0.18473776223631169 0 -0.39844967230025591 -0.17474076927812279 0 -0.40786839632368732 -0.19284167875001809 0 -0.41781993309639348 -0.18473776223631169 0 -0.39844967230025591 -0.17474076927812279 0 -0.40786839632368732 -0.19284167875001809 0 -0.39844967230025591 -0.17474076927812279 0 -0.39682758983152833 -0.1934811917008569 0 -0.40786839632368732 -0.19284167875001809 0 -0.39844967230025591 -0.17474076927812279 0 -0.38536242778287788 -0.1877352767683855 0 -0.39682758983152833 -0.1934811917008569 0 -0.39844967230025591 -0.17474076927812279 0 -0.38536242778287788 -0.1877352767683855 0 -0.39844967230025591 -0.17474076927812279 0 -0.37797331325891809 -0.17279160272627381 0 -0.37192204740575269 -0.18508240213403099 0 -0.38536242778287788 -0.1877352767683855 0 -0.37797331325891809 -0.17279160272627381 0 -0.37179133304014322 -0.14783430818272611 0 -0.37797331325891809 -0.17279160272627381 0 -0.38903094827682438 -0.15663985980622741 0 -0.39844967230025591 -0.17474076927812279 0 -0.37797331325891809 -0.17279160272627381 0 -0.38903094827682438 -0.15663985980622741 0 -0.39844967230025591 -0.17474076927812279 0 -0.38903094827682438 -0.15663985980622741 0 -0.39844967230025591 -0.17474076927812279 0 -0.38903094827682438 -0.15663985980622741 0 -0.4045200176128938 -0.16008114399198281 0 -0.38903094827682438 -0.15663985980622741 0 -0.4045200176128938 -0.16008114399198281 0 -0.39938536477583741 -0.14370127207381619 0 -0.38903094827682438 -0.15663985980622741 0 -0.39938536477583741 -0.14370127207381619 0 -0.38404989885292651 -0.1400792958384918 0 -0.37179133304014322 -0.14783430818272611 0 -0.38903094827682438 -0.15663985980622741 0 -0.38404989885292651 -0.1400792958384918 0 -0.36560935282136869 -0.1228770136391782 0 -0.38404989885292651 -0.1400792958384918 0 -0.38887223831657869 -0.12639873684615319 0 -0.38887223831657869 -0.12639873684615319 0 -0.41213512381178841 -0.1299204600531296 0 -0.39938536477583741 -0.14370127207381619 0 -0.38887223831657869 -0.12639873684615319 0 -0.41213512381178841 -0.1299204600531296 0 -0.39938536477583741 -0.14370127207381619 0 -0.38404989885292651 -0.1400792958384918 0 -0.38887223831657869 -0.12639873684615319 0 -0.4045200176128938 -0.16008114399198281 0 -0.39938536477583741 -0.14370127207381619 0 -0.41985581490816198 -0.154444998856094 0 -0.39938536477583741 -0.14370127207381619 0 -0.41213512381178841 -0.1299204600531296 0 -0.41985581490816198 -0.154444998856094 0 -0.41985581490816198 -0.154444998856094 0 -0.43539800930699801 -0.1334421832601059 0 -0.43823455075000578 -0.15580669622701629 0 -0.41213512381178841 -0.1299204600531296 0 -0.41985581490816198 -0.154444998856094 0 -0.43539800930699801 -0.1334421832601059 0 -0.41213512381178841 -0.1299204600531296 0 -0.43539800930699801 -0.1334421832601059 0 -0.43259539229225402 -0.1157747654031315 0 -0.41213512381178841 -0.1299204600531296 0 -0.43539800930699801 -0.1334421832601059 0 -0.43539800930699801 -0.1334421832601059 0 -0.45866089480220767 -0.1369639064670822 0 -0.45113905152447542 -0.1175368028588321 0 -0.43539800930699801 -0.1334421832601059 0 -0.44775450515208032 -0.1461386934312979 0 -0.45866089480220767 -0.1369639064670822 0 -0.43539800930699801 -0.1334421832601059 0 -0.45866089480220767 -0.1369639064670822 0 -0.44775450515208032 -0.1461386934312979 0 -0.43823455075000578 -0.15580669622701629 0 -0.45633895227784033 -0.1576945794699274 0 -0.43539800930699801 -0.1334421832601059 0 -0.44775450515208032 -0.1461386934312979 0 -0.43823455075000578 -0.15580669622701629 0 -0.44775450515208032 -0.1461386934312979 0 -0.45866089480220767 -0.1369639064670822 0 -0.45633895227784033 -0.1576945794699274 0 -0.45866089480220767 -0.1369639064670822 0 -0.47575659097790751 -0.15007175010341289 0 -0.45633895227784033 -0.1576945794699274 0 -0.45866089480220767 -0.1369639064670822 0 -0.47575659097790751 -0.15007175010341289 0 -0.46915934665662162 -0.1230624738371303 0 -0.45866089480220767 -0.1369639064670822 0 -0.45113905152447542 -0.1175368028588321 0 -0.46915934665662162 -0.1230624738371303 0 -0.47575659097790751 -0.15007175010341289 0 -0.46915934665662162 -0.1230624738371303 0 -0.48351137830779539 -0.13386722315158131 0 -0.47575659097790751 -0.15007175010341289 0 -0.46915934665662162 -0.1230624738371303 0 -0.48351137830779539 -0.13386722315158131 0 -0.5 -0.12673639045435739 0 -0.5 -0.15610943167098409 0 -0.48351137830779539 -0.13386722315158131 0 -0.5 -0.15610943167098409 0 -0.47575659097790751 -0.15007175010341289 0 -0.47575659097790751 -0.15007175010341289 0 -0.4823538352991934 -0.17708102636969561 0 -0.47575659097790751 -0.15007175010341289 0 -0.46899934294491291 -0.16540597077255109 0 -0.4823538352991934 -0.17708102636969561 0 -0.5 -0.15610943167098409 0 -0.47575659097790751 -0.15007175010341289 0 -0.4823538352991934 -0.17708102636969561 0 -0.5 -0.15610943167098409 0 -0.49999999999999722 -0.18548247288761069 0 -0.4823538352991934 -0.17708102636969561 0 -0.4823538352991934 -0.17708102636969561 0 -0.46154799322471052 -0.17677652714716849 0 -0.47332956926376563 -0.19085067910818809 0 -0.46899934294491291 -0.16540597077255109 0 -0.4823538352991934 -0.17708102636969561 0 -0.46154799322471052 -0.17677652714716849 0 -0.46154799322471052 -0.17677652714716849 0 -0.44559792516655838 -0.1851633886427331 0 -0.46102895515839498 -0.19155331343124329 0 -0.46154799322471052 -0.17677652714716849 0 -0.46102895515839498 -0.19155331343124329 0 -0.47332956926376563 -0.19085067910818809 0 -0.46899934294491291 -0.16540597077255109 0 -0.46154799322471052 -0.17677652714716849 0 -0.45633895227784033 -0.1576945794699274 0 -0.47575659097790751 -0.15007175010341289 0 -0.46899934294491291 -0.16540597077255109 0 -0.45633895227784033 -0.1576945794699274 0 -0.46154799322471052 -0.17677652714716849 0 -0.45633895227784033 -0.1576945794699274 0 -0.44303700991658518 -0.17026832712875151 0 -0.43823455075000578 -0.15580669622701629 0 -0.45633895227784033 -0.1576945794699274 0 -0.44303700991658518 -0.17026832712875151 0 -0.46154799322471052 -0.17677652714716849 0 -0.44303700991658518 -0.17026832712875151 0 -0.44559792516655838 -0.1851633886427331 0 -0.43179072736577528 -0.17970529711169 0 -0.44303700991658518 -0.17026832712875151 0 -0.44559792516655838 -0.1851633886427331 0 -0.44559792516655838 -0.1851633886427331 0 -0.44507868827009389 -0.1999492498693555 0 -0.46102895515839498 -0.19155331343124329 0 -0.43110417706379089 -0.19272761716818959 0 -0.44559792516655838 -0.1851633886427331 0 -0.44507868827009389 -0.1999492498693555 0 -0.44507868827009389 -0.1999492498693555 0 -0.43795718746300122 -0.2140778908121922 0 -0.4586272545788867 -0.21721319340246781 0 -0.43042781253814327 -0.20309513998401429 0 -0.44507868827009389 -0.1999492498693555 0 -0.43795718746300122 -0.2140778908121922 0 -0.43795718746300122 -0.2140778908121922 0 -0.4586272545788867 -0.21721319340246781 0 -0.4586272545788867 -0.21721319340246781 0 -0.46102895515839498 -0.19155331343124329 0 -0.47276598301604827 -0.20475222595685469 0 -0.44507868827009389 -0.1999492498693555 0 -0.4586272545788867 -0.21721319340246781 0 -0.46102895515839498 -0.19155331343124329 0 -0.47332956926376563 -0.19085067910818809 0 -0.48895107962048001 -0.20409030263597791 0 -0.47276598301604827 -0.20475222595685469 0 -0.4823538352991934 -0.17708102636969561 0 -0.47332956926376563 -0.19085067910818809 0 -0.48895107962048001 -0.20409030263597791 0 -0.46102895515839498 -0.19155331343124329 0 -0.47332956926376563 -0.19085067910818809 0 -0.47276598301604827 -0.20475222595685469 0 -0.4823538352991934 -0.17708102636969561 0 -0.48895107962048001 -0.20409030263597791 0 -0.49999999999999722 -0.18548247288761069 0 -0.48895107962048001 -0.20409030263597791 0 -0.49999999999999722 -0.18548247288761069 0 -0.5 -0.2044856090206181 0 -0.48895107962048001 -0.20409030263597791 0 -0.49999999999999722 -0.18548247288761069 0 -0.4823538352991934 -0.17708102636969561 0 -0.48895107962048001 -0.20409030263597791 0 -0.5 -0.2044856090206181 0 -0.500000000000002 -0.2234887451536256 0 -0.49344650703865789 -0.22249469015893941 0 -0.5 -0.2044856090206181 0 -0.48895107962048001 -0.20409030263597791 0 -0.49344650703865789 -0.22249469015893941 0 -0.48895107962048001 -0.20409030263597791 0 -0.47929732169477218 -0.22034849599274231 0 -0.49344650703865789 -0.22249469015893941 0 -0.48895107962048001 -0.20409030263597791 0 -0.49344650703865789 -0.22249469015893941 0 -0.48895107962048001 -0.20409030263597791 0 -0.47276598301604827 -0.20475222595685469 0 -0.47929732169477218 -0.22034849599274231 0 -0.48895107962048001 -0.20409030263597791 0 -0.47929732169477218 -0.22034849599274231 0 -0.4586272545788867 -0.21721319340246781 0 -0.47276598301604827 -0.20475222595685469 0 -0.47929732169477218 -0.22034849599274231 0 -0.4586272545788867 -0.21721319340246781 0 -0.47929732169477218 -0.22034849599274231 0 -0.47929732169477218 -0.22034849599274231 0 -0.48416686203858311 -0.23469505857438669 0 -0.46465652818918263 -0.24483730068029039 0 -0.47929732169477218 -0.22034849599274231 0 -0.46465652818918263 -0.24483730068029039 0 -0.47929732169477218 -0.22034849599274231 0 -0.49344650703865789 -0.22249469015893941 0 -0.47929732169477218 -0.22034849599274231 0 -0.49344650703865789 -0.22249469015893941 0 -0.48416686203858311 -0.23469505857438669 0 -0.49344650703865789 -0.22249469015893941 0 -0.49730382647131183 -0.23828664830542051 0 -0.48416686203858311 -0.23469505857438669 0 -0.500000000000002 -0.2234887451536256 0 -0.49344650703865789 -0.22249469015893941 0 -0.49730382647131183 -0.23828664830542051 0 -0.49344650703865789 -0.22249469015893941 0 -0.49730382647131183 -0.23828664830542051 0 -0.500000000000002 -0.2234887451536256 0 -0.49344650703865789 -0.22249469015893941 0 -0.5 -0.25150281007534703 0 -0.500000000000002 -0.2234887451536256 0 -0.49730382647131183 -0.23828664830542051 0 -0.5 -0.25150281007534703 0 -0.49730382647131183 -0.23828664830542051 0 -0.48570939693172899 -0.24902992718248729 0 -0.49730382647131183 -0.23828664830542051 0 -0.48570939693172899 -0.24902992718248729 0 -0.48416686203858311 -0.23469505857438669 0 -0.48570939693172899 -0.24902992718248729 0 -0.48416686203858311 -0.23469505857438669 0 -0.46465652818918263 -0.24483730068029039 0 -0.4586272545788867 -0.21721319340246781 0 -0.47929732169477218 -0.22034849599274231 0 -0.46465652818918263 -0.24483730068029039 0 -0.4586272545788867 -0.21721319340246781 0 -0.46465652818918263 -0.24483730068029039 0 -0.44658841198271632 -0.22637890077404829 0 -0.43795718746300122 -0.2140778908121922 0 -0.4586272545788867 -0.21721319340246781 0 -0.44658841198271632 -0.22637890077404829 0 -0.42560539866416353 -0.22692866047589191 0 -0.44658841198271632 -0.22637890077404829 0 -0.44336769959532257 -0.23972790925379969 0 -0.46465652818918263 -0.24483730068029039 0 -0.44658841198271632 -0.22637890077404829 0 -0.44336769959532257 -0.23972790925379969 0 -0.44165736388207272 -0.25360003737878889 0 -0.46465652818918263 -0.24483730068029039 0 -0.44336769959532257 -0.23972790925379969 0 -0.44165736388207272 -0.25360003737878889 0 -0.429193077912078 -0.24092705066174019 0 -0.44336769959532257 -0.23972790925379969 0 -0.41631059699689099 -0.042084497863468198 0 -0.41965755993826598 -0.033894451920331033 0 -0.42761534325808798 -0.038876017594557971 0 -0.41631059699689099 -0.042084497863468198 0 -0.41965755993826598 -0.033894451920331033 0 -0.41128163845263888 -0.036426639289896208 0 -0.41965755993826598 -0.033894451920331033 0 -0.41128163845263888 -0.036426639289896208 0 -0.41258462043609562 -0.025993866725156231 0 -0.41128163845263888 -0.036426639289896208 0 -0.40704563849368902 -0.043093498236160592 0 -0.40124408047313331 -0.037519640608623422 0 -0.41128163845263888 -0.036426639289896208 0 -0.41258462043609562 -0.025993866725156231 0 -0.40124408047313331 -0.037519640608623422 0 -0.41631059699689099 -0.042084497863468198 0 -0.40704563849368902 -0.043093498236160592 0 -0.41300523529446281 -0.049717993690613083 0 -0.41631059699689099 -0.042084497863468198 0 -0.41128163845263888 -0.036426639289896208 0 -0.40704563849368902 -0.043093498236160592 0 -0.40704563849368902 -0.043093498236160592 0 -0.41300523529446281 -0.049717993690613083 0 -0.40411610338443682 -0.050557450003133962 0 -0.41300523529446281 -0.049717993690613083 0 -0.41414033076402768 -0.061585207313392322 0 -0.40411610338443682 -0.050557450003133962 0 -0.41300523529446281 -0.049717993690613083 0 -0.41414033076402768 -0.061585207313392322 0 -0.42341350683326928 -0.051269315036910318 0 -0.41631059699689099 -0.042084497863468198 0 -0.41300523529446281 -0.049717993690613083 0 -0.42341350683326928 -0.051269315036910318 0 -0.41414033076402768 -0.061585207313392322 0 -0.42341350683326928 -0.051269315036910318 0 -0.43505259438904009 -0.065314564308975948 0 -0.42341350683326928 -0.051269315036910318 0 -0.43594560852523878 -0.049663465434261311 0 -0.43505259438904009 -0.065314564308975948 0 -0.43594560852523878 -0.049663465434261311 0 -0.42761534325808798 -0.038876017594557971 0 -0.44052059365423879 -0.038318026972638523 0 -0.42341350683326928 -0.051269315036910318 0 -0.43594560852523878 -0.049663465434261311 0 -0.42761534325808798 -0.038876017594557971 0 -0.41631059699689099 -0.042084497863468198 0 -0.42341350683326928 -0.051269315036910318 0 -0.42761534325808798 -0.038876017594557971 0 -0.41965755993826598 -0.033894451920331033 0 -0.42761534325808798 -0.038876017594557971 0 -0.43049560054761637 -0.026091238128576531 0 -0.42761534325808798 -0.038876017594557971 0 -0.43049560054761637 -0.026091238128576531 0 -0.44052059365423879 -0.038318026972638523 0 -0.43049560054761637 -0.026091238128576531 0 -0.42123606753034548 -0.0078521834473191492 0 -0.44016826678282051 -0.008282799190680902 0 -0.42123606753034548 -0.0078521834473191492 0 -0.41258462043609562 -0.025993866725156231 0 -0.40359645288427559 -0.01255273007959058 0 -0.42123606753034548 -0.0078521834473191492 0 -0.40359645288427559 -0.01255273007959058 0 -0.411842978763718 0.0071810696113592566 0 -0.43049560054761637 -0.026091238128576531 0 -0.42123606753034548 -0.0078521834473191492 0 -0.41258462043609562 -0.025993866725156231 0 -0.41965755993826598 -0.033894451920331033 0 -0.43049560054761637 -0.026091238128576531 0 -0.41258462043609562 -0.025993866725156231 0 -0.41258462043609562 -0.025993866725156231 0 -0.40359645288427559 -0.01255273007959058 0 -0.40124408047313331 -0.037519640608623422 0 -0.40359645288427559 -0.01255273007959058 0 -0.39764058419755538 -0.038576012957609408 0 -0.40124408047313331 -0.037519640608623422 0 -0.40359645288427559 -0.01255273007959058 0 -0.38932648706987377 -0.013730584936831609 0 -0.38650677435962982 -0.026234410340964749 0 -0.40359645288427559 -0.01255273007959058 0 -0.38650677435962982 -0.026234410340964749 0 -0.39764058419755538 -0.038576012957609408 0 -0.40359645288427559 -0.01255273007959058 0 -0.39764058419755538 -0.038576012957609408 0 -0.40359645288427559 -0.01255273007959058 0 -0.411842978763718 0.0071810696113592566 0 -0.39856960861661739 0.0046729487720050386 0 -0.40359645288427559 -0.01255273007959058 0 -0.39149303023403142 -0.005335277537219363 0 -0.39856960861661739 0.0046729487720050386 0 -0.40359645288427559 -0.01255273007959058 0 -0.39149303023403142 -0.005335277537219363 0 -0.38932648706987377 -0.013730584936831609 0 -0.39149303023403142 -0.005335277537219363 0 -0.38087232901863782 -0.0095024514541764069 0 -0.38510027358075227 0.0044364300124967379 0 -0.39149303023403142 -0.005335277537219363 0 -0.38932648706987377 -0.013730584936831609 0 -0.38087232901863782 -0.0095024514541764069 0 -0.38932648706987377 -0.013730584936831609 0 -0.38087232901863782 -0.0095024514541764069 0 -0.38186988518864651 -0.018280442328540609 0 -0.37719726677334758 -0.010782784077609161 0 -0.38087232901863782 -0.0095024514541764069 0 -0.38186988518864651 -0.018280442328540609 0 -0.37719726677334758 -0.010782784077609161 0 -0.38087232901863782 -0.0095024514541764069 0 -0.37719726677334758 -0.010782784077609161 0 -0.38510027358075227 0.0044364300124967379 0 -0.37145675818362223 0.001704133189072726 0 -0.37719726677334758 -0.010782784077609161 0 -0.38510027358075227 0.0044364300124967379 0 -0.37719726677334758 -0.010782784077609161 0 -0.38087232901863782 -0.0095024514541764069 0 -0.38510027358075227 0.0044364300124967379 0 -0.36684988365240911 -0.03070925546092473 0 -0.38650677435962982 -0.026234410340964749 0 -0.38186988518864651 -0.018280442328540609 0 -0.36684988365240911 -0.03070925546092473 0 -0.37719726677334758 -0.010782784077609161 0 -0.38186988518864651 -0.018280442328540609 0 -0.38932648706987377 -0.013730584936831609 0 -0.38650677435962982 -0.026234410340964749 0 -0.38186988518864651 -0.018280442328540609 0 -0.36684988365240911 -0.03070925546092473 0 -0.38650677435962982 -0.026234410340964749 0 -0.37707154236451451 -0.044605869900925722 0 -0.38650677435962982 -0.026234410340964749 0 -0.37707154236451451 -0.044605869900925722 0 -0.39764058419755538 -0.038576012957609408 0 -0.37707154236451451 -0.044605869900925722 0 -0.39764058419755538 -0.038576012957609408 0 -0.39764058419755538 -0.038576012957609408 0 -0.40065489473756588 -0.045520490424667083 0 -0.40124408047313331 -0.037519640608623422 0 -0.40704563849368902 -0.043093498236160592 0 -0.40065489473756588 -0.045520490424667083 0 -0.40124408047313331 -0.037519640608623422 0 -0.40704563849368902 -0.043093498236160592 0 -0.40065489473756588 -0.045520490424667083 0 -0.40411610338443682 -0.050557450003133962 0 -0.39764058419755538 -0.038576012957609408 0 -0.40124408047313331 -0.037519640608623422 0 -0.39764058419755538 -0.038576012957609408 0 -0.40065489473756588 -0.045520490424667083 0 -0.39322806713901498 -0.057855850317809959 0 -0.41414033076402768 -0.061585207313392322 0 -0.39322806713901498 -0.057855850317809959 0 -0.40444542418072821 -0.066780626888537295 0 -0.41414033076402768 -0.061585207313392322 0 -0.40411610338443682 -0.050557450003133962 0 -0.39322806713901498 -0.057855850317809959 0 -0.39764058419755538 -0.038576012957609408 0 -0.39322806713901498 -0.057855850317809959 0 -0.41414033076402768 -0.061585207313392322 0 -0.39322806713901498 -0.057855850317809959 0 -0.40065489473756588 -0.045520490424667083 0 -0.40411610338443682 -0.050557450003133962 0 -0.39322806713901498 -0.057855850317809959 0 -0.37470589733927712 -0.0545527271000322 0 -0.39322806713901498 -0.057855850317809959 0 -0.37470589733927712 -0.0545527271000322 0 -0.37707154236451451 -0.044605869900925722 0 -0.39322806713901498 -0.057855850317809959 0 -0.37707154236451451 -0.044605869900925722 0 -0.39764058419755538 -0.038576012957609408 0 -0.39322806713901498 -0.057855850317809959 0 -0.37470589733927712 -0.0545527271000322 0 -0.39322806713901498 -0.057855850317809959 0 -0.3838397651565123 -0.062625659154805113 0 -0.37470589733927712 -0.0545527271000322 0 -0.37683012181080239 -0.068733301298065499 0 -0.3838397651565123 -0.062625659154805113 0 -0.39322806713901498 -0.057855850317809959 0 -0.3838397651565123 -0.062625659154805113 0 -0.39059497433695439 -0.069360757903312753 0 -0.37683012181080239 -0.068733301298065499 0 -0.3838397651565123 -0.062625659154805113 0 -0.39059497433695439 -0.069360757903312753 0 -0.39059497433695439 -0.069360757903312753 0 -0.3750868287242039 -0.083945666598845156 0 -0.37683012181080239 -0.068733301298065499 0 -0.39059497433695439 -0.069360757903312753 0 -0.3750868287242039 -0.083945666598845156 0 -0.39059497433695439 -0.069360757903312753 0 -0.38574124546072602 -0.090568404714108222 0 -0.3750868287242039 -0.083945666598845156 0 -0.39059497433695439 -0.069360757903312753 0 -0.38574124546072602 -0.090568404714108222 0 -0.37338072534044958 -0.1015395423542827 0 -0.38574124546072602 -0.090568404714108222 0 -0.3750868287242039 -0.083945666598845156 0 -0.39059497433695439 -0.069360757903312753 0 -0.38574124546072602 -0.090568404714108222 0 -0.39722678832591729 -0.08549102947411294 0 -0.38574124546072602 -0.090568404714108222 0 -0.39722678832591729 -0.08549102947411294 0 -0.39016591446444671 -0.1027403174982935 0 -0.39722678832591729 -0.08549102947411294 0 -0.40358704082088931 -0.10183248075400859 0 -0.40955223446300359 -0.086375659296802715 0 -0.39722678832591729 -0.08549102947411294 0 -0.40456307765117672 -0.076708553120630463 0 -0.40955223446300359 -0.086375659296802715 0 -0.39722678832591729 -0.08549102947411294 0 -0.40456307765117672 -0.076708553120630463 0 -0.39841612749299532 -0.072664694729402735 0 -0.40456307765117672 -0.076708553120630463 0 -0.40444542418072821 -0.066780626888537295 0 -0.39841612749299532 -0.072664694729402735 0 -0.39059497433695439 -0.069360757903312753 0 -0.39722678832591729 -0.08549102947411294 0 -0.39841612749299532 -0.072664694729402735 0 -0.40444542418072821 -0.066780626888537295 0 -0.39525037297019971 -0.064982506260420264 0 -0.39841612749299532 -0.072664694729402735 0 -0.39059497433695439 -0.069360757903312753 0 -0.39525037297019971 -0.064982506260420264 0 -0.39841612749299532 -0.072664694729402735 0 -0.39322806713901498 -0.057855850317809959 0 -0.39059497433695439 -0.069360757903312753 0 -0.39525037297019971 -0.064982506260420264 0 -0.39322806713901498 -0.057855850317809959 0 -0.40444542418072821 -0.066780626888537295 0 -0.39525037297019971 -0.064982506260420264 0 -0.39322806713901498 -0.057855850317809959 0 -0.39059497433695439 -0.069360757903312753 0 -0.39059497433695439 -0.069360757903312753 0 -0.39525037297019971 -0.064982506260420264 0 -0.36560935282136869 -0.1228770136391782 0 -0.38887223831657869 -0.12639873684615319 0 -0.38887223831657869 -0.12639873684615319 0 -0.38088751658449588 -0.11177605152490321 0 -0.39861419104112761 -0.1141217052544175 0 -0.38088751658449588 -0.11177605152490321 0 -0.39016591446444671 -0.1027403174982935 0 -0.39861419104112761 -0.1141217052544175 0 -0.36560935282136869 -0.1228770136391782 0 -0.38887223831657869 -0.12639873684615319 0 -0.38088751658449588 -0.11177605152490321 0 -0.38574124546072602 -0.090568404714108222 0 -0.38088751658449588 -0.11177605152490321 0 -0.38574124546072602 -0.090568404714108222 0 -0.38088751658449588 -0.11177605152490321 0 -0.39016591446444671 -0.1027403174982935 0 -0.37338072534044958 -0.1015395423542827 0 -0.38574124546072602 -0.090568404714108222 0 -0.38088751658449588 -0.11177605152490321 0 -0.40358704082088931 -0.10183248075400859 0 -0.39861419104112761 -0.1141217052544175 0 -0.4160373122485671 -0.1120621848500169 0 -0.39722678832591729 -0.08549102947411294 0 -0.39016591446444671 -0.1027403174982935 0 -0.40358704082088931 -0.10183248075400859 0 -0.39016591446444671 -0.1027403174982935 0 -0.40358704082088931 -0.10183248075400859 0 -0.39861419104112761 -0.1141217052544175 0 -0.38887223831657869 -0.12639873684615319 0 -0.41213512381178841 -0.1299204600531296 0 -0.39861419104112761 -0.1141217052544175 0 -0.41213512381178841 -0.1299204600531296 0 -0.39861419104112761 -0.1141217052544175 0 -0.4160373122485671 -0.1120621848500169 0 -0.41213512381178841 -0.1299204600531296 0 -0.4160373122485671 -0.1120621848500169 0 -0.43259539229225402 -0.1157747654031315 0 -0.4160373122485671 -0.1120621848500169 0 -0.4169341364211625 -0.097460269163205951 0 -0.43115901768430159 -0.099355876929453982 0 -0.40358704082088931 -0.10183248075400859 0 -0.4160373122485671 -0.1120621848500169 0 -0.4169341364211625 -0.097460269163205951 0 -0.40358704082088931 -0.10183248075400859 0 -0.4169341364211625 -0.097460269163205951 0 -0.40955223446300359 -0.086375659296802715 0 -0.4160373122485671 -0.1120621848500169 0 -0.43115901768430159 -0.099355876929453982 0 -0.43259539229225402 -0.1157747654031315 0 -0.43115901768430159 -0.099355876929453982 0 -0.43259539229225402 -0.1157747654031315 0 -0.44676155729694311 -0.09856935048049352 0 -0.41414033076402768 -0.061585207313392322 0 -0.41477655714820522 -0.073508962632903227 0 -0.43505259438904009 -0.065314564308975948 0 -0.41414033076402768 -0.061585207313392322 0 -0.40444542418072821 -0.066780626888537295 0 -0.41477655714820522 -0.073508962632903227 0 -0.40456307765117672 -0.076708553120630463 0 -0.40444542418072821 -0.066780626888537295 0 -0.41477655714820522 -0.073508962632903227 0 -0.40456307765117672 -0.076708553120630463 0 -0.41477655714820522 -0.073508962632903227 0 -0.40955223446300359 -0.086375659296802715 0 -0.41477655714820522 -0.073508962632903227 0 -0.40955223446300359 -0.086375659296802715 0 -0.42547236143691691 -0.079964116854811126 0 -0.4169341364211625 -0.097460269163205951 0 -0.40955223446300359 -0.086375659296802715 0 -0.42547236143691691 -0.079964116854811126 0 -0.43115901768430159 -0.099355876929453982 0 -0.42547236143691691 -0.079964116854811126 0 -0.43948503029078051 -0.084366611422258486 0 -0.4169341364211625 -0.097460269163205951 0 -0.43115901768430159 -0.099355876929453982 0 -0.42547236143691691 -0.079964116854811126 0 -0.42547236143691691 -0.079964116854811126 0 -0.43593321389199208 -0.076166958257645731 0 -0.43948503029078051 -0.084366611422258486 0 -0.41414033076402768 -0.061585207313392322 0 -0.43505259438904009 -0.065314564308975948 0 -0.42547236143691691 -0.079964116854811126 0 -0.43593321389199208 -0.076166958257645731 0 -0.43505259438904009 -0.065314564308975948 0 -0.41477655714820522 -0.073508962632903227 0 -0.42547236143691691 -0.079964116854811126 0 -0.43505259438904009 -0.065314564308975948 0 -0.43505259438904009 -0.065314564308975948 0 -0.45596485801405168 -0.069043921304564548 0 -0.45254776170430372 -0.055054247167343383 0 -0.43505259438904009 -0.065314564308975948 0 -0.44372286945123102 -0.075022540444537378 0 -0.45596485801405168 -0.069043921304564548 0 -0.43505259438904009 -0.065314564308975948 0 -0.45596485801405168 -0.069043921304564548 0 -0.44372286945123102 -0.075022540444537378 0 -0.44986078827983011 -0.084538284578158471 0 -0.45596485801405168 -0.069043921304564548 0 -0.43593321389199208 -0.076166958257645731 0 -0.43505259438904009 -0.065314564308975948 0 -0.44372286945123102 -0.075022540444537378 0 -0.43593321389199208 -0.076166958257645731 0 -0.44372286945123102 -0.075022540444537378 0 -0.43948503029078051 -0.084366611422258486 0 -0.44986078827983011 -0.084538284578158471 0 -0.44676155729694311 -0.09856935048049352 0 -0.46256210233533568 -0.096053197570847695 0 -0.44372286945123102 -0.075022540444537378 0 -0.43948503029078051 -0.084366611422258486 0 -0.44986078827983011 -0.084538284578158471 0 -0.43948503029078051 -0.084366611422258486 0 -0.44986078827983011 -0.084538284578158471 0 -0.44676155729694311 -0.09856935048049352 0 -0.46571079481874128 -0.075383853833439818 0 -0.45596485801405168 -0.069043921304564548 0 -0.46256210233533568 -0.096053197570847695 0 -0.45596485801405168 -0.069043921304564548 0 -0.46256210233533568 -0.096053197570847695 0 -0.44986078827983011 -0.084538284578158471 0 -0.45596485801405168 -0.069043921304564548 0 -0.46256210233533568 -0.096053197570847695 0 -0.46571079481874128 -0.075383853833439818 0 -0.46440728388852631 -0.065665476577682319 0 -0.45759908464129401 -0.069335358645535999 0 -0.46571079481874128 -0.075383853833439818 0 -0.46440728388852631 -0.065665476577682319 0 -0.47046251890076313 -0.067508589662998122 0 -0.45759908464129401 -0.069335358645535999 0 -0.45958199435623182 -0.062522792654202811 0 -0.45596485801405168 -0.069043921304564548 0 -0.46440728388852631 -0.065665476577682319 0 -0.45759908464129401 -0.069335358645535999 0 -0.45958199435623182 -0.062522792654202811 0 -0.45759908464129401 -0.069335358645535999 0 -0.45596485801405168 -0.069043921304564548 0 -0.46571079481874128 -0.075383853833439818 0 -0.45759908464129401 -0.069335358645535999 0 -0.45596485801405168 -0.069043921304564548 0 -0.43539800930699801 -0.1334421832601059 0 -0.43259539229225402 -0.1157747654031315 0 -0.45113905152447542 -0.1175368028588321 0 -0.43259539229225402 -0.1157747654031315 0 -0.45113905152447542 -0.1175368028588321 0 -0.44676155729694311 -0.09856935048049352 0 -0.43115901768430159 -0.099355876929453982 0 -0.43948503029078051 -0.084366611422258486 0 -0.44676155729694311 -0.09856935048049352 0 -0.45113905152447542 -0.1175368028588321 0 -0.44676155729694311 -0.09856935048049352 0 -0.46256210233533568 -0.096053197570847695 0 -0.46256210233533568 -0.096053197570847695 0 -0.46915934665662162 -0.1230624738371303 0 -0.45113905152447542 -0.1175368028588321 0 -0.46256210233533568 -0.096053197570847695 0 -0.46915934665662162 -0.1230624738371303 0 -0.48351137830779539 -0.13386722315158131 0 -0.46915934665662162 -0.1230624738371303 0 -0.48133806505124233 -0.10835548473569059 0 -0.46256210233533568 -0.096053197570847695 0 -0.46915934665662162 -0.1230624738371303 0 -0.48133806505124233 -0.10835548473569059 0 -0.46256210233533568 -0.096053197570847695 0 -0.48133806505124233 -0.10835548473569059 0 -0.4787903951136242 -0.090525190808538269 0 -0.48133806505124233 -0.10835548473569059 0 -0.500000000000001 -0.097363349237730712 0 -0.4787903951136242 -0.090525190808538269 0 -0.48351137830779539 -0.13386722315158131 0 -0.5 -0.12673639045435739 0 -0.48133806505124233 -0.10835548473569059 0 -0.5 -0.12673639045435739 0 -0.48133806505124233 -0.10835548473569059 0 -0.500000000000001 -0.097363349237730712 0 -0.48434101336280139 -0.075470068664982515 0 -0.47046251890076313 -0.067508589662998122 0 -0.46868202672560128 -0.053576788092234838 0 -0.46571079481874128 -0.075383853833439818 0 -0.48434101336280139 -0.075470068664982515 0 -0.47046251890076313 -0.067508589662998122 0 -0.48434101336280139 -0.075470068664982515 0 -0.46868202672560128 -0.053576788092234838 0 -0.46571079481874128 -0.075383853833439818 0 -0.48434101336280139 -0.075470068664982515 0 -0.4787903951136242 -0.090525190808538269 0 -0.46571079481874128 -0.075383853833439818 0 -0.46256210233533568 -0.096053197570847695 0 -0.4787903951136242 -0.090525190808538269 0 -0.500000000000001 -0.097363349237730712 0 -0.48434101336280139 -0.075470068664982515 0 -0.5 -0.067775448906690738 0 -0.500000000000001 -0.097363349237730712 0 -0.48434101336280139 -0.075470068664982515 0 -0.4787903951136242 -0.090525190808538269 0 -0.500000000000001 -0.097363349237730712 0 -0.48434101336280139 -0.075470068664982515 0 -0.48434101336280139 -0.075470068664982515 0 -0.5 -0.067775448906690738 0 -0.48551694096935982 -0.058082376044726818 0 -0.5 -0.067775448906690738 0 -0.48551694096935982 -0.058082376044726818 0 -0.5 -0.038187548575650758 0 -0.48551694096935982 -0.058082376044726818 0 -0.5 -0.038187548575650758 0 -0.47983884509016961 -0.04559408958900394 0 -0.5 -0.038187548575650758 0 -0.47627813796950452 -0.032068202833415903 0 -0.47983884509016961 -0.04559408958900394 0 -0.47627813796950452 -0.032068202833415903 0 -0.47983884509016961 -0.04559408958900394 0 -0.46868202672560128 -0.053576788092234838 0 -0.48434101336280139 -0.075470068664982515 0 -0.48551694096935982 -0.058082376044726818 0 -0.46868202672560128 -0.053576788092234838 0 -0.48551694096935982 -0.058082376044726818 0 -0.47983884509016961 -0.04559408958900394 0 -0.46868202672560128 -0.053576788092234838 0 -0.46440728388852631 -0.065665476577682319 0 -0.47046251890076313 -0.067508589662998122 0 -0.46868202672560128 -0.053576788092234838 0 -0.45958199435623182 -0.062522792654202811 0 -0.46868202672560128 -0.053576788092234838 0 -0.45254776170430372 -0.055054247167343383 0 -0.46440728388852631 -0.065665476577682319 0 -0.45958199435623182 -0.062522792654202811 0 -0.46868202672560128 -0.053576788092234838 0 -0.45596485801405168 -0.069043921304564548 0 -0.45254776170430372 -0.055054247167343383 0 -0.45958199435623182 -0.062522792654202811 0 -0.45596485801405168 -0.069043921304564548 0 -0.45254776170430372 -0.055054247167343383 0 -0.46868202672560128 -0.053576788092234838 0 -0.45302304008840111 -0.031683507519487203 0 -0.45254776170430372 -0.055054247167343383 0 -0.46868202672560128 -0.053576788092234838 0 -0.45302304008840111 -0.031683507519487203 0 -0.47627813796950452 -0.032068202833415903 0 -0.46868202672560128 -0.053576788092234838 0 -0.45302304008840111 -0.031683507519487203 0 -0.43049560054761637 -0.026091238128576531 0 -0.45302304008840111 -0.031683507519487203 0 -0.44052059365423879 -0.038318026972638523 0 -0.45302304008840111 -0.031683507519487203 0 -0.44052059365423879 -0.038318026972638523 0 -0.45254776170430372 -0.055054247167343383 0 -0.43594560852523878 -0.049663465434261311 0 -0.44052059365423879 -0.038318026972638523 0 -0.45254776170430372 -0.055054247167343383 0 -0.43594560852523878 -0.049663465434261311 0 -0.43505259438904009 -0.065314564308975948 0 -0.45254776170430372 -0.055054247167343383 0 -0.44016826678282051 -0.008282799190680902 0 -0.46819439313074318 -0.0088485217403602174 0 -0.44910531892432481 0.0088256729137652749 0 -0.43049560054761637 -0.026091238128576531 0 -0.45302304008840111 -0.031683507519487203 0 -0.44016826678282051 -0.008282799190680902 0 -0.45302304008840111 -0.031683507519487203 0 -0.44016826678282051 -0.008282799190680902 0 -0.46819439313074318 -0.0088485217403602174 0 -0.47627813796950452 -0.032068202833415903 0 -0.45302304008840111 -0.031683507519487203 0 -0.46819439313074318 -0.0088485217403602174 0 -0.47627813796950452 -0.032068202833415903 0 -0.46819439313074318 -0.0088485217403602174 0 -0.5 -0.0085996482446106803 0 -0.46819439313074318 -0.0088485217403602174 0 -0.5 -0.0085996482446106803 0 -0.48327269561072528 0.0075949784500739621 0 -0.5 -0.038187548575650758 0 -0.47627813796950452 -0.032068202833415903 0 -0.5 -0.0085996482446106803 0 -0.5 -0.0085996482446106803 0 -0.500000000000001 0.020988252086429401 0 -0.48327269561072528 0.0075949784500739621 0 -0.500000000000001 0.020988252086429401 0 -0.4818334059336834 0.02486827538731046 0 -0.48327269561072528 0.0075949784500739621 0 -0.500000000000001 0.020988252086429401 0 -0.4818334059336834 0.02486827538731046 0 -0.48627387230376801 0.042906068467448051 0 -0.4818334059336834 0.02486827538731046 0 -0.46506519868097418 0.040930436164492531 0 -0.46608959876636241 0.01500864777446809 0 -0.4818334059336834 0.02486827538731046 0 -0.48327269561072528 0.0075949784500739621 0 -0.46608959876636241 0.01500864777446809 0 -0.46819439313074318 -0.0088485217403602174 0 -0.48327269561072528 0.0075949784500739621 0 -0.46608959876636241 0.01500864777446809 0 -0.5 0.047519219301533577 0 -0.48827346409411548 0.06027768147110632 0 -0.48627387230376801 0.042906068467448051 0 -0.5 0.047519219301533577 0 -0.48827346409411548 0.06027768147110632 0 -0.5 0.074050186516637917 0 -0.500000000000001 0.020988252086429401 0 -0.48627387230376801 0.042906068467448051 0 -0.500000000000001 0.020988252086429401 0 -0.5 0.047519219301533577 0 -0.48627387230376801 0.042906068467448051 0 -0.4818334059336834 0.02486827538731046 0 -0.48627387230376801 0.042906068467448051 0 -0.46506519868097418 0.040930436164492531 0 -0.48627387230376801 0.042906068467448051 0 -0.46506519868097418 0.040930436164492531 0 -0.47254774460753413 0.064823884848466309 0 -0.48827346409411548 0.06027768147110632 0 -0.48627387230376801 0.042906068467448051 0 -0.47254774460753413 0.064823884848466309 0 -0.48627387230376801 0.042906068467448051 0 -0.47254774460753413 0.064823884848466309 0 -0.46506519868097418 0.040930436164492531 0 -0.44375990034961432 0.061031549153910312 0 -0.47254774460753413 0.064823884848466309 0 -0.46506519868097418 0.040930436164492531 0 -0.44486031810931148 0.031744527408694517 0 -0.44375990034961432 0.061031549153910312 0 -0.46819439313074318 -0.0088485217403602174 0 -0.46608959876636241 0.01500864777446809 0 -0.44910531892432481 0.0088256729137652749 0 -0.46506519868097418 0.040930436164492531 0 -0.44486031810931148 0.031744527408694517 0 -0.46608959876636241 0.01500864777446809 0 -0.44486031810931148 0.031744527408694517 0 -0.46608959876636241 0.01500864777446809 0 -0.44910531892432481 0.0088256729137652749 0 -0.44486031810931148 0.031744527408694517 0 -0.44910531892432481 0.0088256729137652749 0 -0.43171222321057451 0.016975124179167082 0 -0.44016826678282051 -0.008282799190680902 0 -0.44910531892432481 0.0088256729137652749 0 -0.43171222321057451 0.016975124179167082 0 -0.42123606753034548 -0.0078521834473191492 0 -0.44016826678282051 -0.008282799190680902 0 -0.43171222321057451 0.016975124179167082 0 -0.44016826678282051 -0.008282799190680902 0 -0.43171222321057451 0.016975124179167082 0 -0.42123606753034548 -0.0078521834473191492 0 -0.411842978763718 0.0071810696113592566 0 -0.43171222321057451 0.016975124179167082 0 -0.411842978763718 0.0071810696113592566 0 -0.40872204527111111 0.022867749962900141 0 -0.39856960861661739 0.0046729487720050386 0 -0.40872204527111111 0.022867749962900141 0 -0.43171222321057451 0.016975124179167082 0 -0.4232561796383284 0.042233047549015017 0 -0.411842978763718 0.0071810696113592566 0 -0.40872204527111111 0.022867749962900141 0 -0.43171222321057451 0.016975124179167082 0 -0.44486031810931148 0.031744527408694517 0 -0.43171222321057451 0.016975124179167082 0 -0.4232561796383284 0.042233047549015017 0 -0.43171222321057451 0.016975124179167082 0 -0.4232561796383284 0.042233047549015017 0 -0.44486031810931148 0.031744527408694517 0 -0.44375990034961432 0.061031549153910312 0 -0.4232561796383284 0.042233047549015017 0 -0.44375990034961432 0.061031549153910312 0 -0.4232561796383284 0.042233047549015017 0 -0.41480013606608229 0.067490970918863163 0 -0.4232561796383284 0.042233047549015017 0 -0.41480013606608229 0.067490970918863163 0 -0.4232561796383284 0.042233047549015017 0 -0.40217936848404251 0.040656332868689943 0 -0.41480013606608229 0.067490970918863163 0 -0.40872204527111111 0.022867749962900141 0 -0.4232561796383284 0.042233047549015017 0 -0.40217936848404251 0.040656332868689943 0 -0.40217936848404251 0.040656332868689943 0 -0.38532972384356262 0.04987884220830327 0 -0.38670634030283008 0.033034015008687988 0 -0.40217936848404251 0.040656332868689943 0 -0.39445515791527019 0.0661614229995688 0 -0.41480013606608229 0.067490970918863163 0 -0.40217936848404251 0.040656332868689943 0 -0.38532972384356262 0.04987884220830327 0 -0.39445515791527019 0.0661614229995688 0 -0.38532972384356262 0.04987884220830327 0 -0.36842953035862158 0.050481425088617103 0 -0.37191756568804107 0.066739953928913298 0 -0.38532972384356262 0.04987884220830327 0 -0.39445515791527019 0.0661614229995688 0 -0.37191756568804107 0.066739953928913298 0 -0.38532972384356262 0.04987884220830327 0 -0.38670634030283008 0.033034015008687988 0 -0.37363166703579942 0.035604814688565273 0 -0.38532972384356262 0.04987884220830327 0 -0.37363166703579942 0.035604814688565273 0 -0.36842953035862158 0.050481425088617103 0 -0.38670634030283008 0.033034015008687988 0 -0.37938766176258892 0.01937444117527904 0 -0.37363166703579942 0.035604814688565273 0 -0.38670634030283008 0.033034015008687988 0 -0.37938766176258892 0.01937444117527904 0 -0.39300328038815729 0.019655644102602461 0 -0.37938766176258892 0.01937444117527904 0 -0.38510027358075227 0.0044364300124967379 0 -0.37145675818362223 0.001704133189072726 0 -0.38510027358075227 0.0044364300124967379 0 -0.39300328038815729 0.019655644102602461 0 -0.37938766176258892 0.01937444117527904 0 -0.38510027358075227 0.0044364300124967379 0 -0.39300328038815729 0.019655644102602461 0 -0.38510027358075227 0.0044364300124967379 0 -0.39856960861661739 0.0046729487720050386 0 -0.39300328038815729 0.019655644102602461 0 -0.39149303023403142 -0.005335277537219363 0 -0.38510027358075227 0.0044364300124967379 0 -0.39856960861661739 0.0046729487720050386 0 -0.40872204527111111 0.022867749962900141 0 -0.40217936848404251 0.040656332868689943 0 -0.39300328038815729 0.019655644102602461 0 -0.40217936848404251 0.040656332868689943 0 -0.38670634030283008 0.033034015008687988 0 -0.39300328038815729 0.019655644102602461 0 -0.40872204527111111 0.022867749962900141 0 -0.39856960861661739 0.0046729487720050386 0 -0.39300328038815729 0.019655644102602461 0 -0.3875766108720648 0.10801011350679229 0 -0.40575939566394709 0.088936040450249165 0 -0.41194990864025682 0.1130743234930766 0 -0.3875766108720648 0.10801011350679229 0 -0.41194990864025682 0.1130743234930766 0 -0.39303850838018423 0.12948099644521679 0 -0.3875766108720648 0.10801011350679229 0 -0.39303850838018423 0.12948099644521679 0 -0.36938718168541179 0.1255902499967409 0 -0.3875766108720648 0.10801011350679229 0 -0.37678680274428078 0.095920052983538381 0 -0.36262419495280129 0.1038515713423341 0 -0.3875766108720648 0.10801011350679229 0 -0.37678680274428078 0.095920052983538381 0 -0.38674475774594591 0.083266397622394045 0 -0.37678680274428078 0.095920052983538381 0 -0.38674475774594591 0.083266397622394045 0 -0.37138104083623391 0.082703932652830325 0 -0.38674475774594591 0.083266397622394045 0 -0.37191756568804107 0.066739953928913298 0 -0.37138104083623391 0.082703932652830325 0 -0.38674475774594591 0.083266397622394045 0 -0.39445515791527019 0.0661614229995688 0 -0.37191756568804107 0.066739953928913298 0 -0.39445515791527019 0.0661614229995688 0 -0.40575939566394709 0.088936040450249165 0 -0.41480013606608229 0.067490970918863163 0 -0.38674475774594591 0.083266397622394045 0 -0.39445515791527019 0.0661614229995688 0 -0.40575939566394709 0.088936040450249165 0 -0.3875766108720648 0.10801011350679229 0 -0.38674475774594591 0.083266397622394045 0 -0.40575939566394709 0.088936040450249165 0 -0.40575939566394709 0.088936040450249165 0 -0.41480013606608229 0.067490970918863163 0 -0.43079976792318958 0.090862199026124468 0 -0.44375990034961432 0.061031549153910312 0 -0.41480013606608229 0.067490970918863163 0 -0.43079976792318958 0.090862199026124468 0 -0.43079976792318958 0.090862199026124468 0 -0.41194990864025682 0.1130743234930766 0 -0.43625153759456498 0.1245866202337218 0 -0.40575939566394709 0.088936040450249165 0 -0.43079976792318958 0.090862199026124468 0 -0.41194990864025682 0.1130743234930766 0 -0.43079976792318958 0.090862199026124468 0 -0.43625153759456498 0.1245866202337218 0 -0.45075561745381781 0.10580031757457831 0 -0.43625153759456498 0.1245866202337218 0 -0.45075561745381781 0.10580031757457831 0 -0.46287227134589981 0.1236989169114972 0 -0.43079976792318958 0.090862199026124468 0 -0.45075561745381781 0.10580031757457831 0 -0.4588216169113003 0.086741701229484575 0 -0.45075561745381781 0.10580031757457831 0 -0.4588216169113003 0.086741701229484575 0 -0.47201107007212878 0.1037065685212097 0 -0.45075561745381781 0.10580031757457831 0 -0.46287227134589981 0.1236989169114972 0 -0.47201107007212878 0.1037065685212097 0 -0.44375990034961432 0.061031549153910312 0 -0.43079976792318958 0.090862199026124468 0 -0.4588216169113003 0.086741701229484575 0 -0.44375990034961432 0.061031549153910312 0 -0.4588216169113003 0.086741701229484575 0 -0.47254774460753413 0.064823884848466309 0 -0.4588216169113003 0.086741701229484575 0 -0.47254774460753413 0.064823884848466309 0 -0.4588216169113003 0.086741701229484575 0 -0.47254774460753413 0.064823884848466309 0 -0.4818122771930986 0.082263337292499406 0 -0.48827346409411548 0.06027768147110632 0 -0.47254774460753413 0.064823884848466309 0 -0.4818122771930986 0.082263337292499406 0 -0.4588216169113003 0.086741701229484575 0 -0.4818122771930986 0.082263337292499406 0 -0.47201107007212878 0.1037065685212097 0 -0.4818122771930986 0.082263337292499406 0 -0.5 0.074050186516637917 0 -0.5 0.1005811537317424 0 -0.48827346409411548 0.06027768147110632 0 -0.4818122771930986 0.082263337292499406 0 -0.5 0.074050186516637917 0 -0.46287227134589981 0.1236989169114972 0 -0.48219315692656572 0.1205151432882924 0 -0.47201107007212878 0.1037065685212097 0 -0.4818122771930986 0.082263337292499406 0 -0.47201107007212878 0.1037065685212097 0 -0.5 0.1005811537317424 0 -0.48219315692656572 0.1205151432882924 0 -0.47201107007212878 0.1037065685212097 0 -0.5 0.1005811537317424 0 -0.48219315692656572 0.1205151432882924 0 -0.5 0.1005811537317424 0 -0.5 0.12711212094684679 0 -0.48219315692656572 0.1205151432882924 0 -0.5 0.12711212094684679 0 -0.47883924748460222 0.14018161060892731 0 -0.5 0.12711212094684679 0 -0.47883924748460222 0.14018161060892731 0 -0.5 0.15364308816195121 0 -0.46287227134589981 0.1236989169114972 0 -0.48219315692656572 0.1205151432882924 0 -0.47883924748460222 0.14018161060892731 0 -0.47883924748460222 0.14018161060892731 0 -0.5 0.15364308816195121 0 -0.47008479780898071 0.1615400033189848 0 -0.5 0.15364308816195121 0 -0.50000000000000089 0.18017405537705561 0 -0.48213074815480522 0.17495155205334359 0 -0.50000000000000089 0.18017405537705561 0 -0.48146292621815812 0.19355635563559381 0 -0.50000000000000089 0.18017405537705561 0 -0.48213074815480522 0.17495155205334359 0 -0.48146292621815812 0.19355635563559381 0 -0.48213074815480522 0.17495155205334359 0 -0.45945765920556431 0.18493118343544621 0 -0.48146292621815812 0.19355635563559381 0 -0.48213074815480522 0.17495155205334359 0 -0.47008479780898071 0.1615400033189848 0 -0.45945765920556431 0.18493118343544621 0 -0.5 0.15364308816195121 0 -0.48213074815480522 0.17495155205334359 0 -0.47008479780898071 0.1615400033189848 0 -0.47008479780898071 0.1615400033189848 0 -0.45945765920556431 0.18493118343544621 0 -0.44491624466772411 0.16813711573335099 0 -0.47008479780898071 0.1615400033189848 0 -0.44491624466772411 0.16813711573335099 0 -0.45700588157118233 0.14460720660399121 0 -0.45945765920556431 0.18493118343544621 0 -0.44491624466772411 0.16813711573335099 0 -0.43474290047699488 0.19015608798310391 0 -0.44491624466772411 0.16813711573335099 0 -0.45700588157118233 0.14460720660399121 0 -0.43611169665434868 0.1504606440305504 0 -0.43625153759456498 0.1245866202337218 0 -0.45700588157118233 0.14460720660399121 0 -0.43611169665434868 0.1504606440305504 0 -0.43625153759456498 0.1245866202337218 0 -0.46287227134589981 0.1236989169114972 0 -0.45700588157118233 0.14460720660399121 0 -0.46287227134589981 0.1236989169114972 0 -0.47883924748460222 0.14018161060892731 0 -0.45700588157118233 0.14460720660399121 0 -0.47883924748460222 0.14018161060892731 0 -0.47008479780898071 0.1615400033189848 0 -0.45700588157118233 0.14460720660399121 0 -0.48207357253193078 0.21739097549918149 0 -0.5 0.2118815469096284 0 -0.5 0.25502500317745308 0 -0.48207357253193078 0.21739097549918149 0 -0.46802780128701832 0.22930896654194979 0 -0.5 0.25502500317745308 0 -0.46802780128701832 0.22930896654194979 0 -0.5 0.25502500317745308 0 -0.46826200115894351 0.25268254595322559 0 -0.50000000000000089 0.18017405537705561 0 -0.5 0.2118815469096284 0 -0.48146292621815812 0.19355635563559381 0 -0.48207357253193078 0.21739097549918149 0 -0.46292585243631501 0.20693865589413171 0 -0.46802780128701832 0.22930896654194979 0 -0.48207357253193078 0.21739097549918149 0 -0.48146292621815812 0.19355635563559381 0 -0.46292585243631501 0.20693865589413171 0 -0.48207357253193078 0.21739097549918149 0 -0.5 0.2118815469096284 0 -0.48146292621815812 0.19355635563559381 0 -0.48146292621815812 0.19355635563559381 0 -0.46292585243631501 0.20693865589413171 0 -0.45945765920556431 0.18493118343544621 0 -0.44696073447060752 0.20212681262101459 0 -0.46292585243631501 0.20693865589413171 0 -0.45945765920556431 0.18493118343544621 0 -0.48146292621815812 0.19355635563559381 0 -0.46292585243631501 0.20693865589413171 0 -0.45945765920556431 0.18493118343544621 0 -0.44696073447060752 0.20212681262101459 0 -0.43474290047699488 0.19015608798310391 0 -0.44696073447060752 0.20212681262101459 0 -0.43414988282090411 0.20902301392359759 0 -0.43474290047699488 0.19015608798310391 0 -0.44696073447060752 0.20212681262101459 0 -0.44438877865447191 0.2203209561526695 0 -0.43414988282090411 0.20902301392359759 0 -0.44696073447060752 0.20212681262101459 0 -0.46292585243631501 0.20693865589413171 0 -0.44438877865447191 0.2203209561526695 0 -0.46292585243631501 0.20693865589413171 0 -0.46802780128701832 0.22930896654194979 0 -0.45690026230445402 0.21971898361319381 0 -0.46292585243631501 0.20693865589413171 0 -0.44438877865447191 0.2203209561526695 0 -0.46292585243631501 0.20693865589413171 0 -0.45690026230445402 0.21971898361319381 0 -0.44438877865447191 0.2203209561526695 0 -0.46802780128701832 0.22930896654194979 0 -0.45424796336563722 0.22861724854116511 0 -0.45412118124825718 0.2395922552223117 0 -0.46802780128701832 0.22930896654194979 0 -0.45424796336563722 0.22861724854116511 0 -0.45690026230445402 0.21971898361319381 0 -0.45424796336563722 0.22861724854116511 0 -0.45690026230445402 0.21971898361319381 0 -0.44707608940517052 0.22231138206831691 0 -0.44707608940517052 0.22231138206831691 0 -0.44438877865447191 0.2203209561526695 0 -0.42586105085507731 0.219809117860577 0 -0.45690026230445402 0.21971898361319381 0 -0.44707608940517052 0.22231138206831691 0 -0.44438877865447191 0.2203209561526695 0 -0.44707608940517052 0.22231138206831691 0 -0.43755936465329281 0.22698532229141799 0 -0.44511448258328629 0.23215465526005299 0 -0.43755936465329281 0.22698532229141799 0 -0.44511448258328629 0.23215465526005299 0 -0.43218583576963709 0.2336661339767252 0 -0.45424796336563722 0.22861724854116511 0 -0.44707608940517052 0.22231138206831691 0 -0.44511448258328629 0.23215465526005299 0 -0.45424796336563722 0.22861724854116511 0 -0.44511448258328629 0.23215465526005299 0 -0.45412118124825718 0.2395922552223117 0 -0.44511448258328629 0.23215465526005299 0 -0.44161393816558842 0.24155257742212199 0 -0.45412118124825718 0.2395922552223117 0 -0.44511448258328629 0.23215465526005299 0 -0.44161393816558842 0.24155257742212199 0 -0.43218583576963709 0.2336661339767252 0 -0.44161393816558842 0.24155257742212199 0 -0.43243648966469961 0.24825823729562091 0 -0.44622747097204157 0.25447826500352411 0 -0.44161393816558842 0.24155257742212199 0 -0.45412118124825718 0.2395922552223117 0 -0.44622747097204157 0.25447826500352411 0 -0.46802780128701832 0.22930896654194979 0 -0.45412118124825718 0.2395922552223117 0 -0.46826200115894351 0.25268254595322559 0 -0.45412118124825718 0.2395922552223117 0 -0.46826200115894351 0.25268254595322559 0 -0.44622747097204157 0.25447826500352411 0 -0.40931020750963998 0.23948355441692229 0 -0.40101037553383972 0.24850817254535781 0 -0.4154354269666965 0.25327969466909228 0 -0.40931020750963998 0.23948355441692229 0 -0.42148184861410209 0.2406921978309261 0 -0.41698703102379953 0.22969989485302911 0 -0.40931020750963998 0.23948355441692229 0 -0.42148184861410209 0.2406921978309261 0 -0.4154354269666965 0.25327969466909228 0 -0.42148184861410209 0.2406921978309261 0 -0.43243648966469961 0.24825823729562091 0 -0.4154354269666965 0.25327969466909228 0 -0.44161393816558842 0.24155257742212199 0 -0.43243648966469961 0.24825823729562091 0 -0.43218583576963709 0.2336661339767252 0 -0.42148184861410209 0.2406921978309261 0 -0.43243648966469961 0.24825823729562091 0 -0.43218583576963709 0.2336661339767252 0 -0.42148184861410209 0.2406921978309261 0 -0.43218583576963709 0.2336661339767252 0 -0.41698703102379953 0.22969989485302911 0 -0.43218583576963709 0.2336661339767252 0 -0.42586105085507731 0.219809117860577 0 -0.41698703102379953 0.22969989485302911 0 -0.44707608940517052 0.22231138206831691 0 -0.42586105085507731 0.219809117860577 0 -0.44707608940517052 0.22231138206831691 0 -0.43755936465329281 0.22698532229141799 0 -0.42586105085507731 0.219809117860577 0 -0.43755936465329281 0.22698532229141799 0 -0.43218583576963709 0.2336661339767252 0 -0.42586105085507731 0.219809117860577 0 -0.42586105085507731 0.219809117860577 0 -0.41698703102379953 0.22969989485302911 0 -0.4046460123049842 0.2173068536528372 0 -0.40931020750963998 0.23948355441692229 0 -0.41698703102379953 0.22969989485302911 0 -0.40590702596286521 0.22946517391640911 0 -0.41698703102379953 0.22969989485302911 0 -0.4046460123049842 0.2173068536528372 0 -0.40590702596286521 0.22946517391640911 0 -0.42586105085507731 0.219809117860577 0 -0.4046460123049842 0.2173068536528372 0 -0.41722227291546332 0.20591524768845371 0 -0.39877196507631202 0.20270266476287849 0 -0.4046460123049842 0.2173068536528372 0 -0.42586105085507731 0.219809117860577 0 -0.41722227291546332 0.20591524768845371 0 -0.4046460123049842 0.2173068536528372 0 -0.42586105085507731 0.219809117860577 0 -0.41722227291546332 0.20591524768845371 0 -0.43414988282090411 0.20902301392359759 0 -0.44438877865447191 0.2203209561526695 0 -0.42586105085507731 0.219809117860577 0 -0.43414988282090411 0.20902301392359759 0 -0.41722227291546332 0.20591524768845371 0 -0.43414988282090411 0.20902301392359759 0 -0.43474290047699488 0.19015608798310391 0 -0.41722227291546332 0.20591524768845371 0 -0.40891615430536432 0.18798503216574861 0 -0.39877196507631202 0.20270266476287849 0 -0.41722227291546332 0.20591524768845371 0 -0.43474290047699488 0.19015608798310391 0 -0.40891615430536432 0.18798503216574861 0 -0.40891615430536432 0.18798503216574861 0 -0.39877196507631202 0.20270266476287849 0 -0.38648279715089662 0.18713020989402271 0 -0.38343097375489099 0.21480458944509739 0 -0.38648279715089662 0.18713020989402271 0 -0.37238122863976891 0.2002171120067491 0 -0.39877196507631202 0.20270266476287849 0 -0.38343097375489099 0.21480458944509739 0 -0.38648279715089662 0.18713020989402271 0 -0.38343097375489099 0.21480458944509739 0 -0.38648279715089662 0.18713020989402271 0 -0.38343097375489099 0.21480458944509739 0 -0.37154761244084089 0.2134029747549531 0 -0.37238122863976891 0.2002171120067491 0 -0.38343097375489099 0.21480458944509739 0 -0.37566813965858681 0.2234148702422048 0 -0.37154761244084089 0.2134029747549531 0 -0.38343097375489099 0.21480458944509739 0 -0.37154761244084089 0.2134029747549531 0 -0.38343097375489099 0.21480458944509739 0 -0.4046460123049842 0.2173068536528372 0 -0.38992427199157043 0.22185450724293909 0 -0.38343097375489099 0.21480458944509739 0 -0.4046460123049842 0.2173068536528372 0 -0.39877196507631202 0.20270266476287849 0 -0.38343097375489099 0.21480458944509739 0 -0.4046460123049842 0.2173068536528372 0 -0.4046460123049842 0.2173068536528372 0 -0.39872340832513992 0.226351764622962 0 -0.40590702596286521 0.22946517391640911 0 -0.39872340832513992 0.226351764622962 0 -0.40590702596286521 0.22946517391640911 0 -0.39648996776890633 0.23582301492399779 0 -0.39872340832513992 0.226351764622962 0 -0.38992427199157043 0.22185450724293909 0 -0.39648996776890633 0.23582301492399779 0 -0.4046460123049842 0.2173068536528372 0 -0.39872340832513992 0.226351764622962 0 -0.38992427199157043 0.22185450724293909 0 -0.38343097375489099 0.21480458944509739 0 -0.37566813965858681 0.2234148702422048 0 -0.38119555285080597 0.2350757121572056 0 -0.38343097375489099 0.21480458944509739 0 -0.38992427199157043 0.22185450724293909 0 -0.38119555285080597 0.2350757121572056 0 -0.38343097375489099 0.21480458944509739 0 -0.38119555285080597 0.2350757121572056 0 -0.38119555285080597 0.2350757121572056 0 -0.37210575503526089 0.24405057661464391 0 -0.37896013194671968 0.25534683486931381 0 -0.38119555285080597 0.2350757121572056 0 -0.37896013194671968 0.25534683486931381 0 -0.38992427199157043 0.22185450724293909 0 -0.38119555285080597 0.2350757121572056 0 -0.38722819947627368 0.24843385443806909 0 -0.38992427199157043 0.22185450724293909 0 -0.38722819947627368 0.24843385443806909 0 -0.38119555285080597 0.2350757121572056 0 -0.38722819947627368 0.24843385443806909 0 -0.37896013194671968 0.25534683486931381 0 -0.38992427199157043 0.22185450724293909 0 -0.38722819947627368 0.24843385443806909 0 -0.39648996776890633 0.23582301492399779 0 -0.38722819947627368 0.24843385443806909 0 -0.39648996776890633 0.23582301492399779 0 -0.40101037553383972 0.24850817254535781 0 -0.40931020750963998 0.23948355441692229 0 -0.39648996776890633 0.23582301492399779 0 -0.40101037553383972 0.24850817254535781 0 -0.40931020750963998 0.23948355441692229 0 -0.40590702596286521 0.22946517391640911 0 -0.39648996776890633 0.23582301492399779 0 -0.41530534823700072 0.1390315752597536 0 -0.41919069938251302 0.1652820875776414 0 -0.39528973877013662 0.15130477977831461 0 -0.41194990864025682 0.1130743234930766 0 -0.41530534823700072 0.1390315752597536 0 -0.39303850838018423 0.12948099644521679 0 -0.41194990864025682 0.1130743234930766 0 -0.43625153759456498 0.1245866202337218 0 -0.41530534823700072 0.1390315752597536 0 -0.43625153759456498 0.1245866202337218 0 -0.41530534823700072 0.1390315752597536 0 -0.43611169665434868 0.1504606440305504 0 -0.41530534823700072 0.1390315752597536 0 -0.43611169665434868 0.1504606440305504 0 -0.41919069938251302 0.1652820875776414 0 -0.44491624466772411 0.16813711573335099 0 -0.43611169665434868 0.1504606440305504 0 -0.41919069938251302 0.1652820875776414 0 -0.44491624466772411 0.16813711573335099 0 -0.43474290047699488 0.19015608798310391 0 -0.41919069938251302 0.1652820875776414 0 -0.40891615430536432 0.18798503216574861 0 -0.41919069938251302 0.1652820875776414 0 -0.39971758700540821 0.17129016696027699 0 -0.43474290047699488 0.19015608798310391 0 -0.40891615430536432 0.18798503216574861 0 -0.41919069938251302 0.1652820875776414 0 -0.41919069938251302 0.1652820875776414 0 -0.39971758700540821 0.17129016696027699 0 -0.39528973877013662 0.15130477977831461 0 -0.40891615430536432 0.18798503216574861 0 -0.39971758700540821 0.17129016696027699 0 -0.38648279715089662 0.18713020989402271 0 -0.39971758700540821 0.17129016696027699 0 -0.38648279715089662 0.18713020989402271 0 -0.372146074932449 0.16344591630492469 0 -0.39971758700540821 0.17129016696027699 0 -0.39528973877013662 0.15130477977831461 0 -0.372146074932449 0.16344591630492469 0 -0.37815506306193358 0.1433222327004802 0 -0.39528973877013662 0.15130477977831461 0 -0.39303850838018423 0.12948099644521679 0 -0.37815506306193358 0.1433222327004802 0 -0.39528973877013662 0.15130477977831461 0 -0.372146074932449 0.16344591630492469 0 -0.41530534823700072 0.1390315752597536 0 -0.39528973877013662 0.15130477977831461 0 -0.39303850838018423 0.12948099644521679 0 -0.37815506306193358 0.1433222327004802 0 -0.39303850838018423 0.12948099644521679 0 -0.36938718168541179 0.1255902499967409 0 -0.36938718168541179 0.1255902499967409 0 -0.35200794605681629 0.12502238642781019 0 -0.36027383228078641 0.14176664061691219 0 -0.37815506306193358 0.1433222327004802 0 -0.36938718168541179 0.1255902499967409 0 -0.36027383228078641 0.14176664061691219 0 -0.35200794605681629 0.12502238642781019 0 -0.36027383228078641 0.14176664061691219 0 -0.34238396195098092 0.13747367741656721 0 -0.34692124746973713 0.1542878562826405 0 -0.36027383228078641 0.14176664061691219 0 -0.34238396195098092 0.13747367741656721 0 -0.34692124746973713 0.1542878562826405 0 -0.36027383228078641 0.14176664061691219 0 -0.372146074932449 0.16344591630492469 0 -0.37815506306193358 0.1433222327004802 0 -0.36027383228078641 0.14176664061691219 0 -0.372146074932449 0.16344591630492469 0 -0.38648279715089662 0.18713020989402271 0 -0.372146074932449 0.16344591630492469 0 -0.35825464468573548 0.18846491094187309 0 -0.372146074932449 0.16344591630492469 0 -0.35358483912925948 0.17080886943100959 0 -0.35825464468573548 0.18846491094187309 0 -0.35358483912925948 0.17080886943100959 0 -0.35825464468573548 0.18846491094187309 0 -0.33660402194939321 0.18841081708856641 0 -0.34692124746973713 0.1542878562826405 0 -0.372146074932449 0.16344591630492469 0 -0.35358483912925948 0.17080886943100959 0 -0.34692124746973713 0.1542878562826405 0 -0.35358483912925948 0.17080886943100959 0 -0.33500456297109971 0.16792639800837539 0 -0.33500456297109971 0.16792639800837539 0 -0.31851102729851588 0.15590236448055639 0 -0.33255517435583237 0.14646848770795259 0 -0.35358483912925948 0.17080886943100959 0 -0.33500456297109971 0.16792639800837539 0 -0.33660402194939321 0.18841081708856641 0 -0.33500456297109971 0.16792639800837539 0 -0.31289652582642141 0.1805837036697519 0 -0.33660402194939321 0.18841081708856641 0 -0.33500456297109971 0.16792639800837539 0 -0.31289652582642141 0.1805837036697519 0 -0.33500456297109971 0.16792639800837539 0 -0.31289652582642141 0.1805837036697519 0 -0.31851102729851588 0.15590236448055639 0 -0.31851102729851588 0.15590236448055639 0 -0.31283651791160189 0.14254581953933751 0 -0.32160496684282269 0.13812883269818441 0 -0.31851102729851588 0.15590236448055639 0 -0.32160496684282269 0.13812883269818441 0 -0.33255517435583237 0.14646848770795259 0 -0.31283651791160189 0.14254581953933751 0 -0.32160496684282269 0.13812883269818441 0 -0.31723531685176609 0.1198603304800319 0 -0.32160496684282269 0.13812883269818441 0 -0.33282908497732799 0.12691684344983439 0 -0.31723531685176609 0.1198603304800319 0 -0.32160496684282269 0.13812883269818441 0 -0.33282908497732799 0.12691684344983439 0 -0.33255517435583237 0.14646848770795259 0 -0.35200794605681629 0.12502238642781019 0 -0.34238396195098092 0.13747367741656721 0 -0.33282908497732799 0.12691684344983439 0 -0.34238396195098092 0.13747367741656721 0 -0.33282908497732799 0.12691684344983439 0 -0.33255517435583237 0.14646848770795259 0 -0.34692124746973713 0.1542878562826405 0 -0.34238396195098092 0.13747367741656721 0 -0.33255517435583237 0.14646848770795259 0 -0.34692124746973713 0.1542878562826405 0 -0.33500456297109971 0.16792639800837539 0 -0.33255517435583237 0.14646848770795259 0 -0.36182205832064851 0.24457456243760281 0 -0.34139946132247112 0.24041351753421181 0 -0.35754908974886279 0.25815157521253052 0 -0.36182205832064851 0.24457456243760281 0 -0.36649841958780932 0.23037620461156319 0 -0.34139946132247112 0.24041351753421181 0 -0.36182205832064851 0.24457456243760281 0 -0.37210575503526089 0.24405057661464391 0 -0.36759241766554501 0.2538245840294952 0 -0.38119555285080597 0.2350757121572056 0 -0.37210575503526089 0.24405057661464391 0 -0.36649841958780932 0.23037620461156319 0 -0.36182205832064851 0.24457456243760281 0 -0.37210575503526089 0.24405057661464391 0 -0.36649841958780932 0.23037620461156319 0 -0.36649841958780932 0.23037620461156319 0 -0.35688565293773689 0.21871143604885451 0 -0.37154761244084089 0.2134029747549531 0 -0.37566813965858681 0.2234148702422048 0 -0.36649841958780932 0.23037620461156319 0 -0.37154761244084089 0.2134029747549531 0 -0.37566813965858681 0.2234148702422048 0 -0.38119555285080597 0.2350757121572056 0 -0.36649841958780932 0.23037620461156319 0 -0.35688565293773689 0.21871143604885451 0 -0.34289792395499269 0.21218791974938919 0 -0.34139946132247112 0.24041351753421181 0 -0.36649841958780932 0.23037620461156319 0 -0.35688565293773689 0.21871143604885451 0 -0.34139946132247112 0.24041351753421181 0 -0.35688565293773689 0.21871143604885451 0 -0.36039341253181489 0.20659687070036381 0 -0.34289792395499269 0.21218791974938919 0 -0.35688565293773689 0.21871143604885451 0 -0.37154761244084089 0.2134029747549531 0 -0.36039341253181489 0.20659687070036381 0 -0.37154761244084089 0.2134029747549531 0 -0.36039341253181489 0.20659687070036381 0 -0.37238122863976891 0.2002171120067491 0 -0.38648279715089662 0.18713020989402271 0 -0.37238122863976891 0.2002171120067491 0 -0.35825464468573548 0.18846491094187309 0 -0.36039341253181489 0.20659687070036381 0 -0.37238122863976891 0.2002171120067491 0 -0.35825464468573548 0.18846491094187309 0 -0.36039341253181489 0.20659687070036381 0 -0.35825464468573548 0.18846491094187309 0 -0.34289792395499269 0.21218791974938919 0 -0.35825464468573548 0.18846491094187309 0 -0.33660402194939321 0.18841081708856641 0 -0.34289792395499269 0.21218791974938919 0 -0.33660402194939321 0.18841081708856641 0 -0.32037844320246261 0.2049322073775762 0 -0.34289792395499269 0.21218791974938919 0 -0.31289652582642141 0.1805837036697519 0 -0.33660402194939321 0.18841081708856641 0 -0.32037844320246261 0.2049322073775762 0 -0.32037844320246261 0.2049322073775762 0 -0.32007631676378118 0.22793178832776281 0 -0.30808679103638181 0.2157672566230279 0 -0.32037844320246261 0.2049322073775762 0 -0.34289792395499269 0.21218791974938919 0 -0.32007631676378118 0.22793178832776281 0 -0.34289792395499269 0.21218791974938919 0 -0.34139946132247112 0.24041351753421181 0 -0.34289792395499269 0.21218791974938919 0 -0.32007631676378118 0.22793178832776281 0 -0.34139946132247112 0.24041351753421181 0 -0.32007631676378118 0.22793178832776281 0 -0.30683534910107541 0.24131982490484771 0 -0.32052316857880009 0.25199218265017043 0 -0.32007631676378118 0.22793178832776281 0 -0.34139946132247112 0.24041351753421181 0 -0.32052316857880009 0.25199218265017043 0 -0.28520633826073721 0.24204505302591109 0 -0.29177957584356251 0.2379097909607483 0 -0.29813700426351908 0.2549985658140525 0 -0.28520633826073721 0.24204505302591109 0 -0.29177957584356251 0.2379097909607483 0 -0.28620422144783292 0.23331914670984491 0 -0.28520633826073721 0.24204505302591109 0 -0.28620422144783292 0.23331914670984491 0 -0.2743775822837069 0.2311971640619615 0 -0.28520633826073721 0.24204505302591109 0 -0.29177957584356251 0.2379097909607483 0 -0.28520633826073721 0.24204505302591109 0 -0.29813700426351908 0.2549985658140525 0 -0.29177957584356251 0.2379097909607483 0 -0.30683534910107541 0.24131982490484771 0 -0.29813700426351908 0.2549985658140525 0 -0.30683534910107541 0.24131982490484771 0 -0.32052316857880009 0.25199218265017043 0 -0.29813700426351908 0.2549985658140525 0 -0.29177957584356251 0.2379097909607483 0 -0.30683534910107541 0.24131982490484771 0 -0.3025311369596701 0.2279451799051346 0 -0.32007631676378118 0.22793178832776281 0 -0.3025311369596701 0.2279451799051346 0 -0.30808679103638181 0.2157672566230279 0 -0.32007631676378118 0.22793178832776281 0 -0.30683534910107541 0.24131982490484771 0 -0.3025311369596701 0.2279451799051346 0 -0.3025311369596701 0.2279451799051346 0 -0.29339823295664158 0.22906557906458669 0 -0.29484583138699982 0.21546216672010021 0 -0.3025311369596701 0.2279451799051346 0 -0.29484583138699982 0.21546216672010021 0 -0.30808679103638181 0.2157672566230279 0 -0.28556364975324361 0.2258194074993474 0 -0.29484583138699982 0.21546216672010021 0 -0.2791973288468384 0.21790572090905611 0 -0.29339823295664158 0.22906557906458669 0 -0.28556364975324361 0.2258194074993474 0 -0.29484583138699982 0.21546216672010021 0 -0.29177957584356251 0.2379097909607483 0 -0.29339823295664158 0.22906557906458669 0 -0.28620422144783292 0.23331914670984491 0 -0.29177957584356251 0.2379097909607483 0 -0.3025311369596701 0.2279451799051346 0 -0.29339823295664158 0.22906557906458669 0 -0.29339823295664158 0.22906557906458669 0 -0.28620422144783292 0.23331914670984491 0 -0.28556364975324361 0.2258194074993474 0 -0.28620422144783292 0.23331914670984491 0 -0.28556364975324361 0.2258194074993474 0 -0.2743775822837069 0.2311971640619615 0 -0.29484583138699982 0.21546216672010021 0 -0.2791973288468384 0.21790572090905611 0 -0.28722286546432818 0.20701443054747121 0 -0.29484583138699982 0.21546216672010021 0 -0.2791973288468384 0.21790572090905611 0 -0.28722286546432818 0.20701443054747121 0 -0.29484583138699982 0.21546216672010021 0 -0.30260222686899518 0.20256494078456561 0 -0.32037844320246261 0.2049322073775762 0 -0.30808679103638181 0.2157672566230279 0 -0.30260222686899518 0.20256494078456561 0 -0.29484583138699982 0.21546216672010021 0 -0.30808679103638181 0.2157672566230279 0 -0.30260222686899518 0.20256494078456561 0 -0.31289652582642141 0.1805837036697519 0 -0.30260222686899518 0.20256494078456561 0 -0.29078848868174278 0.1932410093311285 0 -0.31289652582642141 0.1805837036697519 0 -0.32037844320246261 0.2049322073775762 0 -0.30260222686899518 0.20256494078456561 0 -0.28722286546432818 0.20701443054747121 0 -0.29078848868174278 0.1932410093311285 0 -0.26868045153706449 0.20589831499250541 0 -0.28722286546432818 0.20701443054747121 0 -0.30260222686899518 0.20256494078456561 0 -0.29078848868174278 0.1932410093311285 0 -0.29078848868174278 0.1932410093311285 0 -0.27856333876668132 0.18821622517566469 0 -0.28884814108856732 0.1821072455122304 0 -0.29078848868174278 0.1932410093311285 0 -0.27856333876668132 0.18821622517566469 0 -0.26868045153706449 0.20589831499250541 0 -0.27856333876668132 0.18821622517566469 0 -0.26868045153706449 0.20589831499250541 0 -0.29078848868174278 0.1932410093311285 0 -0.26868045153706449 0.20589831499250541 0 -0.27856333876668132 0.18821622517566469 0 -0.26868045153706449 0.20589831499250541 0 -0.26716833294266512 0.18744146854889909 0 -0.25462413856064708 0.2114088186030785 0 -0.26716833294266512 0.18744146854889909 0 -0.25193880530206408 0.19370481573741441 0 -0.26716833294266512 0.18744146854889909 0 -0.25648243047464631 0.1826357185327456 0 -0.25193880530206408 0.19370481573741441 0 -0.25462413856064708 0.2114088186030785 0 -0.26716833294266512 0.18744146854889909 0 -0.25462413856064708 0.2114088186030785 0 -0.26868045153706449 0.20589831499250541 0 -0.26716833294266512 0.18744146854889909 0 -0.2562356768596219 0.21302320427817639 0 -0.26868045153706449 0.20589831499250541 0 -0.25462413856064708 0.2114088186030785 0 -0.2562356768596219 0.21302320427817639 0 -0.26868045153706449 0.20589831499250541 0 -0.25272816581491458 0.21503132644266379 0 -0.25462413856064708 0.2114088186030785 0 -0.25272816581491458 0.21503132644266379 0 -0.2562356768596219 0.21302320427817639 0 -0.25272816581491458 0.21503132644266379 0 -0.25462413856064708 0.2114088186030785 0 -0.2562356768596219 0.21302320427817639 0 -0.25462413856064708 0.2114088186030785 0 -0.2562356768596219 0.21302320427817639 0 -0.25272816581491458 0.21503132644266379 0 -0.2562356768596219 0.21302320427817639 0 -0.25599591734786031 0.2173373503046071 0 -0.2562356768596219 0.21302320427817639 0 -0.25599591734786031 0.2173373503046071 0 -0.25801218981811458 0.2175055682723043 0 -0.25272816581491458 0.21503132644266379 0 -0.25599591734786031 0.2173373503046071 0 -0.2564563288255462 0.2214567869436789 0 -0.25599591734786031 0.2173373503046071 0 -0.25801218981811458 0.2175055682723043 0 -0.25703316838862827 0.21958787938824861 0 -0.2562356768596219 0.21302320427817639 0 -0.26166069193192981 0.2184578046382698 0 -0.26868045153706449 0.20589831499250541 0 -0.25801218981811458 0.2175055682723043 0 -0.25913549456253288 0.21912160275221951 0 -0.25703316838862827 0.21958787938824861 0 -0.26166069193192981 0.2184578046382698 0 -0.26868045153706449 0.20589831499250541 0 -0.26354882630667698 0.22034927509801169 0 -0.2562356768596219 0.21302320427817639 0 -0.26166069193192981 0.2184578046382698 0 -0.26166069193192981 0.2184578046382698 0 -0.26868045153706449 0.20589831499250541 0 -0.25801218981811458 0.2175055682723043 0 -0.26166069193192981 0.2184578046382698 0 -0.25913549456253288 0.21912160275221951 0 -0.2562356768596219 0.21302320427817639 0 -0.25801218981811458 0.2175055682723043 0 -0.26166069193192981 0.2184578046382698 0 -0.28722286546432818 0.20701443054747121 0 -0.26868045153706449 0.20589831499250541 0 -0.2791973288468384 0.21790572090905611 0 -0.26868045153706449 0.20589831499250541 0 -0.2791973288468384 0.21790572090905611 0 -0.26354882630667698 0.22034927509801169 0 -0.2791973288468384 0.21790572090905611 0 -0.26354882630667698 0.22034927509801169 0 -0.2791973288468384 0.21790572090905611 0 -0.2743775822837069 0.2311971640619615 0 -0.26354882630667698 0.22034927509801169 0 -0.28556364975324361 0.2258194074993474 0 -0.2791973288468384 0.21790572090905611 0 -0.2743775822837069 0.2311971640619615 0 -0.2743775822837069 0.2311971640619615 0 -0.26322708885207657 0.23130122429223079 0 -0.27053130904085088 0.23989425105438689 0 -0.2743775822837069 0.2311971640619615 0 -0.26354882630667698 0.22034927509801169 0 -0.26322708885207657 0.23130122429223079 0 -0.2743775822837069 0.2311971640619615 0 -0.26354882630667698 0.22034927509801169 0 -0.26354882630667698 0.22034927509801169 0 -0.26032187107898369 0.22085317251209219 0 -0.26322708885207657 0.23130122429223079 0 -0.26354882630667698 0.22034927509801169 0 -0.26032187107898369 0.22085317251209219 0 -0.26166069193192981 0.2184578046382698 0 -0.26354882630667698 0.22034927509801169 0 -0.26032187107898369 0.22085317251209219 0 -0.26166069193192981 0.2184578046382698 0 -0.26354882630667698 0.22034927509801169 0 -0.26166069193192981 0.2184578046382698 0 -0.26032187107898369 0.22085317251209219 0 -0.26166069193192981 0.2184578046382698 0 -0.26032187107898369 0.22085317251209219 0 -0.25913549456253288 0.21912160275221951 0 -0.26032187107898369 0.22085317251209219 0 -0.2564563288255462 0.2214567869436789 0 -0.26032187107898369 0.22085317251209219 0 -0.25703316838862827 0.21958787938824861 0 -0.2564563288255462 0.2214567869436789 0 -0.26032187107898369 0.22085317251209219 0 -0.25913549456253288 0.21912160275221951 0 -0.25703316838862827 0.21958787938824861 0 -0.25599591734786031 0.2173373503046071 0 -0.25703316838862827 0.21958787938824861 0 -0.2564563288255462 0.2214567869436789 0 -0.2564563288255462 0.2214567869436789 0 -0.25210514226647263 0.23555423440704959 0 -0.248734035528067 0.22266264303674471 0 -0.26032187107898369 0.22085317251209219 0 -0.2564563288255462 0.2214567869436789 0 -0.25210514226647263 0.23555423440704959 0 -0.25703316838862827 0.21958787938824861 0 -0.2564563288255462 0.2214567869436789 0 -0.25272816581491458 0.21503132644266379 0 -0.2564563288255462 0.2214567869436789 0 -0.248734035528067 0.22266264303674471 0 -0.2564563288255462 0.2214567869436789 0 -0.248734035528067 0.22266264303674471 0 -0.25272816581491458 0.21503132644266379 0 -0.248734035528067 0.22266264303674471 0 -0.26032187107898369 0.22085317251209219 0 -0.25210514226647263 0.23555423440704959 0 -0.2564563288255462 0.2214567869436789 0 -0.25210514226647263 0.23555423440704959 0 -0.26032187107898369 0.22085317251209219 0 -0.26322708885207657 0.23130122429223079 0 -0.25210514226647263 0.23555423440704959 0 -0.26322708885207657 0.23130122429223079 0 -0.25210514226647263 0.23555423440704959 0 -0.25993357060704247 0.2432609816545768 0 -0.25054816238852479 0.24059870715785611 0 -0.25993357060704247 0.2432609816545768 0 -0.2546175921406465 0.26128861144859822 0 -0.26322708885207657 0.23130122429223079 0 -0.25993357060704247 0.2432609816545768 0 -0.27053130904085088 0.23989425105438689 0 -0.25054816238852479 0.24059870715785611 0 -0.25210514226647263 0.23555423440704959 0 -0.25993357060704247 0.2432609816545768 0 -0.25054816238852479 0.24059870715785611 0 -0.25210514226647263 0.23555423440704959 0 -0.25993357060704247 0.2432609816545768 0 -0.27053130904085088 0.23989425105438689 0 -0.26991196520069161 0.25166683223725428 0 -0.28520633826073721 0.24204505302591109 0 -0.2743775822837069 0.2311971640619615 0 -0.27053130904085088 0.23989425105438689 0 -0.28520633826073721 0.24204505302591109 0 -0.2743775822837069 0.2311971640619615 0 -0.28520633826073721 0.24204505302591109 0 -0.26991196520069161 0.25166683223725428 0 -0.28520633826073721 0.24204505302591109 0 -0.27053130904085088 0.23989425105438689 0 -0.26991196520069161 0.25166683223725428 0 -0.29367763624156518 0.14580120048619691 0 -0.30132029725935677 0.14489814247345079 0 -0.28540527766694768 0.16993595446686949 0 -0.30132029725935677 0.14489814247345079 0 -0.29832911322591421 0.15285204554198301 0 -0.28540527766694768 0.16993595446686949 0 -0.29225672170669897 0.1395067684405393 0 -0.27971252732468282 0.16347411849471971 0 -0.29367763624156518 0.14580120048619691 0 -0.29225672170669897 0.1395067684405393 0 -0.27971252732468282 0.16347411849471971 0 -0.29225672170669897 0.1395067684405393 0 -0.27971252732468282 0.16347411849471971 0 -0.27793738210199243 0.14829742822643491 0 -0.29367763624156518 0.14580120048619691 0 -0.29225672170669897 0.1395067684405393 0 -0.29367763624156518 0.14580120048619691 0 -0.29225672170669897 0.1395067684405393 0 -0.29707098058306791 0.1417275861303573 0 -0.29225672170669897 0.1395067684405393 0 -0.27793738210199243 0.14829742822643491 0 -0.28046643513796882 0.14013597811185341 0 -0.29225672170669897 0.1395067684405393 0 -0.27842990629181991 0.12905884737457521 0 -0.28046643513796882 0.14013597811185341 0 -0.29225672170669897 0.1395067684405393 0 -0.27842990629181991 0.12905884737457521 0 -0.2863041877154166 0.1131379617402274 0 -0.29225672170669897 0.1395067684405393 0 -0.2863041877154166 0.1131379617402274 0 -0.29225672170669897 0.1395067684405393 0 -0.2981778848162786 0.128193599602963 0 -0.2863041877154166 0.1131379617402274 0 -0.29225672170669897 0.1395067684405393 0 -0.30121224024343363 0.13483728542546841 0 -0.29707098058306791 0.1417275861303573 0 -0.29225672170669897 0.1395067684405393 0 -0.2981778848162786 0.128193599602963 0 -0.29225672170669897 0.1395067684405393 0 -0.30121224024343363 0.13483728542546841 0 -0.2981778848162786 0.128193599602963 0 -0.30121224024343363 0.13483728542546841 0 -0.2981778848162786 0.128193599602963 0 -0.31723531685176609 0.1198603304800319 0 -0.30132029725935677 0.14489814247345079 0 -0.31723531685176609 0.1198603304800319 0 -0.30121224024343363 0.13483728542546841 0 -0.30132029725935677 0.14489814247345079 0 -0.29707098058306791 0.1417275861303573 0 -0.31283651791160189 0.14254581953933751 0 -0.30132029725935677 0.14489814247345079 0 -0.31723531685176609 0.1198603304800319 0 -0.30121224024343363 0.13483728542546841 0 -0.30132029725935677 0.14489814247345079 0 -0.31723531685176609 0.1198603304800319 0 -0.31283651791160189 0.14254581953933751 0 -0.30132029725935677 0.14489814247345079 0 -0.30551098130554788 0.1539394275644638 0 -0.29367763624156518 0.14580120048619691 0 -0.30132029725935677 0.14489814247345079 0 -0.29707098058306791 0.1417275861303573 0 -0.30132029725935677 0.14489814247345079 0 -0.29832911322591421 0.15285204554198301 0 -0.30551098130554788 0.1539394275644638 0 -0.31851102729851588 0.15590236448055639 0 -0.31283651791160189 0.14254581953933751 0 -0.30551098130554788 0.1539394275644638 0 -0.31289652582642141 0.1805837036697519 0 -0.31851102729851588 0.15590236448055639 0 -0.30548605551313601 0.16580850627828139 0 -0.31851102729851588 0.15590236448055639 0 -0.30551098130554788 0.1539394275644638 0 -0.30548605551313601 0.16580850627828139 0 -0.30548605551313601 0.16580850627828139 0 -0.29764345600278319 0.16844986735664469 0 -0.29759451090954719 0.17643761218330459 0 -0.30548605551313601 0.16580850627828139 0 -0.29764345600278319 0.16844986735664469 0 -0.29908316640873578 0.16231679642003941 0 -0.29832911322591421 0.15285204554198301 0 -0.30551098130554788 0.1539394275644638 0 -0.29908316640873578 0.16231679642003941 0 -0.30551098130554788 0.1539394275644638 0 -0.30548605551313601 0.16580850627828139 0 -0.29908316640873578 0.16231679642003941 0 -0.31289652582642141 0.1805837036697519 0 -0.29078848868174278 0.1932410093311285 0 -0.29759451090954719 0.17643761218330459 0 -0.31289652582642141 0.1805837036697519 0 -0.29078848868174278 0.1932410093311285 0 -0.31289652582642141 0.1805837036697519 0 -0.30548605551313601 0.16580850627828139 0 -0.29759451090954719 0.17643761218330459 0 -0.27856333876668132 0.18821622517566469 0 -0.28844622599629782 0.17053413535882381 0 -0.27856333876668132 0.18821622517566469 0 -0.28884814108856732 0.1821072455122304 0 -0.28844622599629782 0.17053413535882381 0 -0.27856333876668132 0.18821622517566469 0 -0.28540527766694768 0.16993595446686949 0 -0.28844622599629782 0.17053413535882381 0 -0.29078848868174278 0.1932410093311285 0 -0.29759451090954719 0.17643761218330459 0 -0.28884814108856732 0.1821072455122304 0 -0.29759451090954719 0.17643761218330459 0 -0.28884814108856732 0.1821072455122304 0 -0.28844622599629782 0.17053413535882381 0 -0.29832911322591421 0.15285204554198301 0 -0.29908316640873578 0.16231679642003941 0 -0.28844622599629782 0.17053413535882381 0 -0.30132029725935677 0.14489814247345079 0 -0.28540527766694768 0.16993595446686949 0 -0.29367763624156518 0.14580120048619691 0 -0.28540527766694768 0.16993595446686949 0 -0.27971252732468282 0.16347411849471971 0 -0.29832911322591421 0.15285204554198301 0 -0.28540527766694768 0.16993595446686949 0 -0.28844622599629782 0.17053413535882381 0 -0.29832911322591421 0.15285204554198301 0 -0.28844622599629782 0.17053413535882381 0 -0.29764345600278319 0.16844986735664469 0 -0.29759451090954719 0.17643761218330459 0 -0.28844622599629782 0.17053413535882381 0 -0.29764345600278319 0.16844986735664469 0 -0.29908316640873578 0.16231679642003941 0 -0.28844622599629782 0.17053413535882381 0 -0.27971252732468282 0.16347411849471971 0 -0.26681583754358312 0.15703960248194049 0 -0.27793738210199243 0.14829742822643491 0 -0.27971252732468282 0.16347411849471971 0 -0.26864544582317851 0.1695326912228835 0 -0.26681583754358312 0.15703960248194049 0 -0.28540527766694768 0.16993595446686949 0 -0.27971252732468282 0.16347411849471971 0 -0.26716833294266512 0.18744146854889909 0 -0.27971252732468282 0.16347411849471971 0 -0.26716833294266512 0.18744146854889909 0 -0.27856333876668132 0.18821622517566469 0 -0.28540527766694768 0.16993595446686949 0 -0.26716833294266512 0.18744146854889909 0 -0.27971252732468282 0.16347411849471971 0 -0.26864544582317851 0.1695326912228835 0 -0.26716833294266512 0.18744146854889909 0 -0.26088508548178302 0.1701755753659748 0 -0.24346313069296871 0.16633892637512099 0 -0.24593749817207319 0.17922101447869401 0 -0.26864544582317851 0.1695326912228835 0 -0.26716833294266512 0.18744146854889909 0 -0.26088508548178302 0.1701755753659748 0 -0.26716833294266512 0.18744146854889909 0 -0.25648243047464631 0.1826357185327456 0 -0.26088508548178302 0.1701755753659748 0 -0.25648243047464631 0.1826357185327456 0 -0.26088508548178302 0.1701755753659748 0 -0.24593749817207319 0.17922101447869401 0 -0.25193880530206408 0.19370481573741441 0 -0.25648243047464631 0.1826357185327456 0 -0.24593749817207319 0.17922101447869401 0 -0.26681583754358312 0.15703960248194049 0 -0.26088508548178302 0.1701755753659748 0 -0.25072842261960387 0.15603505327837411 0 -0.26088508548178302 0.1701755753659748 0 -0.25072842261960387 0.15603505327837411 0 -0.24346313069296871 0.16633892637512099 0 -0.26864544582317851 0.1695326912228835 0 -0.26681583754358312 0.15703960248194049 0 -0.26088508548178302 0.1701755753659748 0 -0.26088508548178302 0.1701755753659748 0 -0.25072842261960387 0.15603505327837411 0 -0.26681583754358312 0.15703960248194049 0 -0.25608290515330878 0.14176455504424121 0 -0.27043538879702828 0.1413306736031216 0 -0.26681583754358312 0.15703960248194049 0 -0.25072842261960387 0.15603505327837411 0 -0.25608290515330878 0.14176455504424121 0 -0.26681583754358312 0.15703960248194049 0 -0.27043538879702828 0.1413306736031216 0 -0.27793738210199243 0.14829742822643491 0 -0.27043538879702828 0.1413306736031216 0 -0.27793738210199243 0.14829742822643491 0 -0.28046643513796882 0.14013597811185341 0 -0.27043538879702828 0.1413306736031216 0 -0.27842990629181991 0.12905884737457521 0 -0.28046643513796882 0.14013597811185341 0 -0.27043538879702828 0.1413306736031216 0 -0.27842990629181991 0.12905884737457521 0 -0.2648400147316442 0.13011893998476409 0 -0.27842990629181991 0.12905884737457521 0 -0.2648400147316442 0.13011893998476409 0 -0.26830038075826779 0.11624375259475619 0 -0.25608290515330878 0.14176455504424121 0 -0.2648400147316442 0.13011893998476409 0 -0.24895710550971339 0.12165530893482571 0 -0.25608290515330878 0.14176455504424121 0 -0.27043538879702828 0.1413306736031216 0 -0.2648400147316442 0.13011893998476409 0 -0.25734245126200062 0.1014160866788785 0 -0.26830038075826779 0.11624375259475619 0 -0.24895710550971339 0.12165530893482571 0 -0.2648400147316442 0.13011893998476409 0 -0.26830038075826779 0.11624375259475619 0 -0.24895710550971339 0.12165530893482571 0 -0.25734245126200062 0.1014160866788785 0 -0.24895710550971339 0.12165530893482571 0 -0.25734245126200062 0.1014160866788785 0 -0.27392861903901239 0.1020753708552664 0 -0.26830038075826779 0.11624375259475619 0 -0.27392861903901239 0.1020753708552664 0 -0.2863041877154166 0.1131379617402274 0 -0.28035165372413551 0.086769155039914989 0 -0.25734245126200062 0.1014160866788785 0 -0.27392861903901239 0.1020753708552664 0 -0.26572779701428773 0.081176864422931191 0 -0.27842990629181991 0.12905884737457521 0 -0.26830038075826779 0.11624375259475619 0 -0.2863041877154166 0.1131379617402274 0 -0.27392861903901239 0.1020753708552664 0 -0.26830038075826779 0.11624375259475619 0 -0.2863041877154166 0.1131379617402274 0 -0.2981778848162786 0.128193599602963 0 -0.2863041877154166 0.1131379617402274 0 -0.30134905106005738 0.1164832023402728 0 -0.2863041877154166 0.1131379617402274 0 -0.28035165372413551 0.086769155039914989 0 -0.2863041877154166 0.1131379617402274 0 -0.29405774138327462 0.094893752904386258 0 -0.28035165372413551 0.086769155039914989 0 -0.2863041877154166 0.1131379617402274 0 -0.29405774138327462 0.094893752904386258 0 -0.30367881485676818 0.104740917537869 0 -0.29405774138327462 0.094893752904386258 0 -0.30367881485676818 0.104740917537869 0 -0.30859009333780452 0.087437634974232029 0 -0.30367881485676818 0.104740917537869 0 -0.30859009333780452 0.087437634974232029 0 -0.31724517505712951 0.098806923667406316 0 -0.2981778848162786 0.128193599602963 0 -0.30134905106005738 0.1164832023402728 0 -0.31723531685176609 0.1198603304800319 0 -0.2863041877154166 0.1131379617402274 0 -0.30367881485676818 0.104740917537869 0 -0.30134905106005738 0.1164832023402728 0 -0.30367881485676818 0.104740917537869 0 -0.30134905106005738 0.1164832023402728 0 -0.31723531685176609 0.1198603304800319 0 -0.30660633332941051 0.074378369855040594 0 -0.29366682663590249 0.070755320590707688 0 -0.31081826144354868 0.060679329518446831 0 -0.30660633332941051 0.074378369855040594 0 -0.29665452968210548 0.0828468466728563 0 -0.29366682663590249 0.070755320590707688 0 -0.29405774138327462 0.094893752904386258 0 -0.30859009333780452 0.087437634974232029 0 -0.29665452968210548 0.0828468466728563 0 -0.30660633332941051 0.074378369855040594 0 -0.30859009333780452 0.087437634974232029 0 -0.29665452968210548 0.0828468466728563 0 -0.29665452968210548 0.0828468466728563 0 -0.29366682663590249 0.070755320590707688 0 -0.28035165372413551 0.086769155039914989 0 -0.29405774138327462 0.094893752904386258 0 -0.29665452968210548 0.0828468466728563 0 -0.28035165372413551 0.086769155039914989 0 -0.29366682663590249 0.070755320590707688 0 -0.28035165372413551 0.086769155039914989 0 -0.2743991197328543 0.06040034833960263 0 -0.28035165372413551 0.086769155039914989 0 -0.2743991197328543 0.06040034833960263 0 -0.28035165372413551 0.086769155039914989 0 -0.26572779701428773 0.081176864422931191 0 -0.2743991197328543 0.06040034833960263 0 -0.27392861903901239 0.1020753708552664 0 -0.28035165372413551 0.086769155039914989 0 -0.26572779701428773 0.081176864422931191 0 -0.25734245126200062 0.1014160866788785 0 -0.26572779701428773 0.081176864422931191 0 -0.24672703352553629 0.080158677613093823 0 -0.25734245126200062 0.1014160866788785 0 -0.26572779701428773 0.081176864422931191 0 -0.26572779701428773 0.081176864422931191 0 -0.2559826395353394 0.061597363551489349 0 -0.2743991197328543 0.06040034833960263 0 -0.26572779701428773 0.081176864422931191 0 -0.2559826395353394 0.061597363551489349 0 -0.24672703352553629 0.080158677613093823 0 -0.2559826395353394 0.061597363551489349 0 -0.26844658574157321 0.034031541639290362 0 -0.24450296286368231 0.049373315754277197 0 -0.26844658574157321 0.034031541639290362 0 -0.24192231969137759 0.032530148466345048 0 -0.24450296286368231 0.049373315754277197 0 -0.26844658574157321 0.034031541639290362 0 -0.2743991197328543 0.06040034833960263 0 -0.28919208176463768 0.041254089627619089 0 -0.26844658574157321 0.034031541639290362 0 -0.28503043027369879 0.024646141826126219 0 -0.28919208176463768 0.041254089627619089 0 -0.2559826395353394 0.061597363551489349 0 -0.26844658574157321 0.034031541639290362 0 -0.2743991197328543 0.06040034833960263 0 -0.26844658574157321 0.034031541639290362 0 -0.2743991197328543 0.06040034833960263 0 -0.25227296286688322 -0.0076793426536460041 0 -0.26249405175029211 0.007662734938978108 0 -0.23546354233931949 0.0078270751002715265 0 -0.26844658574157321 0.034031541639290362 0 -0.26249405175029211 0.007662734938978108 0 -0.26844658574157321 0.034031541639290362 0 -0.26249405175029211 0.007662734938978108 0 -0.24192231969137759 0.032530148466345048 0 -0.26844658574157321 0.034031541639290362 0 -0.26249405175029211 0.007662734938978108 0 -0.28503043027369879 0.024646141826126219 0 -0.26249405175029211 0.007662734938978108 0 -0.29088909275279012 0.0052797473078289572 0 -0.28503043027369879 0.024646141826126219 0 -0.28503043027369879 0.024646141826126219 0 -0.30319396424779033 0.026796870749645822 0 -0.28919208176463768 0.041254089627619089 0 -0.29088909275279012 0.0052797473078289572 0 -0.28503043027369879 0.024646141826126219 0 -0.30319396424779033 0.026796870749645822 0 -0.30319396424779033 0.026796870749645822 0 -0.30957503066598552 0.011427225412800709 0 -0.32058731744473762 0.019928587991941731 0 -0.29088909275279012 0.0052797473078289572 0 -0.30319396424779033 0.026796870749645822 0 -0.30957503066598552 0.011427225412800709 0 -0.30518798685158838 -0.0020929360932298849 0 -0.29088909275279012 0.0052797473078289572 0 -0.30957503066598552 0.011427225412800709 0 -0.30518798685158838 -0.0020929360932298849 0 -0.30957503066598552 0.011427225412800709 0 -0.32049615199215492 0.0045280339304297253 0 -0.2743991197328543 0.06040034833960263 0 -0.29603323201561299 0.055812399873303893 0 -0.28919208176463768 0.041254089627619089 0 -0.29366682663590249 0.070755320590707688 0 -0.2743991197328543 0.06040034833960263 0 -0.29603323201561299 0.055812399873303893 0 -0.30319396424779033 0.026796870749645822 0 -0.28919208176463768 0.041254089627619089 0 -0.31060618731623352 0.044985865152084623 0 -0.30319396424779033 0.026796870749645822 0 -0.31060618731623352 0.044985865152084623 0 -0.31880783956767128 0.032922242476857162 0 -0.29603323201561299 0.055812399873303893 0 -0.28919208176463768 0.041254089627619089 0 -0.31060618731623352 0.044985865152084623 0 -0.29603323201561299 0.055812399873303893 0 -0.31060618731623352 0.044985865152084623 0 -0.31081826144354868 0.060679329518446831 0 -0.29366682663590249 0.070755320590707688 0 -0.29603323201561299 0.055812399873303893 0 -0.31081826144354868 0.060679329518446831 0 -0.31060618731623352 0.044985865152084623 0 -0.32788744175529538 0.041514351910999107 0 -0.32831049041907839 0.055921771907720449 0 -0.31060618731623352 0.044985865152084623 0 -0.31081826144354868 0.060679329518446831 0 -0.32831049041907839 0.055921771907720449 0 -0.31060618731623352 0.044985865152084623 0 -0.31880783956767128 0.032922242476857162 0 -0.32788744175529538 0.041514351910999107 0 -0.31880783956767128 0.032922242476857162 0 -0.32788744175529538 0.041514351910999107 0 -0.33284048064853922 0.02898560650307868 0 -0.34306862850599618 0.040992927417729488 0 -0.33284048064853922 0.02898560650307868 0 -0.34878147881263583 0.02639136098039228 0 -0.32788744175529538 0.041514351910999107 0 -0.34306862850599618 0.040992927417729488 0 -0.32831049041907839 0.055921771907720449 0 -0.32788744175529538 0.041514351910999107 0 -0.34306862850599618 0.040992927417729488 0 -0.33284048064853922 0.02898560650307868 0 -0.32831049041907839 0.055921771907720449 0 -0.34909822148757808 0.06037421403352132 0 -0.3353113387102199 0.067919589230939131 0 -0.34306862850599618 0.040992927417729488 0 -0.32831049041907839 0.055921771907720449 0 -0.34909822148757808 0.06037421403352132 0 -0.30957503066598552 0.011427225412800709 0 -0.32049615199215492 0.0045280339304297253 0 -0.32058731744473762 0.019928587991941731 0 -0.32049615199215492 0.0045280339304297253 0 -0.32058731744473762 0.019928587991941731 0 -0.33553321900770577 0.01329805350298063 0 -0.30319396424779033 0.026796870749645822 0 -0.31880783956767128 0.032922242476857162 0 -0.32058731744473762 0.019928587991941731 0 -0.31880783956767128 0.032922242476857162 0 -0.32058731744473762 0.019928587991941731 0 -0.33284048064853922 0.02898560650307868 0 -0.33284048064853922 0.02898560650307868 0 -0.33553321900770577 0.01329805350298063 0 -0.34878147881263583 0.02639136098039228 0 -0.32058731744473762 0.019928587991941731 0 -0.33284048064853922 0.02898560650307868 0 -0.33553321900770577 0.01329805350298063 0 -0.33449922093445961 -0.0040818700918973123 0 -0.32049615199215492 0.0045280339304297253 0 -0.33553321900770577 0.01329805350298063 0 -0.33449922093445961 -0.0040818700918973123 0 -0.33553321900770577 0.01329805350298063 0 -0.35182631000740072 0.0068229147672093007 0 -0.33553321900770577 0.01329805350298063 0 -0.35182631000740072 0.0068229147672093007 0 -0.34878147881263583 0.02639136098039228 0 -0.34878147881263583 0.02639136098039228 0 -0.3640039126182737 0.02126082680388874 0 -0.35655106705292511 0.040817520418704747 0 -0.35182631000740072 0.0068229147672093007 0 -0.34878147881263583 0.02639136098039228 0 -0.3640039126182737 0.02126082680388874 0 -0.3640039126182737 0.02126082680388874 0 -0.35655106705292511 0.040817520418704747 0 -0.37938766176258892 0.01937444117527904 0 -0.3640039126182737 0.02126082680388874 0 -0.37363166703579942 0.035604814688565273 0 -0.3640039126182737 0.02126082680388874 0 -0.37145675818362223 0.001704133189072726 0 -0.35182631000740072 0.0068229147672093007 0 -0.3640039126182737 0.02126082680388874 0 -0.37145675818362223 0.001704133189072726 0 -0.37938766176258892 0.01937444117527904 0 -0.3640039126182737 0.02126082680388874 0 -0.37145675818362223 0.001704133189072726 0 -0.34909822148757808 0.06037421403352132 0 -0.35655106705292511 0.040817520418704747 0 -0.34306862850599618 0.040992927417729488 0 -0.34909822148757808 0.06037421403352132 0 -0.35655106705292511 0.040817520418704747 0 -0.34306862850599618 0.040992927417729488 0 -0.34909822148757808 0.06037421403352132 0 -0.34909822148757808 0.06037421403352132 0 -0.35655106705292511 0.040817520418704747 0 -0.36842953035862158 0.050481425088617103 0 -0.34306862850599618 0.040992927417729488 0 -0.34878147881263583 0.02639136098039228 0 -0.35655106705292511 0.040817520418704747 0 -0.3640039126182737 0.02126082680388874 0 -0.35655106705292511 0.040817520418704747 0 -0.37363166703579942 0.035604814688565273 0 -0.35655106705292511 0.040817520418704747 0 -0.37363166703579942 0.035604814688565273 0 -0.36842953035862158 0.050481425088617103 0 -0.34909822148757808 0.06037421403352132 0 -0.36842953035862158 0.050481425088617103 0 -0.37191756568804107 0.066739953928913298 0 -0.37191756568804107 0.066739953928913298 0 -0.35586120822019068 0.082112892687927444 0 -0.37138104083623391 0.082703932652830325 0 -0.34909822148757808 0.06037421403352132 0 -0.35586120822019068 0.082112892687927444 0 -0.34909822148757808 0.06037421403352132 0 -0.35586120822019068 0.082112892687927444 0 -0.34122595447521131 0.081031493547087358 0 -0.34909822148757808 0.06037421403352132 0 -0.37191756568804107 0.066739953928913298 0 -0.35586120822019068 0.082112892687927444 0 -0.34909822148757808 0.06037421403352132 0 -0.34122595447521131 0.081031493547087358 0 -0.35586120822019068 0.082112892687927444 0 -0.36262419495280129 0.1038515713423341 0 -0.35586120822019068 0.082112892687927444 0 -0.36262419495280129 0.1038515713423341 0 -0.34676829850597268 0.094510259469289468 0 -0.35586120822019068 0.082112892687927444 0 -0.34676829850597268 0.094510259469289468 0 -0.34122595447521131 0.081031493547087358 0 -0.35586120822019068 0.082112892687927444 0 -0.37138104083623391 0.082703932652830325 0 -0.36262419495280129 0.1038515713423341 0 -0.37678680274428078 0.095920052983538381 0 -0.37138104083623391 0.082703932652830325 0 -0.36262419495280129 0.1038515713423341 0 -0.36938718168541179 0.1255902499967409 0 -0.35200794605681629 0.12502238642781019 0 -0.36262419495280129 0.1038515713423341 0 -0.3875766108720648 0.10801011350679229 0 -0.36938718168541179 0.1255902499967409 0 -0.36262419495280129 0.1038515713423341 0 -0.36938718168541179 0.1255902499967409 0 -0.36262419495280129 0.1038515713423341 0 -0.35200794605681629 0.12502238642781019 0 -0.36262419495280129 0.1038515713423341 0 -0.34097979843748499 0.11073282128248541 0 -0.36262419495280129 0.1038515713423341 0 -0.34676829850597268 0.094510259469289468 0 -0.34097979843748499 0.11073282128248541 0 -0.33315033644417541 0.094822518486612939 0 -0.34097979843748499 0.11073282128248541 0 -0.31723531685176609 0.1198603304800319 0 -0.34676829850597268 0.094510259469289468 0 -0.33315033644417541 0.094822518486612939 0 -0.34097979843748499 0.11073282128248541 0 -0.35200794605681629 0.12502238642781019 0 -0.33282908497732799 0.12691684344983439 0 -0.34097979843748499 0.11073282128248541 0 -0.33282908497732799 0.12691684344983439 0 -0.34097979843748499 0.11073282128248541 0 -0.31723531685176609 0.1198603304800319 0 -0.30367881485676818 0.104740917537869 0 -0.31723531685176609 0.1198603304800319 0 -0.31724517505712951 0.098806923667406316 0 -0.33315033644417541 0.094822518486612939 0 -0.31723531685176609 0.1198603304800319 0 -0.33315033644417541 0.094822518486612939 0 -0.31723531685176609 0.1198603304800319 0 -0.31724517505712951 0.098806923667406316 0 -0.30859009333780452 0.087437634974232029 0 -0.31724517505712951 0.098806923667406316 0 -0.32357131379513321 0.087173216858285787 0 -0.33315033644417541 0.094822518486612939 0 -0.31724517505712951 0.098806923667406316 0 -0.32357131379513321 0.087173216858285787 0 -0.30660633332941051 0.074378369855040594 0 -0.30859009333780452 0.087437634974232029 0 -0.32274642435413547 0.073355371094589714 0 -0.30859009333780452 0.087437634974232029 0 -0.32357131379513321 0.087173216858285787 0 -0.32274642435413547 0.073355371094589714 0 -0.31081826144354868 0.060679329518446831 0 -0.32831049041907839 0.055921771907720449 0 -0.32274642435413547 0.073355371094589714 0 -0.30660633332941051 0.074378369855040594 0 -0.31081826144354868 0.060679329518446831 0 -0.32274642435413547 0.073355371094589714 0 -0.32831049041907839 0.055921771907720449 0 -0.32274642435413547 0.073355371094589714 0 -0.3353113387102199 0.067919589230939131 0 -0.34909822148757808 0.06037421403352132 0 -0.3353113387102199 0.067919589230939131 0 -0.34122595447521131 0.081031493547087358 0 -0.32274642435413547 0.073355371094589714 0 -0.3353113387102199 0.067919589230939131 0 -0.34122595447521131 0.081031493547087358 0 -0.33315033644417541 0.094822518486612939 0 -0.32357131379513321 0.087173216858285787 0 -0.34122595447521131 0.081031493547087358 0 -0.32357131379513321 0.087173216858285787 0 -0.32274642435413547 0.073355371094589714 0 -0.34122595447521131 0.081031493547087358 0 -0.34676829850597268 0.094510259469289468 0 -0.33315033644417541 0.094822518486612939 0 -0.34122595447521131 0.081031493547087358 0 -0.39098080248864292 0.48082949146892462 0 -0.39688472812408349 0.46225301958370763 0 -0.40654981809613899 0.47943816589621452 0 -0.39098080248864292 0.48082949146892462 0 -0.40517642966730788 0.5 0 -0.40654981809613899 0.47943816589621452 0 -0.39098080248864292 0.48082949146892462 0 -0.40517642966730788 0.5 0 -0.37984386551400101 0.5 0 -0.39098080248864292 0.48082949146892462 0 -0.37984386551400101 0.5 0 -0.36562800957556379 0.48144847740775781 0 -0.39098080248864292 0.48082949146892462 0 -0.37674471779043378 0.46289695481551602 0 -0.36562800957556379 0.48144847740775781 0 -0.39098080248864292 0.48082949146892462 0 -0.37674471779043378 0.46289695481551602 0 -0.39688472812408349 0.46225301958370763 0 -0.37674471779043378 0.46289695481551602 0 -0.38786142600530288 0.44434543222327372 0 -0.37674471779043378 0.46289695481551602 0 -0.38786142600530288 0.44434543222327372 0 -0.3636594906987341 0.45259116813215772 0 -0.37674471779043378 0.46289695481551602 0 -0.38786142600530288 0.44434543222327372 0 -0.39688472812408349 0.46225301958370763 0 -0.38786142600530288 0.44434543222327372 0 -0.38219330561030318 0.43733759585905729 0 -0.37031446948010971 0.44164379239859503 0 -0.38786142600530288 0.44434543222327372 0 -0.3636594906987341 0.45259116813215772 0 -0.38786142600530288 0.44434543222327372 0 -0.39005529127119792 0.44068431777663197 0 -0.38219330561030318 0.43733759585905729 0 -0.38786142600530288 0.44434543222327372 0 -0.39005529127119792 0.44068431777663197 0 -0.38786142600530288 0.44434543222327372 0 -0.40276516754681568 0.43926764339155733 0 -0.39688472812408349 0.46225301958370763 0 -0.38786142600530288 0.44434543222327372 0 -0.40276516754681568 0.43926764339155733 0 -0.38786142600530288 0.44434543222327372 0 -0.39005529127119792 0.44068431777663197 0 -0.40276516754681568 0.43926764339155733 0 -0.40276516754681568 0.43926764339155733 0 -0.39688472812408349 0.46225301958370763 0 -0.41912534642966243 0.46276605766276058 0 -0.39688472812408349 0.46225301958370763 0 -0.41912534642966243 0.46276605766276058 0 -0.40654981809613899 0.47943816589621452 0 -0.40276516754681568 0.43926764339155733 0 -0.41912534642966243 0.46276605766276058 0 -0.41766890908832871 0.43418985455984122 0 -0.41912534642966243 0.46276605766276058 0 -0.41766890908832871 0.43418985455984122 0 -0.43637228529971711 0.45059119829788907 0 -0.44062134191292651 0.43194009349776402 0 -0.42355994468304931 0.43218274549486041 0 -0.41912534642966243 0.46276605766276058 0 -0.43637228529971711 0.45059119829788907 0 -0.41766890908832871 0.43418985455984122 0 -0.43637228529971711 0.45059119829788907 0 -0.42355994468304931 0.43218274549486041 0 -0.41766890908832871 0.43418985455984122 0 -0.41912534642966243 0.46276605766276058 0 -0.43637228529971711 0.45059119829788907 0 -0.43819607322225379 0.4802098919466351 0 -0.41912534642966243 0.46276605766276058 0 -0.42058178377099831 0.49134226076567977 0 -0.43819607322225379 0.4802098919466351 0 -0.41912534642966243 0.46276605766276058 0 -0.40654981809613899 0.47943816589621452 0 -0.42058178377099831 0.49134226076567977 0 -0.41912534642966243 0.46276605766276058 0 -0.42058178377099831 0.49134226076567977 0 -0.40517642966730788 0.5 0 -0.40654981809613899 0.47943816589621452 0 -0.42058178377099831 0.49134226076567977 0 -0.40517642966730788 0.5 0 -0.42058178377099831 0.49134226076567977 0 -0.43050899382061492 0.5 0 -0.42058178377099831 0.49134226076567977 0 -0.43050899382061492 0.5 0 -0.43819607322225379 0.4802098919466351 0 -0.43050899382061492 0.5 0 -0.43819607322225379 0.4802098919466351 0 -0.4558415579739219 0.50000000000000289 0 -0.5 0.5 0 -0.45848093797747058 0.44107104525054719 0 -0.5 0.39368719930634488 0 -0.43819607322225379 0.4802098919466351 0 -0.45716124797569629 0.47053552262527509 0 -0.4558415579739219 0.50000000000000289 0 -0.45716124797569629 0.47053552262527509 0 -0.4558415579739219 0.50000000000000289 0 -0.45716124797569629 0.47053552262527509 0 -0.5 0.5 0 -0.45848093797747058 0.44107104525054719 0 -0.45716124797569629 0.47053552262527509 0 -0.4558415579739219 0.50000000000000289 0 -0.5 0.5 0 -0.45716124797569629 0.47053552262527509 0 -0.45848093797747058 0.44107104525054719 0 -0.43637228529971711 0.45059119829788907 0 -0.45716124797569629 0.47053552262527509 0 -0.45848093797747058 0.44107104525054719 0 -0.43637228529971711 0.45059119829788907 0 -0.43819607322225379 0.4802098919466351 0 -0.45716124797569629 0.47053552262527509 0 -0.43637228529971711 0.45059119829788907 0 -0.45848093797747058 0.44107104525054719 0 -0.44062134191292651 0.43194009349776402 0 -0.45848093797747058 0.44107104525054719 0 -0.44062134191292651 0.43194009349776402 0 -0.45980062797924498 0.41160656787581928 0 -0.44121582346845373 0.41376147505037958 0 -0.45980062797924498 0.41160656787581928 0 -0.45143531712829632 0.39504510946912502 0 -0.44062134191292651 0.43194009349776402 0 -0.44121582346845373 0.41376147505037958 0 -0.45980062797924498 0.41160656787581928 0 -0.45848093797747058 0.44107104525054719 0 -0.45980062797924498 0.41160656787581928 0 -0.45848093797747058 0.44107104525054719 0 -0.45980062797924498 0.41160656787581928 0 -0.5 0.39368719930634488 0 -0.45980062797924498 0.41160656787581928 0 -0.5 0.39368719930634488 0 -0.47061151440635052 0.38738233066939171 0 -0.5 0.39368719930634488 0 -0.47061151440635052 0.38738233066939171 0 -0.47244599738177773 0.36378702031114818 0 -0.47061151440635052 0.38738233066939171 0 -0.45360913424094712 0.37591717629495691 0 -0.45143531712829632 0.39504510946912502 0 -0.47061151440635052 0.38738233066939171 0 -0.45360913424094712 0.37591717629495691 0 -0.47244599738177773 0.36378702031114818 0 -0.45980062797924498 0.41160656787581928 0 -0.47061151440635052 0.38738233066939171 0 -0.45143531712829632 0.39504510946912502 0 -0.44121582346845373 0.41376147505037958 0 -0.45143531712829632 0.39504510946912502 0 -0.43115992967391842 0.40404311620122768 0 -0.45143531712829632 0.39504510946912502 0 -0.43477227110011651 0.38804733227876548 0 -0.43115992967391842 0.40404311620122768 0 -0.45360913424094712 0.37591717629495691 0 -0.43477227110011651 0.38804733227876548 0 -0.43761421779729981 0.36799172170783712 0 -0.45360913424094712 0.37591717629495691 0 -0.43477227110011651 0.38804733227876548 0 -0.45360913424094712 0.37591717629495691 0 -0.45143531712829632 0.39504510946912502 0 -0.43477227110011651 0.38804733227876548 0 -0.41504006019910189 0.38261021041501481 0 -0.43761421779729981 0.36799172170783712 0 -0.43477227110011651 0.38804733227876548 0 -0.41504006019910189 0.38261021041501481 0 -0.43761421779729981 0.36799172170783712 0 -0.43477227110011651 0.38804733227876548 0 -0.41504006019910189 0.38261021041501481 0 -0.4159354079592873 0.40017748826257649 0 -0.41504006019910189 0.38261021041501481 0 -0.41164644412426671 0.3848078356442457 0 -0.42787124419666578 0.3625299828724986 0 -0.41164644412426671 0.3848078356442457 0 -0.40212947449434688 0.3748414468342991 0 -0.41107150013157362 0.36619624614190099 0 -0.41504006019910189 0.38261021041501481 0 -0.41164644412426671 0.3848078356442457 0 -0.41109804598765209 0.39149102164547678 0 -0.41504006019910189 0.38261021041501481 0 -0.41164644412426671 0.3848078356442457 0 -0.41504006019910189 0.38261021041501481 0 -0.4159354079592873 0.40017748826257649 0 -0.41504006019910189 0.38261021041501481 0 -0.41109804598765209 0.39149102164547678 0 -0.4159354079592873 0.40017748826257649 0 -0.41164644412426671 0.3848078356442457 0 -0.41109804598765209 0.39149102164547678 0 -0.40177027166795132 0.3983685522600704 0 -0.41109804598765209 0.39149102164547678 0 -0.4159354079592873 0.40017748826257649 0 -0.40177027166795132 0.3983685522600704 0 -0.41164644412426671 0.3848078356442457 0 -0.40177027166795132 0.3983685522600704 0 -0.43477227110011651 0.38804733227876548 0 -0.4159354079592873 0.40017748826257649 0 -0.43477227110011651 0.38804733227876548 0 -0.4159354079592873 0.40017748826257649 0 -0.43115992967391842 0.40404311620122768 0 -0.44121582346845373 0.41376147505037958 0 -0.43115992967391842 0.40404311620122768 0 -0.42986314558338468 0.42022497384430652 0 -0.43115992967391842 0.40404311620122768 0 -0.42986314558338468 0.42022497384430652 0 -0.41680215852380748 0.41718367141120882 0 -0.44062134191292651 0.43194009349776402 0 -0.44121582346845373 0.41376147505037958 0 -0.42986314558338468 0.42022497384430652 0 -0.44062134191292651 0.43194009349776402 0 -0.42986314558338468 0.42022497384430652 0 -0.42355994468304931 0.43218274549486041 0 -0.42986314558338468 0.42022497384430652 0 -0.42355994468304931 0.43218274549486041 0 -0.41680215852380748 0.41718367141120882 0 -0.41766890908832871 0.43418985455984122 0 -0.41680215852380748 0.41718367141120882 0 -0.41766890908832871 0.43418985455984122 0 -0.41680215852380748 0.41718367141120882 0 -0.40452415779474138 0.42721409118458831 0 -0.42355994468304931 0.43218274549486041 0 -0.41766890908832871 0.43418985455984122 0 -0.41680215852380748 0.41718367141120882 0 -0.42355994468304931 0.43218274549486041 0 -0.41766890908832871 0.43418985455984122 0 -0.40276516754681568 0.43926764339155733 0 -0.41766890908832871 0.43418985455984122 0 -0.40276516754681568 0.43926764339155733 0 -0.41766890908832871 0.43418985455984122 0 -0.40452415779474138 0.42721409118458831 0 -0.4159354079592873 0.40017748826257649 0 -0.43115992967391842 0.40404311620122768 0 -0.41680215852380748 0.41718367141120882 0 -0.4159354079592873 0.40017748826257649 0 -0.41680215852380748 0.41718367141120882 0 -0.4159354079592873 0.40017748826257649 0 -0.41680215852380748 0.41718367141120882 0 -0.39328619543943649 0.41476263859902718 0 -0.39328619543943649 0.41476263859902718 0 -0.39189409921163532 0.41192926887589459 0 -0.40177027166795132 0.3983685522600704 0 -0.4159354079592873 0.40017748826257649 0 -0.39328619543943649 0.41476263859902718 0 -0.41680215852380748 0.41718367141120882 0 -0.39328619543943649 0.41476263859902718 0 -0.40452415779474138 0.42721409118458831 0 -0.39328619543943649 0.41476263859902718 0 -0.40452415779474138 0.42721409118458831 0 -0.39209835837531859 0.43066664796130649 0 -0.40276516754681568 0.43926764339155733 0 -0.40452415779474138 0.42721409118458831 0 -0.39209835837531859 0.43066664796130649 0 -0.39005529127119792 0.44068431777663197 0 -0.40276516754681568 0.43926764339155733 0 -0.39209835837531859 0.43066664796130649 0 -0.39328619543943649 0.41476263859902718 0 -0.37063698291958719 0.42934778893548009 0 -0.39209835837531859 0.43066664796130649 0 -0.38219330561030318 0.43733759585905729 0 -0.37063698291958719 0.42934778893548009 0 -0.39328619543943649 0.41476263859902718 0 -0.39209835837531859 0.43066664796130649 0 -0.37063698291958719 0.42934778893548009 0 -0.39005529127119792 0.44068431777663197 0 -0.39209835837531859 0.43066664796130649 0 -0.38219330561030318 0.43733759585905729 0 -0.39189409921163532 0.41192926887589459 0 -0.39195655763330312 0.3975585388349005 0 -0.37226667114234002 0.41030924202555608 0 -0.39328619543943649 0.41476263859902718 0 -0.39189409921163532 0.41192926887589459 0 -0.37226667114234002 0.41030924202555608 0 -0.39328619543943649 0.41476263859902718 0 -0.37226667114234002 0.41030924202555608 0 -0.37063698291958719 0.42934778893548009 0 -0.39195655763330312 0.3975585388349005 0 -0.37226667114234002 0.41030924202555608 0 -0.39195655763330312 0.3975585388349005 0 -0.37495024184161951 0.39669027322643757 0 -0.37226667114234002 0.41030924202555608 0 -0.38343510648805168 0.38508963626910381 0 -0.39195655763330312 0.3975585388349005 0 -0.37495024184161951 0.39669027322643757 0 -0.38343510648805168 0.38508963626910381 0 -0.36896039956082288 0.38726624238899698 0 -0.37495024184161951 0.39669027322643757 0 -0.38343510648805168 0.38508963626910381 0 -0.37817844187468841 0.37049799817574158 0 -0.36896039956082288 0.38726624238899698 0 -0.38343510648805168 0.38508963626910381 0 -0.39677184295297052 0.38392901966133991 0 -0.39106782088146019 0.37499676007273403 0 -0.38343510648805168 0.38508963626910381 0 -0.39106782088146019 0.37499676007273403 0 -0.37817844187468841 0.37049799817574158 0 -0.38343510648805168 0.38508963626910381 0 -0.39677184295297052 0.38392901966133991 0 -0.39195655763330312 0.3975585388349005 0 -0.41164644412426671 0.3848078356442457 0 -0.39677184295297052 0.38392901966133991 0 -0.39195655763330312 0.3975585388349005 0 -0.39677184295297052 0.38392901966133991 0 -0.40212947449434688 0.3748414468342991 0 -0.39106782088146019 0.37499676007273403 0 -0.41164644412426671 0.3848078356442457 0 -0.39677184295297052 0.38392901966133991 0 -0.40212947449434688 0.3748414468342991 0 -0.41164644412426671 0.3848078356442457 0 -0.39195655763330312 0.3975585388349005 0 -0.4159354079592873 0.40017748826257649 0 -0.39328619543943649 0.41476263859902718 0 -0.40177027166795132 0.3983685522600704 0 -0.41164644412426671 0.3848078356442457 0 -0.40177027166795132 0.3983685522600704 0 -0.39195655763330312 0.3975585388349005 0 -0.39189409921163532 0.41192926887589459 0 -0.40177027166795132 0.3983685522600704 0 -0.39195655763330312 0.3975585388349005 0 -0.39189409921163532 0.41192926887589459 0 -0.40177027166795132 0.3983685522600704 0 -0.38763875309648088 0.35121150247505228 0 -0.41586739868277361 0.34573181628790323 0 -0.39706953126344319 0.36332699894800602 0 -0.38763875309648088 0.35121150247505228 0 -0.41586739868277361 0.34573181628790323 0 -0.38763875309648088 0.35121150247505228 0 -0.3937872350367228 0.33507229671605809 0 -0.41586739868277361 0.34573181628790323 0 -0.40212947449434688 0.3748414468342991 0 -0.39706953126344319 0.36332699894800602 0 -0.41107150013157362 0.36619624614190099 0 -0.40212947449434688 0.3748414468342991 0 -0.39106782088146019 0.37499676007273403 0 -0.39706953126344319 0.36332699894800602 0 -0.37817844187468841 0.37049799817574158 0 -0.38763875309648088 0.35121150247505228 0 -0.35941010751018809 0.3566911886622014 0 -0.39706953126344319 0.36332699894800602 0 -0.37817844187468841 0.37049799817574158 0 -0.38763875309648088 0.35121150247505228 0 -0.39106782088146019 0.37499676007273403 0 -0.39706953126344319 0.36332699894800602 0 -0.37817844187468841 0.37049799817574158 0 -0.38659885775585739 0.31565850626255348 0 -0.3937872350367228 0.33507229671605809 0 -0.371857819856382 0.33718357931137699 0 -0.38763875309648088 0.35121150247505228 0 -0.3937872350367228 0.33507229671605809 0 -0.371857819856382 0.33718357931137699 0 -0.38659885775585739 0.31565850626255348 0 -0.371857819856382 0.33718357931137699 0 -0.38659885775585739 0.31565850626255348 0 -0.3736940231061725 0.31398947852622111 0 -0.371857819856382 0.33718357931137699 0 -0.38659885775585739 0.31565850626255348 0 -0.3937872350367228 0.33507229671605809 0 -0.40697334579212008 0.32557607924340459 0 -0.38659885775585739 0.31565850626255348 0 -0.40697334579212008 0.32557607924340459 0 -0.40344199037643141 0.31069905435295109 0 -0.3937872350367228 0.33507229671605809 0 -0.40697334579212008 0.32557607924340459 0 -0.41586739868277361 0.34573181628790323 0 -0.40697334579212008 0.32557607924340459 0 -0.42641657962310969 0.33014507151577532 0 -0.41586739868277361 0.34573181628790323 0 -0.40697334579212008 0.32557607924340459 0 -0.42482201379485501 0.3164116993459492 0 -0.40344199037643141 0.31069905435295109 0 -0.40697334579212008 0.32557607924340459 0 -0.42482201379485501 0.3164116993459492 0 -0.42641657962310969 0.33014507151577532 0 -0.42482201379485501 0.3164116993459492 0 -0.44032409557673402 0.32275363260086698 0 -0.44093041861641502 0.30629419798598828 0 -0.42482201379485501 0.3164116993459492 0 -0.42641657962310969 0.33014507151577532 0 -0.44032409557673402 0.32275363260086698 0 -0.42641657962310969 0.33014507151577532 0 -0.41586739868277361 0.34573181628790323 0 -0.44409604426906601 0.34025213010075239 0 -0.42641657962310969 0.33014507151577532 0 -0.44409604426906601 0.34025213010075239 0 -0.44032409557673402 0.32275363260086698 0 -0.41586739868277361 0.34573181628790323 0 -0.44409604426906601 0.34025213010075239 0 -0.42787124419666578 0.3625299828724986 0 -0.44409604426906601 0.34025213010075239 0 -0.41586739868277361 0.34573181628790323 0 -0.42787124419666578 0.3625299828724986 0 -0.44409604426906601 0.34025213010075239 0 -0.41586739868277361 0.34573181628790323 0 -0.41107150013157362 0.36619624614190099 0 -0.42787124419666578 0.3625299828724986 0 -0.39706953126344319 0.36332699894800602 0 -0.41586739868277361 0.34573181628790323 0 -0.41107150013157362 0.36619624614190099 0 -0.41164644412426671 0.3848078356442457 0 -0.41107150013157362 0.36619624614190099 0 -0.42787124419666578 0.3625299828724986 0 -0.41164644412426671 0.3848078356442457 0 -0.42787124419666578 0.3625299828724986 0 -0.41504006019910189 0.38261021041501481 0 -0.42787124419666578 0.3625299828724986 0 -0.43761421779729981 0.36799172170783712 0 -0.42787124419666578 0.3625299828724986 0 -0.43761421779729981 0.36799172170783712 0 -0.44532995730629832 0.35516754502531411 0 -0.5 0.39368719930634488 0 -0.5 0.31375562759013931 0 -0.49236992051172512 0.33088130527536841 0 -0.5 0.39368719930634488 0 -0.49236992051172512 0.33088130527536841 0 -0.48276253299369798 0.33875474429348529 0 -0.43761421779729981 0.36799172170783712 0 -0.46018837539549878 0.35337323300066131 0 -0.45360913424094712 0.37591717629495691 0 -0.43761421779729981 0.36799172170783712 0 -0.46018837539549878 0.35337323300066131 0 -0.44532995730629832 0.35516754502531411 0 -0.46018837539549878 0.35337323300066131 0 -0.44409604426906601 0.34025213010075239 0 -0.42787124419666578 0.3625299828724986 0 -0.44532995730629832 0.35516754502531411 0 -0.44409604426906601 0.34025213010075239 0 -0.43761421779729981 0.36799172170783712 0 -0.44532995730629832 0.35516754502531411 0 -0.46018837539549878 0.35337323300066131 0 -0.45360913424094712 0.37591717629495691 0 -0.47244599738177773 0.36378702031114818 0 -0.45360913424094712 0.37591717629495691 0 -0.46018837539549878 0.35337323300066131 0 -0.47244599738177773 0.36378702031114818 0 -0.5 0.39368719930634488 0 -0.47244599738177773 0.36378702031114818 0 -0.48276253299369798 0.33875474429348529 0 -0.46018837539549878 0.35337323300066131 0 -0.47244599738177773 0.36378702031114818 0 -0.48276253299369798 0.33875474429348529 0 -0.46018837539549878 0.35337323300066131 0 -0.48276253299369798 0.33875474429348529 0 -0.5 0.31375562759013931 0 -0.49236992051172512 0.33088130527536841 0 -0.47844448370196352 0.32365782782372382 0 -0.49236992051172512 0.33088130527536841 0 -0.48276253299369798 0.33875474429348529 0 -0.46823298239039562 0.33556671768806118 0 -0.49236992051172512 0.33088130527536841 0 -0.47844448370196352 0.32365782782372382 0 -0.46823298239039562 0.33556671768806118 0 -0.46018837539549878 0.35337323300066131 0 -0.48276253299369798 0.33875474429348529 0 -0.46823298239039562 0.33556671768806118 0 -0.49236992051172512 0.33088130527536841 0 -0.46823298239039562 0.33556671768806118 0 -0.5 0.31375562759013931 0 -0.47844448370196352 0.32365782782372382 0 -0.47326150671693828 0.30885130336962702 0 -0.47844448370196352 0.32365782782372382 0 -0.46553845445045222 0.32292377735302652 0 -0.46823298239039562 0.33556671768806118 0 -0.47844448370196352 0.32365782782372382 0 -0.46553845445045222 0.32292377735302652 0 -0.47326150671693828 0.30885130336962702 0 -0.46553845445045222 0.32292377735302652 0 -0.45536731290503107 0.31414791777939732 0 -0.47326150671693828 0.30885130336962702 0 -0.46553845445045222 0.32292377735302652 0 -0.45342644041040631 0.32744080480790411 0 -0.45536731290503107 0.31414791777939732 0 -0.46823298239039562 0.33556671768806118 0 -0.44409604426906601 0.34025213010075239 0 -0.46018837539549878 0.35337323300066131 0 -0.46823298239039562 0.33556671768806118 0 -0.44409604426906601 0.34025213010075239 0 -0.45342644041040631 0.32744080480790411 0 -0.46823298239039562 0.33556671768806118 0 -0.44409604426906601 0.34025213010075239 0 -0.46553845445045222 0.32292377735302652 0 -0.45342644041040631 0.32744080480790411 0 -0.46823298239039562 0.33556671768806118 0 -0.45342644041040631 0.32744080480790411 0 -0.44409604426906601 0.34025213010075239 0 -0.44032409557673402 0.32275363260086698 0 -0.45342644041040631 0.32744080480790411 0 -0.44409604426906601 0.34025213010075239 0 -0.45536731290503107 0.31414791777939732 0 -0.44032409557673402 0.32275363260086698 0 -0.44093041861641502 0.30629419798598828 0 -0.45342644041040631 0.32744080480790411 0 -0.45536731290503107 0.31414791777939732 0 -0.44032409557673402 0.32275363260086698 0 -0.44093041861641502 0.30629419798598828 0 -0.44456522433562062 0.28987896746967612 0 -0.45784842118247587 0.29630392741269229 0 -0.45536731290503107 0.31414791777939732 0 -0.44093041861641502 0.30629419798598828 0 -0.45784842118247587 0.29630392741269229 0 -0.44456522433562062 0.28987896746967612 0 -0.45784842118247587 0.29630392741269229 0 -0.45683589886731429 0.27944522996227389 0 -0.45784842118247587 0.29630392741269229 0 -0.47613016565353689 0.27920594790919162 0 -0.45683589886731429 0.27944522996227389 0 -0.45536731290503107 0.31414791777939732 0 -0.45784842118247587 0.29630392741269229 0 -0.47326150671693828 0.30885130336962702 0 -0.5 0.31375562759013931 0 -0.47326150671693828 0.30885130336962702 0 -0.47613016565353689 0.27920594790919162 0 -0.5 0.31375562759013931 0 -0.5 0.25502500317745308 0 -0.47613016565353689 0.27920594790919162 0 -0.45784842118247587 0.29630392741269229 0 -0.47326150671693828 0.30885130336962702 0 -0.47613016565353689 0.27920594790919162 0 -0.5 0.25502500317745308 0 -0.47613016565353689 0.27920594790919162 0 -0.46826200115894351 0.25268254595322559 0 -0.46826200115894351 0.25268254595322559 0 -0.46001429554523132 0.26715439528268792 0 -0.44622747097204157 0.25447826500352411 0 -0.47613016565353689 0.27920594790919162 0 -0.46001429554523132 0.26715439528268792 0 -0.45683589886731429 0.27944522996227389 0 -0.47613016565353689 0.27920594790919162 0 -0.46826200115894351 0.25268254595322559 0 -0.46001429554523132 0.26715439528268792 0 -0.44456522433562062 0.28987896746967612 0 -0.45683589886731429 0.27944522996227389 0 -0.43912327732866052 0.27082845975049152 0 -0.46001429554523132 0.26715439528268792 0 -0.45683589886731429 0.27944522996227389 0 -0.43912327732866052 0.27082845975049152 0 -0.43912327732866052 0.27082845975049152 0 -0.44622747097204157 0.25447826500352411 0 -0.4271662496375016 0.26119471126077209 0 -0.46001429554523132 0.26715439528268792 0 -0.43912327732866052 0.27082845975049152 0 -0.44622747097204157 0.25447826500352411 0 -0.43243648966469961 0.24825823729562091 0 -0.4271662496375016 0.26119471126077209 0 -0.4154354269666965 0.25327969466909228 0 -0.43243648966469961 0.24825823729562091 0 -0.44622747097204157 0.25447826500352411 0 -0.4271662496375016 0.26119471126077209 0 -0.4154354269666965 0.25327969466909228 0 -0.41608093355480807 0.27260836016490658 0 -0.3994904005985685 0.26310408063752239 0 -0.4271662496375016 0.26119471126077209 0 -0.4154354269666965 0.25327969466909228 0 -0.41608093355480807 0.27260836016490658 0 -0.43912327732866052 0.27082845975049152 0 -0.4271662496375016 0.26119471126077209 0 -0.41608093355480807 0.27260836016490658 0 -0.43912327732866052 0.27082845975049152 0 -0.41608093355480807 0.27260836016490658 0 -0.42569467822547491 0.29333324823827622 0 -0.44093041861641502 0.30629419798598828 0 -0.44456522433562062 0.28987896746967612 0 -0.42569467822547491 0.29333324823827622 0 -0.44456522433562062 0.28987896746967612 0 -0.43912327732866052 0.27082845975049152 0 -0.42569467822547491 0.29333324823827622 0 -0.42482201379485501 0.3164116993459492 0 -0.44093041861641502 0.30629419798598828 0 -0.42569467822547491 0.29333324823827622 0 -0.42482201379485501 0.3164116993459492 0 -0.42569467822547491 0.29333324823827622 0 -0.41580892915603301 0.30455156730479449 0 -0.41580892915603301 0.30455156730479449 0 -0.40133989565533279 0.29413343321372998 0 -0.40344199037643141 0.31069905435295109 0 -0.42569467822547491 0.29333324823827622 0 -0.41580892915603301 0.30455156730479449 0 -0.40133989565533279 0.29413343321372998 0 -0.42482201379485501 0.3164116993459492 0 -0.41580892915603301 0.30455156730479449 0 -0.40344199037643141 0.31069905435295109 0 -0.41608093355480807 0.27260836016490658 0 -0.42569467822547491 0.29333324823827622 0 -0.40133989565533279 0.29413343321372998 0 -0.41608093355480807 0.27260836016490658 0 -0.40133989565533279 0.29413343321372998 0 -0.40133989565533279 0.29413343321372998 0 -0.391405356210975 0.28736794428101681 0 -0.38183605444568008 0.30159254882832942 0 -0.41608093355480807 0.27260836016490658 0 -0.40133989565533279 0.29413343321372998 0 -0.39791334778191012 0.27873259344880857 0 -0.40133989565533279 0.29413343321372998 0 -0.391405356210975 0.28736794428101681 0 -0.39791334778191012 0.27873259344880857 0 -0.38659885775585739 0.31565850626255348 0 -0.40133989565533279 0.29413343321372998 0 -0.40344199037643141 0.31069905435295109 0 -0.38659885775585739 0.31565850626255348 0 -0.40133989565533279 0.29413343321372998 0 -0.38659885775585739 0.31565850626255348 0 -0.40133989565533279 0.29413343321372998 0 -0.38183605444568008 0.30159254882832942 0 -0.38183605444568008 0.30159254882832942 0 -0.37466468983423318 0.28951354051077988 0 -0.36997315068782782 0.30191223918603199 0 -0.38183605444568008 0.30159254882832942 0 -0.36997315068782782 0.30191223918603199 0 -0.3736940231061725 0.31398947852622111 0 -0.38659885775585739 0.31565850626255348 0 -0.38183605444568008 0.30159254882832942 0 -0.3736940231061725 0.31398947852622111 0 -0.391405356210975 0.28736794428101681 0 -0.38183605444568008 0.30159254882832942 0 -0.38453212696097688 0.2750132016331992 0 -0.38183605444568008 0.30159254882832942 0 -0.38453212696097688 0.2750132016331992 0 -0.37466468983423318 0.28951354051077988 0 -0.38183605444568008 0.30159254882832942 0 -0.38453212696097688 0.2750132016331992 0 -0.37672471104263361 0.27561795758142188 0 -0.38453212696097688 0.2750132016331992 0 -0.37466468983423318 0.28951354051077988 0 -0.37672471104263361 0.27561795758142188 0 -0.38453212696097688 0.2750132016331992 0 -0.37896013194671968 0.25534683486931381 0 -0.38722819947627368 0.24843385443806909 0 -0.38453212696097688 0.2750132016331992 0 -0.37896013194671968 0.25534683486931381 0 -0.37672471104263361 0.27561795758142188 0 -0.37896013194671968 0.25534683486931381 0 -0.38722819947627368 0.24843385443806909 0 -0.38453212696097688 0.2750132016331992 0 -0.3994904005985685 0.26310408063752239 0 -0.38722819947627368 0.24843385443806909 0 -0.38453212696097688 0.2750132016331992 0 -0.40101037553383972 0.24850817254535781 0 -0.4154354269666965 0.25327969466909228 0 -0.3994904005985685 0.26310408063752239 0 -0.38722819947627368 0.24843385443806909 0 -0.40101037553383972 0.24850817254535781 0 -0.3994904005985685 0.26310408063752239 0 -0.38453212696097688 0.2750132016331992 0 -0.3994904005985685 0.26310408063752239 0 -0.39791334778191012 0.27873259344880857 0 -0.41608093355480807 0.27260836016490658 0 -0.3994904005985685 0.26310408063752239 0 -0.39791334778191012 0.27873259344880857 0 -0.391405356210975 0.28736794428101681 0 -0.38453212696097688 0.2750132016331992 0 -0.39791334778191012 0.27873259344880857 0 -0.35754908974886279 0.25815157521253052 0 -0.35995394297715549 0.27846885519039472 0 -0.3399009986899495 0.26863911531903439 0 -0.34139946132247112 0.24041351753421181 0 -0.35754908974886279 0.25815157521253052 0 -0.3399009986899495 0.26863911531903439 0 -0.37672471104263361 0.27561795758142188 0 -0.37896013194671968 0.25534683486931381 0 -0.3691483330232409 0.26445373858247911 0 -0.35754908974886279 0.25815157521253052 0 -0.36759241766554501 0.2538245840294952 0 -0.3691483330232409 0.26445373858247911 0 -0.36182205832064851 0.24457456243760281 0 -0.35754908974886279 0.25815157521253052 0 -0.36759241766554501 0.2538245840294952 0 -0.37210575503526089 0.24405057661464391 0 -0.37896013194671968 0.25534683486931381 0 -0.36759241766554501 0.2538245840294952 0 -0.37896013194671968 0.25534683486931381 0 -0.36759241766554501 0.2538245840294952 0 -0.3691483330232409 0.26445373858247911 0 -0.35754908974886279 0.25815157521253052 0 -0.3691483330232409 0.26445373858247911 0 -0.35995394297715549 0.27846885519039472 0 -0.37672471104263361 0.27561795758142188 0 -0.3691483330232409 0.26445373858247911 0 -0.35995394297715549 0.27846885519039472 0 -0.37672471104263361 0.27561795758142188 0 -0.35995394297715549 0.27846885519039472 0 -0.37466468983423318 0.28951354051077988 0 -0.35995394297715549 0.27846885519039472 0 -0.37466468983423318 0.28951354051077988 0 -0.36067095067979221 0.29568292426180159 0 -0.37466468983423318 0.28951354051077988 0 -0.36067095067979221 0.29568292426180159 0 -0.36997315068782782 0.30191223918603199 0 -0.36067095067979221 0.29568292426180159 0 -0.36997315068782782 0.30191223918603199 0 -0.35820423278511537 0.31360051904281339 0 -0.36997315068782782 0.30191223918603199 0 -0.35820423278511537 0.31360051904281339 0 -0.3736940231061725 0.31398947852622111 0 -0.36067095067979221 0.29568292426180159 0 -0.33840253605742793 0.29686471310385681 0 -0.35820423278511537 0.31360051904281339 0 -0.33840253605742793 0.29686471310385681 0 -0.33690407342490619 0.32509031088867912 0 -0.35820423278511537 0.31360051904281339 0 -0.35995394297715549 0.27846885519039472 0 -0.33840253605742793 0.29686471310385681 0 -0.3399009986899495 0.26863911531903439 0 -0.35995394297715549 0.27846885519039472 0 -0.36067095067979221 0.29568292426180159 0 -0.33840253605742793 0.29686471310385681 0 -0.33840253605742793 0.29686471310385681 0 -0.3399009986899495 0.26863911531903439 0 -0.33840253605742793 0.29686471310385681 0 -0.31331907053128433 0.313878567385664 0 -0.33690407342490619 0.32509031088867912 0 -0.33840253605742793 0.29686471310385681 0 -0.33690407342490619 0.32509031088867912 0 -0.33840253605742793 0.29686471310385681 0 -0.31760133335066493 0.29423642541125972 0 -0.31331907053128433 0.313878567385664 0 -0.33840253605742793 0.29686471310385681 0 -0.31760133335066493 0.29423642541125972 0 -0.31493928155445272 0.27430993559415479 0 -0.33840253605742793 0.29686471310385681 0 -0.31493928155445272 0.27430993559415479 0 -0.3399009986899495 0.26863911531903439 0 -0.34139946132247112 0.24041351753421181 0 -0.3399009986899495 0.26863911531903439 0 -0.34139946132247112 0.24041351753421181 0 -0.3399009986899495 0.26863911531903439 0 -0.32052316857880009 0.25199218265017043 0 -0.31493928155445272 0.27430993559415479 0 -0.3399009986899495 0.26863911531903439 0 -0.32052316857880009 0.25199218265017043 0 -0.31493928155445272 0.27430993559415479 0 -0.32052316857880009 0.25199218265017043 0 -0.29813700426351908 0.2549985658140525 0 -0.31493928155445272 0.27430993559415479 0 -0.29813700426351908 0.2549985658140525 0 -0.29529200006252948 0.27158343417855851 0 -0.31493928155445272 0.27430993559415479 0 -0.29529200006252948 0.27158343417855851 0 -0.29860197381843362 0.29024571476828781 0 -0.29529200006252948 0.27158343417855851 0 -0.28356153015689661 0.26077246338072052 0 -0.28122021051934548 0.27759049133557667 0 -0.29529200006252948 0.27158343417855851 0 -0.28122021051934548 0.27759049133557667 0 -0.29860197381843362 0.29024571476828781 0 -0.29813700426351908 0.2549985658140525 0 -0.29529200006252948 0.27158343417855851 0 -0.28356153015689661 0.26077246338072052 0 -0.28520633826073721 0.24204505302591109 0 -0.29813700426351908 0.2549985658140525 0 -0.28356153015689661 0.26077246338072052 0 -0.28520633826073721 0.24204505302591109 0 -0.28356153015689661 0.26077246338072052 0 -0.26991196520069161 0.25166683223725428 0 -0.28356153015689661 0.26077246338072052 0 -0.26991196520069161 0.25166683223725428 0 -0.26982671458757052 0.26781375962876097 0 -0.28356153015689661 0.26077246338072052 0 -0.26982671458757052 0.26781375962876097 0 -0.28122021051934548 0.27759049133557667 0 -0.26982671458757052 0.26781375962876097 0 -0.28122021051934548 0.27759049133557667 0 -0.25982227492027221 0.287750399741656 0 -0.2546175921406465 0.26128861144859822 0 -0.25982227492027221 0.287750399741656 0 -0.26982671458757052 0.26781375962876097 0 -0.2546175921406465 0.26128861144859822 0 -0.25982227492027221 0.287750399741656 0 -0.2546175921406465 0.26128861144859822 0 -0.25982227492027221 0.287750399741656 0 -0.24164285362834059 0.26945109504960563 0 -0.25054816238852479 0.24059870715785611 0 -0.2546175921406465 0.26128861144859822 0 -0.26991196520069161 0.25166683223725428 0 -0.26982671458757052 0.26781375962876097 0 -0.2546175921406465 0.26128861144859822 0 -0.25993357060704247 0.2432609816545768 0 -0.26991196520069161 0.25166683223725428 0 -0.2546175921406465 0.26128861144859822 0 -0.26991196520069161 0.25166683223725428 0 -0.2546175921406465 0.26128861144859822 0 -0.25982227492027221 0.287750399741656 0 -0.26502695769989643 0.31421218803471418 0 -0.25040582964490582 0.29567583303740069 0 -0.26031873506221342 0.31817490468258641 0 -0.26502695769989643 0.31421218803471418 0 -0.25040582964490582 0.29567583303740069 0 -0.26031873506221342 0.31817490468258641 0 -0.25040582964490582 0.29567583303740069 0 -0.25982227492027221 0.287750399741656 0 -0.26502695769989643 0.31421218803471418 0 -0.25040582964490582 0.29567583303740069 0 -0.26031873506221342 0.31817490468258641 0 -0.2434150889916675 0.31528126182336752 0 -0.25040582964490582 0.29567583303740069 0 -0.25982227492027221 0.287750399741656 0 -0.2404929242275981 0.27317676139221531 0 -0.28122021051934548 0.27759049133557667 0 -0.25982227492027221 0.287750399741656 0 -0.27872696579211859 0.29653502721740232 0 -0.27872696579211859 0.29653502721740232 0 -0.2889634120026453 0.31287634220677663 0 -0.26502695769989643 0.31421218803471418 0 -0.25982227492027221 0.287750399741656 0 -0.27872696579211859 0.29653502721740232 0 -0.26502695769989643 0.31421218803471418 0 -0.27872696579211859 0.29653502721740232 0 -0.29860197381843362 0.29024571476828781 0 -0.2889634120026453 0.31287634220677663 0 -0.28122021051934548 0.27759049133557667 0 -0.27872696579211859 0.29653502721740232 0 -0.29860197381843362 0.29024571476828781 0 -0.31760133335066493 0.29423642541125972 0 -0.31493928155445272 0.27430993559415479 0 -0.29860197381843362 0.29024571476828781 0 -0.29860197381843362 0.29024571476828781 0 -0.2889634120026453 0.31287634220677663 0 -0.31331907053128433 0.313878567385664 0 -0.31760133335066493 0.29423642541125972 0 -0.29860197381843362 0.29024571476828781 0 -0.31331907053128433 0.313878567385664 0 -0.29891576475332582 0.33197597815543639 0 -0.2889634120026453 0.31287634220677663 0 -0.31331907053128433 0.313878567385664 0 -0.29891576475332582 0.33197597815543639 0 -0.31508677610875602 0.33246264155886579 0 -0.31331907053128433 0.313878567385664 0 -0.29891576475332582 0.33197597815543639 0 -0.30998113757288742 0.35016350933599311 0 -0.31508677610875602 0.33246264155886579 0 -0.29891576475332582 0.33197597815543639 0 -0.27956012110933898 0.33426516842927712 0 -0.28899367546018362 0.34990607578599969 0 -0.27956012110933898 0.33426516842927712 0 -0.27835705654663001 0.3466973614805422 0 -0.28899367546018362 0.34990607578599969 0 -0.29891576475332582 0.33197597815543639 0 -0.2889634120026453 0.31287634220677663 0 -0.27956012110933898 0.33426516842927712 0 -0.27023164047952081 0.34067397632777208 0 -0.26502695769989643 0.31421218803471418 0 -0.2889634120026453 0.31287634220677663 0 -0.27956012110933898 0.33426516842927712 0 -0.26502695769989643 0.31421218803471418 0 -0.27956012110933898 0.33426516842927712 0 -0.27023164047952081 0.34067397632777208 0 -0.26502695769989643 0.31421218803471418 0 -0.27956012110933898 0.33426516842927712 0 -0.27023164047952081 0.34067397632777208 0 -0.27835705654663001 0.3466973614805422 0 -0.27023164047952081 0.34067397632777208 0 -0.25008303346203908 0.33611797840414298 0 -0.26058904667577898 0.35313253120237981 0 -0.27023164047952081 0.34067397632777208 0 -0.25008303346203908 0.33611797840414298 0 -0.26031873506221342 0.31817490468258641 0 -0.27023164047952081 0.34067397632777208 0 -0.26031873506221342 0.31817490468258641 0 -0.27023164047952081 0.34067397632777208 0 -0.26031873506221342 0.31817490468258641 0 -0.26502695769989643 0.31421218803471418 0 -0.25008303346203908 0.33611797840414298 0 -0.26031873506221342 0.31817490468258641 0 -0.2434150889916675 0.31528126182336752 0 -0.2592717334901794 0.37344143954643821 0 -0.26058904667577898 0.35313253120237981 0 -0.245130999697667 0.35617292401417999 0 -0.2592717334901794 0.37344143954643821 0 -0.26058904667577898 0.35313253120237981 0 -0.2742317000365197 0.36101118680509853 0 -0.25008303346203908 0.33611797840414298 0 -0.26058904667577898 0.35313253120237981 0 -0.245130999697667 0.35617292401417999 0 -0.27023164047952081 0.34067397632777208 0 -0.27835705654663001 0.3466973614805422 0 -0.2742317000365197 0.36101118680509853 0 -0.27023164047952081 0.34067397632777208 0 -0.26058904667577898 0.35313253120237981 0 -0.2742317000365197 0.36101118680509853 0 -0.27023164047952081 0.34067397632777208 0 -0.2742317000365197 0.36101118680509853 0 -0.27835705654663001 0.3466973614805422 0 -0.2742317000365197 0.36101118680509853 0 -0.28899367546018362 0.34990607578599969 0 -0.2592717334901794 0.37344143954643821 0 -0.2742317000365197 0.36101118680509853 0 -0.27666944541277583 0.38068284486427251 0 -0.2742317000365197 0.36101118680509853 0 -0.2918056253057611 0.36977816091582622 0 -0.27666944541277583 0.38068284486427251 0 -0.2742317000365197 0.36101118680509853 0 -0.2918056253057611 0.36977816091582622 0 -0.28899367546018362 0.34990607578599969 0 -0.2918056253057611 0.36977816091582622 0 -0.28899367546018362 0.34990607578599969 0 -0.30998113757288742 0.35016350933599311 0 -0.29891576475332582 0.33197597815543639 0 -0.28899367546018362 0.34990607578599969 0 -0.30998113757288742 0.35016350933599311 0 -0.2918056253057611 0.36977816091582622 0 -0.30998113757288742 0.35016350933599311 0 -0.30751920709622288 0.37811993239733782 0 -0.30998113757288742 0.35016350933599311 0 -0.3241796865990505 0.37446232129606583 0 -0.30998113757288742 0.35016350933599311 0 -0.3241796865990505 0.37446232129606583 0 -0.3311814619238953 0.36217087484935062 0 -0.30998113757288742 0.35016350933599311 0 -0.3241796865990505 0.37446232129606583 0 -0.30751920709622288 0.37811993239733782 0 -0.3241796865990505 0.37446232129606583 0 -0.3311814619238953 0.36217087484935062 0 -0.3450213805631549 0.37637896488870742 0 -0.3311814619238953 0.36217087484935062 0 -0.34248144252655999 0.3449329262912757 0 -0.32671787735756741 0.34394441277493482 0 -0.30998113757288742 0.35016350933599311 0 -0.3311814619238953 0.36217087484935062 0 -0.32671787735756741 0.34394441277493482 0 -0.30998113757288742 0.35016350933599311 0 -0.32671787735756741 0.34394441277493482 0 -0.31508677610875602 0.33246264155886579 0 -0.32671787735756741 0.34394441277493482 0 -0.31508677610875602 0.33246264155886579 0 -0.33690407342490619 0.32509031088867912 0 -0.31508677610875602 0.33246264155886579 0 -0.31331907053128433 0.313878567385664 0 -0.33690407342490619 0.32509031088867912 0 -0.34248144252655999 0.3449329262912757 0 -0.32671787735756741 0.34394441277493482 0 -0.33690407342490619 0.32509031088867912 0 -0.34248144252655999 0.3449329262912757 0 -0.33690407342490619 0.32509031088867912 0 -0.35402019531300261 0.33435003863570822 0 -0.33690407342490619 0.32509031088867912 0 -0.35402019531300261 0.33435003863570822 0 -0.35820423278511537 0.31360051904281339 0 -0.35820423278511537 0.31360051904281339 0 -0.3736940231061725 0.31398947852622111 0 -0.371857819856382 0.33718357931137699 0 -0.35402019531300261 0.33435003863570822 0 -0.35820423278511537 0.31360051904281339 0 -0.371857819856382 0.33718357931137699 0 -0.35402019531300261 0.33435003863570822 0 -0.371857819856382 0.33718357931137699 0 -0.35941010751018809 0.3566911886622014 0 -0.38763875309648088 0.35121150247505228 0 -0.371857819856382 0.33718357931137699 0 -0.35941010751018809 0.3566911886622014 0 -0.38763875309648088 0.35121150247505228 0 -0.35941010751018809 0.3566911886622014 0 -0.37817844187468841 0.37049799817574158 0 -0.35941010751018809 0.3566911886622014 0 -0.36132744716974019 0.37598607000928502 0 -0.35941010751018809 0.3566911886622014 0 -0.3450213805631549 0.37637896488870742 0 -0.36132744716974019 0.37598607000928502 0 -0.3311814619238953 0.36217087484935062 0 -0.35941010751018809 0.3566911886622014 0 -0.3450213805631549 0.37637896488870742 0 -0.3311814619238953 0.36217087484935062 0 -0.35941010751018809 0.3566911886622014 0 -0.34248144252655999 0.3449329262912757 0 -0.35402019531300261 0.33435003863570822 0 -0.35941010751018809 0.3566911886622014 0 -0.3311814619238953 0.36217087484935062 0 -0.34248144252655999 0.3449329262912757 0 -0.35941010751018809 0.3566911886622014 0 -0.35813247438357998 0.40322770661363078 0 -0.35506690633984689 0.38909595593077778 0 -0.33837823562521357 0.3987611332561386 0 -0.3450213805631549 0.37637896488870742 0 -0.35506690633984689 0.38909595593077778 0 -0.36132744716974019 0.37598607000928502 0 -0.3450213805631549 0.37637896488870742 0 -0.35506690633984689 0.38909595593077778 0 -0.33837823562521357 0.3987611332561386 0 -0.37817844187468841 0.37049799817574158 0 -0.36132744716974019 0.37598607000928502 0 -0.36896039956082288 0.38726624238899698 0 -0.35506690633984689 0.38909595593077778 0 -0.36132744716974019 0.37598607000928502 0 -0.36896039956082288 0.38726624238899698 0 -0.35813247438357998 0.40322770661363078 0 -0.35506690633984689 0.38909595593077778 0 -0.36896039956082288 0.38726624238899698 0 -0.35813247438357998 0.40322770661363078 0 -0.36896039956082288 0.38726624238899698 0 -0.37495024184161951 0.39669027322643757 0 -0.35813247438357998 0.40322770661363078 0 -0.37495024184161951 0.39669027322643757 0 -0.37226667114234002 0.41030924202555608 0 -0.37226667114234002 0.41030924202555608 0 -0.37063698291958719 0.42934778893548009 0 -0.35257678465137682 0.42305994521621149 0 -0.37226667114234002 0.41030924202555608 0 -0.35257678465137682 0.42305994521621149 0 -0.35813247438357998 0.40322770661363078 0 -0.37226667114234002 0.41030924202555608 0 -0.35257678465137682 0.42305994521621149 0 -0.37063698291958719 0.42934778893548009 0 -0.35509229673206349 0.42736488897625841 0 -0.35257678465137682 0.42305994521621149 0 -0.38219330561030318 0.43733759585905729 0 -0.37063698291958719 0.42934778893548009 0 -0.37031446948010971 0.44164379239859503 0 -0.37063698291958719 0.42934778893548009 0 -0.35100800832540779 0.43373908660655719 0 -0.34797539811694939 0.44391372641119659 0 -0.35257678465137682 0.42305994521621149 0 -0.34703292232895172 0.42665001888350013 0 -0.33490384995054723 0.4214646834239163 0 -0.37063698291958719 0.42934778893548009 0 -0.35509229673206349 0.42736488897625841 0 -0.35100800832540779 0.43373908660655719 0 -0.37063698291958719 0.42934778893548009 0 -0.34797539811694939 0.44391372641119659 0 -0.35509229673206349 0.42736488897625841 0 -0.35257678465137682 0.42305994521621149 0 -0.35120601168128568 0.42714359628681298 0 -0.35509229673206349 0.42736488897625841 0 -0.35120601168128568 0.42714359628681298 0 -0.35100800832540779 0.43373908660655719 0 -0.35509229673206349 0.42736488897625841 0 -0.35257678465137682 0.42305994521621149 0 -0.35257678465137682 0.42305994521621149 0 -0.34703292232895172 0.42665001888350013 0 -0.35120601168128568 0.42714359628681298 0 -0.35257678465137682 0.42305994521621149 0 -0.34703292232895172 0.42665001888350013 0 -0.34703292232895172 0.42665001888350013 0 -0.35120601168128568 0.42714359628681298 0 -0.35100800832540779 0.43373908660655719 0 -0.34703292232895172 0.42665001888350013 0 -0.35100800832540779 0.43373908660655719 0 -0.3416144021158749 0.43307637903049229 0 -0.35100800832540779 0.43373908660655719 0 -0.3416144021158749 0.43307637903049229 0 -0.34797539811694939 0.44391372641119659 0 -0.35257678465137682 0.42305994521621149 0 -0.33837823562521357 0.3987611332561386 0 -0.35813247438357998 0.40322770661363078 0 -0.35257678465137682 0.42305994521621149 0 -0.33837823562521357 0.3987611332561386 0 -0.35257678465137682 0.42305994521621149 0 -0.33490384995054723 0.4214646834239163 0 -0.33837823562521357 0.3987611332561386 0 -0.33490384995054723 0.4214646834239163 0 -0.32139182098691871 0.40894936325787168 0 -0.33837823562521357 0.3987611332561386 0 -0.34703292232895172 0.42665001888350013 0 -0.33490384995054723 0.4214646834239163 0 -0.3416144021158749 0.43307637903049229 0 -0.33490384995054723 0.4214646834239163 0 -0.3416144021158749 0.43307637903049229 0 -0.32915885350338547 0.436077628681731 0 -0.32915885350338547 0.436077628681731 0 -0.31540425984898302 0.42282960227343241 0 -0.31037484696397899 0.44222133160263499 0 -0.33490384995054723 0.4214646834239163 0 -0.32915885350338547 0.436077628681731 0 -0.31540425984898302 0.42282960227343241 0 -0.31540425984898302 0.42282960227343241 0 -0.32139182098691871 0.40894936325787168 0 -0.30380921659141291 0.40737586576510598 0 -0.33490384995054723 0.4214646834239163 0 -0.31540425984898302 0.42282960227343241 0 -0.32139182098691871 0.40894936325787168 0 -0.32139182098691871 0.40894936325787168 0 -0.31446354291843659 0.3943155315707651 0 -0.30380921659141291 0.40737586576510598 0 -0.32139182098691871 0.40894936325787168 0 -0.31446354291843659 0.3943155315707651 0 -0.33837823562521357 0.3987611332561386 0 -0.3241796865990505 0.37446232129606583 0 -0.33837823562521357 0.3987611332561386 0 -0.3241796865990505 0.37446232129606583 0 -0.3450213805631549 0.37637896488870742 0 -0.33837823562521357 0.3987611332561386 0 -0.3241796865990505 0.37446232129606583 0 -0.31446354291843659 0.3943155315707651 0 -0.33837823562521357 0.3987611332561386 0 -0.3241796865990505 0.37446232129606583 0 -0.31446354291843659 0.3943155315707651 0 -0.30751920709622288 0.37811993239733782 0 -0.31446354291843659 0.3943155315707651 0 -0.30751920709622288 0.37811993239733782 0 -0.29017157169787189 0.39747123853798338 0 -0.31446354291843659 0.3943155315707651 0 -0.29017157169787189 0.39747123853798338 0 -0.30380921659141291 0.40737586576510598 0 -0.31446354291843659 0.3943155315707651 0 -0.29017157169787189 0.39747123853798338 0 -0.2918056253057611 0.36977816091582622 0 -0.29017157169787189 0.39747123853798338 0 -0.27666944541277583 0.38068284486427251 0 -0.2918056253057611 0.36977816091582622 0 -0.30751920709622288 0.37811993239733782 0 -0.29017157169787189 0.39747123853798338 0 -0.2592717334901794 0.37344143954643821 0 -0.27666944541277583 0.38068284486427251 0 -0.26587960047730708 0.40062694550520161 0 -0.29017157169787189 0.39747123853798338 0 -0.26587960047730708 0.40062694550520161 0 -0.29017157169787189 0.39747123853798338 0 -0.27666944541277583 0.38068284486427251 0 -0.26587960047730708 0.40062694550520161 0 -0.26587960047730708 0.40062694550520161 0 -0.24390026663595221 0.4098265108577458 0 -0.24158762925674229 0.40378265247242029 0 -0.26587960047730708 0.40062694550520161 0 -0.24855740320059311 0.38849035142128929 0 -0.24158762925674229 0.40378265247242029 0 -0.26587960047730708 0.40062694550520161 0 -0.24158762925674229 0.40378265247242029 0 -0.2592717334901794 0.37344143954643821 0 -0.24855740320059311 0.38849035142128929 0 -0.24298804513369371 0.37489662163126852 0 -0.2592717334901794 0.37344143954643821 0 -0.26587960047730708 0.40062694550520161 0 -0.24855740320059311 0.38849035142128929 0 -0.26486291021761232 0.42723466671622251 0 -0.25440434670568679 0.43727792757369249 0 -0.24390026663595221 0.4098265108577458 0 -0.26486291021761232 0.42723466671622251 0 -0.25440434670568679 0.43727792757369249 0 -0.268601175871508 0.43936588513269881 0 -0.26587960047730708 0.40062694550520161 0 -0.26486291021761232 0.42723466671622251 0 -0.24390026663595221 0.4098265108577458 0 -0.26486291021761232 0.42723466671622251 0 -0.24390026663595221 0.4098265108577458 0 -0.26587960047730708 0.40062694550520161 0 -0.26486291021761232 0.42723466671622251 0 -0.29212211282505068 0.42111929002973092 0 -0.26486291021761232 0.42723466671622251 0 -0.28582555379927221 0.44464282257469973 0 -0.26486291021761232 0.42723466671622251 0 -0.29212211282505068 0.42111929002973092 0 -0.28582555379927221 0.44464282257469973 0 -0.26486291021761232 0.42723466671622251 0 -0.28582555379927221 0.44464282257469973 0 -0.268601175871508 0.43936588513269881 0 -0.29212211282505068 0.42111929002973092 0 -0.31037484696397899 0.44222133160263499 0 -0.28582555379927221 0.44464282257469973 0 -0.29017157169787189 0.39747123853798338 0 -0.26587960047730708 0.40062694550520161 0 -0.29212211282505068 0.42111929002973092 0 -0.29017157169787189 0.39747123853798338 0 -0.29212211282505068 0.42111929002973092 0 -0.30380921659141291 0.40737586576510598 0 -0.31540425984898302 0.42282960227343241 0 -0.29212211282505068 0.42111929002973092 0 -0.30380921659141291 0.40737586576510598 0 -0.31540425984898302 0.42282960227343241 0 -0.29212211282505068 0.42111929002973092 0 -0.31037484696397899 0.44222133160263499 0 -0.31037484696397899 0.44222133160263499 0 -0.30678819738092977 0.46205097843317938 0 -0.28582555379927221 0.44464282257469973 0 -0.30678819738092977 0.46205097843317938 0 -0.28923783613749188 0.46977947950295129 0 -0.30678819738092977 0.46205097843317938 0 -0.28923783613749188 0.46977947950295129 0 -0.30891410950205461 0.46909475087526598 0 -0.30891410950205461 0.46909475087526598 0 -0.31325745709166991 0.46742329137141808 0 -0.30678819738092977 0.46205097843317938 0 -0.30891410950205461 0.46909475087526598 0 -0.31325745709166991 0.46742329137141808 0 -0.30891410950205461 0.46909475087526598 0 -0.31525562008559699 0.46908263994992622 0 -0.31325745709166991 0.46742329137141808 0 -0.30678819738092977 0.46205097843317938 0 -0.31325745709166991 0.46742329137141808 0 -0.30678819738092977 0.46205097843317938 0 -0.29206160947224158 0.45498445755246653 0 -0.28582555379927221 0.44464282257469973 0 -0.30678819738092977 0.46205097843317938 0 -0.28582555379927221 0.44464282257469973 0 -0.30678819738092977 0.46205097843317938 0 -0.29206160947224158 0.45498445755246653 0 -0.28923783613749188 0.46977947950295129 0 -0.29206160947224158 0.45498445755246653 0 -0.28923783613749188 0.46977947950295129 0 -0.29206160947224158 0.45498445755246653 0 -0.27802275223802481 0.45856884181986929 0 -0.28923783613749188 0.46977947950295129 0 -0.29206160947224158 0.45498445755246653 0 -0.28582555379927221 0.44464282257469973 0 -0.27802275223802481 0.45856884181986929 0 -0.28582555379927221 0.44464282257469973 0 -0.26931189276346068 0.44830812366618028 0 -0.27802275223802481 0.45856884181986929 0 -0.28582555379927221 0.44464282257469973 0 -0.268601175871508 0.43936588513269881 0 -0.26931189276346068 0.44830812366618028 0 -0.26931189276346068 0.44830812366618028 0 -0.27802275223802481 0.45856884181986929 0 -0.26490842677542209 0.46472934428963919 0 -0.27802275223802481 0.45856884181986929 0 -0.26490842677542209 0.46472934428963919 0 -0.27188202748178247 0.47742230712921863 0 -0.27802275223802481 0.45856884181986929 0 -0.27188202748178247 0.47742230712921863 0 -0.28923783613749188 0.46977947950295129 0 -0.26190074499161498 0.45925492802712919 0 -0.25374771190227041 0.46769530379170138 0 -0.2470835307717511 0.45204209071788648 0 -0.25440434670568679 0.43727792757369249 0 -0.26190074499161498 0.45925492802712919 0 -0.26490842677542209 0.46472934428963919 0 -0.26190074499161498 0.45925492802712919 0 -0.26490842677542209 0.46472934428963919 0 -0.25374771190227041 0.46769530379170138 0 -0.26190074499161498 0.45925492802712919 0 -0.26490842677542209 0.46472934428963919 0 -0.25440434670568679 0.43727792757369249 0 -0.26190074499161498 0.45925492802712919 0 -0.2470835307717511 0.45204209071788648 0 -0.25440434670568679 0.43727792757369249 0 -0.26490842677542209 0.46472934428963919 0 -0.25440434670568679 0.43727792757369249 0 -0.26931189276346068 0.44830812366618028 0 -0.26490842677542209 0.46472934428963919 0 -0.25440434670568679 0.43727792757369249 0 -0.268601175871508 0.43936588513269881 0 -0.26931189276346068 0.44830812366618028 0 -0.25847810702610519 0.48850414280974469 0 -0.27007053304879808 0.47822001929417107 0 -0.24534086517324849 0.48911000964708612 0 -0.25847810702610519 0.48850414280974469 0 -0.26092149103342371 0.50000000000000044 0 -0.24271601658602809 0.5 0 -0.25847810702610519 0.48850414280974469 0 -0.27201266959149478 0.48329560889354789 0 -0.25847810702610519 0.48850414280974469 0 -0.26092149103342371 0.50000000000000044 0 -0.26665442019254082 0.49000718405533439 0 -0.26490842677542209 0.46472934428963919 0 -0.25374771190227041 0.46769530379170138 0 -0.27007053304879808 0.47822001929417107 0 -0.25374771190227041 0.46769530379170138 0 -0.27007053304879808 0.47822001929417107 0 -0.24534086517324849 0.48911000964708612 0 -0.27007053304879808 0.47822001929417107 0 -0.24534086517324849 0.48911000964708612 0 -0.27188202748178247 0.47742230712921863 0 -0.28923783613749188 0.46977947950295129 0 -0.25847810702610519 0.48850414280974469 0 -0.27007053304879808 0.47822001929417107 0 -0.27201266959149478 0.48329560889354789 0 -0.27188202748178247 0.47742230712921863 0 -0.27456848518075422 0.48231204905436859 0 -0.28781911866264892 0.47721278015904062 0 -0.27007053304879808 0.47822001929417107 0 -0.27188202748178247 0.47742230712921863 0 -0.27210308472192962 0.4803444769229962 0 -0.27188202748178247 0.47742230712921863 0 -0.27456848518075422 0.48231204905436859 0 -0.27188202748178247 0.47742230712921863 0 -0.27210308472192962 0.4803444769229962 0 -0.27456848518075422 0.48231204905436859 0 -0.27007053304879808 0.47822001929417107 0 -0.27188202748178247 0.47742230712921863 0 -0.27007053304879808 0.47822001929417107 0 -0.27201266959149478 0.48329560889354789 0 -0.27210308472192962 0.4803444769229962 0 -0.27201266959149478 0.48329560889354789 0 -0.27456848518075422 0.48231204905436859 0 -0.27007053304879808 0.47822001929417107 0 -0.27210308472192962 0.4803444769229962 0 -0.27201266959149478 0.48329560889354789 0 -0.27201266959149478 0.48329560889354789 0 -0.27456848518075422 0.48231204905436859 0 -0.26490842677542209 0.46472934428963919 0 -0.27188202748178247 0.47742230712921863 0 -0.26490842677542209 0.46472934428963919 0 -0.27007053304879808 0.47822001929417107 0 -0.27188202748178247 0.47742230712921863 0 -0.26490842677542209 0.46472934428963919 0 -0.27007053304879808 0.47822001929417107 0 -0.27456848518075422 0.48231204905436859 0 -0.28781911866264892 0.47721278015904062 0 -0.26092149103342371 0.50000000000000044 0 -0.27494821351356852 0.49096737443205551 0 -0.27840448038632598 0.49999999999999989 0 -0.27456848518075422 0.48231204905436859 0 -0.27818028796098981 0.48888605298774751 0 -0.28662963421400323 0.4834450256126463 0 -0.27818028796098981 0.48888605298774751 0 -0.27494821351356852 0.49096737443205551 0 -0.27201266959149478 0.48329560889354789 0 -0.27494821351356852 0.49096737443205551 0 -0.27201266959149478 0.48329560889354789 0 -0.27456848518075422 0.48231204905436859 0 -0.27818028796098981 0.48888605298774751 0 -0.27201266959149478 0.48329560889354789 0 -0.27818028796098981 0.48888605298774751 0 -0.27494821351356852 0.49096737443205551 0 -0.27456848518075422 0.48231204905436859 0 -0.27818028796098981 0.48888605298774751 0 -0.27201266959149478 0.48329560889354789 0 -0.27494821351356852 0.49096737443205551 0 -0.26665442019254082 0.49000718405533439 0 -0.25847810702610519 0.48850414280974469 0 -0.27201266959149478 0.48329560889354789 0 -0.26665442019254082 0.49000718405533439 0 -0.26092149103342371 0.50000000000000044 0 -0.27494821351356852 0.49096737443205551 0 -0.26092149103342371 0.50000000000000044 0 -0.27494821351356852 0.49096737443205551 0 -0.26665442019254082 0.49000718405533439 0 -0.27494821351356852 0.49096737443205551 0 -0.27840448038632598 0.49999999999999989 0 -0.27818028796098981 0.48888605298774751 0 -0.27840448038632598 0.49999999999999989 0 -0.28368044823936328 0.49889714094141469 0 -0.27818028796098981 0.48888605298774751 0 -0.27494821351356852 0.49096737443205551 0 -0.27840448038632598 0.49999999999999989 0 -0.27818028796098981 0.48888605298774751 0 -0.28368044823936328 0.49889714094141469 0 -0.28368044823936328 0.49889714094141469 0 -0.29224888689071188 0.49344190183271952 0 -0.30769467815930068 0.5 0 -0.27818028796098981 0.48888605298774751 0 -0.28368044823936328 0.49889714094141469 0 -0.28662963421400323 0.4834450256126463 0 -0.28368044823936328 0.49889714094141469 0 -0.28662963421400323 0.4834450256126463 0 -0.28368044823936328 0.49889714094141469 0 -0.29224888689071188 0.49344190183271952 0 -0.28662963421400323 0.4834450256126463 0 -0.27818028796098981 0.48888605298774751 0 -0.28662963421400323 0.4834450256126463 0 -0.29224888689071188 0.49344190183271952 0 -0.28662963421400323 0.4834450256126463 0 -0.30094150763636901 0.48708058862929682 0 -0.28781911866264892 0.47721278015904062 0 -0.28923783613749188 0.46977947950295129 0 -0.30891410950205461 0.46909475087526598 0 -0.27188202748178247 0.47742230712921863 0 -0.28781911866264892 0.47721278015904062 0 -0.28923783613749188 0.46977947950295129 0 -0.28781911866264892 0.47721278015904062 0 -0.28923783613749188 0.46977947950295129 0 -0.27456848518075422 0.48231204905436859 0 -0.28781911866264892 0.47721278015904062 0 -0.28662963421400323 0.4834450256126463 0 -0.28781911866264892 0.47721278015904062 0 -0.28662963421400323 0.4834450256126463 0 -0.28662963421400323 0.4834450256126463 0 -0.30182933433063519 0.4736570512592001 0 -0.30094150763636901 0.48708058862929682 0 -0.28781911866264892 0.47721278015904062 0 -0.28662963421400323 0.4834450256126463 0 -0.30182933433063519 0.4736570512592001 0 -0.28662963421400323 0.4834450256126463 0 -0.30182933433063519 0.4736570512592001 0 -0.28781911866264892 0.47721278015904062 0 -0.30182933433063519 0.4736570512592001 0 -0.30182933433063519 0.4736570512592001 0 -0.31729910476423501 0.48596558745179752 0 -0.31525562008559699 0.46908263994992622 0 -0.30182933433063519 0.4736570512592001 0 -0.30094150763636901 0.48708058862929682 0 -0.31729910476423501 0.48596558745179752 0 -0.28781911866264892 0.47721278015904062 0 -0.30182933433063519 0.4736570512592001 0 -0.30891410950205461 0.46909475087526598 0 -0.28781911866264892 0.47721278015904062 0 -0.30891410950205461 0.46909475087526598 0 -0.30182933433063519 0.4736570512592001 0 -0.31525562008559699 0.46908263994992622 0 -0.30182933433063519 0.4736570512592001 0 -0.30891410950205461 0.46909475087526598 0 -0.31525562008559699 0.46908263994992622 0 -0.30182933433063519 0.4736570512592001 0 -0.30891410950205461 0.46909475087526598 0 -0.30094150763636901 0.48708058862929682 0 -0.30769467815930068 0.5 0 -0.31729910476423501 0.48596558745179752 0 -0.29224888689071188 0.49344190183271952 0 -0.30094150763636901 0.48708058862929682 0 -0.30769467815930068 0.5 0 -0.31729910476423501 0.48596558745179752 0 -0.33427013892530733 0.48487300084816443 0 -0.33110298975999741 0.5 0 -0.30769467815930068 0.5 0 -0.31729910476423501 0.48596558745179752 0 -0.33110298975999741 0.5 0 -0.33427013892530733 0.48487300084816443 0 -0.33110298975999741 0.5 0 -0.35451130136069398 0.4999999999999995 0 -0.33427013892530733 0.48487300084816443 0 -0.33945755539216582 0.46083690404104272 0 -0.34969032548814538 0.47637365565428952 0 -0.33427013892530733 0.48487300084816443 0 -0.31525562008559699 0.46908263994992622 0 -0.33945755539216582 0.46083690404104272 0 -0.31729910476423501 0.48596558745179752 0 -0.33427013892530733 0.48487300084816443 0 -0.31525562008559699 0.46908263994992622 0 -0.33427013892530733 0.48487300084816443 0 -0.31525562008559699 0.46908263994992622 0 -0.31525562008559699 0.46908263994992622 0 -0.31325745709166991 0.46742329137141808 0 -0.33361387207467458 0.45958948977355291 0 -0.31325745709166991 0.46742329137141808 0 -0.33024094015483157 0.45536115943149169 0 -0.33361387207467458 0.45958948977355291 0 -0.31525562008559699 0.46908263994992622 0 -0.31325745709166991 0.46742329137141808 0 -0.30678819738092977 0.46205097843317938 0 -0.32738179774893988 0.45298235242218882 0 -0.30678819738092977 0.46205097843317938 0 -0.31325745709166991 0.46742329137141808 0 -0.32738179774893988 0.45298235242218882 0 -0.31325745709166991 0.46742329137141808 0 -0.33024094015483157 0.45536115943149169 0 -0.31325745709166991 0.46742329137141808 0 -0.32738179774893988 0.45298235242218882 0 -0.33024094015483157 0.45536115943149169 0 -0.31325745709166991 0.46742329137141808 0 -0.33361387207467458 0.45958948977355291 0 -0.31525562008559699 0.46908263994992622 0 -0.33945755539216582 0.46083690404104272 0 -0.31037484696397899 0.44222133160263499 0 -0.30678819738092977 0.46205097843317938 0 -0.32738179774893988 0.45298235242218882 0 -0.32915885350338547 0.436077628681731 0 -0.31037484696397899 0.44222133160263499 0 -0.32738179774893988 0.45298235242218882 0 -0.32915885350338547 0.436077628681731 0 -0.32738179774893988 0.45298235242218882 0 -0.34797539811694939 0.44391372641119659 0 -0.32738179774893988 0.45298235242218882 0 -0.34797539811694939 0.44391372641119659 0 -0.33024094015483157 0.45536115943149169 0 -0.33361387207467458 0.45958948977355291 0 -0.34797539811694939 0.44391372641119659 0 -0.3416144021158749 0.43307637903049229 0 -0.32915885350338547 0.436077628681731 0 -0.34797539811694939 0.44391372641119659 0 -0.33024094015483157 0.45536115943149169 0 -0.34797539811694939 0.44391372641119659 0 -0.32738179774893988 0.45298235242218882 0 -0.33024094015483157 0.45536115943149169 0 -0.34797539811694939 0.44391372641119659 0 -0.31525562008559699 0.46908263994992622 0 -0.33361387207467458 0.45958948977355291 0 -0.33945755539216582 0.46083690404104272 0 -0.33361387207467458 0.45958948977355291 0 -0.33945755539216582 0.46083690404104272 0 -0.35397028705767941 0.45175568817568751 0 -0.33945755539216582 0.46083690404104272 0 -0.35397028705767941 0.45175568817568751 0 -0.3636594906987341 0.45259116813215772 0 -0.33945755539216582 0.46083690404104272 0 -0.35903601978900862 0.4668294320101527 0 -0.3636594906987341 0.45259116813215772 0 -0.33945755539216582 0.46083690404104272 0 -0.35903601978900862 0.4668294320101527 0 -0.34969032548814538 0.47637365565428952 0 -0.33361387207467458 0.45958948977355291 0 -0.35397028705767941 0.45175568817568751 0 -0.33945755539216582 0.46083690404104272 0 -0.3636594906987341 0.45259116813215772 0 -0.35397028705767941 0.45175568817568751 0 -0.34797539811694939 0.44391372641119659 0 -0.3636594906987341 0.45259116813215772 0 -0.33361387207467458 0.45958948977355291 0 -0.35397028705767941 0.45175568817568751 0 -0.34797539811694939 0.44391372641119659 0 -0.38786142600530288 0.44434543222327372 0 -0.3636594906987341 0.45259116813215772 0 -0.37031446948010971 0.44164379239859503 0 -0.34797539811694939 0.44391372641119659 0 -0.3636594906987341 0.45259116813215772 0 -0.37031446948010971 0.44164379239859503 0 -0.37063698291958719 0.42934778893548009 0 -0.34797539811694939 0.44391372641119659 0 -0.37031446948010971 0.44164379239859503 0 -0.37674471779043378 0.46289695481551602 0 -0.35903601978900862 0.4668294320101527 0 -0.3636594906987341 0.45259116813215772 0 -0.37674471779043378 0.46289695481551602 0 -0.35903601978900862 0.4668294320101527 0 -0.36562800957556379 0.48144847740775781 0 -0.37674471779043378 0.46289695481551602 0 -0.36562800957556379 0.48144847740775781 0 -0.36562800957556379 0.48144847740775781 0 -0.35451130136069398 0.4999999999999995 0 -0.37984386551400101 0.5 0 -0.36562800957556379 0.48144847740775781 0 -0.35451130136069398 0.4999999999999995 0 -0.33427013892530733 0.48487300084816443 0 -0.35451130136069398 0.4999999999999995 0 -0.34969032548814538 0.47637365565428952 0 -0.36562800957556379 0.48144847740775781 0 -0.35451130136069398 0.4999999999999995 0 -0.34969032548814538 0.47637365565428952 0 -0.35903601978900862 0.4668294320101527 0 -0.36562800957556379 0.48144847740775781 0 -0.34969032548814538 0.47637365565428952 0 -0.13298062755884579 0.48255116261061692 0 -0.15843735091332889 0.4710522502620903 0 -0.13298062755884579 0.48255116261061692 0 -0.14150291950411281 0.46425469992345519 0 -0.15843735091332889 0.4710522502620903 0 -0.13975760046378269 0.49999999999999878 0 -0.15843735091332889 0.4710522502620903 0 -0.16099880066542119 0.50000000000000022 0 -0.13975760046378269 0.49999999999999878 0 -0.13298062755884579 0.48255116261061692 0 -0.15843735091332889 0.4710522502620903 0 -0.13975760046378269 0.49999999999999878 0 -0.13298062755884579 0.48255116261061692 0 -0.13975760046378269 0.49999999999999878 0 -0.13298062755884579 0.48255116261061692 0 -0.11380605494256869 0.5 0 -0.13298062755884579 0.48255116261061692 0 -0.12544051825853689 0.4631374593356033 0 -0.14150291950411281 0.46425469992345519 0 -0.13298062755884579 0.48255116261061692 0 -0.12544051825853689 0.4631374593356033 0 -0.1336307511693739 0.45491465667522191 0 -0.12544051825853689 0.4631374593356033 0 -0.14150291950411281 0.46425469992345519 0 -0.1336307511693739 0.45491465667522191 0 -0.13175207046494611 0.44346192959665548 0 -0.11475987009784661 0.45084407402711402 0 -0.13175207046494611 0.44346192959665548 0 -0.15702534962047851 0.44961797073374349 0 -0.14544522351027661 0.43702334659483638 0 -0.1336307511693739 0.45491465667522191 0 -0.13175207046494611 0.44346192959665548 0 -0.15702534962047851 0.44961797073374349 0 -0.15702534962047851 0.44961797073374349 0 -0.14544522351027661 0.43702334659483638 0 -0.1556699124179855 0.4290423380990836 0 -0.13175207046494611 0.44346192959665548 0 -0.15702534962047851 0.44961797073374349 0 -0.1336307511693739 0.45491465667522191 0 -0.14150291950411281 0.46425469992345519 0 -0.15702534962047851 0.44961797073374349 0 -0.14150291950411281 0.46425469992345519 0 -0.15702534962047851 0.44961797073374349 0 -0.15843735091332889 0.4710522502620903 0 -0.15702534962047851 0.44961797073374349 0 -0.15843735091332889 0.4710522502620903 0 -0.16426353778385031 0.46842053638370362 0 -0.16193071402987511 0.45081281469960982 0 -0.15843735091332889 0.4710522502620903 0 -0.15702534962047851 0.44961797073374349 0 -0.16193071402987511 0.45081281469960982 0 -0.15843735091332889 0.4710522502620903 0 -0.16426353778385031 0.46842053638370362 0 -0.16193071402987511 0.45081281469960982 0 -0.17220307999619611 0.44534927840499378 0 -0.16426353778385031 0.46842053638370362 0 -0.17220307999619611 0.44534927840499378 0 -0.15702534962047851 0.44961797073374349 0 -0.1556699124179855 0.4290423380990836 0 -0.16306062424848339 0.44050736484390751 0 -0.15702534962047851 0.44961797073374349 0 -0.1556699124179855 0.4290423380990836 0 -0.16306062424848339 0.44050736484390751 0 -0.15702534962047851 0.44961797073374349 0 -0.16193071402987511 0.45081281469960982 0 -0.15702534962047851 0.44961797073374349 0 -0.16193071402987511 0.45081281469960982 0 -0.16306062424848339 0.44050736484390751 0 -0.16193071402987511 0.45081281469960982 0 -0.17220307999619611 0.44534927840499378 0 -0.16306062424848339 0.44050736484390751 0 -0.17220307999619611 0.44534927840499378 0 -0.16780974434499221 0.43040982398245581 0 -0.17220307999619611 0.44534927840499378 0 -0.18281758700689349 0.4600395918781951 0 -0.19105692089556489 0.43334490180876922 0 -0.18281758700689349 0.4600395918781951 0 -0.19105692089556489 0.43334490180876922 0 -0.18281758700689349 0.4600395918781951 0 -0.17801000380965989 0.47561572280906489 0 -0.19482622675472999 0.46587529032893948 0 -0.16426353778385031 0.46842053638370362 0 -0.17220307999619611 0.44534927840499378 0 -0.18281758700689349 0.4600395918781951 0 -0.16426353778385031 0.46842053638370362 0 -0.18281758700689349 0.4600395918781951 0 -0.17801000380965989 0.47561572280906489 0 -0.16426353778385031 0.46842053638370362 0 -0.18281758700689349 0.4600395918781951 0 -0.18281758700689349 0.4600395918781951 0 -0.17801000380965989 0.47561572280906489 0 -0.17801000380965989 0.47561572280906489 0 -0.17320242061242691 0.49119185373993512 0 -0.190689979325044 0.47856994519631457 0 -0.17801000380965989 0.47561572280906489 0 -0.17014513666291531 0.48171822366538508 0 -0.17320242061242691 0.49119185373993512 0 -0.17801000380965989 0.47561572280906489 0 -0.17320242061242691 0.49119185373993512 0 -0.16116749874829769 0.47741721571243328 0 -0.15843735091332889 0.4710522502620903 0 -0.16099880066542119 0.50000000000000022 0 -0.16426353778385031 0.46842053638370362 0 -0.17801000380965989 0.47561572280906489 0 -0.17014513666291531 0.48171822366538508 0 -0.16426353778385031 0.46842053638370362 0 -0.17014513666291531 0.48171822366538508 0 -0.16116749874829769 0.47741721571243328 0 -0.16426353778385031 0.46842053638370362 0 -0.16116749874829769 0.47741721571243328 0 -0.15843735091332889 0.4710522502620903 0 -0.16426353778385031 0.46842053638370362 0 -0.16116749874829769 0.47741721571243328 0 -0.16426353778385031 0.46842053638370362 0 -0.15843735091332889 0.4710522502620903 0 -0.17014513666291531 0.48171822366538508 0 -0.16116749874829769 0.47741721571243328 0 -0.16099880066542119 0.50000000000000022 0 -0.17014513666291531 0.48171822366538508 0 -0.16099880066542119 0.50000000000000022 0 -0.17320242061242691 0.49119185373993512 0 -0.15843735091332889 0.4710522502620903 0 -0.16099880066542119 0.50000000000000022 0 -0.17048378039640921 0.499999999999996 0 -0.17320242061242691 0.49119185373993512 0 -0.16099880066542119 0.50000000000000022 0 -0.17048378039640921 0.499999999999996 0 -0.17320242061242691 0.49119185373993512 0 -0.16099880066542119 0.50000000000000022 0 -0.17320242061242691 0.49119185373993512 0 -0.17320242061242691 0.49119185373993512 0 -0.190689979325044 0.47856994519631457 0 -0.17048378039640921 0.499999999999996 0 -0.17320242061242691 0.49119185373993512 0 -0.18581873262730181 0.49118729788902749 0 -0.17320242061242691 0.49119185373993512 0 -0.18581873262730181 0.49118729788902749 0 -0.190689979325044 0.47856994519631457 0 -0.17048378039640921 0.499999999999996 0 -0.18581873262730181 0.49118729788902749 0 -0.19554748884705389 0.5 0 -0.18581873262730181 0.49118729788902749 0 -0.19487595816744871 0.48827984865781948 0 -0.19554748884705389 0.5 0 -0.19487595816744871 0.48827984865781948 0 -0.19554748884705389 0.5 0 -0.20744763187039511 0.48336215154593609 0 -0.18581873262730181 0.49118729788902749 0 -0.19487595816744871 0.48827984865781948 0 -0.190689979325044 0.47856994519631457 0 -0.190689979325044 0.47856994519631457 0 -0.20817753803766101 0.46594803665269391 0 -0.190689979325044 0.47856994519631457 0 -0.20817753803766101 0.46594803665269391 0 -0.19482622675472999 0.46587529032893948 0 -0.19487595816744871 0.48827984865781948 0 -0.190689979325044 0.47856994519631457 0 -0.20744763187039511 0.48336215154593609 0 -0.17801000380965989 0.47561572280906489 0 -0.190689979325044 0.47856994519631457 0 -0.19482622675472999 0.46587529032893948 0 -0.190689979325044 0.47856994519631457 0 -0.20744763187039511 0.48336215154593609 0 -0.20817753803766101 0.46594803665269391 0 -0.20744763187039511 0.48336215154593609 0 -0.2232475932131088 0.47874498222143241 0 -0.20817753803766101 0.46594803665269391 0 -0.2232475932131088 0.47874498222143241 0 -0.22334275735617259 0.46647783610587229 0 -0.20817753803766101 0.46594803665269391 0 -0.19554748884705389 0.5 0 -0.20744763187039511 0.48336215154593609 0 -0.22061119729769851 0.50000000000000044 0 -0.20744763187039511 0.48336215154593609 0 -0.22061119729769851 0.50000000000000044 0 -0.2232475932131088 0.47874498222143241 0 -0.22061119729769851 0.50000000000000044 0 -0.22451054213863281 0.50000000000000233 0 -0.24534086517324849 0.48911000964708612 0 -0.22061119729769851 0.50000000000000044 0 -0.2232475932131088 0.47874498222143241 0 -0.24534086517324849 0.48911000964708612 0 -0.22061119729769851 0.50000000000000044 0 -0.24534086517324849 0.48911000964708612 0 -0.22451054213863281 0.50000000000000233 0 -0.24148255890114151 0.49421753813106339 0 -0.2232475932131088 0.47874498222143241 0 -0.23628080142364249 0.46789219744028959 0 -0.22334275735617259 0.46647783610587229 0 -0.2232475932131088 0.47874498222143241 0 -0.24534086517324849 0.48911000964708612 0 -0.23628080142364249 0.46789219744028959 0 -0.25374771190227041 0.46769530379170138 0 -0.24534086517324849 0.48911000964708612 0 -0.23628080142364249 0.46789219744028959 0 -0.22451054213863281 0.50000000000000233 0 -0.24534086517324849 0.48911000964708612 0 -0.24148255890114151 0.49421753813106339 0 -0.25847810702610519 0.48850414280974469 0 -0.24534086517324849 0.48911000964708612 0 -0.24148255890114151 0.49421753813106339 0 -0.22451054213863281 0.50000000000000233 0 -0.24271601658602809 0.5 0 -0.24148255890114151 0.49421753813106339 0 -0.25847810702610519 0.48850414280974469 0 -0.24271601658602809 0.5 0 -0.24148255890114151 0.49421753813106339 0 -0.25847810702610519 0.48850414280974469 0 -0.24148255890114151 0.49421753813106339 0 -0.25440434670568679 0.43727792757369249 0 -0.2470835307717511 0.45204209071788648 0 -0.23583124119127399 0.4374763133559072 0 -0.2470835307717511 0.45204209071788648 0 -0.2256650967502781 0.4533261281090733 0 -0.23583124119127399 0.4374763133559072 0 -0.2470835307717511 0.45204209071788648 0 -0.23628080142364249 0.46789219744028959 0 -0.2256650967502781 0.4533261281090733 0 -0.25374771190227041 0.46769530379170138 0 -0.2470835307717511 0.45204209071788648 0 -0.23628080142364249 0.46789219744028959 0 -0.22334275735617259 0.46647783610587229 0 -0.2256650967502781 0.4533261281090733 0 -0.20817753803766101 0.46594803665269391 0 -0.23628080142364249 0.46789219744028959 0 -0.22334275735617259 0.46647783610587229 0 -0.2256650967502781 0.4533261281090733 0 -0.2256650967502781 0.4533261281090733 0 -0.22084070426585289 0.43538371924467612 0 -0.23583124119127399 0.4374763133559072 0 -0.2256650967502781 0.4533261281090733 0 -0.20831066890565611 0.44852425621752878 0 -0.22084070426585289 0.43538371924467612 0 -0.2256650967502781 0.4533261281090733 0 -0.20831066890565611 0.44852425621752878 0 -0.20817753803766101 0.46594803665269391 0 -0.2256650967502781 0.4533261281090733 0 -0.20817753803766101 0.46594803665269391 0 -0.20831066890565611 0.44852425621752878 0 -0.20817753803766101 0.46594803665269391 0 -0.19482622675472999 0.46587529032893948 0 -0.18281758700689349 0.4600395918781951 0 -0.20831066890565611 0.44852425621752878 0 -0.19482622675472999 0.46587529032893948 0 -0.18281758700689349 0.4600395918781951 0 -0.20831066890565611 0.44852425621752878 0 -0.18281758700689349 0.4600395918781951 0 -0.20831066890565611 0.44852425621752878 0 -0.19105692089556489 0.43334490180876922 0 -0.20831066890565611 0.44852425621752878 0 -0.19105692089556489 0.43334490180876922 0 -0.20810391325395439 0.42398758438242701 0 -0.19105692089556489 0.43334490180876922 0 -0.1992962547842371 0.40665021173934351 0 -0.19105692089556489 0.43334490180876922 0 -0.1992962547842371 0.40665021173934351 0 -0.18014262220854191 0.42227802042628387 0 -0.1992962547842371 0.40665021173934351 0 -0.18808216442088779 0.39920676244757408 0 -0.18014262220854191 0.42227802042628387 0 -0.19105692089556489 0.43334490180876922 0 -0.1992962547842371 0.40665021173934351 0 -0.20810391325395439 0.42398758438242701 0 -0.1992962547842371 0.40665021173934351 0 -0.21742618678061951 0.40692140278904287 0 -0.20810391325395439 0.42398758438242701 0 -0.21742618678061951 0.40692140278904287 0 -0.20810391325395439 0.42398758438242701 0 -0.22035716728969429 0.42060188859009112 0 -0.20831066890565611 0.44852425621752878 0 -0.20810391325395439 0.42398758438242701 0 -0.22084070426585289 0.43538371924467612 0 -0.20810391325395439 0.42398758438242701 0 -0.22084070426585289 0.43538371924467612 0 -0.22035716728969429 0.42060188859009112 0 -0.22084070426585289 0.43538371924467612 0 -0.22806234900785671 0.42609527632417488 0 -0.23583124119127399 0.4374763133559072 0 -0.22806234900785671 0.42609527632417488 0 -0.23583124119127399 0.4374763133559072 0 -0.23813634159033989 0.42290976463926327 0 -0.22084070426585289 0.43538371924467612 0 -0.22806234900785671 0.42609527632417488 0 -0.22035716728969429 0.42060188859009112 0 -0.21742618678061951 0.40692140278904287 0 -0.22961658629595061 0.41319157683878799 0 -0.24158762925674229 0.40378265247242029 0 -0.22806234900785671 0.42609527632417488 0 -0.22035716728969429 0.42060188859009112 0 -0.22961658629595061 0.41319157683878799 0 -0.21742618678061951 0.40692140278904287 0 -0.22035716728969429 0.42060188859009112 0 -0.22961658629595061 0.41319157683878799 0 -0.22806234900785671 0.42609527632417488 0 -0.22961658629595061 0.41319157683878799 0 -0.23813634159033989 0.42290976463926327 0 -0.22961658629595061 0.41319157683878799 0 -0.239163799237434 0.41168781992760201 0 -0.23813634159033989 0.42290976463926327 0 -0.239163799237434 0.41168781992760201 0 -0.24390026663595221 0.4098265108577458 0 -0.23813634159033989 0.42290976463926327 0 -0.22961658629595061 0.41319157683878799 0 -0.239163799237434 0.41168781992760201 0 -0.24158762925674229 0.40378265247242029 0 -0.239163799237434 0.41168781992760201 0 -0.24390026663595221 0.4098265108577458 0 -0.24158762925674229 0.40378265247242029 0 -0.24390026663595221 0.4098265108577458 0 -0.24158762925674229 0.40378265247242029 0 -0.25440434670568679 0.43727792757369249 0 -0.24390026663595221 0.4098265108577458 0 -0.25440434670568679 0.43727792757369249 0 -0.23583124119127399 0.4374763133559072 0 -0.23813634159033989 0.42290976463926327 0 -0.25440434670568679 0.43727792757369249 0 -0.24390026663595221 0.4098265108577458 0 -0.23813634159033989 0.42290976463926327 0 -0.23424469339825599 0.38459258624753379 0 -0.22773539588177269 0.371785806926901 0 -0.24298804513369371 0.37489662163126852 0 -0.24855740320059311 0.38849035142128929 0 -0.23424469339825599 0.38459258624753379 0 -0.24298804513369371 0.37489662163126852 0 -0.24158762925674229 0.40378265247242029 0 -0.23424469339825599 0.38459258624753379 0 -0.24855740320059311 0.38849035142128929 0 -0.24158762925674229 0.40378265247242029 0 -0.23424469339825599 0.38459258624753379 0 -0.24158762925674229 0.40378265247242029 0 -0.22554848148559539 0.39550039904942808 0 -0.23424469339825599 0.38459258624753379 0 -0.21742618678061951 0.40692140278904287 0 -0.24158762925674229 0.40378265247242029 0 -0.21742618678061951 0.40692140278904287 0 -0.24158762925674229 0.40378265247242029 0 -0.22554848148559539 0.39550039904942808 0 -0.21742618678061951 0.40692140278904287 0 -0.22554848148559539 0.39550039904942808 0 -0.2145442316967007 0.39558569262158683 0 -0.22554848148559539 0.39550039904942808 0 -0.2206001822887777 0.38503322384510019 0 -0.2145442316967007 0.39558569262158683 0 -0.22554848148559539 0.39550039904942808 0 -0.2206001822887777 0.38503322384510019 0 -0.23424469339825599 0.38459258624753379 0 -0.2206001822887777 0.38503322384510019 0 -0.23424469339825599 0.38459258624753379 0 -0.22773539588177269 0.371785806926901 0 -0.2206001822887777 0.38503322384510019 0 -0.2075355886729093 0.37995552166991781 0 -0.22773539588177269 0.371785806926901 0 -0.2206001822887777 0.38503322384510019 0 -0.2075355886729093 0.37995552166991781 0 -0.2145442316967007 0.39558569262158683 0 -0.1992962547842371 0.40665021173934351 0 -0.21742618678061951 0.40692140278904287 0 -0.2145442316967007 0.39558569262158683 0 -0.1992962547842371 0.40665021173934351 0 -0.2075355886729093 0.37995552166991781 0 -0.2145442316967007 0.39558569262158683 0 -0.1992962547842371 0.40665021173934351 0 -0.2075355886729093 0.37995552166991781 0 -0.1992962547842371 0.40665021173934351 0 -0.2075355886729093 0.37995552166991781 0 -0.19773392862781691 0.3904870000814249 0 -0.1992962547842371 0.40665021173934351 0 -0.18808216442088779 0.39920676244757408 0 -0.19773392862781691 0.3904870000814249 0 -0.18808216442088779 0.39920676244757408 0 -0.19602170663323359 0.37613550446886429 0 -0.18808216442088779 0.39920676244757408 0 -0.19602170663323359 0.37613550446886429 0 -0.19773392862781691 0.3904870000814249 0 -0.18808216442088779 0.39920676244757408 0 -0.19602170663323359 0.37613550446886429 0 -0.18047408951467989 0.38368683415264299 0 -0.2075355886729093 0.37995552166991781 0 -0.19602170663323359 0.37613550446886429 0 -0.19773392862781691 0.3904870000814249 0 -0.18047408951467989 0.38368683415264299 0 -0.16393263101776051 0.377811301899728 0 -0.17738562461233581 0.36620191856746193 0 -0.19602170663323359 0.37613550446886429 0 -0.18047408951467989 0.38368683415264299 0 -0.18587119209385661 0.37354081621318608 0 -0.16393263101776051 0.377811301899728 0 -0.1697532507094677 0.3985670854867942 0 -0.14892453724321039 0.38998910039625528 0 -0.18047408951467989 0.38368683415264299 0 -0.16393263101776051 0.377811301899728 0 -0.1697532507094677 0.3985670854867942 0 -0.1697532507094677 0.3985670854867942 0 -0.1543144752154926 0.40846670546442382 0 -0.14892453724321039 0.38998910039625528 0 -0.18808216442088779 0.39920676244757408 0 -0.18047408951467989 0.38368683415264299 0 -0.1697532507094677 0.3985670854867942 0 -0.18808216442088779 0.39920676244757408 0 -0.1697532507094677 0.3985670854867942 0 -0.1764876300481629 0.40873099662466561 0 -0.18808216442088779 0.39920676244757408 0 -0.1764876300481629 0.40873099662466561 0 -0.18014262220854191 0.42227802042628387 0 -0.18808216442088779 0.39920676244757408 0 -0.18014262220854191 0.42227802042628387 0 -0.1764876300481629 0.40873099662466561 0 -0.18014262220854191 0.42227802042628387 0 -0.16797248285375421 0.41487211813801012 0 -0.17220307999619611 0.44534927840499378 0 -0.18014262220854191 0.42227802042628387 0 -0.17220307999619611 0.44534927840499378 0 -0.19105692089556489 0.43334490180876922 0 -0.18014262220854191 0.42227802042628387 0 -0.17220307999619611 0.44534927840499378 0 -0.18014262220854191 0.42227802042628387 0 -0.16780974434499221 0.43040982398245581 0 -0.18014262220854191 0.42227802042628387 0 -0.16780974434499221 0.43040982398245581 0 -0.16797248285375421 0.41487211813801012 0 -0.16780974434499221 0.43040982398245581 0 -0.16797248285375421 0.41487211813801012 0 -0.1556699124179855 0.4290423380990836 0 -0.16306062424848339 0.44050736484390751 0 -0.16780974434499221 0.43040982398245581 0 -0.1556699124179855 0.4290423380990836 0 -0.1697532507094677 0.3985670854867942 0 -0.1764876300481629 0.40873099662466561 0 -0.16797248285375421 0.41487211813801012 0 -0.16797248285375421 0.41487211813801012 0 -0.1543144752154926 0.40846670546442382 0 -0.1556699124179855 0.4290423380990836 0 -0.1697532507094677 0.3985670854867942 0 -0.16797248285375421 0.41487211813801012 0 -0.1543144752154926 0.40846670546442382 0 -0.1543144752154926 0.40846670546442382 0 -0.13955083839820601 0.41331054213078378 0 -0.1342738988421254 0.39940632656162323 0 -0.1543144752154926 0.40846670546442382 0 -0.1556699124179855 0.4290423380990836 0 -0.13955083839820601 0.41331054213078378 0 -0.1543144752154926 0.40846670546442382 0 -0.1556699124179855 0.4290423380990836 0 -0.14544522351027661 0.43702334659483638 0 -0.1556699124179855 0.4290423380990836 0 -0.13656638764367751 0.42782024169105087 0 -0.1556699124179855 0.4290423380990836 0 -0.13656638764367751 0.42782024169105087 0 -0.13955083839820601 0.41331054213078378 0 -0.13175207046494611 0.44346192959665548 0 -0.13656638764367751 0.42782024169105087 0 -0.1221002198223846 0.42926878838971572 0 -0.13175207046494611 0.44346192959665548 0 -0.14544522351027661 0.43702334659483638 0 -0.13656638764367751 0.42782024169105087 0 -0.13656638764367751 0.42782024169105087 0 -0.12548201032280559 0.41579856094527679 0 -0.1221002198223846 0.42926878838971572 0 -0.13955083839820601 0.41331054213078378 0 -0.12548201032280559 0.41579856094527679 0 -0.1342738988421254 0.39940632656162323 0 -0.13656638764367751 0.42782024169105087 0 -0.13955083839820601 0.41331054213078378 0 -0.12548201032280559 0.41579856094527679 0 -0.1342738988421254 0.39940632656162323 0 -0.12655549565904481 0.38459039506062281 0 -0.14892453724321039 0.38998910039625528 0 -0.12655549565904481 0.38459039506062281 0 -0.14892453724321039 0.38998910039625528 0 -0.14471747201537141 0.37109278790434008 0 -0.16393263101776051 0.377811301899728 0 -0.14892453724321039 0.38998910039625528 0 -0.14471747201537141 0.37109278790434008 0 -0.1543144752154926 0.40846670546442382 0 -0.1342738988421254 0.39940632656162323 0 -0.14892453724321039 0.38998910039625528 0 -0.14165043288496271 0.34906334461799549 0 -0.15843984593516669 0.3353087962765417 0 -0.16020893970901179 0.3578896071927124 0 -0.14165043288496271 0.34906334461799549 0 -0.14471747201537141 0.37109278790434008 0 -0.16020893970901179 0.3578896071927124 0 -0.12655549565904481 0.38459039506062281 0 -0.14471747201537141 0.37109278790434008 0 -0.12710123171609961 0.3622807710251873 0 -0.14165043288496271 0.34906334461799549 0 -0.14471747201537141 0.37109278790434008 0 -0.12710123171609961 0.3622807710251873 0 -0.14165043288496271 0.34906334461799549 0 -0.12710123171609961 0.3622807710251873 0 -0.1189994847652637 0.3425748687043878 0 -0.14165043288496271 0.34906334461799549 0 -0.1315170279352865 0.33102482385584192 0 -0.1189994847652637 0.3425748687043878 0 -0.14165043288496271 0.34906334461799549 0 -0.1315170279352865 0.33102482385584192 0 -0.1443776795059328 0.33390895980560381 0 -0.1315170279352865 0.33102482385584192 0 -0.14495419486811961 0.31734813855161759 0 -0.12577302420238409 0.3093301053864293 0 -0.1315170279352865 0.33102482385584192 0 -0.14495419486811961 0.31734813855161759 0 -0.1443776795059328 0.33390895980560381 0 -0.14495419486811961 0.31734813855161759 0 -0.15843984593516669 0.3353087962765417 0 -0.16290230207748849 0.31861206890147392 0 -0.14495419486811961 0.31734813855161759 0 -0.1443776795059328 0.33390895980560381 0 -0.15843984593516669 0.3353087962765417 0 -0.14165043288496271 0.34906334461799549 0 -0.1443776795059328 0.33390895980560381 0 -0.15843984593516669 0.3353087962765417 0 -0.15843984593516669 0.3353087962765417 0 -0.17774973011518999 0.33020764546750409 0 -0.17749789925717871 0.34686132115754031 0 -0.15843984593516669 0.3353087962765417 0 -0.16290230207748849 0.31861206890147392 0 -0.17774973011518999 0.33020764546750409 0 -0.17774973011518999 0.33020764546750409 0 -0.19720201262974121 0.32662885324472202 0 -0.17861358928141469 0.31234998356939919 0 -0.16290230207748849 0.31861206890147392 0 -0.17774973011518999 0.33020764546750409 0 -0.17861358928141469 0.31234998356939919 0 -0.17774973011518999 0.33020764546750409 0 -0.17749789925717871 0.34686132115754031 0 -0.1924972983359893 0.34358046834146699 0 -0.17749789925717871 0.34686132115754031 0 -0.17738562461233581 0.36620191856746193 0 -0.1942619271162552 0.36094369023707662 0 -0.17749789925717871 0.34686132115754031 0 -0.16020893970901179 0.3578896071927124 0 -0.17738562461233581 0.36620191856746193 0 -0.15843984593516669 0.3353087962765417 0 -0.17749789925717871 0.34686132115754031 0 -0.16020893970901179 0.3578896071927124 0 -0.16393263101776051 0.377811301899728 0 -0.16020893970901179 0.3578896071927124 0 -0.17738562461233581 0.36620191856746193 0 -0.16393263101776051 0.377811301899728 0 -0.14471747201537141 0.37109278790434008 0 -0.16020893970901179 0.3578896071927124 0 -0.18047408951467989 0.38368683415264299 0 -0.17738562461233581 0.36620191856746193 0 -0.18587119209385661 0.37354081621318608 0 -0.17738562461233581 0.36620191856746193 0 -0.18587119209385661 0.37354081621318608 0 -0.1942619271162552 0.36094369023707662 0 -0.19602170663323359 0.37613550446886429 0 -0.18587119209385661 0.37354081621318608 0 -0.1942619271162552 0.36094369023707662 0 -0.2075355886729093 0.37995552166991781 0 -0.19602170663323359 0.37613550446886429 0 -0.1942619271162552 0.36094369023707662 0 -0.1942619271162552 0.36094369023707662 0 -0.2157749225615814 0.35326083160049221 0 -0.1924972983359893 0.34358046834146699 0 -0.17749789925717871 0.34686132115754031 0 -0.1942619271162552 0.36094369023707662 0 -0.1924972983359893 0.34358046834146699 0 -0.2075355886729093 0.37995552166991781 0 -0.2157749225615814 0.35326083160049221 0 -0.2075355886729093 0.37995552166991781 0 -0.2157749225615814 0.35326083160049221 0 -0.22773539588177269 0.371785806926901 0 -0.2075355886729093 0.37995552166991781 0 -0.1942619271162552 0.36094369023707662 0 -0.2157749225615814 0.35326083160049221 0 -0.2157749225615814 0.35326083160049221 0 -0.22773539588177269 0.371785806926901 0 -0.245130999697667 0.35617292401417999 0 -0.2157749225615814 0.35326083160049221 0 -0.245130999697667 0.35617292401417999 0 -0.23295058751304551 0.34252643707592823 0 -0.25008303346203908 0.33611797840414298 0 -0.245130999697667 0.35617292401417999 0 -0.23295058751304551 0.34252643707592823 0 -0.22773539588177269 0.371785806926901 0 -0.245130999697667 0.35617292401417999 0 -0.24298804513369371 0.37489662163126852 0 -0.2592717334901794 0.37344143954643821 0 -0.245130999697667 0.35617292401417999 0 -0.24298804513369371 0.37489662163126852 0 -0.25008303346203908 0.33611797840414298 0 -0.2434150889916675 0.31528126182336752 0 -0.22401425645025361 0.32656614153106639 0 -0.25008303346203908 0.33611797840414298 0 -0.23295058751304551 0.34252643707592823 0 -0.22401425645025361 0.32656614153106639 0 -0.2157749225615814 0.35326083160049221 0 -0.22401425645025361 0.32656614153106639 0 -0.2157749225615814 0.35326083160049221 0 -0.23295058751304551 0.34252643707592823 0 -0.22401425645025361 0.32656614153106639 0 -0.2434150889916675 0.31528126182336752 0 -0.22401425645025361 0.32656614153106639 0 -0.2322535903389257 0.29987145146164079 0 -0.22401425645025361 0.32656614153106639 0 -0.2322535903389257 0.29987145146164079 0 -0.22401425645025361 0.32656614153106639 0 -0.19720201262974121 0.32662885324472202 0 -0.19906220937645289 0.30981321912625731 0 -0.2157749225615814 0.35326083160049221 0 -0.22401425645025361 0.32656614153106639 0 -0.19720201262974121 0.32662885324472202 0 -0.2157749225615814 0.35326083160049221 0 -0.1924972983359893 0.34358046834146699 0 -0.19720201262974121 0.32662885324472202 0 -0.17774973011518999 0.33020764546750409 0 -0.1924972983359893 0.34358046834146699 0 -0.19720201262974121 0.32662885324472202 0 -0.19720201262974121 0.32662885324472202 0 -0.19906220937645289 0.30981321912625731 0 -0.17861358928141469 0.31234998356939919 0 -0.19906220937645289 0.30981321912625731 0 -0.19856760929965681 0.29512163553205928 0 -0.18259298835682489 0.29782857031946008 0 -0.19085311474529701 0.28244454806871849 0 -0.19856760929965681 0.29512163553205928 0 -0.18259298835682489 0.29782857031946008 0 -0.19085311474529701 0.28244454806871849 0 -0.19856760929965681 0.29512163553205928 0 -0.2071077174296316 0.28582887531117668 0 -0.2071077174296316 0.28582887531117668 0 -0.21338280024082609 0.30038413056083629 0 -0.2192288693812762 0.28355186314419151 0 -0.19856760929965681 0.29512163553205928 0 -0.2071077174296316 0.28582887531117668 0 -0.21338280024082609 0.30038413056083629 0 -0.2071077174296316 0.28582887531117668 0 -0.2192288693812762 0.28355186314419151 0 -0.2134516182061634 0.27614892865934582 0 -0.22401425645025361 0.32656614153106639 0 -0.19906220937645289 0.30981321912625731 0 -0.21338280024082609 0.30038413056083629 0 -0.19906220937645289 0.30981321912625731 0 -0.19856760929965681 0.29512163553205928 0 -0.21338280024082609 0.30038413056083629 0 -0.22401425645025361 0.32656614153106639 0 -0.21338280024082609 0.30038413056083629 0 -0.2322535903389257 0.29987145146164079 0 -0.21338280024082609 0.30038413056083629 0 -0.2322535903389257 0.29987145146164079 0 -0.2192288693812762 0.28355186314419151 0 -0.2322535903389257 0.29987145146164079 0 -0.2192288693812762 0.28355186314419151 0 -0.2404929242275981 0.27317676139221531 0 -0.2322535903389257 0.29987145146164079 0 -0.2404929242275981 0.27317676139221531 0 -0.25040582964490582 0.29567583303740069 0 -0.2322535903389257 0.29987145146164079 0 -0.2404929242275981 0.27317676139221531 0 -0.25040582964490582 0.29567583303740069 0 -0.2404929242275981 0.27317676139221531 0 -0.25040582964490582 0.29567583303740069 0 -0.2434150889916675 0.31528126182336752 0 -0.2322535903389257 0.29987145146164079 0 -0.25054816238852479 0.24059870715785611 0 -0.2546175921406465 0.26128861144859822 0 -0.24164285362834059 0.26945109504960563 0 -0.25054816238852479 0.24059870715785611 0 -0.24164285362834059 0.26945109504960563 0 -0.24164285362834059 0.26945109504960563 0 -0.23310158204141429 0.25640081827561029 0 -0.2466801300010773 0.2452604621424746 0 -0.25054816238852479 0.24059870715785611 0 -0.24164285362834059 0.26945109504960563 0 -0.2466801300010773 0.2452604621424746 0 -0.24164285362834059 0.26945109504960563 0 -0.2394572339012683 0.27082608115536438 0 -0.23310158204141429 0.25640081827561029 0 -0.2394572339012683 0.27082608115536438 0 -0.23310158204141429 0.25640081827561029 0 -0.2546175921406465 0.26128861144859822 0 -0.24164285362834059 0.26945109504960563 0 -0.25982227492027221 0.287750399741656 0 -0.24164285362834059 0.26945109504960563 0 -0.2404929242275981 0.27317676139221531 0 -0.24164285362834059 0.26945109504960563 0 -0.2404929242275981 0.27317676139221531 0 -0.24164285362834059 0.26945109504960563 0 -0.2394572339012683 0.27082608115536438 0 -0.24164285362834059 0.26945109504960563 0 -0.2404929242275981 0.27317676139221531 0 -0.2394572339012683 0.27082608115536438 0 -0.2404929242275981 0.27317676139221531 0 -0.2394572339012683 0.27082608115536438 0 -0.2192288693812762 0.28355186314419151 0 -0.2404929242275981 0.27317676139221531 0 -0.2394572339012683 0.27082608115536438 0 -0.2192288693812762 0.28355186314419151 0 -0.2394572339012683 0.27082608115536438 0 -0.2223662512991782 0.27304179816788748 0 -0.2192288693812762 0.28355186314419151 0 -0.2394572339012683 0.27082608115536438 0 -0.2394572339012683 0.27082608115536438 0 -0.2223662512991782 0.27304179816788748 0 -0.23310158204141429 0.25640081827561029 0 -0.2223662512991782 0.27304179816788748 0 -0.23310158204141429 0.25640081827561029 0 -0.2355501434136231 0.2478522206023164 0 -0.2223662512991782 0.27304179816788748 0 -0.2355501434136231 0.2478522206023164 0 -0.2223662512991782 0.27304179816788748 0 -0.222192014233517 0.25700640751059239 0 -0.2355501434136231 0.2478522206023164 0 -0.2223662512991782 0.27304179816788748 0 -0.222192014233517 0.25700640751059239 0 -0.21287289659801359 0.26516855002046552 0 -0.222192014233517 0.25700640751059239 0 -0.22222104444170529 0.2467327462878163 0 -0.2355501434136231 0.2478522206023164 0 -0.222192014233517 0.25700640751059239 0 -0.21371201764358261 0.25214650866738469 0 -0.22222104444170529 0.2467327462878163 0 -0.222192014233517 0.25700640751059239 0 -0.21371201764358261 0.25214650866738469 0 -0.21287289659801359 0.26516855002046552 0 -0.21371201764358261 0.25214650866738469 0 -0.21287289659801359 0.26516855002046552 0 -0.20206212765223941 0.25873777709478579 0 -0.21287289659801359 0.26516855002046552 0 -0.20374397774259509 0.27266482885045462 0 -0.20206212765223941 0.25873777709478579 0 -0.21371201764358261 0.25214650866738469 0 -0.20206212765223941 0.25873777709478579 0 -0.20132404028626799 0.2438270423260239 0 -0.2192288693812762 0.28355186314419151 0 -0.2223662512991782 0.27304179816788748 0 -0.2134516182061634 0.27614892865934582 0 -0.2223662512991782 0.27304179816788748 0 -0.21287289659801359 0.26516855002046552 0 -0.2134516182061634 0.27614892865934582 0 -0.21287289659801359 0.26516855002046552 0 -0.2134516182061634 0.27614892865934582 0 -0.20374397774259509 0.27266482885045462 0 -0.2071077174296316 0.28582887531117668 0 -0.2134516182061634 0.27614892865934582 0 -0.20374397774259509 0.27266482885045462 0 -0.19085311474529701 0.28244454806871849 0 -0.2071077174296316 0.28582887531117668 0 -0.20374397774259509 0.27266482885045462 0 -0.20374397774259509 0.27266482885045462 0 -0.19076826268548239 0.26827287779833747 0 -0.20206212765223941 0.25873777709478579 0 -0.19085311474529701 0.28244454806871849 0 -0.20374397774259509 0.27266482885045462 0 -0.19076826268548239 0.26827287779833747 0 -0.19076826268548239 0.26827287779833747 0 -0.20206212765223941 0.25873777709478579 0 -0.18859670902218051 0.25052543551881717 0 -0.20206212765223941 0.25873777709478579 0 -0.18859670902218051 0.25052543551881717 0 -0.20132404028626799 0.2438270423260239 0 -0.18859670902218051 0.25052543551881717 0 -0.17798103800664031 0.2589484764895198 0 -0.1765110772481347 0.2431385849621667 0 -0.19076826268548239 0.26827287779833747 0 -0.18859670902218051 0.25052543551881717 0 -0.17798103800664031 0.2589484764895198 0 -0.1593990608277665 0.26226189644582071 0 -0.1613020889038615 0.23837444865205379 0 -0.14911298171075679 0.24967097175487091 0 -0.17798103800664031 0.2589484764895198 0 -0.1593990608277665 0.26226189644582071 0 -0.1765110772481347 0.2431385849621667 0 -0.1593990608277665 0.26226189644582071 0 -0.1613020889038615 0.23837444865205379 0 -0.17798103800664031 0.2589484764895198 0 -0.1593990608277665 0.26226189644582071 0 -0.17625891120693621 0.27267786553860818 0 -0.1593990608277665 0.26226189644582071 0 -0.1625734141651913 0.27864750634068558 0 -0.17625891120693621 0.27267786553860818 0 -0.1625734141651913 0.27864750634068558 0 -0.17625891120693621 0.27267786553860818 0 -0.1759785768112396 0.28549188808856729 0 -0.19076826268548239 0.26827287779833747 0 -0.17798103800664031 0.2589484764895198 0 -0.17625891120693621 0.27267786553860818 0 -0.19085311474529701 0.28244454806871849 0 -0.19076826268548239 0.26827287779833747 0 -0.17625891120693621 0.27267786553860818 0 -0.19085311474529701 0.28244454806871849 0 -0.17625891120693621 0.27267786553860818 0 -0.1759785768112396 0.28549188808856729 0 -0.19085311474529701 0.28244454806871849 0 -0.1759785768112396 0.28549188808856729 0 -0.18259298835682489 0.29782857031946008 0 -0.1759785768112396 0.28549188808856729 0 -0.18259298835682489 0.29782857031946008 0 -0.16136995080389721 0.29864400117774398 0 -0.17861358928141469 0.31234998356939919 0 -0.18259298835682489 0.29782857031946008 0 -0.16136995080389721 0.29864400117774398 0 -0.19906220937645289 0.30981321912625731 0 -0.17861358928141469 0.31234998356939919 0 -0.18259298835682489 0.29782857031946008 0 -0.14495419486811961 0.31734813855161759 0 -0.16290230207748849 0.31861206890147392 0 -0.16136995080389721 0.29864400117774398 0 -0.16290230207748849 0.31861206890147392 0 -0.17861358928141469 0.31234998356939919 0 -0.16136995080389721 0.29864400117774398 0 -0.1625734141651913 0.27864750634068558 0 -0.16136995080389721 0.29864400117774398 0 -0.1450808597671244 0.27950790118027541 0 -0.1625734141651913 0.27864750634068558 0 -0.1759785768112396 0.28549188808856729 0 -0.16136995080389721 0.29864400117774398 0 -0.16136995080389721 0.29864400117774398 0 -0.14126992245711781 0.29947087285495883 0 -0.1450808597671244 0.27950790118027541 0 -0.14495419486811961 0.31734813855161759 0 -0.16136995080389721 0.29864400117774398 0 -0.14126992245711781 0.29947087285495883 0 -0.14126992245711781 0.29947087285495883 0 -0.12577302420238409 0.3093301053864293 0 -0.12922822593455879 0.28960894173240792 0 -0.14495419486811961 0.31734813855161759 0 -0.14126992245711781 0.29947087285495883 0 -0.12577302420238409 0.3093301053864293 0 -0.14126992245711781 0.29947087285495883 0 -0.12922822593455879 0.28960894173240792 0 -0.1450808597671244 0.27950790118027541 0 -0.12922822593455879 0.28960894173240792 0 -0.1349930010153193 0.26255216121800568 0 -0.12922822593455879 0.28960894173240792 0 -0.1349930010153193 0.26255216121800568 0 -0.1450808597671244 0.27950790118027541 0 -0.12922822593455879 0.28960894173240792 0 -0.1349930010153193 0.26255216121800568 0 -0.1154385093851408 0.26413547420137762 0 -0.1593990608277665 0.26226189644582071 0 -0.1349930010153193 0.26255216121800568 0 -0.14911298171075679 0.24967097175487091 0 -0.1593990608277665 0.26226189644582071 0 -0.1349930010153193 0.26255216121800568 0 -0.1450808597671244 0.27950790118027541 0 -0.1593990608277665 0.26226189644582071 0 -0.1625734141651913 0.27864750634068558 0 -0.1450808597671244 0.27950790118027541 0 -0.1125365884501535 0.28353815127968629 0 -0.09362037031597753 0.26527792879994888 0 -0.1125365884501535 0.28353815127968629 0 -0.093128128460342754 0.28254352657507131 0 -0.09362037031597753 0.26527792879994888 0 -0.1154385093851408 0.26413547420137762 0 -0.1125365884501535 0.28353815127968629 0 -0.09362037031597753 0.26527792879994888 0 -0.1154385093851408 0.26413547420137762 0 -0.09362037031597753 0.26527792879994888 0 -0.097135213821017974 0.2450179218164267 0 -0.1154385093851408 0.26413547420137762 0 -0.097135213821017974 0.2450179218164267 0 -0.11832329044822951 0.24304604882281969 0 -0.1349930010153193 0.26255216121800568 0 -0.1154385093851408 0.26413547420137762 0 -0.11832329044822951 0.24304604882281969 0 -0.12922822593455879 0.28960894173240792 0 -0.1154385093851408 0.26413547420137762 0 -0.1125365884501535 0.28353815127968629 0 -0.12922822593455879 0.28960894173240792 0 -0.1125365884501535 0.28353815127968629 0 -0.11715930820710339 0.29724977554595788 0 -0.1125365884501535 0.28353815127968629 0 -0.11715930820710339 0.29724977554595788 0 -0.1038404580068167 0.30398166541893579 0 -0.12577302420238409 0.3093301053864293 0 -0.1038404580068167 0.30398166541893579 0 -0.11250071635914489 0.32397018824961021 0 -0.12577302420238409 0.3093301053864293 0 -0.11715930820710339 0.29724977554595788 0 -0.1038404580068167 0.30398166541893579 0 -0.12577302420238409 0.3093301053864293 0 -0.12922822593455879 0.28960894173240792 0 -0.11715930820710339 0.29724977554595788 0 -0.1125365884501535 0.28353815127968629 0 -0.1038404580068167 0.30398166541893579 0 -0.093128128460342754 0.28254352657507131 0 -0.083140595227089928 0.29591471829194321 0 -0.093128128460342754 0.28254352657507131 0 -0.06936539161773822 0.28020753346750782 0 -0.1038404580068167 0.30398166541893579 0 -0.083140595227089928 0.29591471829194321 0 -0.093128128460342754 0.28254352657507131 0 -0.1038404580068167 0.30398166541893579 0 -0.083140595227089928 0.29591471829194321 0 -0.090988500091643998 0.31647506579520901 0 -0.083140595227089928 0.29591471829194321 0 -0.073171874186503463 0.31004866742903531 0 -0.090988500091643998 0.31647506579520901 0 -0.083140595227089928 0.29591471829194321 0 -0.073171874186503463 0.31004866742903531 0 -0.058649820332164468 0.29485946887662068 0 -0.073171874186503463 0.31004866742903531 0 -0.058649820332164468 0.29485946887662068 0 -0.056101506374375817 0.3128319137626559 0 -0.083140595227089928 0.29591471829194321 0 -0.06936539161773822 0.28020753346750782 0 -0.058649820332164468 0.29485946887662068 0 -0.06936539161773822 0.28020753346750782 0 -0.077315147936728598 0.26324091235374891 0 -0.061029816546774987 0.26105054837526498 0 -0.093128128460342754 0.28254352657507131 0 -0.09362037031597753 0.26527792879994888 0 -0.077315147936728598 0.26324091235374891 0 -0.093128128460342754 0.28254352657507131 0 -0.06936539161773822 0.28020753346750782 0 -0.077315147936728598 0.26324091235374891 0 -0.09362037031597753 0.26527792879994888 0 -0.097135213821017974 0.2450179218164267 0 -0.074704152181801681 0.24701770632021169 0 -0.09362037031597753 0.26527792879994888 0 -0.077315147936728598 0.26324091235374891 0 -0.074704152181801681 0.24701770632021169 0 -0.09362037031597753 0.26527792879994888 0 -0.074704152181801681 0.24701770632021169 0 -0.061029816546774987 0.26105054837526498 0 -0.074704152181801681 0.24701770632021169 0 -0.057747386715908428 0.24463041023760571 0 -0.077315147936728598 0.26324091235374891 0 -0.061029816546774987 0.26105054837526498 0 -0.074704152181801681 0.24701770632021169 0 -0.061029816546774987 0.26105054837526498 0 -0.03742977218140614 0.26357467527551443 0 -0.046594812073733123 0.24823599275617891 0 -0.061029816546774987 0.26105054837526498 0 -0.046594812073733123 0.24823599275617891 0 -0.057747386715908428 0.24463041023760571 0 -0.06936539161773822 0.28020753346750782 0 -0.061029816546774987 0.26105054837526498 0 -0.048476972550706023 0.27982564543664679 0 -0.061029816546774987 0.26105054837526498 0 -0.048476972550706023 0.27982564543664679 0 -0.03742977218140614 0.26357467527551443 0 -0.061029816546774987 0.26105054837526498 0 -0.048476972550706023 0.27982564543664679 0 -0.048476972550706023 0.27982564543664679 0 -0.031819983271387867 0.27999546987022927 0 -0.03742977218140614 0.26357467527551443 0 -0.03742977218140614 0.26357467527551443 0 -0.03189830216395443 0.24568919817845219 0 -0.046594812073733123 0.24823599275617891 0 -0.03742977218140614 0.26357467527551443 0 -0.020565667716041462 0.25572736355358933 0 -0.03189830216395443 0.24568919817845219 0 -0.03742977218140614 0.26357467527551443 0 -0.020565667716041462 0.25572736355358933 0 -0.022715456858953278 0.26994870387583431 0 -0.020565667716041462 0.25572736355358933 0 -0.022715456858953278 0.26994870387583431 0 -0.0080731797928139601 0.26595294531788349 0 -0.031819983271387867 0.27999546987022927 0 -0.03742977218140614 0.26357467527551443 0 -0.022715456858953278 0.26994870387583431 0 -0.031819983271387867 0.27999546987022927 0 -0.022715456858953278 0.26994870387583431 0 -0.01304989637173277 0.28246747093767138 0 -0.022715456858953278 0.26994870387583431 0 -0.0080731797928139601 0.26595294531788349 0 -0.01304989637173277 0.28246747093767138 0 -0.0080731797928139601 0.26595294531788349 0 -0.01304989637173277 0.28246747093767138 0 0.0042686616650212863 0.27440264234540929 0 -0.0080731797928139601 0.26595294531788349 0 -0.004361582131907446 0.25012675423618741 0 0.0045166499774289158 0.26107549289106269 0 -0.020565667716041462 0.25572736355358933 0 -0.0080731797928139601 0.26595294531788349 0 -0.004361582131907446 0.25012675423618741 0 -0.0025045175740335168 0.31031314766219981 0 -0.001308369768482999 0.29320410557187471 0 -0.016598711115656001 0.30159589275249321 0 -0.0025045175740335168 0.31031314766219981 0 -0.016598711115656001 0.30159589275249321 0 -0.021593132986752129 0.32003539370993961 0 -0.001308369768482999 0.29320410557187471 0 -0.01304989637173277 0.28246747093767138 0 0.0042686616650212863 0.27440264234540929 0 -0.001308369768482999 0.29320410557187471 0 -0.01304989637173277 0.28246747093767138 0 -0.016598711115656001 0.30159589275249321 0 -0.01304989637173277 0.28246747093767138 0 -0.035924128554638488 0.29860074249802943 0 -0.01304989637173277 0.28246747093767138 0 -0.016598711115656001 0.30159589275249321 0 -0.035924128554638488 0.29860074249802943 0 -0.031819983271387867 0.27999546987022927 0 -0.01304989637173277 0.28246747093767138 0 -0.035924128554638488 0.29860074249802943 0 -0.016598711115656001 0.30159589275249321 0 -0.035924128554638488 0.29860074249802943 0 -0.021593132986752129 0.32003539370993961 0 -0.035924128554638488 0.29860074249802943 0 -0.021593132986752129 0.32003539370993961 0 -0.035924128554638488 0.29860074249802943 0 -0.056101506374375817 0.3128319137626559 0 -0.035924128554638488 0.29860074249802943 0 -0.038849285662232391 0.31623083740802288 0 -0.021593132986752129 0.32003539370993961 0 -0.035924128554638488 0.29860074249802943 0 -0.056101506374375817 0.3128319137626559 0 -0.038849285662232391 0.31623083740802288 0 -0.048476972550706023 0.27982564543664679 0 -0.031819983271387867 0.27999546987022927 0 -0.035924128554638488 0.29860074249802943 0 -0.048476972550706023 0.27982564543664679 0 -0.035924128554638488 0.29860074249802943 0 -0.06936539161773822 0.28020753346750782 0 -0.048476972550706023 0.27982564543664679 0 -0.058649820332164468 0.29485946887662068 0 -0.048476972550706023 0.27982564543664679 0 -0.035924128554638488 0.29860074249802943 0 -0.058649820332164468 0.29485946887662068 0 -0.035924128554638488 0.29860074249802943 0 -0.058649820332164468 0.29485946887662068 0 -0.056101506374375817 0.3128319137626559 0 -0.056101506374375817 0.3128319137626559 0 -0.061273612338163523 0.34168082392211641 0 -0.041778374733163148 0.33345529966146709 0 -0.041778374733163148 0.33345529966146709 0 -0.038849285662232391 0.31623083740802288 0 -0.021593132986752129 0.32003539370993961 0 -0.056101506374375817 0.3128319137626559 0 -0.041778374733163148 0.33345529966146709 0 -0.038849285662232391 0.31623083740802288 0 -0.021593132986752129 0.32003539370993961 0 -0.0072621374188671052 0.34147004492185079 0 -0.026756520995263839 0.34622662442059521 0 -0.041778374733163148 0.33345529966146709 0 -0.021593132986752129 0.32003539370993961 0 -0.026756520995263839 0.34622662442059521 0 -0.021593132986752129 0.32003539370993961 0 -0.0072621374188671052 0.34147004492185079 0 -0.021593132986752129 0.32003539370993961 0 -0.0072621374188671052 0.34147004492185079 0 -0.00017254440855824261 0.32560037032276101 0 -0.0025045175740335168 0.31031314766219981 0 -0.021593132986752129 0.32003539370993961 0 -0.00017254440855824261 0.32560037032276101 0 -0.017975249263795932 0.36469023687930041 0 -0.0036227877329230301 0.37947700469323042 0 0.0070688581490178301 0.36290469613376197 0 -0.017975249263795932 0.36469023687930041 0 -0.017202423973373768 0.37968737263981228 0 -0.0036227877329230301 0.37947700469323042 0 -0.0072621374188671052 0.34147004492185079 0 0.0070688581490178301 0.36290469613376197 0 -0.0072621374188671052 0.34147004492185079 0 -0.017975249263795932 0.36469023687930041 0 0.0070688581490178301 0.36290469613376197 0 -0.0072621374188671052 0.34147004492185079 0 -0.026756520995263839 0.34622662442059521 0 -0.017975249263795932 0.36469023687930041 0 -0.026756520995263839 0.34622662442059521 0 -0.017975249263795932 0.36469023687930041 0 -0.044972299261370183 0.36017708579622421 0 -0.017975249263795932 0.36469023687930041 0 -0.044972299261370183 0.36017708579622421 0 -0.033696569954803593 0.38151106350699548 0 -0.044972299261370183 0.36017708579622421 0 -0.056355392512392112 0.37995563405969551 0 -0.033696569954803593 0.38151106350699548 0 -0.041778374733163148 0.33345529966146709 0 -0.026756520995263839 0.34622662442059521 0 -0.044972299261370183 0.36017708579622421 0 -0.061273612338163523 0.34168082392211641 0 -0.044972299261370183 0.36017708579622421 0 -0.06521228616511808 0.36405037212009378 0 -0.061273612338163523 0.34168082392211641 0 -0.041778374733163148 0.33345529966146709 0 -0.044972299261370183 0.36017708579622421 0 -0.044972299261370183 0.36017708579622421 0 -0.06521228616511808 0.36405037212009378 0 -0.056355392512392112 0.37995563405969551 0 -0.06521228616511808 0.36405037212009378 0 -0.083611302269088666 0.35468926302163939 0 -0.079848824444575958 0.38374905380079372 0 -0.083611302269088666 0.35468926302163939 0 -0.096975471326963783 0.37148378381343322 0 -0.079848824444575958 0.38374905380079372 0 -0.061273612338163523 0.34168082392211641 0 -0.06521228616511808 0.36405037212009378 0 -0.083611302269088666 0.35468926302163939 0 -0.061273612338163523 0.34168082392211641 0 -0.083611302269088666 0.35468926302163939 0 -0.076278884194113258 0.32706308502728249 0 -0.056101506374375817 0.3128319137626559 0 -0.076278884194113258 0.32706308502728249 0 -0.056101506374375817 0.3128319137626559 0 -0.061273612338163523 0.34168082392211641 0 -0.076278884194113258 0.32706308502728249 0 -0.073171874186503463 0.31004866742903531 0 -0.056101506374375817 0.3128319137626559 0 -0.076278884194113258 0.32706308502728249 0 -0.076278884194113258 0.32706308502728249 0 -0.090988500091643998 0.31647506579520901 0 -0.096998472576195746 0.33787207035444761 0 -0.073171874186503463 0.31004866742903531 0 -0.076278884194113258 0.32706308502728249 0 -0.090988500091643998 0.31647506579520901 0 -0.083611302269088666 0.35468926302163939 0 -0.076278884194113258 0.32706308502728249 0 -0.096998472576195746 0.33787207035444761 0 -0.090988500091643998 0.31647506579520901 0 -0.096998472576195746 0.33787207035444761 0 -0.11250071635914489 0.32397018824961021 0 -0.1038404580068167 0.30398166541893579 0 -0.090988500091643998 0.31647506579520901 0 -0.11250071635914489 0.32397018824961021 0 -0.1315170279352865 0.33102482385584192 0 -0.12577302420238409 0.3093301053864293 0 -0.11250071635914489 0.32397018824961021 0 -0.1315170279352865 0.33102482385584192 0 -0.11250071635914489 0.32397018824961021 0 -0.1189994847652637 0.3425748687043878 0 -0.096998472576195746 0.33787207035444761 0 -0.11250071635914489 0.32397018824961021 0 -0.1189994847652637 0.3425748687043878 0 -0.12710123171609961 0.3622807710251873 0 -0.1189994847652637 0.3425748687043878 0 -0.1089146800649551 0.3561770594294375 0 -0.12710123171609961 0.3622807710251873 0 -0.1130895959368447 0.37246627340933908 0 -0.1089146800649551 0.3561770594294375 0 -0.12655549565904481 0.38459039506062281 0 -0.12710123171609961 0.3622807710251873 0 -0.1130895959368447 0.37246627340933908 0 -0.1130895959368447 0.37246627340933908 0 -0.096975471326963783 0.37148378381343322 0 -0.1089146800649551 0.3561770594294375 0 -0.083611302269088666 0.35468926302163939 0 -0.096975471326963783 0.37148378381343322 0 -0.1089146800649551 0.3561770594294375 0 -0.096998472576195746 0.33787207035444761 0 -0.1189994847652637 0.3425748687043878 0 -0.1089146800649551 0.3561770594294375 0 -0.083611302269088666 0.35468926302163939 0 -0.096998472576195746 0.33787207035444761 0 -0.1089146800649551 0.3561770594294375 0 -0.10335637586111809 0.38776536102133979 0 -0.1122756033997336 0.40440751886529608 0 -0.092626744140319878 0.40339206391310989 0 -0.1130895959368447 0.37246627340933908 0 -0.096975471326963783 0.37148378381343322 0 -0.10335637586111809 0.38776536102133979 0 -0.12655549565904481 0.38459039506062281 0 -0.1130895959368447 0.37246627340933908 0 -0.10335637586111809 0.38776536102133979 0 -0.12655549565904481 0.38459039506062281 0 -0.10335637586111809 0.38776536102133979 0 -0.1122756033997336 0.40440751886529608 0 -0.1342738988421254 0.39940632656162323 0 -0.12655549565904481 0.38459039506062281 0 -0.1122756033997336 0.40440751886529608 0 -0.12548201032280559 0.41579856094527679 0 -0.1122756033997336 0.40440751886529608 0 -0.1104394098233438 0.42174348832390141 0 -0.12548201032280559 0.41579856094527679 0 -0.1342738988421254 0.39940632656162323 0 -0.1122756033997336 0.40440751886529608 0 -0.13175207046494611 0.44346192959665548 0 -0.1221002198223846 0.42926878838971572 0 -0.1064787913094135 0.43730588845956792 0 -0.12548201032280559 0.41579856094527679 0 -0.1104394098233438 0.42174348832390141 0 -0.1221002198223846 0.42926878838971572 0 -0.1104394098233438 0.42174348832390141 0 -0.1221002198223846 0.42926878838971572 0 -0.1064787913094135 0.43730588845956792 0 -0.1064787913094135 0.43730588845956792 0 -0.08120551215388104 0.43114984732248018 0 -0.1064787913094135 0.43730588845956792 0 -0.097026127818036836 0.42472771569137829 0 -0.08120551215388104 0.43114984732248018 0 -0.1104394098233438 0.42174348832390141 0 -0.1064787913094135 0.43730588845956792 0 -0.097026127818036836 0.42472771569137829 0 -0.1122756033997336 0.40440751886529608 0 -0.098824778170087071 0.41543684488035082 0 -0.092626744140319878 0.40339206391310989 0 -0.1122756033997336 0.40440751886529608 0 -0.1104394098233438 0.42174348832390141 0 -0.098824778170087071 0.41543684488035082 0 -0.1104394098233438 0.42174348832390141 0 -0.097026127818036836 0.42472771569137829 0 -0.098824778170087071 0.41543684488035082 0 -0.097026127818036836 0.42472771569137829 0 -0.098824778170087071 0.41543684488035082 0 -0.088182147633458732 0.41800250947059109 0 -0.088182147633458732 0.41800250947059109 0 -0.075766822878524695 0.41019172804676379 0 -0.092626744140319878 0.40339206391310989 0 -0.088182147633458732 0.41800250947059109 0 -0.08120551215388104 0.43114984732248018 0 -0.075766822878524695 0.41019172804676379 0 -0.098824778170087071 0.41543684488035082 0 -0.088182147633458732 0.41800250947059109 0 -0.092626744140319878 0.40339206391310989 0 -0.08120551215388104 0.43114984732248018 0 -0.071684821312473307 0.43663440229273398 0 -0.093222345705159748 0.44373923815992428 0 -0.097026127818036836 0.42472771569137829 0 -0.088182147633458732 0.41800250947059109 0 -0.08120551215388104 0.43114984732248018 0 -0.1064787913094135 0.43730588845956792 0 -0.08120551215388104 0.43114984732248018 0 -0.093222345705159748 0.44373923815992428 0 -0.065135249615538293 0.42231944082984091 0 -0.071684821312473307 0.43663440229273398 0 -0.055943765893954757 0.43144171565494821 0 -0.065135249615538293 0.42231944082984091 0 -0.071684821312473307 0.43663440229273398 0 -0.075766822878524695 0.41019172804676379 0 -0.08120551215388104 0.43114984732248018 0 -0.071684821312473307 0.43663440229273398 0 -0.075766822878524695 0.41019172804676379 0 -0.071684821312473307 0.43663440229273398 0 -0.055943765893954757 0.43144171565494821 0 -0.071684821312473307 0.43663440229273398 0 -0.075766822878524695 0.41019172804676379 0 -0.065135249615538293 0.42231944082984091 0 -0.075766822878524695 0.41019172804676379 0 -0.05600936231039217 0.41342904923233581 0 -0.075766822878524695 0.41019172804676379 0 -0.063299398534094969 0.39691509799282482 0 -0.05600936231039217 0.41342904923233581 0 -0.075766822878524695 0.41019172804676379 0 -0.063299398534094969 0.39691509799282482 0 -0.079848824444575958 0.38374905380079372 0 -0.075766822878524695 0.41019172804676379 0 -0.079848824444575958 0.38374905380079372 0 -0.10335637586111809 0.38776536102133979 0 -0.092626744140319878 0.40339206391310989 0 -0.079848824444575958 0.38374905380079372 0 -0.075766822878524695 0.41019172804676379 0 -0.092626744140319878 0.40339206391310989 0 -0.079848824444575958 0.38374905380079372 0 -0.096975471326963783 0.37148378381343322 0 -0.10335637586111809 0.38776536102133979 0 -0.079848824444575958 0.38374905380079372 0 -0.06521228616511808 0.36405037212009378 0 -0.079848824444575958 0.38374905380079372 0 -0.056355392512392112 0.37995563405969551 0 -0.063299398534094969 0.39691509799282482 0 -0.079848824444575958 0.38374905380079372 0 -0.056355392512392112 0.37995563405969551 0 -0.063299398534094969 0.39691509799282482 0 -0.056355392512392112 0.37995563405969551 0 -0.048516590524589932 0.3972500248245352 0 -0.063299398534094969 0.39691509799282482 0 -0.048516590524589932 0.3972500248245352 0 -0.05600936231039217 0.41342904923233581 0 -0.048516590524589932 0.3972500248245352 0 -0.032850518460687449 0.39898186447299261 0 -0.037770955976974781 0.41204834058667128 0 -0.048516590524589932 0.3972500248245352 0 -0.032850518460687449 0.39898186447299261 0 -0.033696569954803593 0.38151106350699548 0 -0.056355392512392112 0.37995563405969551 0 -0.048516590524589932 0.3972500248245352 0 -0.033696569954803593 0.38151106350699548 0 -0.017975249263795932 0.36469023687930041 0 -0.033696569954803593 0.38151106350699548 0 -0.017202423973373768 0.37968737263981228 0 -0.033696569954803593 0.38151106350699548 0 -0.017202423973373768 0.37968737263981228 0 -0.018646700241063071 0.39302480292672293 0 -0.018646700241063071 0.39302480292672293 0 -0.0081246324890641812 0.40805065625530412 0 -0.02380123978217763 0.41023834757766542 0 -0.032850518460687449 0.39898186447299261 0 -0.018646700241063071 0.39302480292672293 0 -0.02380123978217763 0.41023834757766542 0 -0.032850518460687449 0.39898186447299261 0 -0.033696569954803593 0.38151106350699548 0 -0.018646700241063071 0.39302480292672293 0 -0.018646700241063071 0.39302480292672293 0 -0.0081246324890641812 0.40805065625530412 0 0.0058412231562265226 0.39891749499975832 0 -0.018646700241063071 0.39302480292672293 0 -0.0036227877329230301 0.37947700469323042 0 0.0058412231562265226 0.39891749499975832 0 -0.017202423973373768 0.37968737263981228 0 -0.018646700241063071 0.39302480292672293 0 -0.0036227877329230301 0.37947700469323042 0 -0.0072392309157056894 0.43649428994281841 0 -0.01082192781792536 0.4212785973985777 0 -0.025245314308565012 0.42614172839533782 0 -0.0072392309157056894 0.43649428994281841 0 -0.01082192781792536 0.4212785973985777 0 0.0059488009041311612 0.41735624870114602 0 -0.0081246324890641812 0.40805065625530412 0 -0.01082192781792536 0.4212785973985777 0 -0.02380123978217763 0.41023834757766542 0 -0.0081246324890641812 0.40805065625530412 0 -0.01082192781792536 0.4212785973985777 0 0.0059488009041311612 0.41735624870114602 0 -0.02380123978217763 0.41023834757766542 0 -0.025245314308565012 0.42614172839533782 0 -0.037770955976974781 0.41204834058667128 0 -0.01082192781792536 0.4212785973985777 0 -0.02380123978217763 0.41023834757766542 0 -0.025245314308565012 0.42614172839533782 0 -0.0072392309157056894 0.43649428994281841 0 -0.025245314308565012 0.42614172839533782 0 -0.027102965719072159 0.44246949839488359 0 -0.025245314308565012 0.42614172839533782 0 -0.040202710475436512 0.4262490290171615 0 -0.027102965719072159 0.44246949839488359 0 -0.040202710475436512 0.4262490290171615 0 -0.037770955976974781 0.41204834058667128 0 -0.05600936231039217 0.41342904923233581 0 -0.032850518460687449 0.39898186447299261 0 -0.02380123978217763 0.41023834757766542 0 -0.037770955976974781 0.41204834058667128 0 -0.025245314308565012 0.42614172839533782 0 -0.040202710475436512 0.4262490290171615 0 -0.037770955976974781 0.41204834058667128 0 -0.048516590524589932 0.3972500248245352 0 -0.037770955976974781 0.41204834058667128 0 -0.05600936231039217 0.41342904923233581 0 -0.040202710475436512 0.4262490290171615 0 -0.055943765893954757 0.43144171565494821 0 -0.065135249615538293 0.42231944082984091 0 -0.05600936231039217 0.41342904923233581 0 -0.055943765893954757 0.43144171565494821 0 -0.040202710475436512 0.4262490290171615 0 -0.055943765893954757 0.43144171565494821 0 -0.044517274739645132 0.44459183642540612 0 -0.040202710475436512 0.4262490290171615 0 -0.05600936231039217 0.41342904923233581 0 -0.055943765893954757 0.43144171565494821 0 -0.058335943557526457 0.44624868987483279 0 -0.051109653666529857 0.46081922680591902 0 -0.044517274739645132 0.44459183642540612 0 -0.071684821312473307 0.43663440229273398 0 -0.055943765893954757 0.43144171565494821 0 -0.058335943557526457 0.44624868987483279 0 -0.055943765893954757 0.43144171565494821 0 -0.058335943557526457 0.44624868987483279 0 -0.044517274739645132 0.44459183642540612 0 -0.051109653666529857 0.46081922680591902 0 -0.065163583037585071 0.47887813409757868 0 -0.068424202175029258 0.45775626819515641 0 -0.058335943557526457 0.44624868987483279 0 -0.051109653666529857 0.46081922680591902 0 -0.068424202175029258 0.45775626819515641 0 -0.051109653666529857 0.46081922680591902 0 -0.032757904119458489 0.46093040696708881 0 -0.044531910374045837 0.48023148171387958 0 -0.051109653666529857 0.46081922680591902 0 -0.032757904119458489 0.46093040696708881 0 -0.044517274739645132 0.44459183642540612 0 -0.040202710475436512 0.4262490290171615 0 -0.044517274739645132 0.44459183642540612 0 -0.027102965719072159 0.44246949839488359 0 -0.032757904119458489 0.46093040696708881 0 -0.044517274739645132 0.44459183642540612 0 -0.027102965719072159 0.44246949839488359 0 -0.0072392309157056894 0.43649428994281841 0 -0.027102965719072159 0.44246949839488359 0 -0.01461213653914459 0.45725057482734738 0 -0.032757904119458489 0.46093040696708881 0 -0.027102965719072159 0.44246949839488359 0 -0.01461213653914459 0.45725057482734738 0 -0.032757904119458489 0.46093040696708881 0 -0.01461213653914459 0.45725057482734738 0 -0.02185909025790168 0.48076112241269181 0 -0.01461213653914459 0.45725057482734738 0 -0.003089566724048357 0.47326761514296101 0 0.0026031304198410629 0.45131346537392758 0 -0.0072392309157056894 0.43649428994281841 0 -0.01461213653914459 0.45725057482734738 0 0.0026031304198410629 0.45131346537392758 0 -0.0068935706251778139 0.5 0 -0.003089566724048357 0.47326761514296101 0 -0.02185909025790168 0.48076112241269181 0 -0.01461213653914459 0.45725057482734738 0 -0.003089566724048357 0.47326761514296101 0 -0.02185909025790168 0.48076112241269181 0 -0.0068935706251778139 0.5 0 -0.02185909025790168 0.48076112241269181 0 -0.034398267262659273 0.5 0 -0.02185909025790168 0.48076112241269181 0 -0.034398267262659273 0.5 0 -0.044531910374045837 0.48023148171387958 0 -0.032757904119458489 0.46093040696708881 0 -0.02185909025790168 0.48076112241269181 0 -0.044531910374045837 0.48023148171387958 0 -0.051109653666529857 0.46081922680591902 0 -0.044531910374045837 0.48023148171387958 0 -0.065163583037585071 0.47887813409757868 0 -0.044531910374045837 0.48023148171387958 0 -0.061902963900140731 0.50000000000000089 0 -0.065163583037585071 0.47887813409757868 0 -0.034398267262659273 0.5 0 -0.044531910374045837 0.48023148171387958 0 -0.061902963900140731 0.50000000000000089 0 -0.061902963900140731 0.50000000000000089 0 -0.065163583037585071 0.47887813409757868 0 -0.061902963900140731 0.50000000000000089 0 -0.077838109667281524 0.48710250329852411 0 -0.087854509421354754 0.5 0 -0.061902963900140731 0.50000000000000089 0 -0.077838109667281524 0.48710250329852411 0 -0.065163583037585071 0.47887813409757868 0 -0.077838109667281524 0.48710250329852411 0 -0.087854509421354754 0.5 0 -0.093631833857276997 0.48378290981445132 0 -0.077838109667281524 0.48710250329852411 0 -0.093631833857276997 0.48378290981445132 0 -0.080637658120050082 0.47285147258059063 0 -0.093631833857276997 0.48378290981445132 0 -0.080637658120050082 0.47285147258059063 0 -0.095304075467821936 0.46893627996427029 0 -0.080637658120050082 0.47285147258059063 0 -0.065163583037585071 0.47887813409757868 0 -0.068424202175029258 0.45775626819515641 0 -0.077838109667281524 0.48710250329852411 0 -0.080637658120050082 0.47285147258059063 0 -0.065163583037585071 0.47887813409757868 0 -0.065163583037585071 0.47887813409757868 0 -0.068424202175029258 0.45775626819515641 0 -0.068424202175029258 0.45775626819515641 0 -0.079579065155363032 0.44906004053067289 0 -0.084984891428789844 0.45811025347487683 0 -0.080637658120050082 0.47285147258059063 0 -0.068424202175029258 0.45775626819515641 0 -0.084984891428789844 0.45811025347487683 0 -0.071684821312473307 0.43663440229273398 0 -0.058335943557526457 0.44624868987483279 0 -0.068424202175029258 0.45775626819515641 0 -0.071684821312473307 0.43663440229273398 0 -0.068424202175029258 0.45775626819515641 0 -0.071684821312473307 0.43663440229273398 0 -0.068424202175029258 0.45775626819515641 0 -0.079579065155363032 0.44906004053067289 0 -0.071684821312473307 0.43663440229273398 0 -0.079579065155363032 0.44906004053067289 0 -0.093222345705159748 0.44373923815992428 0 -0.071684821312473307 0.43663440229273398 0 -0.093222345705159748 0.44373923815992428 0 -0.079579065155363032 0.44906004053067289 0 -0.093222345705159748 0.44373923815992428 0 -0.084984891428789844 0.45811025347487683 0 -0.093222345705159748 0.44373923815992428 0 -0.084984891428789844 0.45811025347487683 0 -0.099437105326258865 0.45731761566948659 0 -0.084984891428789844 0.45811025347487683 0 -0.099437105326258865 0.45731761566948659 0 -0.095304075467821936 0.46893627996427029 0 -0.080637658120050082 0.47285147258059063 0 -0.084984891428789844 0.45811025347487683 0 -0.095304075467821936 0.46893627996427029 0 -0.099437105326258865 0.45731761566948659 0 -0.10891434393167621 0.46495823272124781 0 -0.095304075467821936 0.46893627996427029 0 -0.099437105326258865 0.45731761566948659 0 -0.10891434393167621 0.46495823272124781 0 -0.11475987009784661 0.45084407402711402 0 -0.093222345705159748 0.44373923815992428 0 -0.099437105326258865 0.45731761566948659 0 -0.11475987009784661 0.45084407402711402 0 -0.1064787913094135 0.43730588845956792 0 -0.093222345705159748 0.44373923815992428 0 -0.11475987009784661 0.45084407402711402 0 -0.093222345705159748 0.44373923815992428 0 -0.11475987009784661 0.45084407402711402 0 -0.13175207046494611 0.44346192959665548 0 -0.1064787913094135 0.43730588845956792 0 -0.13175207046494611 0.44346192959665548 0 -0.1064787913094135 0.43730588845956792 0 -0.11475987009784661 0.45084407402711402 0 -0.1336307511693739 0.45491465667522191 0 -0.12544051825853689 0.4631374593356033 0 -0.11475987009784661 0.45084407402711402 0 -0.12544051825853689 0.4631374593356033 0 -0.10891434393167621 0.46495823272124781 0 -0.1136160252334053 0.47771856728300521 0 -0.12544051825853689 0.4631374593356033 0 -0.10891434393167621 0.46495823272124781 0 -0.11475987009784661 0.45084407402711402 0 -0.13298062755884579 0.48255116261061692 0 -0.12544051825853689 0.4631374593356033 0 -0.1136160252334053 0.47771856728300521 0 -0.13298062755884579 0.48255116261061692 0 -0.1058458182692171 0.49480807365413371 0 -0.13298062755884579 0.48255116261061692 0 -0.11380605494256869 0.5 0 -0.1058458182692171 0.49480807365413371 0 -0.13298062755884579 0.48255116261061692 0 -0.1136160252334053 0.47771856728300521 0 -0.1058458182692171 0.49480807365413371 0 -0.087854509421354754 0.5 0 -0.11380605494256869 0.5 0 -0.1058458182692171 0.49480807365413371 0 -0.087854509421354754 0.5 0 -0.093631833857276997 0.48378290981445132 0 -0.1058458182692171 0.49480807365413371 0 -0.1136160252334053 0.47771856728300521 0 -0.1058458182692171 0.49480807365413371 0 -0.1043559736166358 0.48381945471134902 0 -0.093631833857276997 0.48378290981445132 0 -0.1058458182692171 0.49480807365413371 0 -0.1043559736166358 0.48381945471134902 0 -0.093631833857276997 0.48378290981445132 0 -0.1048057889081305 0.47442420204765762 0 -0.1043559736166358 0.48381945471134902 0 -0.093631833857276997 0.48378290981445132 0 -0.095304075467821936 0.46893627996427029 0 -0.1048057889081305 0.47442420204765762 0 -0.10891434393167621 0.46495823272124781 0 -0.1136160252334053 0.47771856728300521 0 -0.1048057889081305 0.47442420204765762 0 -0.10891434393167621 0.46495823272124781 0 -0.095304075467821936 0.46893627996427029 0 -0.1048057889081305 0.47442420204765762 0 -0.1136160252334053 0.47771856728300521 0 -0.1048057889081305 0.47442420204765762 0 -0.1043559736166358 0.48381945471134902 0 -0.16372231175516949 0.08442819848465731 0 -0.15093626356447659 0.087069345181943508 0 -0.15518952671466241 0.069788713381716036 0 -0.16372231175516949 0.08442819848465731 0 -0.1756345505012066 0.070889783495268699 0 -0.1751333004977583 0.097143888168289519 0 -0.16372231175516949 0.08442819848465731 0 -0.1751333004977583 0.097143888168289519 0 -0.16171791749774381 0.097249262196068775 0 -0.16372231175516949 0.08442819848465731 0 -0.16171791749774381 0.097249262196068775 0 -0.15093626356447659 0.087069345181943508 0 -0.16372231175516949 0.08442819848465731 0 -0.1756345505012066 0.070889783495268699 0 -0.15518952671466241 0.069788713381716036 0 -0.1756345505012066 0.070889783495268699 0 -0.15518952671466241 0.069788713381716036 0 -0.16223695238926561 0.052594200190125132 0 -0.1756345505012066 0.070889783495268699 0 -0.19053419445951161 0.052610770621845292 0 -0.19612483249420401 0.068091746174319415 0 -0.1756345505012066 0.070889783495268699 0 -0.18871947576181089 0.093673214670465021 0 -0.19612483249420401 0.068091746174319415 0 -0.1756345505012066 0.070889783495268699 0 -0.1751333004977583 0.097143888168289519 0 -0.1756345505012066 0.070889783495268699 0 -0.1751333004977583 0.097143888168289519 0 -0.18871947576181089 0.093673214670465021 0 -0.18131411902941769 0.11925468316661041 0 -0.18871947576181089 0.093673214670465021 0 -0.1751333004977583 0.097143888168289519 0 -0.18131411902941769 0.11925468316661041 0 -0.18871947576181089 0.093673214670465021 0 -0.1751333004977583 0.097143888168289519 0 -0.17463205049430791 0.1233979928413103 0 -0.18131411902941769 0.11925468316661041 0 -0.17463205049430791 0.1233979928413103 0 -0.19892457962824481 0.1205653340059829 0 -0.17463205049430791 0.1233979928413103 0 -0.19892457962824481 0.1205653340059829 0 -0.18530606321329801 0.12949084902847491 0 -0.1751333004977583 0.097143888168289519 0 -0.18131411902941769 0.11925468316661041 0 -0.17463205049430791 0.1233979928413103 0 -0.17463205049430791 0.1233979928413103 0 -0.19892457962824481 0.1205653340059829 0 -0.1751333004977583 0.097143888168289519 0 -0.17463205049430791 0.1233979928413103 0 -0.165591889364022 0.1100935584672583 0 -0.17463205049430791 0.1233979928413103 0 -0.1598554046101329 0.12512104095579701 0 -0.17463205049430791 0.1233979928413103 0 -0.16396547557359309 0.1179523604009539 0 -0.1598554046101329 0.12512104095579701 0 -0.17463205049430791 0.1233979928413103 0 -0.165591889364022 0.1100935584672583 0 -0.16396547557359309 0.1179523604009539 0 -0.165591889364022 0.1100935584672583 0 -0.16396547557359309 0.1179523604009539 0 -0.1557825578259103 0.11319684933944919 0 -0.16396547557359309 0.1179523604009539 0 -0.1557825578259103 0.11319684933944919 0 -0.1598554046101329 0.12512104095579701 0 -0.1751333004977583 0.097143888168289519 0 -0.165591889364022 0.1100935584672583 0 -0.16171791749774381 0.097249262196068775 0 -0.165591889364022 0.1100935584672583 0 -0.1513048045227823 0.10252569531319269 0 -0.1557825578259103 0.11319684933944919 0 -0.165591889364022 0.1100935584672583 0 -0.16171791749774381 0.097249262196068775 0 -0.1513048045227823 0.10252569531319269 0 -0.1513048045227823 0.10252569531319269 0 -0.1355182161913136 0.10914070680675041 0 -0.13964798444238999 0.092855372928561969 0 -0.16171791749774381 0.097249262196068775 0 -0.1513048045227823 0.10252569531319269 0 -0.15093626356447659 0.087069345181943508 0 -0.1513048045227823 0.10252569531319269 0 -0.1557825578259103 0.11319684933944919 0 -0.1355182161913136 0.10914070680675041 0 -0.1513048045227823 0.10252569531319269 0 -0.13964798444238999 0.092855372928561969 0 -0.15093626356447659 0.087069345181943508 0 -0.1557825578259103 0.11319684933944919 0 -0.1355182161913136 0.10914070680675041 0 -0.1598554046101329 0.12512104095579701 0 -0.1355182161913136 0.10914070680675041 0 -0.1598554046101329 0.12512104095579701 0 -0.14280445220814469 0.1192500300409249 0 -0.1598554046101329 0.12512104095579701 0 -0.13922952195075211 0.12752614618091959 0 -0.14280445220814469 0.1192500300409249 0 -0.1355182161913136 0.10914070680675041 0 -0.1598554046101329 0.12512104095579701 0 -0.13074244959953979 0.11946175785799951 0 -0.1355182161913136 0.10914070680675041 0 -0.123743476780604 0.10140915347104661 0 -0.14280445220814469 0.1192500300409249 0 -0.13074244959953979 0.11946175785799951 0 -0.13922952195075211 0.12752614618091959 0 -0.14280445220814469 0.1192500300409249 0 -0.1355182161913136 0.10914070680675041 0 -0.14280445220814469 0.1192500300409249 0 -0.13074244959953979 0.11946175785799951 0 -0.1355182161913136 0.10914070680675041 0 -0.1355182161913136 0.10914070680675041 0 -0.12576525993317081 0.095608920700106598 0 -0.13964798444238999 0.092855372928561969 0 -0.1355182161913136 0.10914070680675041 0 -0.12576525993317081 0.095608920700106598 0 -0.1355182161913136 0.10914070680675041 0 -0.12576525993317081 0.095608920700106598 0 -0.123743476780604 0.10140915347104661 0 -0.1355182161913136 0.10914070680675041 0 -0.123743476780604 0.10140915347104661 0 -0.12576525993317081 0.095608920700106598 0 -0.13964798444238999 0.092855372928561969 0 -0.13471537800020611 0.069932196640817734 0 -0.12576525993317081 0.095608920700106598 0 -0.13471537800020611 0.069932196640817734 0 -0.1158200249735767 0.081810356583590621 0 -0.12576525993317081 0.095608920700106598 0 -0.13471537800020611 0.069932196640817734 0 -0.13964798444238999 0.092855372928561969 0 -0.15093626356447659 0.087069345181943508 0 -0.13471537800020611 0.069932196640817734 0 -0.15093626356447659 0.087069345181943508 0 -0.15518952671466241 0.069788713381716036 0 -0.13471537800020611 0.069932196640817734 0 -0.13471537800020611 0.069932196640817734 0 -0.12657932631233151 0.049909814768299969 0 -0.1143187324205953 0.061132814960732959 0 -0.13471537800020611 0.069932196640817734 0 -0.14366549606724091 0.044255472581528732 0 -0.13471537800020611 0.069932196640817734 0 -0.12657932631233151 0.049909814768299969 0 -0.14366549606724091 0.044255472581528732 0 -0.12657932631233151 0.049909814768299969 0 -0.1284208098020175 0.033179877632891097 0 -0.14366549606724091 0.044255472581528732 0 -0.1284208098020175 0.033179877632891097 0 -0.14366549606724091 0.044255472581528732 0 -0.1467564914265658 0.025061264112791169 0 -0.14366549606724091 0.044255472581528732 0 -0.16223695238926561 0.052594200190125132 0 -0.1605593881585633 0.033401352669864208 0 -0.14366549606724091 0.044255472581528732 0 -0.1467564914265658 0.025061264112791169 0 -0.1605593881585633 0.033401352669864208 0 -0.15518952671466241 0.069788713381716036 0 -0.13471537800020611 0.069932196640817734 0 -0.14366549606724091 0.044255472581528732 0 -0.15518952671466241 0.069788713381716036 0 -0.14366549606724091 0.044255472581528732 0 -0.16223695238926561 0.052594200190125132 0 -0.13137048688310951 -0.003337023478303953 0 -0.13460564055411489 0.01723703355858653 0 -0.11131614731463491 0.019777731715017489 0 -0.13137048688310951 -0.003337023478303953 0 -0.13460564055411489 0.01723703355858653 0 -0.1433170204333889 0.0042533116210359059 0 -0.13137048688310951 -0.003337023478303953 0 -0.1433170204333889 0.0042533116210359059 0 -0.1284208098020175 0.033179877632891097 0 -0.13460564055411489 0.01723703355858653 0 -0.1467564914265658 0.025061264112791169 0 -0.13460564055411489 0.01723703355858653 0 -0.1467564914265658 0.025061264112791169 0 -0.15542372099760421 0.0119454102405231 0 -0.1467564914265658 0.025061264112791169 0 -0.15542372099760421 0.0119454102405231 0 -0.1605593881585633 0.033401352669864208 0 -0.13460564055411489 0.01723703355858653 0 -0.15542372099760421 0.0119454102405231 0 -0.1433170204333889 0.0042533116210359059 0 -0.15542372099760421 0.0119454102405231 0 -0.1433170204333889 0.0042533116210359059 0 -0.1564869492866878 -0.00059129627401754796 0 -0.15542372099760421 0.0119454102405231 0 -0.1433170204333889 0.0042533116210359059 0 -0.15542372099760421 0.0119454102405231 0 -0.17947695511209899 0.027227843959349921 0 -0.17208342559322409 0.0058404778805985873 0 -0.1564869492866878 -0.00059129627401754796 0 -0.15542372099760421 0.0119454102405231 0 -0.17208342559322409 0.0058404778805985873 0 -0.15542372099760421 0.0119454102405231 0 -0.17947695511209899 0.027227843959349921 0 -0.1605593881585633 0.033401352669864208 0 -0.15542372099760421 0.0119454102405231 0 -0.17947695511209899 0.027227843959349921 0 -0.18418091461086311 -0.0067458590849352237 0 -0.17208342559322409 0.0058404778805985873 0 -0.19246094727398991 0.01350162855121731 0 -0.17947695511209899 0.027227843959349921 0 -0.17208342559322409 0.0058404778805985873 0 -0.19246094727398991 0.01350162855121731 0 -0.1756345505012066 0.070889783495268699 0 -0.16223695238926561 0.052594200190125132 0 -0.17613580050465499 0.044635678822247941 0 -0.16223695238926561 0.052594200190125132 0 -0.1605593881585633 0.033401352669864208 0 -0.17613580050465499 0.044635678822247941 0 -0.17947695511209899 0.027227843959349921 0 -0.17613580050465499 0.044635678822247941 0 -0.19053419445951161 0.052610770621845292 0 -0.17947695511209899 0.027227843959349921 0 -0.1605593881585633 0.033401352669864208 0 -0.17613580050465499 0.044635678822247941 0 -0.1756345505012066 0.070889783495268699 0 -0.17613580050465499 0.044635678822247941 0 -0.1756345505012066 0.070889783495268699 0 -0.17613580050465499 0.044635678822247941 0 -0.19053419445951161 0.052610770621845292 0 -0.20353018922659619 0.042510277678173593 0 -0.19612483249420401 0.068091746174319415 0 -0.19053419445951161 0.052610770621845292 0 -0.20353018922659619 0.042510277678173593 0 -0.19612483249420401 0.068091746174319415 0 -0.17947695511209899 0.027227843959349921 0 -0.20353018922659619 0.042510277678173593 0 -0.17947695511209899 0.027227843959349921 0 -0.19053419445951161 0.052610770621845292 0 -0.20353018922659619 0.042510277678173593 0 -0.20353018922659619 0.042510277678173593 0 -0.21955159654467851 0.052689619643397433 0 -0.22113039192623851 0.032431486205985689 0 -0.20353018922659619 0.042510277678173593 0 -0.2127216369241372 0.066942535097736622 0 -0.19612483249420401 0.068091746174319415 0 -0.20353018922659619 0.042510277678173593 0 -0.21955159654467851 0.052689619643397433 0 -0.20353018922659619 0.042510277678173593 0 -0.21955159654467851 0.052689619643397433 0 -0.2127216369241372 0.066942535097736622 0 -0.2008908429601583 -0.001101000049535744 0 -0.19246094727398991 0.01350162855121731 0 -0.21117588750041991 0.016098560242972841 0 -0.18418091461086311 -0.0067458590849352237 0 -0.2008908429601583 -0.001101000049535744 0 -0.19246094727398991 0.01350162855121731 0 -0.17947695511209899 0.027227843959349921 0 -0.20353018922659619 0.042510277678173593 0 -0.19246094727398991 0.01350162855121731 0 -0.20353018922659619 0.042510277678173593 0 -0.19246094727398991 0.01350162855121731 0 -0.21117588750041991 0.016098560242972841 0 -0.20353018922659619 0.042510277678173593 0 -0.21117588750041991 0.016098560242972841 0 -0.22113039192623851 0.032431486205985689 0 -0.20353018922659619 0.042510277678173593 0 -0.21117588750041991 0.016098560242972841 0 -0.21882158577424271 -0.0103131571922281 0 -0.21117588750041991 0.016098560242972841 0 -0.2008908429601583 -0.001101000049535744 0 -0.21882158577424271 -0.0103131571922281 0 -0.21117588750041991 0.016098560242972841 0 -0.21882158577424271 -0.0103131571922281 0 -0.21117588750041991 0.016098560242972841 0 -0.23546354233931949 0.0078270751002715265 0 -0.23546354233931949 0.0078270751002715265 0 -0.22113039192623851 0.032431486205985689 0 -0.24192231969137759 0.032530148466345048 0 -0.21117588750041991 0.016098560242972841 0 -0.23546354233931949 0.0078270751002715265 0 -0.22113039192623851 0.032431486205985689 0 -0.26249405175029211 0.007662734938978108 0 -0.23546354233931949 0.0078270751002715265 0 -0.24192231969137759 0.032530148466345048 0 -0.21955159654467851 0.052689619643397433 0 -0.235573003862763 0.062868961608618018 0 -0.21955159654467851 0.052689619643397433 0 -0.235573003862763 0.062868961608618018 0 -0.2127216369241372 0.066942535097736622 0 -0.21955159654467851 0.052689619643397433 0 -0.24450296286368231 0.049373315754277197 0 -0.235573003862763 0.062868961608618018 0 -0.21955159654467851 0.052689619643397433 0 -0.22113039192623851 0.032431486205985689 0 -0.24192231969137759 0.032530148466345048 0 -0.21955159654467851 0.052689619643397433 0 -0.24192231969137759 0.032530148466345048 0 -0.24450296286368231 0.049373315754277197 0 -0.2559826395353394 0.061597363551489349 0 -0.24450296286368231 0.049373315754277197 0 -0.235573003862763 0.062868961608618018 0 -0.2559826395353394 0.061597363551489349 0 -0.235573003862763 0.062868961608618018 0 -0.24672703352553629 0.080158677613093823 0 -0.235573003862763 0.062868961608618018 0 -0.24672703352553629 0.080158677613093823 0 -0.2291931736768115 0.079240865998811236 0 -0.24672703352553629 0.080158677613093823 0 -0.2291931736768115 0.079240865998811236 0 -0.23621836434907981 0.095400964388867249 0 -0.25734245126200062 0.1014160866788785 0 -0.24672703352553629 0.080158677613093823 0 -0.23621836434907981 0.095400964388867249 0 -0.2291931736768115 0.079240865998811236 0 -0.21482055865464289 0.083254774020096164 0 -0.2224133943648228 0.095863443882093446 0 -0.2291931736768115 0.079240865998811236 0 -0.2224133943648228 0.095863443882093446 0 -0.23621836434907981 0.095400964388867249 0 -0.235573003862763 0.062868961608618018 0 -0.2291931736768115 0.079240865998811236 0 -0.2127216369241372 0.066942535097736622 0 -0.2291931736768115 0.079240865998811236 0 -0.2127216369241372 0.066942535097736622 0 -0.21482055865464289 0.083254774020096164 0 -0.2127216369241372 0.066942535097736622 0 -0.21482055865464289 0.083254774020096164 0 -0.203099952488771 0.082051867707200909 0 -0.2127216369241372 0.066942535097736622 0 -0.203099952488771 0.082051867707200909 0 -0.19612483249420401 0.068091746174319415 0 -0.21482055865464289 0.083254774020096164 0 -0.203099952488771 0.082051867707200909 0 -0.20375886312158339 0.098403164090322431 0 -0.21482055865464289 0.083254774020096164 0 -0.20375886312158339 0.098403164090322431 0 -0.2224133943648228 0.095863443882093446 0 -0.203099952488771 0.082051867707200909 0 -0.18871947576181089 0.093673214670465021 0 -0.19612483249420401 0.068091746174319415 0 -0.203099952488771 0.082051867707200909 0 -0.18871947576181089 0.093673214670465021 0 -0.20375886312158339 0.098403164090322431 0 -0.18871947576181089 0.093673214670465021 0 -0.19612483249420401 0.068091746174319415 0 -0.18131411902941769 0.11925468316661041 0 -0.19892457962824481 0.1205653340059829 0 -0.19516396372389291 0.10855896077987801 0 -0.19892457962824481 0.1205653340059829 0 -0.19516396372389291 0.10855896077987801 0 -0.2064149638336307 0.1103678524700213 0 -0.18131411902941769 0.11925468316661041 0 -0.18871947576181089 0.093673214670465021 0 -0.19516396372389291 0.10855896077987801 0 -0.18871947576181089 0.093673214670465021 0 -0.19516396372389291 0.10855896077987801 0 -0.20375886312158339 0.098403164090322431 0 -0.19516396372389291 0.10855896077987801 0 -0.20375886312158339 0.098403164090322431 0 -0.2064149638336307 0.1103678524700213 0 -0.20375886312158339 0.098403164090322431 0 -0.21522430961498251 0.1066047727861448 0 -0.2064149638336307 0.1103678524700213 0 -0.20375886312158339 0.098403164090322431 0 -0.21522430961498251 0.1066047727861448 0 -0.2224133943648228 0.095863443882093446 0 -0.19892457962824481 0.1205653340059829 0 -0.2064149638336307 0.1103678524700213 0 -0.22321710876218179 0.117732675170656 0 -0.19892457962824481 0.1205653340059829 0 -0.22321710876218179 0.117732675170656 0 -0.21198243415042209 0.1273270768851994 0 -0.19892457962824481 0.1205653340059829 0 -0.22321710876218179 0.117732675170656 0 -0.21522430961498251 0.1066047727861448 0 -0.2064149638336307 0.1103678524700213 0 -0.22321710876218179 0.117732675170656 0 -0.22321710876218179 0.117732675170656 0 -0.22699489982736379 0.11729216141517949 0 -0.22321710876218179 0.117732675170656 0 -0.22699489982736379 0.11729216141517949 0 -0.22407622611686431 0.1086811689817279 0 -0.21522430961498251 0.1066047727861448 0 -0.22321710876218179 0.117732675170656 0 -0.21522430961498251 0.1066047727861448 0 -0.22321710876218179 0.117732675170656 0 -0.22407622611686431 0.1086811689817279 0 -0.22699489982736379 0.11729216141517949 0 -0.22407622611686431 0.1086811689817279 0 -0.23779668997176759 0.1099640720218579 0 -0.21522430961498251 0.1066047727861448 0 -0.2224133943648228 0.095863443882093446 0 -0.22407622611686431 0.1086811689817279 0 -0.22407622611686431 0.1086811689817279 0 -0.23621836434907981 0.095400964388867249 0 -0.23779668997176759 0.1099640720218579 0 -0.2224133943648228 0.095863443882093446 0 -0.22407622611686431 0.1086811689817279 0 -0.23621836434907981 0.095400964388867249 0 -0.25734245126200062 0.1014160866788785 0 -0.23621836434907981 0.095400964388867249 0 -0.23779668997176759 0.1099640720218579 0 -0.25734245126200062 0.1014160866788785 0 -0.23779668997176759 0.1099640720218579 0 -0.24895710550971339 0.12165530893482571 0 -0.2385801137665676 0.122701518390659 0 -0.23779668997176759 0.1099640720218579 0 -0.24895710550971339 0.12165530893482571 0 -0.22699489982736379 0.11729216141517949 0 -0.2385801137665676 0.122701518390659 0 -0.23779668997176759 0.1099640720218579 0 -0.22699489982736379 0.11729216141517949 0 -0.2385801137665676 0.122701518390659 0 -0.2405717597574257 0.1418945311907728 0 -0.2385801137665676 0.122701518390659 0 -0.24895710550971339 0.12165530893482571 0 -0.2405717597574257 0.1418945311907728 0 -0.25608290515330878 0.14176455504424121 0 -0.24895710550971339 0.12165530893482571 0 -0.2405717597574257 0.1418945311907728 0 -0.24895710550971339 0.12165530893482571 0 -0.2405717597574257 0.1418945311907728 0 -0.22321710876218179 0.117732675170656 0 -0.22354757195218369 0.13155214617265881 0 -0.2405717597574257 0.1418945311907728 0 -0.22321710876218179 0.117732675170656 0 -0.22699489982736379 0.11729216141517949 0 -0.2405717597574257 0.1418945311907728 0 -0.22321710876218179 0.117732675170656 0 -0.2405717597574257 0.1418945311907728 0 -0.22354757195218369 0.13155214617265881 0 -0.22866128532361621 0.14153149423513051 0 -0.2405717597574257 0.1418945311907728 0 -0.21878746546912231 0.1392010645796998 0 -0.22354757195218369 0.13155214617265881 0 -0.22866128532361621 0.14153149423513051 0 -0.21878746546912231 0.1392010645796998 0 -0.22354757195218369 0.13155214617265881 0 -0.2159650745918322 0.13357921232561451 0 -0.22321710876218179 0.117732675170656 0 -0.22354757195218369 0.13155214617265881 0 -0.21198243415042209 0.1273270768851994 0 -0.22866128532361621 0.14153149423513051 0 -0.2405717597574257 0.1418945311907728 0 -0.23379856030635021 0.15824260950785349 0 -0.2220979066771098 0.14976549412664819 0 -0.22866128532361621 0.14153149423513051 0 -0.23379856030635021 0.15824260950785349 0 -0.2220979066771098 0.14976549412664819 0 -0.23379856030635021 0.15824260950785349 0 -0.21909321543322929 0.1606009590281276 0 -0.21878746546912231 0.1392010645796998 0 -0.2220979066771098 0.14976549412664819 0 -0.22866128532361621 0.14153149423513051 0 -0.25072842261960387 0.15603505327837411 0 -0.2405717597574257 0.1418945311907728 0 -0.23379856030635021 0.15824260950785349 0 -0.2405717597574257 0.1418945311907728 0 -0.23379856030635021 0.15824260950785349 0 -0.25072842261960387 0.15603505327837411 0 -0.25608290515330878 0.14176455504424121 0 -0.2405717597574257 0.1418945311907728 0 -0.25072842261960387 0.15603505327837411 0 -0.2405717597574257 0.1418945311907728 0 -0.24346313069296871 0.16633892637512099 0 -0.22702536085527411 0.17459068782493389 0 -0.23379856030635021 0.15824260950785349 0 -0.25072842261960387 0.15603505327837411 0 -0.24346313069296871 0.16633892637512099 0 -0.23379856030635021 0.15824260950785349 0 -0.24593749817207319 0.17922101447869401 0 -0.22702536085527411 0.17459068782493389 0 -0.23531355475386351 0.19206411553567329 0 -0.24346313069296871 0.16633892637512099 0 -0.24593749817207319 0.17922101447869401 0 -0.22702536085527411 0.17459068782493389 0 -0.22702536085527411 0.17459068782493389 0 -0.23531355475386351 0.19206411553567329 0 -0.21668486691279551 0.1896349297876268 0 -0.22702536085527411 0.17459068782493389 0 -0.21909321543322929 0.1606009590281276 0 -0.21078083849551829 0.1734645188772713 0 -0.22702536085527411 0.17459068782493389 0 -0.23379856030635021 0.15824260950785349 0 -0.22702536085527411 0.17459068782493389 0 -0.23379856030635021 0.15824260950785349 0 -0.21909321543322929 0.1606009590281276 0 -0.21909321543322929 0.1606009590281276 0 -0.20917883787537819 0.16210322782447459 0 -0.21014900685323101 0.14925134328242939 0 -0.21909321543322929 0.1606009590281276 0 -0.20917883787537819 0.16210322782447459 0 -0.21078083849551829 0.1734645188772713 0 -0.20917883787537819 0.16210322782447459 0 -0.21078083849551829 0.1734645188772713 0 -0.19690649474481761 0.16930016240990661 0 -0.22702536085527411 0.17459068782493389 0 -0.21078083849551829 0.1734645188772713 0 -0.21668486691279551 0.1896349297876268 0 -0.21078083849551829 0.1734645188772713 0 -0.21668486691279551 0.1896349297876268 0 -0.19675568901559279 0.189567439062066 0 -0.21078083849551829 0.1734645188772713 0 -0.19690649474481761 0.16930016240990661 0 -0.19675568901559279 0.189567439062066 0 -0.19690649474481761 0.16930016240990661 0 -0.19675568901559279 0.189567439062066 0 -0.1806498087268969 0.1809583004820513 0 -0.20917883787537819 0.16210322782447459 0 -0.20149615309500679 0.15718250099910261 0 -0.19690649474481761 0.16930016240990661 0 -0.20149615309500679 0.15718250099910261 0 -0.19690649474481761 0.16930016240990661 0 -0.1900737238031488 0.15648625425656729 0 -0.19690649474481761 0.16930016240990661 0 -0.1900737238031488 0.15648625425656729 0 -0.18329050548046091 0.16641049957591181 0 -0.1900737238031488 0.15648625425656729 0 -0.1892816596668532 0.14729824464464031 0 -0.18348409084234379 0.15060627553684849 0 -0.1900737238031488 0.15648625425656729 0 -0.19814782504055481 0.14911065488519101 0 -0.1892816596668532 0.14729824464464031 0 -0.20149615309500679 0.15718250099910261 0 -0.1900737238031488 0.15648625425656729 0 -0.19814782504055481 0.14911065488519101 0 -0.19814782504055481 0.14911065488519101 0 -0.2022681758196824 0.14167303138421811 0 -0.1943649823155553 0.141902467696427 0 -0.19814782504055481 0.14911065488519101 0 -0.1943649823155553 0.141902467696427 0 -0.1892816596668532 0.14729824464464031 0 -0.1943649823155553 0.141902467696427 0 -0.1892816596668532 0.14729824464464031 0 -0.18843187665971381 0.14117764216521481 0 -0.1943649823155553 0.141902467696427 0 -0.18843187665971381 0.14117764216521481 0 -0.1909929067815555 0.135001194222511 0 -0.18843187665971381 0.14117764216521481 0 -0.1909929067815555 0.135001194222511 0 -0.18421136551585299 0.13733957154214979 0 -0.19892457962824481 0.1205653340059829 0 -0.1909929067815555 0.135001194222511 0 -0.18530606321329801 0.12949084902847491 0 -0.19892457962824481 0.1205653340059829 0 -0.1909929067815555 0.135001194222511 0 -0.20124287374027899 0.13384974139548031 0 -0.2022681758196824 0.14167303138421811 0 -0.1943649823155553 0.141902467696427 0 -0.20124287374027899 0.13384974139548031 0 -0.1943649823155553 0.141902467696427 0 -0.1909929067815555 0.135001194222511 0 -0.20124287374027899 0.13384974139548031 0 -0.2022681758196824 0.14167303138421811 0 -0.20124287374027899 0.13384974139548031 0 -0.20954282679560091 0.1362365616649002 0 -0.20124287374027899 0.13384974139548031 0 -0.20954282679560091 0.1362365616649002 0 -0.21198243415042209 0.1273270768851994 0 -0.19892457962824481 0.1205653340059829 0 -0.20124287374027899 0.13384974139548031 0 -0.21198243415042209 0.1273270768851994 0 -0.22354757195218369 0.13155214617265881 0 -0.21198243415042209 0.1273270768851994 0 -0.2159650745918322 0.13357921232561451 0 -0.20954282679560091 0.1362365616649002 0 -0.21198243415042209 0.1273270768851994 0 -0.2159650745918322 0.13357921232561451 0 -0.21878746546912231 0.1392010645796998 0 -0.20954282679560091 0.1362365616649002 0 -0.2159650745918322 0.13357921232561451 0 -0.21878746546912231 0.1392010645796998 0 -0.2220979066771098 0.14976549412664819 0 -0.21014900685323101 0.14925134328242939 0 -0.21878746546912231 0.1392010645796998 0 -0.20954282679560091 0.1362365616649002 0 -0.21014900685323101 0.14925134328242939 0 -0.2220979066771098 0.14976549412664819 0 -0.21909321543322929 0.1606009590281276 0 -0.21014900685323101 0.14925134328242939 0 -0.20149615309500679 0.15718250099910261 0 -0.19814782504055481 0.14911065488519101 0 -0.21014900685323101 0.14925134328242939 0 -0.20917883787537819 0.16210322782447459 0 -0.20149615309500679 0.15718250099910261 0 -0.21014900685323101 0.14925134328242939 0 -0.19814782504055481 0.14911065488519101 0 -0.2022681758196824 0.14167303138421811 0 -0.21014900685323101 0.14925134328242939 0 -0.2022681758196824 0.14167303138421811 0 -0.20954282679560091 0.1362365616649002 0 -0.21014900685323101 0.14925134328242939 0 -0.2254770662958033 0.23770261769940551 0 -0.2355501434136231 0.2478522206023164 0 -0.23301571208005251 0.22631711136445781 0 -0.2254770662958033 0.23770261769940551 0 -0.21946187770755399 0.2272335662722752 0 -0.2144294763495698 0.23954399660221651 0 -0.22222104444170529 0.2467327462878163 0 -0.2254770662958033 0.23770261769940551 0 -0.2144294763495698 0.23954399660221651 0 -0.22222104444170529 0.2467327462878163 0 -0.2254770662958033 0.23770261769940551 0 -0.2355501434136231 0.2478522206023164 0 -0.25210514226647263 0.23555423440704959 0 -0.2355501434136231 0.2478522206023164 0 -0.2466801300010773 0.2452604621424746 0 -0.2355501434136231 0.2478522206023164 0 -0.248734035528067 0.22266264303674471 0 -0.25210514226647263 0.23555423440704959 0 -0.2355501434136231 0.2478522206023164 0 -0.248734035528067 0.22266264303674471 0 -0.23310158204141429 0.25640081827561029 0 -0.2355501434136231 0.2478522206023164 0 -0.2466801300010773 0.2452604621424746 0 -0.25210514226647263 0.23555423440704959 0 -0.2466801300010773 0.2452604621424746 0 -0.25054816238852479 0.24059870715785611 0 -0.25210514226647263 0.23555423440704959 0 -0.2466801300010773 0.2452604621424746 0 -0.25272816581491458 0.21503132644266379 0 -0.23589780562791721 0.22466705357138941 0 -0.2355501434136231 0.2478522206023164 0 -0.23589780562791721 0.22466705357138941 0 -0.23301571208005251 0.22631711136445781 0 -0.2355501434136231 0.2478522206023164 0 -0.248734035528067 0.22266264303674471 0 -0.23589780562791721 0.22466705357138941 0 -0.25272816581491458 0.21503132644266379 0 -0.248734035528067 0.22266264303674471 0 -0.23589780562791721 0.22466705357138941 0 -0.248734035528067 0.22266264303674471 0 -0.23589780562791721 0.22466705357138941 0 -0.23589780562791721 0.22466705357138941 0 -0.23301571208005251 0.22631711136445781 0 -0.23589780562791721 0.22466705357138941 0 -0.21946187770755399 0.2272335662722752 0 -0.225888155969557 0.21631124094479351 0 -0.23589780562791721 0.22466705357138941 0 -0.23301571208005251 0.22631711136445781 0 -0.21946187770755399 0.2272335662722752 0 -0.23589780562791721 0.22466705357138941 0 -0.21946187770755399 0.2272335662722752 0 -0.2254770662958033 0.23770261769940551 0 -0.23301571208005251 0.22631711136445781 0 -0.21946187770755399 0.2272335662722752 0 -0.21946187770755399 0.2272335662722752 0 -0.225888155969557 0.21631124094479351 0 -0.2147498456923036 0.21679580952784941 0 -0.225888155969557 0.21631124094479351 0 -0.2163983660951504 0.20664118688365379 0 -0.2147498456923036 0.21679580952784941 0 -0.225888155969557 0.21631124094479351 0 -0.22900898315534271 0.20498679461036609 0 -0.2163983660951504 0.20664118688365379 0 -0.225888155969557 0.21631124094479351 0 -0.22900898315534271 0.20498679461036609 0 -0.23632785610705401 0.21457891752941979 0 -0.23589780562791721 0.22466705357138941 0 -0.225888155969557 0.21631124094479351 0 -0.23632785610705401 0.21457891752941979 0 -0.25272816581491458 0.21503132644266379 0 -0.23632785610705401 0.21457891752941979 0 -0.24165148627456459 0.20791054123727601 0 -0.25272816581491458 0.21503132644266379 0 -0.23589780562791721 0.22466705357138941 0 -0.23632785610705401 0.21457891752941979 0 -0.25462413856064708 0.2114088186030785 0 -0.24165148627456459 0.20791054123727601 0 -0.23531355475386351 0.19206411553567329 0 -0.25272816581491458 0.21503132644266379 0 -0.25462413856064708 0.2114088186030785 0 -0.24165148627456459 0.20791054123727601 0 -0.22900898315534271 0.20498679461036609 0 -0.23632785610705401 0.21457891752941979 0 -0.24165148627456459 0.20791054123727601 0 -0.25193880530206408 0.19370481573741441 0 -0.24593749817207319 0.17922101447869401 0 -0.23531355475386351 0.19206411553567329 0 -0.25462413856064708 0.2114088186030785 0 -0.23531355475386351 0.19206411553567329 0 -0.25193880530206408 0.19370481573741441 0 -0.25462413856064708 0.2114088186030785 0 -0.23531355475386351 0.19206411553567329 0 -0.22900898315534271 0.20498679461036609 0 -0.24165148627456459 0.20791054123727601 0 -0.23531355475386351 0.19206411553567329 0 -0.22900898315534271 0.20498679461036609 0 -0.21668486691279551 0.1896349297876268 0 -0.2163983660951504 0.20664118688365379 0 -0.22900898315534271 0.20498679461036609 0 -0.23531355475386351 0.19206411553567329 0 -0.21668486691279551 0.1896349297876268 0 -0.21668486691279551 0.1896349297876268 0 -0.20588600075920099 0.20051631774142969 0 -0.2163983660951504 0.20664118688365379 0 -0.21668486691279551 0.1896349297876268 0 -0.20588600075920099 0.20051631774142969 0 -0.19675568901559279 0.189567439062066 0 -0.20588600075920099 0.20051631774142969 0 -0.19675568901559279 0.189567439062066 0 -0.1872373767624223 0.2114249087681892 0 -0.20588600075920099 0.20051631774142969 0 -0.203925412238775 0.2130566048024192 0 -0.1872373767624223 0.2114249087681892 0 -0.203925412238775 0.2130566048024192 0 -0.20302594978719091 0.22980007897316179 0 -0.1872373767624223 0.2114249087681892 0 -0.20588600075920099 0.20051631774142969 0 -0.203925412238775 0.2130566048024192 0 -0.2163983660951504 0.20664118688365379 0 -0.203925412238775 0.2130566048024192 0 -0.2163983660951504 0.20664118688365379 0 -0.2147498456923036 0.21679580952784941 0 -0.21946187770755399 0.2272335662722752 0 -0.20302594978719091 0.22980007897316179 0 -0.2144294763495698 0.23954399660221651 0 -0.21946187770755399 0.2272335662722752 0 -0.20302594978719091 0.22980007897316179 0 -0.21946187770755399 0.2272335662722752 0 -0.2147498456923036 0.21679580952784941 0 -0.20302594978719091 0.22980007897316179 0 -0.203925412238775 0.2130566048024192 0 -0.2147498456923036 0.21679580952784941 0 -0.20302594978719091 0.22980007897316179 0 -0.20302594978719091 0.22980007897316179 0 -0.1861179612628448 0.23220845709977719 0 -0.1872373767624223 0.2114249087681892 0 -0.18859670902218051 0.25052543551881717 0 -0.20132404028626799 0.2438270423260239 0 -0.1861179612628448 0.23220845709977719 0 -0.20302594978719091 0.22980007897316179 0 -0.20132404028626799 0.2438270423260239 0 -0.1861179612628448 0.23220845709977719 0 -0.21371201764358261 0.25214650866738469 0 -0.20132404028626799 0.2438270423260239 0 -0.2144294763495698 0.23954399660221651 0 -0.20302594978719091 0.22980007897316179 0 -0.20132404028626799 0.2438270423260239 0 -0.2144294763495698 0.23954399660221651 0 -0.21371201764358261 0.25214650866738469 0 -0.22222104444170529 0.2467327462878163 0 -0.2144294763495698 0.23954399660221651 0 -0.1613020889038615 0.23837444865205379 0 -0.1765110772481347 0.2431385849621667 0 -0.17254032084098081 0.22750047358122369 0 -0.1593990608277665 0.26226189644582071 0 -0.1613020889038615 0.23837444865205379 0 -0.1765110772481347 0.2431385849621667 0 -0.18859670902218051 0.25052543551881717 0 -0.1765110772481347 0.2431385849621667 0 -0.1861179612628448 0.23220845709977719 0 -0.17254032084098081 0.22750047358122369 0 -0.1861179612628448 0.23220845709977719 0 -0.1872373767624223 0.2114249087681892 0 -0.1765110772481347 0.2431385849621667 0 -0.17254032084098081 0.22750047358122369 0 -0.1861179612628448 0.23220845709977719 0 -0.1613020889038615 0.23837444865205379 0 -0.17254032084098081 0.22750047358122369 0 -0.16320511697995649 0.2144870008582867 0 -0.1613020889038615 0.23837444865205379 0 -0.16320511697995649 0.2144870008582867 0 -0.1529468832891846 0.22419885760078639 0 -0.1613020889038615 0.23837444865205379 0 -0.16320511697995649 0.2144870008582867 0 -0.16320511697995649 0.2144870008582867 0 -0.1872373767624223 0.2114249087681892 0 -0.17633970375998559 0.20030682361007979 0 -0.17254032084098081 0.22750047358122369 0 -0.16320511697995649 0.2144870008582867 0 -0.1872373767624223 0.2114249087681892 0 -0.19675568901559279 0.189567439062066 0 -0.17633970375998559 0.20030682361007979 0 -0.1806498087268969 0.1809583004820513 0 -0.19675568901559279 0.189567439062066 0 -0.1872373767624223 0.2114249087681892 0 -0.17633970375998559 0.20030682361007979 0 -0.17633970375998559 0.20030682361007979 0 -0.16510814505605159 0.19059955306451951 0 -0.1806498087268969 0.1809583004820513 0 -0.16320511697995649 0.2144870008582867 0 -0.16510814505605159 0.19059955306451951 0 -0.16320511697995649 0.2144870008582867 0 -0.17633970375998559 0.20030682361007979 0 -0.16510814505605159 0.19059955306451951 0 -0.16320511697995649 0.2144870008582867 0 -0.16510814505605159 0.19059955306451951 0 -0.15189646247486119 0.19678216421774269 0 -0.15189646247486119 0.19678216421774269 0 -0.1348313290251755 0.19391948141146001 0 -0.14981517013628179 0.1764661855652461 0 -0.15189646247486119 0.19678216421774269 0 -0.1348313290251755 0.19391948141146001 0 -0.1465225511768404 0.20843860018920141 0 -0.16510814505605159 0.19059955306451951 0 -0.15189646247486119 0.19678216421774269 0 -0.14981517013628179 0.1764661855652461 0 -0.1348313290251755 0.19391948141146001 0 -0.1252468427212147 0.2168953735999099 0 -0.1203089118816133 0.20055052938219861 0 -0.1348313290251755 0.19391948141146001 0 -0.1252468427212147 0.2168953735999099 0 -0.1465225511768404 0.20843860018920141 0 -0.16320511697995649 0.2144870008582867 0 -0.1465225511768404 0.20843860018920141 0 -0.1529468832891846 0.22419885760078639 0 -0.16320511697995649 0.2144870008582867 0 -0.15189646247486119 0.19678216421774269 0 -0.1465225511768404 0.20843860018920141 0 -0.1465225511768404 0.20843860018920141 0 -0.14075777609607981 0.2354953807036036 0 -0.1465225511768404 0.20843860018920141 0 -0.1529468832891846 0.22419885760078639 0 -0.14075777609607981 0.2354953807036036 0 -0.1613020889038615 0.23837444865205379 0 -0.1529468832891846 0.22419885760078639 0 -0.14075777609607981 0.2354953807036036 0 -0.1252468427212147 0.2168953735999099 0 -0.1465225511768404 0.20843860018920141 0 -0.14075777609607981 0.2354953807036036 0 -0.1252468427212147 0.2168953735999099 0 -0.14075777609607981 0.2354953807036036 0 -0.11832329044822951 0.24304604882281969 0 -0.1349930010153193 0.26255216121800568 0 -0.14075777609607981 0.2354953807036036 0 -0.1349930010153193 0.26255216121800568 0 -0.14075777609607981 0.2354953807036036 0 -0.11832329044822951 0.24304604882281969 0 -0.1349930010153193 0.26255216121800568 0 -0.14075777609607981 0.2354953807036036 0 -0.14911298171075679 0.24967097175487091 0 -0.1613020889038615 0.23837444865205379 0 -0.14075777609607981 0.2354953807036036 0 -0.14911298171075679 0.24967097175487091 0 -0.1662144153725649 0.14970975453020571 0 -0.1667765488875127 0.13812225091292091 0 -0.17427879965612819 0.14190030589397651 0 -0.1662144153725649 0.14970975453020571 0 -0.15453424001036289 0.15945434353378279 0 -0.15202557664741981 0.14720865995561999 0 -0.1662144153725649 0.14970975453020571 0 -0.15911751616331751 0.1391979048316449 0 -0.15202557664741981 0.14720865995561999 0 -0.1662144153725649 0.14970975453020571 0 -0.15911751616331751 0.1391979048316449 0 -0.1667765488875127 0.13812225091292091 0 -0.15911751616331751 0.1391979048316449 0 -0.1598554046101329 0.12512104095579701 0 -0.1667765488875127 0.13812225091292091 0 -0.15911751616331751 0.1391979048316449 0 -0.1598554046101329 0.12512104095579701 0 -0.1500033633973421 0.13584755301834109 0 -0.1598554046101329 0.12512104095579701 0 -0.1667765488875127 0.13812225091292091 0 -0.1744166086354216 0.1346822483529781 0 -0.17463205049430791 0.1233979928413103 0 -0.1598554046101329 0.12512104095579701 0 -0.1744166086354216 0.1346822483529781 0 -0.1598554046101329 0.12512104095579701 0 -0.1744166086354216 0.1346822483529781 0 -0.1667765488875127 0.13812225091292091 0 -0.1744166086354216 0.1346822483529781 0 -0.17427879965612819 0.14190030589397651 0 -0.1744166086354216 0.1346822483529781 0 -0.17427879965612819 0.14190030589397651 0 -0.1744166086354216 0.1346822483529781 0 -0.17777111929803571 0.13688489396563699 0 -0.17427879965612819 0.14190030589397651 0 -0.1744166086354216 0.1346822483529781 0 -0.17777111929803571 0.13688489396563699 0 -0.1744166086354216 0.1346822483529781 0 -0.17777111929803571 0.13688489396563699 0 -0.1798721579770142 0.13261044405125519 0 -0.17777111929803571 0.13688489396563699 0 -0.17908323016457489 0.14155253666455231 0 -0.17427879965612819 0.14190030589397651 0 -0.17463205049430791 0.1233979928413103 0 -0.1744166086354216 0.1346822483529781 0 -0.1798721579770142 0.13261044405125519 0 -0.17463205049430791 0.1233979928413103 0 -0.1744166086354216 0.1346822483529781 0 -0.17463205049430791 0.1233979928413103 0 -0.18530606321329801 0.12949084902847491 0 -0.1798721579770142 0.13261044405125519 0 -0.1909929067815555 0.135001194222511 0 -0.18530606321329801 0.12949084902847491 0 -0.18421136551585299 0.13733957154214979 0 -0.18530606321329801 0.12949084902847491 0 -0.1798721579770142 0.13261044405125519 0 -0.18421136551585299 0.13733957154214979 0 -0.17777111929803571 0.13688489396563699 0 -0.18421136551585299 0.13733957154214979 0 -0.17908323016457489 0.14155253666455231 0 -0.17777111929803571 0.13688489396563699 0 -0.1798721579770142 0.13261044405125519 0 -0.18421136551585299 0.13733957154214979 0 -0.1892816596668532 0.14729824464464031 0 -0.18843187665971381 0.14117764216521481 0 -0.183308469018752 0.14434673272034601 0 -0.18843187665971381 0.14117764216521481 0 -0.18421136551585299 0.13733957154214979 0 -0.183308469018752 0.14434673272034601 0 -0.1892816596668532 0.14729824464464031 0 -0.183308469018752 0.14434673272034601 0 -0.18348409084234379 0.15060627553684849 0 -0.183308469018752 0.14434673272034601 0 -0.1769770860414964 0.14813931566199959 0 -0.18348409084234379 0.15060627553684849 0 -0.183308469018752 0.14434673272034601 0 -0.17908323016457489 0.14155253666455231 0 -0.1769770860414964 0.14813931566199959 0 -0.18421136551585299 0.13733957154214979 0 -0.183308469018752 0.14434673272034601 0 -0.17908323016457489 0.14155253666455231 0 -0.1662144153725649 0.14970975453020571 0 -0.1769770860414964 0.14813931566199959 0 -0.17427879965612819 0.14190030589397651 0 -0.17908323016457489 0.14155253666455231 0 -0.1769770860414964 0.14813931566199959 0 -0.17427879965612819 0.14190030589397651 0 -0.1662144153725649 0.14970975453020571 0 -0.1769770860414964 0.14813931566199959 0 -0.17777951568146841 0.15676083040068911 0 -0.1769770860414964 0.14813931566199959 0 -0.18348409084234379 0.15060627553684849 0 -0.17777951568146841 0.15676083040068911 0 -0.1900737238031488 0.15648625425656729 0 -0.18348409084234379 0.15060627553684849 0 -0.17777951568146841 0.15676083040068911 0 -0.18329050548046091 0.16641049957591181 0 -0.1806498087268969 0.1809583004820513 0 -0.16701117313214661 0.16671210527075239 0 -0.18329050548046091 0.16641049957591181 0 -0.17777951568146841 0.15676083040068911 0 -0.16701117313214661 0.16671210527075239 0 -0.1900737238031488 0.15648625425656729 0 -0.18329050548046091 0.16641049957591181 0 -0.17777951568146841 0.15676083040068911 0 -0.19690649474481761 0.16930016240990661 0 -0.18329050548046091 0.16641049957591181 0 -0.1806498087268969 0.1809583004820513 0 -0.16510814505605159 0.19059955306451951 0 -0.16701117313214661 0.16671210527075239 0 -0.16510814505605159 0.19059955306451951 0 -0.1806498087268969 0.1809583004820513 0 -0.16701117313214661 0.16671210527075239 0 -0.16510814505605159 0.19059955306451951 0 -0.16701117313214661 0.16671210527075239 0 -0.14981517013628179 0.1764661855652461 0 -0.1662144153725649 0.14970975453020571 0 -0.16701117313214661 0.16671210527075239 0 -0.15453424001036289 0.15945434353378279 0 -0.1662144153725649 0.14970975453020571 0 -0.17777951568146841 0.15676083040068911 0 -0.16701117313214661 0.16671210527075239 0 -0.16701117313214661 0.16671210527075239 0 -0.15453424001036289 0.15945434353378279 0 -0.14981517013628179 0.1764661855652461 0 -0.14981517013628179 0.1764661855652461 0 -0.13268914273538329 0.1750509562650924 0 -0.1400456084615111 0.15909886324928099 0 -0.15453424001036289 0.15945434353378279 0 -0.14981517013628179 0.1764661855652461 0 -0.1400456084615111 0.15909886324928099 0 -0.1348313290251755 0.19391948141146001 0 -0.13268914273538329 0.1750509562650924 0 -0.1144809389531023 0.1869767666301351 0 -0.1348313290251755 0.19391948141146001 0 -0.14981517013628179 0.1764661855652461 0 -0.13268914273538329 0.1750509562650924 0 -0.1400456084615111 0.15909886324928099 0 -0.12711493411718411 0.1494661060528254 0 -0.1194513481457689 0.1635609988765839 0 -0.13268914273538329 0.1750509562650924 0 -0.1400456084615111 0.15909886324928099 0 -0.1194513481457689 0.1635609988765839 0 -0.1400456084615111 0.15909886324928099 0 -0.12711493411718411 0.1494661060528254 0 -0.1393467656979451 0.14225431360183649 0 -0.12711493411718411 0.1494661060528254 0 -0.1393467656979451 0.14225431360183649 0 -0.12653041952395039 0.1354161737842513 0 -0.1400456084615111 0.15909886324928099 0 -0.1393467656979451 0.14225431360183649 0 -0.15202557664741981 0.14720865995561999 0 -0.1393467656979451 0.14225431360183649 0 -0.15202557664741981 0.14720865995561999 0 -0.1500033633973421 0.13584755301834109 0 -0.15911751616331751 0.1391979048316449 0 -0.15202557664741981 0.14720865995561999 0 -0.1500033633973421 0.13584755301834109 0 -0.15453424001036289 0.15945434353378279 0 -0.1400456084615111 0.15909886324928099 0 -0.15202557664741981 0.14720865995561999 0 -0.1598554046101329 0.12512104095579701 0 -0.1500033633973421 0.13584755301834109 0 -0.13922952195075211 0.12752614618091959 0 -0.1598554046101329 0.12512104095579701 0 -0.13922952195075211 0.12752614618091959 0 -0.1393467656979451 0.14225431360183649 0 -0.1500033633973421 0.13584755301834109 0 -0.13922952195075211 0.12752614618091959 0 -0.13074244959953979 0.11946175785799951 0 -0.13922952195075211 0.12752614618091959 0 -0.12653041952395039 0.1354161737842513 0 -0.1393467656979451 0.14225431360183649 0 -0.13922952195075211 0.12752614618091959 0 -0.12653041952395039 0.1354161737842513 0 -0.12653041952395039 0.1354161737842513 0 -0.11549744085296181 0.12506595749432459 0 -0.1072514049253199 0.14872276151760261 0 -0.13074244959953979 0.11946175785799951 0 -0.12653041952395039 0.1354161737842513 0 -0.11549744085296181 0.12506595749432459 0 -0.11549744085296181 0.12506595749432459 0 -0.1072514049253199 0.14872276151760261 0 -0.11549744085296181 0.12506595749432459 0 -0.097351596905396909 0.1366011738647028 0 -0.095157466154961498 0.1222738246889692 0 -0.11549744085296181 0.12506595749432459 0 -0.097351596905396909 0.1366011738647028 0 -0.1072514049253199 0.14872276151760261 0 -0.097351596905396909 0.1366011738647028 0 -0.1072514049253199 0.14872276151760261 0 -0.095429287301162569 0.1538271060288352 0 -0.12711493411718411 0.1494661060528254 0 -0.12653041952395039 0.1354161737842513 0 -0.1072514049253199 0.14872276151760261 0 -0.12711493411718411 0.1494661060528254 0 -0.1072514049253199 0.14872276151760261 0 -0.1194513481457689 0.1635609988765839 0 -0.1194513481457689 0.1635609988765839 0 -0.1144809389531023 0.1869767666301351 0 -0.099005368997678006 0.1723795655408806 0 -0.13268914273538329 0.1750509562650924 0 -0.1194513481457689 0.1635609988765839 0 -0.1144809389531023 0.1869767666301351 0 -0.1144809389531023 0.1869767666301351 0 -0.099005368997678006 0.1723795655408806 0 -0.0907593330700361 0.19603636956415871 0 -0.099005368997678006 0.1723795655408806 0 -0.0907593330700361 0.19603636956415871 0 -0.1072514049253199 0.14872276151760261 0 -0.1194513481457689 0.1635609988765839 0 -0.099005368997678006 0.1723795655408806 0 -0.1072514049253199 0.14872276151760261 0 -0.095429287301162569 0.1538271060288352 0 -0.099005368997678006 0.1723795655408806 0 -0.1072514049253199 0.14872276151760261 0 -0.099005368997678006 0.1723795655408806 0 -0.095429287301162569 0.1538271060288352 0 -0.099005368997678006 0.1723795655408806 0 -0.089264976304947813 0.16305913715607981 0 -0.089264976304947813 0.16305913715607981 0 -0.078726297129264447 0.1568051313220773 0 -0.070728802668765189 0.16298784849958539 0 -0.099005368997678006 0.1723795655408806 0 -0.089264976304947813 0.16305913715607981 0 -0.083173158014857834 0.1819778711413477 0 -0.089264976304947813 0.16305913715607981 0 -0.083173158014857834 0.1819778711413477 0 -0.06435517074193417 0.179531982830265 0 -0.099005368997678006 0.1723795655408806 0 -0.083173158014857834 0.1819778711413477 0 -0.0907593330700361 0.19603636956415871 0 -0.083173158014857834 0.1819778711413477 0 -0.06435517074193417 0.179531982830265 0 -0.072480940959693013 0.1988823006153542 0 -0.089264976304947813 0.16305913715607981 0 -0.06435517074193417 0.179531982830265 0 -0.070728802668765189 0.16298784849958539 0 -0.089264976304947813 0.16305913715607981 0 -0.06435517074193417 0.179531982830265 0 -0.06435517074193417 0.179531982830265 0 -0.070728802668765189 0.16298784849958539 0 -0.060817304647522517 0.16063211997463811 0 -0.078726297129264447 0.1568051313220773 0 -0.070728802668765189 0.16298784849958539 0 -0.070638320170874583 0.15280064756773359 0 -0.070728802668765189 0.16298784849958539 0 -0.070638320170874583 0.15280064756773359 0 -0.060817304647522517 0.16063211997463811 0 -0.070638320170874583 0.15280064756773359 0 -0.06050925962069742 0.14933122419088271 0 -0.060817304647522517 0.16063211997463811 0 -0.078726297129264447 0.1568051313220773 0 -0.070638320170874583 0.15280064756773359 0 -0.084273089372470245 0.14837289206491031 0 -0.070638320170874583 0.15280064756773359 0 -0.073986689617270868 0.1403986132245284 0 -0.084273089372470245 0.14837289206491031 0 -0.073986689617270868 0.1403986132245284 0 -0.060395274942560528 0.13416549391068189 0 -0.06050925962069742 0.14933122419088271 0 -0.070638320170874583 0.15280064756773359 0 -0.073986689617270868 0.1403986132245284 0 -0.06050925962069742 0.14933122419088271 0 -0.073986689617270868 0.1403986132245284 0 -0.079964733767734122 0.12668506296934109 0 -0.060395274942560528 0.13416549391068189 0 -0.060395274942560528 0.13416549391068189 0 -0.068008023874607193 0.1194813826226566 0 -0.073986689617270868 0.1403986132245284 0 -0.085757333202322553 0.1342092020786384 0 -0.079964733767734122 0.12668506296934109 0 -0.097351596905396909 0.1366011738647028 0 -0.085757333202322553 0.1342092020786384 0 -0.095157466154961498 0.1222738246889692 0 -0.085757333202322553 0.1342092020786384 0 -0.079964733767734122 0.12668506296934109 0 -0.095157466154961498 0.1222738246889692 0 -0.097351596905396909 0.1366011738647028 0 -0.085757333202322553 0.1342092020786384 0 -0.084273089372470245 0.14837289206491031 0 -0.097351596905396909 0.1366011738647028 0 -0.095429287301162569 0.1538271060288352 0 -0.084273089372470245 0.14837289206491031 0 -0.095429287301162569 0.1538271060288352 0 -0.089264976304947813 0.16305913715607981 0 -0.084273089372470245 0.14837289206491031 0 -0.089264976304947813 0.16305913715607981 0 -0.078726297129264447 0.1568051313220773 0 -0.084273089372470245 0.14837289206491031 0 -0.073986689617270868 0.1403986132245284 0 -0.085757333202322553 0.1342092020786384 0 -0.084273089372470245 0.14837289206491031 0 -0.097135213821017974 0.2450179218164267 0 -0.11832329044822951 0.24304604882281969 0 -0.10188732904743091 0.22416775388930879 0 -0.1252468427212147 0.2168953735999099 0 -0.11832329044822951 0.24304604882281969 0 -0.10188732904743091 0.22416775388930879 0 -0.10188732904743091 0.22416775388930879 0 -0.10553645135762139 0.20639637139721009 0 -0.085647611720234704 0.211582202570961 0 -0.10553645135762139 0.20639637139721009 0 -0.0907593330700361 0.19603636956415871 0 -0.085647611720234704 0.211582202570961 0 -0.1252468427212147 0.2168953735999099 0 -0.10553645135762139 0.20639637139721009 0 -0.1203089118816133 0.20055052938219861 0 -0.1252468427212147 0.2168953735999099 0 -0.10188732904743091 0.22416775388930879 0 -0.10553645135762139 0.20639637139721009 0 -0.1144809389531023 0.1869767666301351 0 -0.10553645135762139 0.20639637139721009 0 -0.1203089118816133 0.20055052938219861 0 -0.1348313290251755 0.19391948141146001 0 -0.1144809389531023 0.1869767666301351 0 -0.1203089118816133 0.20055052938219861 0 -0.1144809389531023 0.1869767666301351 0 -0.10553645135762139 0.20639637139721009 0 -0.0907593330700361 0.19603636956415871 0 -0.083173158014857834 0.1819778711413477 0 -0.0907593330700361 0.19603636956415871 0 -0.072480940959693013 0.1988823006153542 0 -0.0907593330700361 0.19603636956415871 0 -0.072480940959693013 0.1988823006153542 0 -0.085647611720234704 0.211582202570961 0 -0.06435517074193417 0.179531982830265 0 -0.072480940959693013 0.1988823006153542 0 -0.057501641022342467 0.1963435114306189 0 -0.065516926835851183 0.21659017637723951 0 -0.085647611720234704 0.211582202570961 0 -0.078837631547527487 0.22646261886489361 0 -0.072480940959693013 0.1988823006153542 0 -0.065516926835851183 0.21659017637723951 0 -0.085647611720234704 0.211582202570961 0 -0.072480940959693013 0.1988823006153542 0 -0.065516926835851183 0.21659017637723951 0 -0.056774781747103042 0.20807563334730969 0 -0.097135213821017974 0.2450179218164267 0 -0.10188732904743091 0.22416775388930879 0 -0.078837631547527487 0.22646261886489361 0 -0.10188732904743091 0.22416775388930879 0 -0.078837631547527487 0.22646261886489361 0 -0.10188732904743091 0.22416775388930879 0 -0.085647611720234704 0.211582202570961 0 -0.078837631547527487 0.22646261886489361 0 -0.078837631547527487 0.22646261886489361 0 -0.055787934047623812 0.22875748384047651 0 -0.078837631547527487 0.22646261886489361 0 -0.074704152181801681 0.24701770632021169 0 -0.055787934047623812 0.22875748384047651 0 -0.065516926835851183 0.21659017637723951 0 -0.078837631547527487 0.22646261886489361 0 -0.055787934047623812 0.22875748384047651 0 -0.074704152181801681 0.24701770632021169 0 -0.055787934047623812 0.22875748384047651 0 -0.074704152181801681 0.24701770632021169 0 -0.057747386715908428 0.24463041023760571 0 -0.055787934047623812 0.22875748384047651 0 -0.097135213821017974 0.2450179218164267 0 -0.078837631547527487 0.22646261886489361 0 -0.074704152181801681 0.24701770632021169 0 -0.03189830216395443 0.24568919817845219 0 -0.04135776092400012 0.23809779795821551 0 -0.030614146685572802 0.23126382662090891 0 -0.04135776092400012 0.23809779795821551 0 -0.046594812073733123 0.24823599275617891 0 -0.049952252460554 0.2397627017524232 0 -0.03189830216395443 0.24568919817845219 0 -0.04135776092400012 0.23809779795821551 0 -0.046594812073733123 0.24823599275617891 0 -0.046594812073733123 0.24823599275617891 0 -0.057747386715908428 0.24463041023760571 0 -0.049952252460554 0.2397627017524232 0 -0.057747386715908428 0.24463041023760571 0 -0.049952252460554 0.2397627017524232 0 -0.055787934047623812 0.22875748384047651 0 -0.04135776092400012 0.23809779795821551 0 -0.049952252460554 0.2397627017524232 0 -0.055787934047623812 0.22875748384047651 0 -0.055787934047623812 0.22875748384047651 0 -0.052323738254648429 0.22541342291643321 0 -0.065516926835851183 0.21659017637723951 0 -0.055787934047623812 0.22875748384047651 0 -0.054616056031908368 0.21893633417385969 0 -0.055787934047623812 0.22875748384047651 0 -0.052323738254648429 0.22541342291643321 0 -0.042225130782071622 0.22351742659662871 0 -0.054616056031908368 0.21893633417385969 0 -0.052323738254648429 0.22541342291643321 0 -0.049046602241481829 0.2206752111693363 0 -0.052323738254648429 0.22541342291643321 0 -0.049046602241481829 0.2206752111693363 0 -0.042225130782071622 0.22351742659662871 0 -0.055787934047623812 0.22875748384047651 0 -0.054616056031908368 0.21893633417385969 0 -0.052323738254648429 0.22541342291643321 0 -0.055787934047623812 0.22875748384047651 0 -0.042225130782071622 0.22351742659662871 0 -0.030614146685572802 0.23126382662090891 0 -0.055787934047623812 0.22875748384047651 0 -0.030614146685572802 0.23126382662090891 0 -0.049046602241481829 0.2206752111693363 0 -0.042225130782071622 0.22351742659662871 0 -0.047021483897298919 0.2148336609904237 0 -0.04135776092400012 0.23809779795821551 0 -0.055787934047623812 0.22875748384047651 0 -0.030614146685572802 0.23126382662090891 0 -0.042225130782071622 0.22351742659662871 0 -0.035706106933987618 0.212040288753787 0 -0.024813853389476559 0.2211714782904188 0 -0.042225130782071622 0.22351742659662871 0 -0.024813853389476559 0.2211714782904188 0 -0.030614146685572802 0.23126382662090891 0 -0.035706106933987618 0.212040288753787 0 -0.047940973094851513 0.204892605264445 0 -0.039445365178920423 0.19600482850445031 0 -0.035706106933987618 0.212040288753787 0 -0.047021483897298919 0.2148336609904237 0 -0.047940973094851513 0.204892605264445 0 -0.042225130782071622 0.22351742659662871 0 -0.035706106933987618 0.212040288753787 0 -0.047021483897298919 0.2148336609904237 0 -0.054616056031908368 0.21893633417385969 0 -0.049046602241481829 0.2206752111693363 0 -0.047021483897298919 0.2148336609904237 0 -0.054616056031908368 0.21893633417385969 0 -0.047021483897298919 0.2148336609904237 0 -0.056774781747103042 0.20807563334730969 0 -0.065516926835851183 0.21659017637723951 0 -0.054616056031908368 0.21893633417385969 0 -0.056774781747103042 0.20807563334730969 0 -0.047021483897298919 0.2148336609904237 0 -0.056774781747103042 0.20807563334730969 0 -0.047940973094851513 0.204892605264445 0 -0.047940973094851513 0.204892605264445 0 -0.057501641022342467 0.1963435114306189 0 -0.039445365178920423 0.19600482850445031 0 -0.06435517074193417 0.179531982830265 0 -0.039445365178920423 0.19600482850445031 0 -0.072480940959693013 0.1988823006153542 0 -0.056774781747103042 0.20807563334730969 0 -0.057501641022342467 0.1963435114306189 0 -0.056774781747103042 0.20807563334730969 0 -0.047940973094851513 0.204892605264445 0 -0.057501641022342467 0.1963435114306189 0 -0.06435517074193417 0.179531982830265 0 -0.057501641022342467 0.1963435114306189 0 -0.039445365178920423 0.19600482850445031 0 -0.039445365178920423 0.19600482850445031 0 -0.027727343604313569 0.197178151178412 0 -0.038616654050395688 0.17617393208916859 0 -0.039445365178920423 0.19600482850445031 0 -0.027727343604313569 0.197178151178412 0 -0.014535559615906669 0.2124776741786355 0 -0.027727343604313569 0.197178151178412 0 -0.010915521324717001 0.1993315760592379 0 -0.014535559615906669 0.2124776741786355 0 -0.027727343604313569 0.197178151178412 0 -0.010915521324717001 0.1993315760592379 0 -0.020104729349334449 0.1840085448946619 0 -0.027727343604313569 0.197178151178412 0 -0.028750072776026619 0.18228756371234331 0 -0.020104729349334449 0.1840085448946619 0 -0.010915521324717001 0.1993315760592379 0 -0.0058150648891281392 0.18464487058732859 0 0.0047479160901643591 0.19966970600779571 0 -0.010915521324717001 0.1993315760592379 0 -0.020104729349334449 0.1840085448946619 0 -0.0058150648891281392 0.18464487058732859 0 -0.010915521324717001 0.1993315760592379 0 -0.001618838316679704 0.21186515805952549 0 -0.014535559615906669 0.2124776741786355 0 -0.010915521324717001 0.1993315760592379 0 -0.001618838316679704 0.21186515805952549 0 0.0047479160901643591 0.19966970600779571 0 -0.001618838316679704 0.21186515805952549 0 -0.010819744977475119 0.2201826338773481 0 0.0022205822065663882 0.22338098429998751 0 -0.001618838316679704 0.21186515805952549 0 -0.014535559615906669 0.2124776741786355 0 -0.010819744977475119 0.2201826338773481 0 -0.039445365178920423 0.19600482850445031 0 -0.014535559615906669 0.2124776741786355 0 -0.035706106933987618 0.212040288753787 0 -0.039445365178920423 0.19600482850445031 0 -0.014535559615906669 0.2124776741786355 0 -0.014535559615906669 0.2124776741786355 0 -0.024813853389476559 0.2211714782904188 0 -0.010819744977475119 0.2201826338773481 0 -0.035706106933987618 0.212040288753787 0 -0.014535559615906669 0.2124776741786355 0 -0.024813853389476559 0.2211714782904188 0 -0.030614146685572802 0.23126382662090891 0 -0.0054403593235216562 0.23377016940133941 0 -0.030614146685572802 0.23126382662090891 0 -0.0054403593235216562 0.23377016940133941 0 -0.01514813330815701 0.23061359466582701 0 -0.024813853389476559 0.2211714782904188 0 -0.030614146685572802 0.23126382662090891 0 -0.01514813330815701 0.23061359466582701 0 -0.024813853389476559 0.2211714782904188 0 -0.010819744977475119 0.2201826338773481 0 -0.01514813330815701 0.23061359466582701 0 -0.010819744977475119 0.2201826338773481 0 -0.01514813330815701 0.23061359466582701 0 0.0022205822065663882 0.22338098429998751 0 -0.01514813330815701 0.23061359466582701 0 0.0022205822065663882 0.22338098429998751 0 -0.0054403593235216562 0.23377016940133941 0 -0.01514813330815701 0.23061359466582701 0 0.0022205822065663882 0.22338098429998751 0 -0.004361582131907446 0.25012675423618741 0 -0.0054403593235216562 0.23377016940133941 0 0.0051881906427589239 0.2429023142665572 0 -0.004361582131907446 0.25012675423618741 0 -0.0054403593235216562 0.23377016940133941 0 -0.018506566158488919 0.2431339505957798 0 -0.020565667716041462 0.25572736355358933 0 -0.004361582131907446 0.25012675423618741 0 -0.018506566158488919 0.2431339505957798 0 -0.030614146685572802 0.23126382662090891 0 -0.0054403593235216562 0.23377016940133941 0 -0.018506566158488919 0.2431339505957798 0 -0.03189830216395443 0.24568919817845219 0 -0.030614146685572802 0.23126382662090891 0 -0.018506566158488919 0.2431339505957798 0 -0.020565667716041462 0.25572736355358933 0 -0.03189830216395443 0.24568919817845219 0 -0.018506566158488919 0.2431339505957798 0 -0.042460363287522958 0.14347988613362259 0 -0.044473419521311869 0.15297756029890641 0 -0.037891307588098999 0.15301779907060481 0 -0.044473419521311869 0.15297756029890641 0 -0.037891307588098999 0.15301779907060481 0 -0.031636506627965313 0.16150224911057051 0 -0.042460363287522958 0.14347988613362259 0 -0.035174347344809967 0.15001976644272921 0 -0.037891307588098999 0.15301779907060481 0 -0.035174347344809967 0.15001976644272921 0 -0.037891307588098999 0.15301779907060481 0 -0.033404653207921721 0.15507918068198209 0 -0.035174347344809967 0.15001976644272921 0 -0.033404653207921721 0.15507918068198209 0 -0.02776282729533102 0.15476173176141739 0 -0.035174347344809967 0.15001976644272921 0 -0.034180114506779158 0.14292432320853909 0 -0.02883591677782232 0.14796437992771719 0 -0.042460363287522958 0.14347988613362259 0 -0.035174347344809967 0.15001976644272921 0 -0.034180114506779158 0.14292432320853909 0 -0.042460363287522958 0.14347988613362259 0 -0.034180114506779158 0.14292432320853909 0 -0.038211226953362397 0.13781437243294631 0 -0.034180114506779158 0.14292432320853909 0 -0.032488323731578138 0.13717556183428281 0 -0.038211226953362397 0.13781437243294631 0 -0.034180114506779158 0.14292432320853909 0 -0.032488323731578138 0.13717556183428281 0 -0.027483842170251089 0.14162756103877569 0 -0.032488323731578138 0.13717556183428281 0 -0.035266368379565052 0.13009707587939279 0 -0.02667969692195489 0.13460984520473249 0 -0.032488323731578138 0.13717556183428281 0 -0.038211226953362397 0.13781437243294631 0 -0.035266368379565052 0.13009707587939279 0 -0.035266368379565052 0.13009707587939279 0 -0.046331318124510253 0.13174141938699169 0 -0.041763705598505362 0.11912362676530031 0 -0.038211226953362397 0.13781437243294631 0 -0.035266368379565052 0.13009707587939279 0 -0.046331318124510253 0.13174141938699169 0 -0.042460363287522958 0.14347988613362259 0 -0.038211226953362397 0.13781437243294631 0 -0.046331318124510253 0.13174141938699169 0 -0.042460363287522958 0.14347988613362259 0 -0.046331318124510253 0.13174141938699169 0 -0.060395274942560528 0.13416549391068189 0 -0.046331318124510253 0.13174141938699169 0 -0.060395274942560528 0.13416549391068189 0 -0.057376161549244957 0.12328487032798489 0 -0.060395274942560528 0.13416549391068189 0 -0.057376161549244957 0.12328487032798489 0 -0.068008023874607193 0.1194813826226566 0 -0.044473419521311869 0.15297756029890641 0 -0.060395274942560528 0.13416549391068189 0 -0.049505964496477838 0.1551697129999251 0 -0.060395274942560528 0.13416549391068189 0 -0.049505964496477838 0.1551697129999251 0 -0.060395274942560528 0.13416549391068189 0 -0.049505964496477838 0.1551697129999251 0 -0.06050925962069742 0.14933122419088271 0 -0.042460363287522958 0.14347988613362259 0 -0.044473419521311869 0.15297756029890641 0 -0.060395274942560528 0.13416549391068189 0 -0.044473419521311869 0.15297756029890641 0 -0.060395274942560528 0.13416549391068189 0 -0.06050925962069742 0.14933122419088271 0 -0.055951783244603238 0.15683636846341581 0 -0.060817304647522517 0.16063211997463811 0 -0.049505964496477838 0.1551697129999251 0 -0.06050925962069742 0.14933122419088271 0 -0.055951783244603238 0.15683636846341581 0 -0.06435517074193417 0.179531982830265 0 -0.060817304647522517 0.16063211997463811 0 -0.054190933413391887 0.1696376128955723 0 -0.055951783244603238 0.15683636846341581 0 -0.060817304647522517 0.16063211997463811 0 -0.051816527970478227 0.163689949284544 0 -0.060817304647522517 0.16063211997463811 0 -0.054190933413391887 0.1696376128955723 0 -0.051816527970478227 0.163689949284544 0 -0.054190933413391887 0.1696376128955723 0 -0.051816527970478227 0.163689949284544 0 -0.038616654050395688 0.17617393208916859 0 -0.049505964496477838 0.1551697129999251 0 -0.055951783244603238 0.15683636846341581 0 -0.051816527970478227 0.163689949284544 0 -0.06435517074193417 0.179531982830265 0 -0.039445365178920423 0.19600482850445031 0 -0.038616654050395688 0.17617393208916859 0 -0.06435517074193417 0.179531982830265 0 -0.054190933413391887 0.1696376128955723 0 -0.038616654050395688 0.17617393208916859 0 -0.027727343604313569 0.197178151178412 0 -0.038616654050395688 0.17617393208916859 0 -0.027727343604313569 0.197178151178412 0 -0.038616654050395688 0.17617393208916859 0 -0.028750072776026619 0.18228756371234331 0 -0.038616654050395688 0.17617393208916859 0 -0.028551564100062751 0.1717896266871306 0 -0.028750072776026619 0.18228756371234331 0 -0.044473419521311869 0.15297756029890641 0 -0.028551564100062751 0.1717896266871306 0 -0.049505964496477838 0.1551697129999251 0 -0.051816527970478227 0.163689949284544 0 -0.038616654050395688 0.17617393208916859 0 -0.044473419521311869 0.15297756029890641 0 -0.031636506627965313 0.16150224911057051 0 -0.028551564100062751 0.1717896266871306 0 -0.049505964496477838 0.1551697129999251 0 -0.038616654050395688 0.17617393208916859 0 -0.044473419521311869 0.15297756029890641 0 -0.049505964496477838 0.1551697129999251 0 -0.038616654050395688 0.17617393208916859 0 -0.044473419521311869 0.15297756029890641 0 -0.038616654050395688 0.17617393208916859 0 -0.028551564100062751 0.1717896266871306 0 -0.037891307588098999 0.15301779907060481 0 -0.033404653207921721 0.15507918068198209 0 -0.031636506627965313 0.16150224911057051 0 -0.031636506627965313 0.16150224911057051 0 -0.02253447650115362 0.1626338424728738 0 -0.02776282729533102 0.15476173176141739 0 -0.033404653207921721 0.15507918068198209 0 -0.031636506627965313 0.16150224911057051 0 -0.02776282729533102 0.15476173176141739 0 -0.031636506627965313 0.16150224911057051 0 -0.028551564100062751 0.1717896266871306 0 -0.02253447650115362 0.1626338424728738 0 -0.028551564100062751 0.1717896266871306 0 -0.02253447650115362 0.1626338424728738 0 -0.01498566762474032 0.1721399223420339 0 -0.02253447650115362 0.1626338424728738 0 -0.01498566762474032 0.1721399223420339 0 -0.012046897657486009 0.15973393686910059 0 -0.02253447650115362 0.1626338424728738 0 -0.012046897657486009 0.15973393686910059 0 -0.01974455104335017 0.1550417818637245 0 -0.02253447650115362 0.1626338424728738 0 -0.01974455104335017 0.1550417818637245 0 -0.02776282729533102 0.15476173176141739 0 -0.028551564100062751 0.1717896266871306 0 -0.028750072776026619 0.18228756371234331 0 -0.020104729349334449 0.1840085448946619 0 -0.028551564100062751 0.1717896266871306 0 -0.020104729349334449 0.1840085448946619 0 -0.01498566762474032 0.1721399223420339 0 -0.020104729349334449 0.1840085448946619 0 -0.01498566762474032 0.1721399223420339 0 -0.0058150648891281392 0.18464487058732859 0 -0.01498566762474032 0.1721399223420339 0 -0.0058150648891281392 0.18464487058732859 0 9.8439874396488518e-06 0.16909653965514321 0 -0.01498566762474032 0.1721399223420339 0 -0.012046897657486009 0.15973393686910059 0 9.8439874396488518e-06 0.16909653965514321 0 -0.012046897657486009 0.15973393686910059 0 -0.001399927819642065 0.15853034608675531 0 -0.0067216127360385028 0.15176017281181059 0 -0.012046897657486009 0.15973393686910059 0 -0.001399927819642065 0.15853034608675531 0 9.8439874396488518e-06 0.16909653965514321 0 -0.0067216127360385028 0.15176017281181059 0 -0.001932496299644968 0.1459540675981712 0 0.002037105597096525 0.15151695060409001 0 -0.001399927819642065 0.15853034608675531 0 -0.0067216127360385028 0.15176017281181059 0 0.002037105597096525 0.15151695060409001 0 -0.001932496299644968 0.1459540675981712 0 -0.0047871023855838284 0.14117591745817429 0 0.000228448927285114 0.14012311706009631 0 -0.0067216127360385028 0.15176017281181059 0 -0.001932496299644968 0.1459540675981712 0 -0.0088873299160877918 0.1454187600715697 0 -0.001932496299644968 0.1459540675981712 0 -0.0047871023855838284 0.14117591745817429 0 -0.0088873299160877918 0.1454187600715697 0 -0.0047871023855838284 0.14117591745817429 0 -0.0088873299160877918 0.1454187600715697 0 -0.010460643721398131 0.13913610184510419 0 -0.0088873299160877918 0.1454187600715697 0 -0.015535574841907601 0.14368344141407929 0 -0.010460643721398131 0.13913610184510419 0 -0.0088873299160877918 0.1454187600715697 0 -0.015535574841907601 0.14368344141407929 0 -0.014413369338275051 0.15020994658701309 0 -0.012046897657486009 0.15973393686910059 0 -0.014413369338275051 0.15020994658701309 0 -0.01974455104335017 0.1550417818637245 0 -0.012046897657486009 0.15973393686910059 0 -0.0067216127360385028 0.15176017281181059 0 -0.014413369338275051 0.15020994658701309 0 -0.0067216127360385028 0.15176017281181059 0 -0.0088873299160877918 0.1454187600715697 0 -0.014413369338275051 0.15020994658701309 0 -0.01974455104335017 0.1550417818637245 0 -0.021965184424505169 0.1478694516282176 0 -0.02776282729533102 0.15476173176141739 0 -0.014413369338275051 0.15020994658701309 0 -0.01974455104335017 0.1550417818637245 0 -0.021965184424505169 0.1478694516282176 0 -0.015535574841907601 0.14368344141407929 0 -0.014413369338275051 0.15020994658701309 0 -0.021965184424505169 0.1478694516282176 0 -0.015535574841907601 0.14368344141407929 0 -0.02085887518683055 0.14051112573817109 0 -0.01572570720539903 0.1386245228663322 0 -0.015535574841907601 0.14368344141407929 0 -0.021965184424505169 0.1478694516282176 0 -0.02085887518683055 0.14051112573817109 0 -0.021965184424505169 0.1478694516282176 0 -0.027483842170251089 0.14162756103877569 0 -0.02085887518683055 0.14051112573817109 0 -0.021965184424505169 0.1478694516282176 0 -0.027483842170251089 0.14162756103877569 0 -0.02883591677782232 0.14796437992771719 0 -0.034180114506779158 0.14292432320853909 0 -0.027483842170251089 0.14162756103877569 0 -0.02883591677782232 0.14796437992771719 0 -0.035174347344809967 0.15001976644272921 0 -0.02883591677782232 0.14796437992771719 0 -0.02776282729533102 0.15476173176141739 0 -0.021965184424505169 0.1478694516282176 0 -0.02883591677782232 0.14796437992771719 0 -0.02776282729533102 0.15476173176141739 0 -0.035266368379565052 0.13009707587939279 0 -0.02498016711913827 0.1241785180753891 0 -0.033110622576494379 0.1214386067867833 0 -0.02667969692195489 0.13460984520473249 0 -0.019000604944366228 0.13406922866238341 0 -0.02498016711913827 0.1241785180753891 0 -0.035266368379565052 0.13009707587939279 0 -0.02667969692195489 0.13460984520473249 0 -0.02498016711913827 0.1241785180753891 0 -0.032488323731578138 0.13717556183428281 0 -0.027483842170251089 0.14162756103877569 0 -0.02667969692195489 0.13460984520473249 0 -0.027483842170251089 0.14162756103877569 0 -0.02667969692195489 0.13460984520473249 0 -0.02085887518683055 0.14051112573817109 0 -0.02667969692195489 0.13460984520473249 0 -0.02085887518683055 0.14051112573817109 0 -0.019000604944366228 0.13406922866238341 0 -0.02085887518683055 0.14051112573817109 0 -0.01572570720539903 0.1386245228663322 0 -0.019000604944366228 0.13406922866238341 0 -0.019000604944366228 0.13406922866238341 0 -0.013108962008021981 0.1259178359004969 0 -0.02498016711913827 0.1241785180753891 0 -0.019000604944366228 0.13406922866238341 0 -0.013108962008021981 0.1259178359004969 0 -0.011245417678365909 0.1339710152718474 0 -0.013108962008021981 0.1259178359004969 0 -0.011245417678365909 0.1339710152718474 0 -0.0043823690024683438 0.12942386948176529 0 -0.015535574841907601 0.14368344141407929 0 -0.01572570720539903 0.1386245228663322 0 -0.010460643721398131 0.13913610184510419 0 -0.01572570720539903 0.1386245228663322 0 -0.011245417678365909 0.1339710152718474 0 -0.010460643721398131 0.13913610184510419 0 -0.01572570720539903 0.1386245228663322 0 -0.019000604944366228 0.13406922866238341 0 -0.011245417678365909 0.1339710152718474 0 -0.011245417678365909 0.1339710152718474 0 -0.010460643721398131 0.13913610184510419 0 -0.0049074646713017818 0.13634897063783119 0 -0.0047871023855838284 0.14117591745817429 0 -0.010460643721398131 0.13913610184510419 0 -0.0049074646713017818 0.13634897063783119 0 -0.011245417678365909 0.1339710152718474 0 -0.0049074646713017818 0.13634897063783119 0 -0.0043823690024683438 0.12942386948176529 0 -0.0049074646713017818 0.13634897063783119 0 -0.0043823690024683438 0.12942386948176529 0 0.0012022958327204049 0.13426380270999949 0 -0.0047871023855838284 0.14117591745817429 0 -0.0049074646713017818 0.13634897063783119 0 0.000228448927285114 0.14012311706009631 0 -0.0049074646713017818 0.13634897063783119 0 0.000228448927285114 0.14012311706009631 0 0.0012022958327204049 0.13426380270999949 0 -0.0043823690024683438 0.12942386948176529 0 -0.0015382865690094869 0.1195819360983075 0 0.0028297340199113529 0.12737786763030409 0 -0.0043823690024683438 0.12942386948176529 0 0.0028297340199113529 0.12737786763030409 0 0.0012022958327204049 0.13426380270999949 0 -0.013108962008021981 0.1259178359004969 0 -0.0015382865690094869 0.1195819360983075 0 -0.018013141318310021 0.1118215823196331 0 -0.0015382865690094869 0.1195819360983075 0 -0.0093267163156350585 0.10220622611456499 0 -0.018013141318310021 0.1118215823196331 0 -0.0015382865690094869 0.1195819360983075 0 -0.0093267163156350585 0.10220622611456499 0 0.0088418889268726004 0.1125261115153213 0 -0.013108962008021981 0.1259178359004969 0 -0.0043823690024683438 0.12942386948176529 0 -0.0015382865690094869 0.1195819360983075 0 -0.0093267163156350585 0.10220622611456499 0 -0.028384651446471159 0.094232735224306696 0 -0.028384651446471159 0.094232735224306696 0 -0.030432249208768851 0.112355206427051 0 -0.018013141318310021 0.1118215823196331 0 -0.0093267163156350585 0.10220622611456499 0 -0.028384651446471159 0.094232735224306696 0 -0.018013141318310021 0.1118215823196331 0 -0.030432249208768851 0.112355206427051 0 -0.02498016711913827 0.1241785180753891 0 -0.018013141318310021 0.1118215823196331 0 -0.030432249208768851 0.112355206427051 0 -0.02498016711913827 0.1241785180753891 0 -0.033110622576494379 0.1214386067867833 0 -0.013108962008021981 0.1259178359004969 0 -0.02498016711913827 0.1241785180753891 0 -0.018013141318310021 0.1118215823196331 0 -0.019815605255134251 0.077564307382831099 0 -0.01123722517146284 0.061714947321965113 0 0.0078113760670387236 0.068869370431613411 0 -0.019815605255134251 0.077564307382831099 0 0.0078113760670387236 0.068869370431613411 0 -0.0022168413230157229 0.085736250976024914 0 -0.019815605255134251 0.077564307382831099 0 0.0078113760670387236 0.068869370431613411 0 -0.0093267163156350585 0.10220622611456499 0 -0.0022168413230157229 0.085736250976024914 0 -0.019815605255134251 0.077564307382831099 0 -0.0093267163156350585 0.10220622611456499 0 -0.028384651446471159 0.094232735224306696 0 -0.019815605255134251 0.077564307382831099 0 -0.019815605255134251 0.077564307382831099 0 -0.02897814582929455 0.062873885781940531 0 -0.01123722517146284 0.061714947321965113 0 -0.019815605255134251 0.077564307382831099 0 -0.02897814582929455 0.062873885781940531 0 -0.037351726516990362 0.072256576054196331 0 -0.037351726516990362 0.072256576054196331 0 -0.04744258657730735 0.086259244334048468 0 -0.048521472395479701 0.069705355416953899 0 -0.042000822527735973 0.064880087355207783 0 -0.037351726516990362 0.072256576054196331 0 -0.048521472395479701 0.069705355416953899 0 -0.042000822527735973 0.064880087355207783 0 -0.048521472395479701 0.069705355416953899 0 -0.048543751051203898 0.057697742817346243 0 -0.02897814582929455 0.062873885781940531 0 -0.042000822527735973 0.064880087355207783 0 -0.037351726516990362 0.072256576054196331 0 -0.028384651446471159 0.094232735224306696 0 -0.048484368781985768 0.092953390863835139 0 -0.04744258657730735 0.086259244334048468 0 -0.019815605255134251 0.077564307382831099 0 -0.037351726516990362 0.072256576054196331 0 -0.04744258657730735 0.086259244334048468 0 -0.019815605255134251 0.077564307382831099 0 -0.04744258657730735 0.086259244334048468 0 -0.028384651446471159 0.094232735224306696 0 -0.04744258657730735 0.086259244334048468 0 -0.028384651446471159 0.094232735224306696 0 -0.019815605255134251 0.077564307382831099 0 -0.04744258657730735 0.086259244334048468 0 -0.04744258657730735 0.086259244334048468 0 -0.056352896539992578 0.082531333895216066 0 -0.048521472395479701 0.069705355416953899 0 -0.04744258657730735 0.086259244334048468 0 -0.055667229109567583 0.088847755450422561 0 -0.048484368781985768 0.092953390863835139 0 -0.04744258657730735 0.086259244334048468 0 -0.055667229109567583 0.088847755450422561 0 -0.055667229109567583 0.088847755450422561 0 -0.056352896539992578 0.082531333895216066 0 -0.055667229109567583 0.088847755450422561 0 -0.056352896539992578 0.082531333895216066 0 -0.068535421204038979 0.084669133357873919 0 -0.04744258657730735 0.086259244334048468 0 -0.055667229109567583 0.088847755450422561 0 -0.056352896539992578 0.082531333895216066 0 -0.04744258657730735 0.086259244334048468 0 -0.056352896539992578 0.082531333895216066 0 -0.056352896539992578 0.082531333895216066 0 -0.048521472395479701 0.069705355416953899 0 -0.059557339835071388 0.053011753697425897 0 -0.056352896539992578 0.082531333895216066 0 -0.065455038900646412 0.063135680861219914 0 -0.059557339835071388 0.053011753697425897 0 -0.056352896539992578 0.082531333895216066 0 -0.059557339835071388 0.053011753697425897 0 -0.041763705598505362 0.11912362676530031 0 -0.040355805924582322 0.10811297036328291 0 -0.053061720868948711 0.1128498994681193 0 -0.030432249208768851 0.112355206427051 0 -0.041763705598505362 0.11912362676530031 0 -0.033110622576494379 0.1214386067867833 0 -0.035266368379565052 0.13009707587939279 0 -0.041763705598505362 0.11912362676530031 0 -0.033110622576494379 0.1214386067867833 0 -0.030432249208768851 0.112355206427051 0 -0.041763705598505362 0.11912362676530031 0 -0.040355805924582322 0.10811297036328291 0 -0.028384651446471159 0.094232735224306696 0 -0.040355805924582322 0.10811297036328291 0 -0.047601570349403252 0.1001146928854318 0 -0.028384651446471159 0.094232735224306696 0 -0.048484368781985768 0.092953390863835139 0 -0.047601570349403252 0.1001146928854318 0 -0.028384651446471159 0.094232735224306696 0 -0.030432249208768851 0.112355206427051 0 -0.040355805924582322 0.10811297036328291 0 -0.055667229109567583 0.088847755450422561 0 -0.047601570349403252 0.1001146928854318 0 -0.053061720868948711 0.1128498994681193 0 -0.055667229109567583 0.088847755450422561 0 -0.053061720868948711 0.1128498994681193 0 -0.040355805924582322 0.10811297036328291 0 -0.047601570349403252 0.1001146928854318 0 -0.053061720868948711 0.1128498994681193 0 -0.055667229109567583 0.088847755450422561 0 -0.061317563763440802 0.10299561175118491 0 -0.053061720868948711 0.1128498994681193 0 -0.048484368781985768 0.092953390863835139 0 -0.055667229109567583 0.088847755450422561 0 -0.047601570349403252 0.1001146928854318 0 -0.055667229109567583 0.088847755450422561 0 -0.061317563763440802 0.10299561175118491 0 -0.06797342141030252 0.10030920148610591 0 -0.061317563763440802 0.10299561175118491 0 -0.053061720868948711 0.1128498994681193 0 -0.066574353573826517 0.1091611438734031 0 -0.046331318124510253 0.13174141938699169 0 -0.041763705598505362 0.11912362676530031 0 -0.057376161549244957 0.12328487032798489 0 -0.041763705598505362 0.11912362676530031 0 -0.053061720868948711 0.1128498994681193 0 -0.057376161549244957 0.12328487032798489 0 -0.053061720868948711 0.1128498994681193 0 -0.057376161549244957 0.12328487032798489 0 -0.068008023874607193 0.1194813826226566 0 -0.060395274942560528 0.13416549391068189 0 -0.068008023874607193 0.1194813826226566 0 -0.077957056184904241 0.1134158145620357 0 -0.060395274942560528 0.13416549391068189 0 -0.077957056184904241 0.1134158145620357 0 -0.079964733767734122 0.12668506296934109 0 -0.060395274942560528 0.13416549391068189 0 -0.077957056184904241 0.1134158145620357 0 -0.053061720868948711 0.1128498994681193 0 -0.068008023874607193 0.1194813826226566 0 -0.066574353573826517 0.1091611438734031 0 -0.068008023874607193 0.1194813826226566 0 -0.075620772806654399 0.1047972713346316 0 -0.066574353573826517 0.1091611438734031 0 -0.068008023874607193 0.1194813826226566 0 -0.077957056184904241 0.1134158145620357 0 -0.075620772806654399 0.1047972713346316 0 -0.068008023874607193 0.1194813826226566 0 -0.075620772806654399 0.1047972713346316 0 -0.079964733767734122 0.12668506296934109 0 -0.077957056184904241 0.1134158145620357 0 -0.086534582504385088 0.1156474293511931 0 -0.077957056184904241 0.1134158145620357 0 -0.086534582504385088 0.1156474293511931 0 -0.083947310206231279 0.1074935535689709 0 -0.086534582504385088 0.1156474293511931 0 -0.095157466154961498 0.1222738246889692 0 -0.093760682860616423 0.1071519620079809 0 -0.086534582504385088 0.1156474293511931 0 -0.083947310206231279 0.1074935535689709 0 -0.093760682860616423 0.1071519620079809 0 -0.079964733767734122 0.12668506296934109 0 -0.086534582504385088 0.1156474293511931 0 -0.095157466154961498 0.1222738246889692 0 -0.084868150004751591 0.098297010781769723 0 -0.085645907343274513 0.087820148674278453 0 -0.093949525724613639 0.096173232947952741 0 -0.084868150004751591 0.098297010781769723 0 -0.093760682860616423 0.1071519620079809 0 -0.093949525724613639 0.096173232947952741 0 -0.083947310206231279 0.1074935535689709 0 -0.084868150004751591 0.098297010781769723 0 -0.093760682860616423 0.1071519620079809 0 -0.083947310206231279 0.1074935535689709 0 -0.084868150004751591 0.098297010781769723 0 -0.075620772806654399 0.1047972713346316 0 -0.077957056184904241 0.1134158145620357 0 -0.083947310206231279 0.1074935535689709 0 -0.075620772806654399 0.1047972713346316 0 -0.084868150004751591 0.098297010781769723 0 -0.07416284546680918 0.094668811910581629 0 -0.075620772806654399 0.1047972713346316 0 -0.07416284546680918 0.094668811910581629 0 -0.075620772806654399 0.1047972713346316 0 -0.06797342141030252 0.10030920148610591 0 -0.055667229109567583 0.088847755450422561 0 -0.07416284546680918 0.094668811910581629 0 -0.06797342141030252 0.10030920148610591 0 -0.075620772806654399 0.1047972713346316 0 -0.066574353573826517 0.1091611438734031 0 -0.06797342141030252 0.10030920148610591 0 -0.061317563763440802 0.10299561175118491 0 -0.066574353573826517 0.1091611438734031 0 -0.06797342141030252 0.10030920148610591 0 -0.055667229109567583 0.088847755450422561 0 -0.07416284546680918 0.094668811910581629 0 -0.055667229109567583 0.088847755450422561 0 -0.07416284546680918 0.094668811910581629 0 -0.068535421204038979 0.084669133357873919 0 -0.056352896539992578 0.082531333895216066 0 -0.068535421204038979 0.084669133357873919 0 -0.079954973421325709 0.072656657351692189 0 -0.068535421204038979 0.084669133357873919 0 -0.077074786858862099 0.084953687823606544 0 -0.079954973421325709 0.072656657351692189 0 -0.07416284546680918 0.094668811910581629 0 -0.068535421204038979 0.084669133357873919 0 -0.077074786858862099 0.084953687823606544 0 -0.056352896539992578 0.082531333895216066 0 -0.079954973421325709 0.072656657351692189 0 -0.056352896539992578 0.082531333895216066 0 -0.065455038900646412 0.063135680861219914 0 -0.079954973421325709 0.072656657351692189 0 -0.065455038900646412 0.063135680861219914 0 -0.079954973421325709 0.072656657351692189 0 -0.065455038900646412 0.063135680861219914 0 -0.079954973421325709 0.072656657351692189 0 -0.076524839145482512 0.060394734624827362 0 -0.079954973421325709 0.072656657351692189 0 -0.093524594780215381 0.066979376389898315 0 -0.098442440583084309 0.07567796336267002 0 -0.079954973421325709 0.072656657351692189 0 -0.087851637875022454 0.059069255740853588 0 -0.076524839145482512 0.060394734624827362 0 -0.079954973421325709 0.072656657351692189 0 -0.093524594780215381 0.066979376389898315 0 -0.079954973421325709 0.072656657351692189 0 -0.093524594780215381 0.066979376389898315 0 -0.087851637875022454 0.059069255740853588 0 -0.079954973421325709 0.072656657351692189 0 -0.085645907343274513 0.087820148674278453 0 -0.1018492251009645 0.087032905411369765 0 -0.079954973421325709 0.072656657351692189 0 -0.1018492251009645 0.087032905411369765 0 -0.079954973421325709 0.072656657351692189 0 -0.1018492251009645 0.087032905411369765 0 -0.098442440583084309 0.07567796336267002 0 -0.084868150004751591 0.098297010781769723 0 -0.07416284546680918 0.094668811910581629 0 -0.085645907343274513 0.087820148674278453 0 -0.07416284546680918 0.094668811910581629 0 -0.077074786858862099 0.084953687823606544 0 -0.085645907343274513 0.087820148674278453 0 -0.077074786858862099 0.084953687823606544 0 -0.079954973421325709 0.072656657351692189 0 -0.085645907343274513 0.087820148674278453 0 -0.085645907343274513 0.087820148674278453 0 -0.1018492251009645 0.087032905411369765 0 -0.093949525724613639 0.096173232947952741 0 -0.1018492251009645 0.087032905411369765 0 -0.098442440583084309 0.07567796336267002 0 -0.1104905068726369 0.082990227197258584 0 -0.093524594780215381 0.066979376389898315 0 -0.106392902740279 0.068730650463131246 0 -0.095695867018895209 0.061386095523021718 0 -0.093524594780215381 0.066979376389898315 0 -0.098442440583084309 0.07567796336267002 0 -0.106392902740279 0.068730650463131246 0 -0.098442440583084309 0.07567796336267002 0 -0.106392902740279 0.068730650463131246 0 -0.1104905068726369 0.082990227197258584 0 -0.106392902740279 0.068730650463131246 0 -0.1143187324205953 0.061132814960732959 0 -0.1040003188276042 0.06051796656090451 0 -0.13471537800020611 0.069932196640817734 0 -0.1158200249735767 0.081810356583590621 0 -0.1143187324205953 0.061132814960732959 0 -0.1158200249735767 0.081810356583590621 0 -0.1143187324205953 0.061132814960732959 0 -0.106392902740279 0.068730650463131246 0 -0.1158200249735767 0.081810356583590621 0 -0.1143187324205953 0.061132814960732959 0 -0.106392902740279 0.068730650463131246 0 -0.1104905068726369 0.082990227197258584 0 -0.1158200249735767 0.081810356583590621 0 -0.106392902740279 0.068730650463131246 0 -0.1158200249735767 0.081810356583590621 0 -0.1104905068726369 0.082990227197258584 0 -0.1158200249735767 0.081810356583590621 0 -0.123743476780604 0.10140915347104661 0 -0.12576525993317081 0.095608920700106598 0 -0.1158200249735767 0.081810356583590621 0 -0.123743476780604 0.10140915347104661 0 -0.1018492251009645 0.087032905411369765 0 -0.1104905068726369 0.082990227197258584 0 -0.123743476780604 0.10140915347104661 0 -0.12576525993317081 0.095608920700106598 0 -0.1158200249735767 0.081810356583590621 0 -0.1018492251009645 0.087032905411369765 0 -0.123743476780604 0.10140915347104661 0 -0.10362366331346121 0.1005641378643648 0 -0.123743476780604 0.10140915347104661 0 -0.1048537663643479 0.1137288284916211 0 -0.10362366331346121 0.1005641378643648 0 -0.1018492251009645 0.087032905411369765 0 -0.123743476780604 0.10140915347104661 0 -0.12576525993317081 0.095608920700106598 0 -0.123743476780604 0.10140915347104661 0 -0.13074244959953979 0.11946175785799951 0 -0.11549744085296181 0.12506595749432459 0 -0.123743476780604 0.10140915347104661 0 -0.11549744085296181 0.12506595749432459 0 -0.123743476780604 0.10140915347104661 0 -0.1048537663643479 0.1137288284916211 0 -0.11549744085296181 0.12506595749432459 0 -0.123743476780604 0.10140915347104661 0 -0.11549744085296181 0.12506595749432459 0 -0.1048537663643479 0.1137288284916211 0 -0.095157466154961498 0.1222738246889692 0 -0.1048537663643479 0.1137288284916211 0 -0.095157466154961498 0.1222738246889692 0 -0.093760682860616423 0.1071519620079809 0 -0.1048537663643479 0.1137288284916211 0 -0.093760682860616423 0.1071519620079809 0 -0.10362366331346121 0.1005641378643648 0 -0.093760682860616423 0.1071519620079809 0 -0.093949525724613639 0.096173232947952741 0 -0.10362366331346121 0.1005641378643648 0 -0.1018492251009645 0.087032905411369765 0 -0.093949525724613639 0.096173232947952741 0 -0.10362366331346121 0.1005641378643648 0 -0.098111174817663571 0.029299933210101211 0 -0.11131614731463491 0.019777731715017489 0 -0.093270919285344131 0.021002023320940321 0 -0.099902477996615974 0.0097047614334804834 0 -0.11131614731463491 0.019777731715017489 0 -0.093270919285344131 0.021002023320940321 0 -0.098111174817663571 0.029299933210101211 0 -0.11131614731463491 0.019777731715017489 0 -0.1037154685123088 0.036850908914803658 0 -0.11131614731463491 0.019777731715017489 0 -0.1037154685123088 0.036850908914803658 0 -0.099902477996615974 0.0097047614334804834 0 -0.1099986790197032 0.001632030897992919 0 -0.11131614731463491 0.019777731715017489 0 -0.097318817554363779 -0.0057286893867275063 0 -0.099902477996615974 0.0097047614334804834 0 -0.087524390624848222 0.006688577221896419 0 -0.097318817554363779 -0.0057286893867275063 0 -0.099902477996615974 0.0097047614334804834 0 -0.1099986790197032 0.001632030897992919 0 -0.1236122261121546 -0.0078425818954372464 0 -0.13137048688310951 -0.003337023478303953 0 -0.11131614731463491 0.019777731715017489 0 -0.1099986790197032 0.001632030897992919 0 -0.11131614731463491 0.019777731715017489 0 -0.1236122261121546 -0.0078425818954372464 0 -0.1099986790197032 0.001632030897992919 0 -0.11131614731463491 0.019777731715017489 0 -0.1236122261121546 -0.0078425818954372464 0 -0.11131614731463491 0.019777731715017489 0 -0.1284208098020175 0.033179877632891097 0 -0.13460564055411489 0.01723703355858653 0 -0.11131614731463491 0.019777731715017489 0 -0.11131614731463491 0.019777731715017489 0 -0.1128174398676144 0.040455273337875242 0 -0.1284208098020175 0.033179877632891097 0 -0.11131614731463491 0.019777731715017489 0 -0.1128174398676144 0.040455273337875242 0 -0.12657932631233151 0.049909814768299969 0 -0.1284208098020175 0.033179877632891097 0 -0.1128174398676144 0.040455273337875242 0 -0.12657932631233151 0.049909814768299969 0 -0.1128174398676144 0.040455273337875242 0 -0.1143187324205953 0.061132814960732959 0 -0.1128174398676144 0.040455273337875242 0 -0.1143187324205953 0.061132814960732959 0 -0.1082223027228006 0.050485275180462093 0 -0.1128174398676144 0.040455273337875242 0 -0.1143187324205953 0.061132814960732959 0 -0.1143187324205953 0.061132814960732959 0 -0.10610639822075781 0.055771586811031351 0 -0.1082223027228006 0.050485275180462093 0 -0.1025152677102278 0.050750948389364392 0 -0.096114789709981496 0.053924086114589299 0 -0.1037154685123088 0.036850908914803658 0 -0.106392902740279 0.068730650463131246 0 -0.1040003188276042 0.06051796656090451 0 -0.096965780506980889 0.055650944342672051 0 -0.106392902740279 0.068730650463131246 0 -0.096965780506980889 0.055650944342672051 0 -0.1143187324205953 0.061132814960732959 0 -0.1040003188276042 0.06051796656090451 0 -0.10610639822075781 0.055771586811031351 0 -0.1040003188276042 0.06051796656090451 0 -0.10610639822075781 0.055771586811031351 0 -0.1014753694225613 0.055970928963692809 0 -0.10610639822075781 0.055771586811031351 0 -0.1025152677102278 0.050750948389364392 0 -0.1014753694225613 0.055970928963692809 0 -0.10610639822075781 0.055771586811031351 0 -0.1082223027228006 0.050485275180462093 0 -0.1025152677102278 0.050750948389364392 0 -0.1082223027228006 0.050485275180462093 0 -0.1025152677102278 0.050750948389364392 0 -0.1067356553623631 0.044178634216678392 0 -0.096408734094846682 0.047028599374544268 0 -0.094016665615900177 0.045027451179461733 0 -0.091788012541196298 0.052311951289322388 0 -0.096114789709981496 0.053924086114589299 0 -0.093744419191978248 0.056500250678553403 0 -0.091788012541196298 0.052311951289322388 0 -0.096408734094846682 0.047028599374544268 0 -0.096114789709981496 0.053924086114589299 0 -0.091788012541196298 0.052311951289322388 0 -0.096114789709981496 0.053924086114589299 0 -0.099124967027144822 0.054450492792824511 0 -0.096965780506980889 0.055650944342672051 0 -0.1025152677102278 0.050750948389364392 0 -0.096114789709981496 0.053924086114589299 0 -0.099124967027144822 0.054450492792824511 0 -0.1025152677102278 0.050750948389364392 0 -0.099124967027144822 0.054450492792824511 0 -0.1014753694225613 0.055970928963692809 0 -0.106392902740279 0.068730650463131246 0 -0.096965780506980889 0.055650944342672051 0 -0.095695867018895209 0.061386095523021718 0 -0.1040003188276042 0.06051796656090451 0 -0.1014753694225613 0.055970928963692809 0 -0.096965780506980889 0.055650944342672051 0 -0.099124967027144822 0.054450492792824511 0 -0.1014753694225613 0.055970928963692809 0 -0.096965780506980889 0.055650944342672051 0 -0.096965780506980889 0.055650944342672051 0 -0.095695867018895209 0.061386095523021718 0 -0.093744419191978248 0.056500250678553403 0 -0.096114789709981496 0.053924086114589299 0 -0.096965780506980889 0.055650944342672051 0 -0.093744419191978248 0.056500250678553403 0 -0.096408734094846682 0.047028599374544268 0 -0.096114789709981496 0.053924086114589299 0 -0.1037154685123088 0.036850908914803658 0 -0.11131614731463491 0.019777731715017489 0 -0.1128174398676144 0.040455273337875242 0 -0.1037154685123088 0.036850908914803658 0 -0.096114789709981496 0.053924086114589299 0 -0.1037154685123088 0.036850908914803658 0 -0.1128174398676144 0.040455273337875242 0 -0.1037154685123088 0.036850908914803658 0 -0.1067356553623631 0.044178634216678392 0 -0.1128174398676144 0.040455273337875242 0 -0.1082223027228006 0.050485275180462093 0 -0.1067356553623631 0.044178634216678392 0 -0.1025152677102278 0.050750948389364392 0 -0.1037154685123088 0.036850908914803658 0 -0.1067356553623631 0.044178634216678392 0 -0.096408734094846682 0.047028599374544268 0 -0.1037154685123088 0.036850908914803658 0 -0.094016665615900177 0.045027451179461733 0 -0.1037154685123088 0.036850908914803658 0 -0.094016665615900177 0.045027451179461733 0 -0.094491571965461013 0.037104767562455593 0 -0.098111174817663571 0.029299933210101211 0 -0.1037154685123088 0.036850908914803658 0 -0.094491571965461013 0.037104767562455593 0 -0.098111174817663571 0.029299933210101211 0 -0.094491571965461013 0.037104767562455593 0 -0.087647185425064736 0.031842659612238623 0 -0.087647185425064736 0.031842659612238623 0 -0.089854685869044451 0.040908764775179712 0 -0.081629424010395357 0.041419166804349421 0 -0.094491571965461013 0.037104767562455593 0 -0.087647185425064736 0.031842659612238623 0 -0.089854685869044451 0.040908764775179712 0 -0.089854685869044451 0.040908764775179712 0 -0.081629424010395357 0.041419166804349421 0 -0.086707275669269182 0.049908642651155542 0 -0.094016665615900177 0.045027451179461733 0 -0.089854685869044451 0.040908764775179712 0 -0.086707275669269182 0.049908642651155542 0 -0.094016665615900177 0.045027451179461733 0 -0.094491571965461013 0.037104767562455593 0 -0.089854685869044451 0.040908764775179712 0 -0.087647185425064736 0.031842659612238623 0 -0.081629424010395357 0.041419166804349421 0 -0.076164181077954182 0.032009494226678391 0 -0.095695867018895209 0.061386095523021718 0 -0.087851637875022454 0.059069255740853588 0 -0.093744419191978248 0.056500250678553403 0 -0.093524594780215381 0.066979376389898315 0 -0.095695867018895209 0.061386095523021718 0 -0.087851637875022454 0.059069255740853588 0 -0.087851637875022454 0.059069255740853588 0 -0.093744419191978248 0.056500250678553403 0 -0.091788012541196298 0.052311951289322388 0 -0.087851637875022454 0.059069255740853588 0 -0.091788012541196298 0.052311951289322388 0 -0.086707275669269182 0.049908642651155542 0 -0.094016665615900177 0.045027451179461733 0 -0.091788012541196298 0.052311951289322388 0 -0.086707275669269182 0.049908642651155542 0 -0.086707275669269182 0.049908642651155542 0 -0.081818850965788142 0.055238295402956307 0 -0.077896340682555187 0.050949615115596543 0 -0.081629424010395357 0.041419166804349421 0 -0.086707275669269182 0.049908642651155542 0 -0.077896340682555187 0.050949615115596543 0 -0.087851637875022454 0.059069255740853588 0 -0.086707275669269182 0.049908642651155542 0 -0.081818850965788142 0.055238295402956307 0 -0.081818850965788142 0.055238295402956307 0 -0.076524839145482512 0.060394734624827362 0 -0.077896340682555187 0.050949615115596543 0 -0.087851637875022454 0.059069255740853588 0 -0.081818850965788142 0.055238295402956307 0 -0.076524839145482512 0.060394734624827362 0 -0.076524839145482512 0.060394734624827362 0 -0.077896340682555187 0.050949615115596543 0 -0.069328576095109715 0.053744354209428961 0 -0.065455038900646412 0.063135680861219914 0 -0.076524839145482512 0.060394734624827362 0 -0.069328576095109715 0.053744354209428961 0 -0.077896340682555187 0.050949615115596543 0 -0.069328576095109715 0.053744354209428961 0 -0.071506875338484571 0.042895824445247768 0 -0.069328576095109715 0.053744354209428961 0 -0.071506875338484571 0.042895824445247768 0 -0.059557339835071388 0.053011753697425897 0 -0.065455038900646412 0.063135680861219914 0 -0.069328576095109715 0.053744354209428961 0 -0.059557339835071388 0.053011753697425897 0 -0.076164181077954182 0.032009494226678391 0 -0.071506875338484571 0.042895824445247768 0 -0.062761783130148519 0.02349217349963555 0 -0.071506875338484571 0.042895824445247768 0 -0.062761783130148519 0.02349217349963555 0 -0.059557339835071388 0.053011753697425897 0 -0.081629424010395357 0.041419166804349421 0 -0.076164181077954182 0.032009494226678391 0 -0.071506875338484571 0.042895824445247768 0 -0.081629424010395357 0.041419166804349421 0 -0.077896340682555187 0.050949615115596543 0 -0.071506875338484571 0.042895824445247768 0 -0.076164181077954182 0.032009494226678391 0 -0.062761783130148519 0.02349217349963555 0 -0.078304733749917463 0.018406078267593839 0 -0.087647185425064736 0.031842659612238623 0 -0.076164181077954182 0.032009494226678391 0 -0.078304733749917463 0.018406078267593839 0 -0.098111174817663571 0.029299933210101211 0 -0.087647185425064736 0.031842659612238623 0 -0.093270919285344131 0.021002023320940321 0 -0.087647185425064736 0.031842659612238623 0 -0.078304733749917463 0.018406078267593839 0 -0.093270919285344131 0.021002023320940321 0 -0.099902477996615974 0.0097047614334804834 0 -0.093270919285344131 0.021002023320940321 0 -0.087524390624848222 0.006688577221896419 0 -0.078304733749917463 0.018406078267593839 0 -0.093270919285344131 0.021002023320940321 0 -0.087524390624848222 0.006688577221896419 0 -0.065966226425225663 -0.0060274066981548767 0 -0.062761783130148519 0.02349217349963555 0 -0.078304733749917463 0.018406078267593839 0 -0.065966226425225663 -0.0060274066981548767 0 -0.078304733749917463 0.018406078267593839 0 -0.087524390624848222 0.006688577221896419 0 -0.065966226425225663 -0.0060274066981548767 0 -0.062761783130148519 0.02349217349963555 0 -0.065966226425225663 -0.0060274066981548767 0 -0.062761783130148519 0.02349217349963555 0 -0.041285176168578859 0.002941795093874656 0 -0.062761783130148519 0.02349217349963555 0 -0.036272784281526353 0.030700192342145501 0 -0.041285176168578859 0.002941795093874656 0 -0.036272784281526353 0.030700192342145501 0 -0.041285176168578859 0.002941795093874656 0 -0.01693898921702304 0.0117618500821222 0 -0.048521472395479701 0.069705355416953899 0 -0.048543751051203898 0.057697742817346243 0 -0.059557339835071388 0.053011753697425897 0 -0.048543751051203898 0.057697742817346243 0 -0.059557339835071388 0.053011753697425897 0 -0.04189961413571635 0.0481337511233643 0 -0.062761783130148519 0.02349217349963555 0 -0.059557339835071388 0.053011753697425897 0 -0.062761783130148519 0.02349217349963555 0 -0.036272784281526353 0.030700192342145501 0 -0.04189961413571635 0.0481337511233643 0 -0.062761783130148519 0.02349217349963555 0 -0.059557339835071388 0.053011753697425897 0 -0.04189961413571635 0.0481337511233643 0 -0.036272784281526353 0.030700192342145501 0 -0.04189961413571635 0.0481337511233643 0 -0.022255981323007819 0.049811798938199467 0 -0.042000822527735973 0.064880087355207783 0 -0.048543751051203898 0.057697742817346243 0 -0.04189961413571635 0.0481337511233643 0 -0.02897814582929455 0.062873885781940531 0 -0.042000822527735973 0.064880087355207783 0 -0.04189961413571635 0.0481337511233643 0 -0.02897814582929455 0.062873885781940531 0 -0.022255981323007819 0.049811798938199467 0 -0.01123722517146284 0.061714947321965113 0 -0.02897814582929455 0.062873885781940531 0 -0.04189961413571635 0.0481337511233643 0 -0.022255981323007819 0.049811798938199467 0 -0.036272784281526353 0.030700192342145501 0 -0.022255981323007819 0.049811798938199467 0 -0.01438021634244922 0.03170234610626791 0 -0.01438021634244922 0.03170234610626791 0 0.0022615025708572051 0.02103125876278546 0 0.0031430691038015031 0.043008717564808917 0 -0.022255981323007819 0.049811798938199467 0 -0.01438021634244922 0.03170234610626791 0 0.0031430691038015031 0.043008717564808917 0 -0.022255981323007819 0.049811798938199467 0 -0.01123722517146284 0.061714947321965113 0 0.0031430691038015031 0.043008717564808917 0 -0.01123722517146284 0.061714947321965113 0 0.0031430691038015031 0.043008717564808917 0 0.0078113760670387236 0.068869370431613411 0 -0.018090432812363919 -0.0051789454257338127 0 -0.041285176168578859 0.002941795093874656 0 -0.01693898921702304 0.0117618500821222 0 -0.036272784281526353 0.030700192342145501 0 -0.01693898921702304 0.0117618500821222 0 -0.036272784281526353 0.030700192342145501 0 -0.01438021634244922 0.03170234610626791 0 -0.01693898921702304 0.0117618500821222 0 -0.01438021634244922 0.03170234610626791 0 -0.01693898921702304 0.0117618500821222 0 0.0022615025708572051 0.02103125876278546 0 -0.01693898921702304 0.0117618500821222 0 0.002394805847480138 -0.0071764921779012506 0 -0.01693898921702304 0.0117618500821222 0 0.0022615025708572051 0.02103125876278546 0 0.002394805847480138 -0.0071764921779012506 0 0.0022615025708572051 0.02103125876278546 0 0.01988593924933146 0.01021281285273932 0 0.002394805847480138 -0.0071764921779012506 0 0.01988593924933146 0.01021281285273932 0 0.018044735406519189 -0.0027914786915071068 0 0.002394805847480138 -0.0071764921779012506 0 0.01988593924933146 0.01021281285273932 0 0.002394805847480138 -0.0071764921779012506 0 0.0022615025708572051 0.02103125876278546 0 0.01988593924933146 0.01021281285273932 0 0.01967507988536589 0.033248318378640847 0 0.01988593924933146 0.01021281285273932 0 0.037377072651182792 0.027602117883379889 0 0.01988593924933146 0.01021281285273932 0 0.01967507988536589 0.033248318378640847 0 0.037377072651182792 0.027602117883379889 0 0.01988593924933146 0.01021281285273932 0 0.035622497167505339 0.0063925700628825917 0 0.018044735406519189 -0.0027914786915071068 0 0.01988593924933146 0.01021281285273932 0 0.035622497167505339 0.0063925700628825917 0 0.037377072651182792 0.027602117883379889 0 0.0031430691038015031 0.043008717564808917 0 0.019783223174817739 0.050872415177661792 0 0.0078113760670387236 0.068869370431613411 0 0.0031430691038015031 0.043008717564808917 0 0.0078113760670387236 0.068869370431613411 0 0.0031430691038015031 0.043008717564808917 0 0.01967507988536589 0.033248318378640847 0 0.019783223174817739 0.050872415177661792 0 0.0022615025708572051 0.02103125876278546 0 0.0031430691038015031 0.043008717564808917 0 0.01967507988536589 0.033248318378640847 0 0.01967507988536589 0.033248318378640847 0 0.019783223174817739 0.050872415177661792 0 0.035662389103733989 0.047481221614176811 0 0.01967507988536589 0.033248318378640847 0 0.035662389103733989 0.047481221614176811 0 0.037377072651182792 0.027602117883379889 0 0.019783223174817739 0.050872415177661792 0 0.035662389103733989 0.047481221614176811 0 0.032141493454138102 0.060275729162332752 0 0.019783223174817739 0.050872415177661792 0 0.021142096610139102 0.064673842397447556 0 0.0078113760670387236 0.068869370431613411 0 0.019783223174817739 0.050872415177661792 0 0.032141493454138102 0.060275729162332752 0 0.021142096610139102 0.064673842397447556 0 0.035662389103733989 0.047481221614176811 0 0.032141493454138102 0.060275729162332752 0 0.049290572992936238 0.066355209737614357 0 0.035662389103733989 0.047481221614176811 0 0.054868206053034503 0.044991422914020113 0 0.049290572992936238 0.066355209737614357 0 0.054868206053034503 0.044991422914020113 0 0.037377072651182792 0.027602117883379889 0 0.035662389103733989 0.047481221614176811 0 0.054868206053034503 0.044991422914020113 0 0.037377072651182792 0.027602117883379889 0 0.054868206053034503 0.044991422914020113 0 0.037377072651182792 0.027602117883379889 0 0.059466454908930037 0.027378932586910581 0 0.054868206053034503 0.044991422914020113 0 0.059466454908930037 0.027378932586910581 0 0.054868206053034503 0.044991422914020113 0 0.049290572992936238 0.066355209737614357 0 0.054868206053034503 0.044991422914020113 0 0.067806688972275458 0.057854581689803772 0 0.049290572992936238 0.066355209737614357 0 0.054868206053034503 0.044991422914020113 0 0.067806688972275458 0.057854581689803772 0 0.035622497167505339 0.0063925700628825917 0 0.048661329883321183 0.016868832195515299 0 0.04884534130661923 0.0054823796607835363 0 0.035622497167505339 0.0063925700628825917 0 0.04884534130661923 0.0054823796607835363 0 0.045210290485040869 -0.0034719151203993228 0 0.035622497167505339 0.0063925700628825917 0 0.037377072651182792 0.027602117883379889 0 0.048661329883321183 0.016868832195515299 0 0.037377072651182792 0.027602117883379889 0 0.048661329883321183 0.016868832195515299 0 0.059466454908930037 0.027378932586910581 0 0.048661329883321183 0.016868832195515299 0 0.059466454908930037 0.027378932586910581 0 0.059551554903704583 0.012329945274186901 0 0.048661329883321183 0.016868832195515299 0 0.059551554903704583 0.012329945274186901 0 0.04884534130661923 0.0054823796607835363 0 0.04884534130661923 0.0054823796607835363 0 0.058196269712748661 -0.0010094984802769141 0 0.045210290485040869 -0.0034719151203993228 0 0.059551554903704583 0.012329945274186901 0 0.04884534130661923 0.0054823796607835363 0 0.058196269712748661 -0.0010094984802769141 0 0.059551554903704583 0.012329945274186901 0 0.070381517258247442 0.0054324954822656396 0 0.058196269712748661 -0.0010094984802769141 0 0.059551554903704583 0.012329945274186901 0 0.070381517258247442 0.0054324954822656396 0 0.071076364355982968 0.019572888861291889 0 0.070381517258247442 0.0054324954822656396 0 0.083131704911828669 0.010948624559543209 0 0.071076364355982968 0.019572888861291889 0 0.083131704911828669 0.010948624559543209 0 0.096167504599054904 0.0042442054759202954 0 0.09879577097810871 0.02017555683513389 0 0.070381517258247442 0.0054324954822656396 0 0.083131704911828669 0.010948624559543209 0 0.081717153665888317 -0.0025063239881197622 0 0.083131704911828669 0.010948624559543209 0 0.096167504599054904 0.0042442054759202954 0 0.081717153665888317 -0.0025063239881197622 0 0.083131704911828669 0.010948624559543209 0 0.084020254894405358 0.02481244236443322 0 0.09879577097810871 0.02017555683513389 0 0.084020254894405358 0.02481244236443322 0 0.089449236229465365 0.03685286092118592 0 0.09879577097810871 0.02017555683513389 0 0.083131704911828669 0.010948624559543209 0 0.084020254894405358 0.02481244236443322 0 0.071076364355982968 0.019572888861291889 0 0.084020254894405358 0.02481244236443322 0 0.071076364355982968 0.019572888861291889 0 0.073196751006103261 0.040000434485980937 0 0.059466454908930037 0.027378932586910581 0 0.071076364355982968 0.019572888861291889 0 0.073196751006103261 0.040000434485980937 0 0.059466454908930037 0.027378932586910581 0 0.059551554903704583 0.012329945274186901 0 0.071076364355982968 0.019572888861291889 0 0.054868206053034503 0.044991422914020113 0 0.059466454908930037 0.027378932586910581 0 0.073196751006103261 0.040000434485980937 0 0.073196751006103261 0.040000434485980937 0 0.067806688972275458 0.057854581689803772 0 0.092977810154944648 0.053070117425326267 0 0.054868206053034503 0.044991422914020113 0 0.073196751006103261 0.040000434485980937 0 0.067806688972275458 0.057854581689803772 0 0.092977810154944648 0.053070117425326267 0 0.080745171891517087 0.070717740465586792 0 0.067806688972275458 0.057854581689803772 0 0.092977810154944648 0.053070117425326267 0 0.080745171891517087 0.070717740465586792 0 0.084020254894405358 0.02481244236443322 0 0.073196751006103261 0.040000434485980937 0 0.089449236229465365 0.03685286092118592 0 0.073196751006103261 0.040000434485980937 0 0.092977810154944648 0.053070117425326267 0 0.089449236229465365 0.03685286092118592 0 0.092977810154944648 0.053070117425326267 0 0.10521044841837041 0.035422494385064417 0 0.092977810154944648 0.053070117425326267 0 0.089449236229465365 0.03685286092118592 0 0.10521044841837041 0.035422494385064417 0 0.092977810154944648 0.053070117425326267 0 0.1133392402374467 0.053204142399891047 0 0.1035655079248483 0.069632380985197889 0 0.092977810154944648 0.053070117425326267 0 0.10521044841837041 0.035422494385064417 0 0.1133392402374467 0.053204142399891047 0 0.1133392402374467 0.053204142399891047 0 0.1220245952479405 0.07004619687739172 0 0.13318341665519781 0.054736537254868822 0 0.1133392402374467 0.053204142399891047 0 0.12506256882025399 0.035699134337412737 0 0.13318341665519781 0.054736537254868822 0 0.10521044841837041 0.035422494385064417 0 0.1133392402374467 0.053204142399891047 0 0.12506256882025399 0.035699134337412737 0 0.10521044841837041 0.035422494385064417 0 0.11744308668179609 0.017774871344802521 0 0.12506256882025399 0.035699134337412737 0 0.10521044841837041 0.035422494385064417 0 0.11744308668179609 0.017774871344802521 0 0.10847276501169199 0.0092252325767439008 0 0.12681727907172599 0.0028609529651058472 0 0.11158832231026521 -0.002538519333972472 0 0.11744308668179609 0.017774871344802521 0 0.10847276501169199 0.0092252325767439008 0 0.12681727907172599 0.0028609529651058472 0 0.10847276501169199 0.0092252325767439008 0 0.096167504599054904 0.0042442054759202954 0 0.09879577097810871 0.02017555683513389 0 0.10847276501169199 0.0092252325767439008 0 0.096167504599054904 0.0042442054759202954 0 0.11158832231026521 -0.002538519333972472 0 0.10521044841837041 0.035422494385064417 0 0.11744308668179609 0.017774871344802521 0 0.09879577097810871 0.02017555683513389 0 0.089449236229465365 0.03685286092118592 0 0.10521044841837041 0.035422494385064417 0 0.09879577097810871 0.02017555683513389 0 0.11744308668179609 0.017774871344802521 0 0.10847276501169199 0.0092252325767439008 0 0.09879577097810871 0.02017555683513389 0 0.10882650996042049 0.098635597023528671 0 0.099321881767187231 0.10979448526446239 0 0.11057203073837581 0.10974959828000851 0 0.10882650996042049 0.098635597023528671 0 0.099321881767187231 0.10979448526446239 0 0.093532106097527157 0.097201512098380446 0 0.099321881767187231 0.10979448526446239 0 0.10718004060487731 0.1186919078288297 0 0.094925170845575335 0.12812185349131111 0 0.099321881767187231 0.10979448526446239 0 0.10718004060487731 0.1186919078288297 0 0.11057203073837581 0.10974959828000851 0 0.10718004060487731 0.1186919078288297 0 0.11057203073837581 0.10974959828000851 0 0.11923934643535521 0.1171320194813406 0 0.11923934643535521 0.1171320194813406 0 0.11184177323789279 0.12866158262702601 0 0.12877089149896251 0.12628235461406201 0 0.11057203073837581 0.10974959828000851 0 0.11923934643535521 0.1171320194813406 0 0.1204523462490521 0.10350528248164099 0 0.10718004060487731 0.1186919078288297 0 0.11923934643535521 0.1171320194813406 0 0.11184177323789279 0.12866158262702601 0 0.11923934643535521 0.1171320194813406 0 0.1204523462490521 0.10350528248164099 0 0.13278919984088661 0.11230677671938701 0 0.10882650996042049 0.098635597023528671 0 0.1204523462490521 0.10350528248164099 0 0.1175203890912727 0.086079419998433368 0 0.1204523462490521 0.10350528248164099 0 0.1175203890912727 0.086079419998433368 0 0.13376660142800201 0.097128283387147629 0 0.10882650996042049 0.098635597023528671 0 0.11057203073837581 0.10974959828000851 0 0.1204523462490521 0.10350528248164099 0 0.1175203890912727 0.086079419998433368 0 0.1220245952479405 0.07004619687739172 0 0.1035655079248483 0.069632380985197889 0 0.1133392402374467 0.053204142399891047 0 0.1220245952479405 0.07004619687739172 0 0.1035655079248483 0.069632380985197889 0 0.1175203890912727 0.086079419998433368 0 0.1035655079248483 0.069632380985197889 0 0.094785840925968687 0.084676668744557898 0 0.10882650996042049 0.098635597023528671 0 0.1175203890912727 0.086079419998433368 0 0.094785840925968687 0.084676668744557898 0 0.10882650996042049 0.098635597023528671 0 0.094785840925968687 0.084676668744557898 0 0.10882650996042049 0.098635597023528671 0 0.094785840925968687 0.084676668744557898 0 0.093532106097527157 0.097201512098380446 0 0.094785840925968687 0.084676668744557898 0 0.083309168386930019 0.090214104788044758 0 0.093532106097527157 0.097201512098380446 0 0.094785840925968687 0.084676668744557898 0 0.083309168386930019 0.090214104788044758 0 0.080745171891517087 0.070717740465586792 0 0.092977810154944648 0.053070117425326267 0 0.1035655079248483 0.069632380985197889 0 0.080745171891517087 0.070717740465586792 0 0.1035655079248483 0.069632380985197889 0 0.094785840925968687 0.084676668744557898 0 0.080745171891517087 0.070717740465586792 0 0.094785840925968687 0.084676668744557898 0 0.080745171891517087 0.070717740465586792 0 0.067806688972275458 0.057854581689803772 0 0.080745171891517087 0.070717740465586792 0 0.06101355018332804 0.07564509050647375 0 0.067806688972275458 0.057854581689803772 0 0.080745171891517087 0.070717740465586792 0 0.080745171891517087 0.070717740465586792 0 0.063512377127071362 0.095578924078155048 0 0.083309168386930019 0.090214104788044758 0 0.080745171891517087 0.070717740465586792 0 0.063512377127071362 0.095578924078155048 0 0.080745171891517087 0.070717740465586792 0 0.063512377127071362 0.095578924078155048 0 0.06101355018332804 0.07564509050647375 0 0.083309168386930019 0.090214104788044758 0 0.063512377127071362 0.095578924078155048 0 0.081417129447129324 0.1026867046713085 0 0.063512377127071362 0.095578924078155048 0 0.081417129447129324 0.1026867046713085 0 0.063512377127071362 0.095578924078155048 0 0.081417129447129324 0.1026867046713085 0 0.067817743154455989 0.1135840018968045 0 0.099321881767187231 0.10979448526446239 0 0.081417129447129324 0.1026867046713085 0 0.093532106097527157 0.097201512098380446 0 0.099321881767187231 0.10979448526446239 0 0.081417129447129324 0.1026867046713085 0 0.083309168386930019 0.090214104788044758 0 0.081417129447129324 0.1026867046713085 0 0.093532106097527157 0.097201512098380446 0 0.099321881767187231 0.10979448526446239 0 0.081417129447129324 0.1026867046713085 0 0.08262403040743542 0.1174427642681065 0 0.099321881767187231 0.10979448526446239 0 0.08262403040743542 0.1174427642681065 0 0.094925170845575335 0.12812185349131111 0 0.067817743154455989 0.1135840018968045 0 0.056785074219297037 0.123962922715022 0 0.069638226822829233 0.13302677601664631 0 0.08262403040743542 0.1174427642681065 0 0.067817743154455989 0.1135840018968045 0 0.069638226822829233 0.13302677601664631 0 0.081417129447129324 0.1026867046713085 0 0.08262403040743542 0.1174427642681065 0 0.067817743154455989 0.1135840018968045 0 0.067817743154455989 0.1135840018968045 0 0.056785074219297037 0.123962922715022 0 0.051472524226887043 0.11294842204475181 0 0.056785074219297037 0.123962922715022 0 0.051472524226887043 0.11294842204475181 0 0.045358146108277778 0.122235841909611 0 0.063512377127071362 0.095578924078155048 0 0.067817743154455989 0.1135840018968045 0 0.051472524226887043 0.11294842204475181 0 0.063512377127071362 0.095578924078155048 0 0.04894346805059932 0.099918275759685315 0 0.043712939932840048 0.087718996561209156 0 0.063512377127071362 0.095578924078155048 0 0.051472524226887043 0.11294842204475181 0 0.04894346805059932 0.099918275759685315 0 0.063512377127071362 0.095578924078155048 0 0.051472524226887043 0.11294842204475181 0 0.038417021745327531 0.1080037420749501 0 0.043712939932840048 0.087718996561209156 0 0.028330160343379221 0.096092512071592709 0 0.051472524226887043 0.11294842204475181 0 0.04894346805059932 0.099918275759685315 0 0.038417021745327531 0.1080037420749501 0 0.04894346805059932 0.099918275759685315 0 0.038417021745327531 0.1080037420749501 0 0.043712939932840048 0.087718996561209156 0 0.038417021745327531 0.1080037420749501 0 0.043712939932840048 0.087718996561209156 0 0.038417021745327531 0.1080037420749501 0 0.028403759718925791 0.1183090902513565 0 0.03312110355781811 0.12828848758869171 0 0.038417021745327531 0.1080037420749501 0 0.03312110355781811 0.12828848758869171 0 0.038417021745327531 0.1080037420749501 0 0.045358146108277778 0.122235841909611 0 0.03312110355781811 0.12828848758869171 0 0.051472524226887043 0.11294842204475181 0 0.038417021745327531 0.1080037420749501 0 0.045358146108277778 0.122235841909611 0 0.06101355018332804 0.07564509050647375 0 0.049290572992936238 0.066355209737614357 0 0.043712939932840048 0.087718996561209156 0 0.067806688972275458 0.057854581689803772 0 0.06101355018332804 0.07564509050647375 0 0.049290572992936238 0.066355209737614357 0 0.063512377127071362 0.095578924078155048 0 0.06101355018332804 0.07564509050647375 0 0.043712939932840048 0.087718996561209156 0 0.063512377127071362 0.095578924078155048 0 0.043712939932840048 0.087718996561209156 0 0.043712939932840048 0.087718996561209156 0 0.034829185389063419 0.071995956884763276 0 0.02079066235970875 0.078619372239532512 0 0.043712939932840048 0.087718996561209156 0 0.02079066235970875 0.078619372239532512 0 0.032141493454138102 0.060275729162332752 0 0.049290572992936238 0.066355209737614357 0 0.034829185389063419 0.071995956884763276 0 0.049290572992936238 0.066355209737614357 0 0.043712939932840048 0.087718996561209156 0 0.049290572992936238 0.066355209737614357 0 0.043712939932840048 0.087718996561209156 0 0.034829185389063419 0.071995956884763276 0 0.032141493454138102 0.060275729162332752 0 0.034829185389063419 0.071995956884763276 0 0.021142096610139102 0.064673842397447556 0 0.034829185389063419 0.071995956884763276 0 0.021142096610139102 0.064673842397447556 0 0.02079066235970875 0.078619372239532512 0 0.021142096610139102 0.064673842397447556 0 0.02079066235970875 0.078619372239532512 0 0.0078113760670387236 0.068869370431613411 0 0.043712939932840048 0.087718996561209156 0 0.02079066235970875 0.078619372239532512 0 0.028330160343379221 0.096092512071592709 0 0.02079066235970875 0.078619372239532512 0 0.028330160343379221 0.096092512071592709 0 0.013121597576430799 0.098285986815611973 0 -0.0022168413230157229 0.085736250976024914 0 0.0078113760670387236 0.068869370431613411 0 0.013121597576430799 0.098285986815611973 0 0.02079066235970875 0.078619372239532512 0 0.0078113760670387236 0.068869370431613411 0 0.013121597576430799 0.098285986815611973 0 0.0078113760670387236 0.068869370431613411 0 0.013121597576430799 0.098285986815611973 0 0.021142096610139102 0.064673842397447556 0 0.0078113760670387236 0.068869370431613411 0 0.013121597576430799 0.098285986815611973 0 0.018955942675363529 0.12769885014017149 0 0.018915766464259819 0.12208814763948179 0 0.025608580102588829 0.10783446266666021 0 0.013121597576430799 0.098285986815611973 0 0.018915766464259819 0.12208814763948179 0 0.013121597576430799 0.098285986815611973 0 0.018955942675363529 0.12769885014017149 0 0.018915766464259819 0.12208814763948179 0 0.018955942675363529 0.12769885014017149 0 0.028403759718925791 0.1183090902513565 0 0.025756287217072099 0.1254558848223972 0 0.03312110355781811 0.12828848758869171 0 0.018915766464259819 0.12208814763948179 0 0.028403759718925791 0.1183090902513565 0 0.025756287217072099 0.1254558848223972 0 0.038417021745327531 0.1080037420749501 0 0.028403759718925791 0.1183090902513565 0 0.025608580102588829 0.10783446266666021 0 0.018915766464259819 0.12208814763948179 0 0.028403759718925791 0.1183090902513565 0 0.025608580102588829 0.10783446266666021 0 0.038417021745327531 0.1080037420749501 0 0.025608580102588829 0.10783446266666021 0 0.028330160343379221 0.096092512071592709 0 0.025608580102588829 0.10783446266666021 0 0.028330160343379221 0.096092512071592709 0 0.013121597576430799 0.098285986815611973 0 -0.0093267163156350585 0.10220622611456499 0 -0.0022168413230157229 0.085736250976024914 0 0.013121597576430799 0.098285986815611973 0 -0.0093267163156350585 0.10220622611456499 0 0.013121597576430799 0.098285986815611973 0 0.0088418889268726004 0.1125261115153213 0 -0.0015382865690094869 0.1195819360983075 0 0.0088418889268726004 0.1125261115153213 0 0.0068357907514690393 0.1194307534492897 0 0.013121597576430799 0.098285986815611973 0 0.0088418889268726004 0.1125261115153213 0 0.018955942675363529 0.12769885014017149 0 0.01159030187937234 0.123800118292041 0 0.0068357907514690393 0.1194307534492897 0 0.0093864348306887096 0.12963523465885829 0 0.0088418889268726004 0.1125261115153213 0 0.01159030187937234 0.123800118292041 0 0.0068357907514690393 0.1194307534492897 0 0.0088418889268726004 0.1125261115153213 0 0.01159030187937234 0.123800118292041 0 0.018955942675363529 0.12769885014017149 0 -0.0015382865690094869 0.1195819360983075 0 0.0068357907514690393 0.1194307534492897 0 0.0028297340199113529 0.12737786763030409 0 0.0068357907514690393 0.1194307534492897 0 0.0028297340199113529 0.12737786763030409 0 0.0093864348306887096 0.12963523465885829 0 0.0028297340199113529 0.12737786763030409 0 0.0012022958327204049 0.13426380270999949 0 0.0063902301850321547 0.13414384741273511 0 0.0028297340199113529 0.12737786763030409 0 0.0063902301850321547 0.13414384741273511 0 0.0093864348306887096 0.12963523465885829 0 0.000228448927285114 0.14012311706009631 0 0.0012022958327204049 0.13426380270999949 0 0.0046739851119457828 0.13844047711548191 0 0.0012022958327204049 0.13426380270999949 0 0.0063902301850321547 0.13414384741273511 0 0.0046739851119457828 0.13844047711548191 0 0.0063902301850321547 0.13414384741273511 0 0.0046739851119457828 0.13844047711548191 0 0.0087417741184536643 0.13987837293796551 0 0.0063902301850321547 0.13414384741273511 0 0.0087417741184536643 0.13987837293796551 0 0.01188448664637911 0.13630481734698929 0 0.0087417741184536643 0.13987837293796551 0 0.01188448664637911 0.13630481734698929 0 0.01238480926519909 0.14086949425419931 0 0.0063902301850321547 0.13414384741273511 0 0.01188448664637911 0.13630481734698929 0 0.0093864348306887096 0.12963523465885829 0 0.01538181754864224 0.13462442671806851 0 0.01188448664637911 0.13630481734698929 0 0.01363814740762942 0.13063558522106289 0 0.01538181754864224 0.13462442671806851 0 0.01188448664637911 0.13630481734698929 0 0.014424460637306021 0.13832412831929569 0 0.01188448664637911 0.13630481734698929 0 0.014424460637306021 0.13832412831929569 0 0.01238480926519909 0.14086949425419931 0 0.014424460637306021 0.13832412831929569 0 0.01238480926519909 0.14086949425419931 0 0.015363480448823189 0.14129096320990631 0 0.01159030187937234 0.123800118292041 0 0.0093864348306887096 0.12963523465885829 0 0.01363814740762942 0.13063558522106289 0 0.01188448664637911 0.13630481734698929 0 0.0093864348306887096 0.12963523465885829 0 0.01363814740762942 0.13063558522106289 0 0.01159030187937234 0.123800118292041 0 0.01363814740762942 0.13063558522106289 0 0.018955942675363529 0.12769885014017149 0 0.018915766464259819 0.12208814763948179 0 0.018955942675363529 0.12769885014017149 0 0.022387711081268351 0.13069146168119281 0 0.025814451866404291 0.1323851931955756 0 0.019064338777337181 0.1428366210673169 0 0.044351282800083193 0.13793169854198151 0 0.018915766464259819 0.12208814763948179 0 0.022387711081268351 0.13069146168119281 0 0.025756287217072099 0.1254558848223972 0 0.01538181754864224 0.13462442671806851 0 0.01363814740762942 0.13063558522106289 0 0.018955942675363529 0.12769885014017149 0 0.022387711081268351 0.13069146168119281 0 0.025814451866404291 0.1323851931955756 0 0.019064338777337181 0.1428366210673169 0 0.01538181754864224 0.13462442671806851 0 0.018955942675363529 0.12769885014017149 0 0.01710770927748647 0.13853094006731531 0 0.018955942675363529 0.12769885014017149 0 0.01710770927748647 0.13853094006731531 0 0.019064338777337181 0.1428366210673169 0 0.018955942675363529 0.12769885014017149 0 0.019064338777337181 0.1428366210673169 0 0.018955942675363529 0.12769885014017149 0 0.022387711081268351 0.13069146168119281 0 0.019064338777337181 0.1428366210673169 0 0.01538181754864224 0.13462442671806851 0 0.014424460637306021 0.13832412831929569 0 0.01710770927748647 0.13853094006731531 0 0.014424460637306021 0.13832412831929569 0 0.01710770927748647 0.13853094006731531 0 0.015363480448823189 0.14129096320990631 0 0.01710770927748647 0.13853094006731531 0 0.017202595513394939 0.14154074390788901 0 0.015363480448823189 0.14129096320990631 0 0.025756287217072099 0.1254558848223972 0 0.025814451866404291 0.1323851931955756 0 0.03312110355781811 0.12828848758869171 0 0.022387711081268351 0.13069146168119281 0 0.025756287217072099 0.1254558848223972 0 0.025814451866404291 0.1323851931955756 0 0.019064338777337181 0.1428366210673169 0 0.01923932509198778 0.16727387202292701 0 0.034840635627581551 0.15270641195697809 0 0.019064338777337181 0.1428366210673169 0 0.01923932509198778 0.16727387202292701 0 0.01710770927748647 0.13853094006731531 0 0.019064338777337181 0.1428366210673169 0 0.017202595513394939 0.14154074390788901 0 0.019064338777337181 0.1428366210673169 0 0.017214352546369539 0.14319546392027949 0 0.017202595513394939 0.14154074390788901 0 0.019064338777337181 0.1428366210673169 0 0.017214352546369539 0.14319546392027949 0 0.017214352546369539 0.14319546392027949 0 0.017202595513394939 0.14154074390788901 0 0.015363480448823189 0.14129096320990631 0 0.019064338777337181 0.1428366210673169 0 0.010573304973877311 0.14810099588445341 0 0.0097219217107780143 0.1605441304936322 0 0.019064338777337181 0.1428366210673169 0 0.017214352546369539 0.14319546392027949 0 0.010573304973877311 0.14810099588445341 0 0.017214352546369539 0.14319546392027949 0 0.015363480448823189 0.14129096320990631 0 0.01311844662929992 0.14341517628664141 0 0.01238480926519909 0.14086949425419931 0 0.015363480448823189 0.14129096320990631 0 0.01311844662929992 0.14341517628664141 0 0.01238480926519909 0.14086949425419931 0 0.01311844662929992 0.14341517628664141 0 0.010056285912230499 0.14361896416436881 0 0.017214352546369539 0.14319546392027949 0 0.01311844662929992 0.14341517628664141 0 0.010573304973877311 0.14810099588445341 0 0.010573304973877311 0.14810099588445341 0 0.010056285912230499 0.14361896416436881 0 0.0052711451322874966 0.14430649706712931 0 0.01311844662929992 0.14341517628664141 0 0.010573304973877311 0.14810099588445341 0 0.010056285912230499 0.14361896416436881 0 0.0087417741184536643 0.13987837293796551 0 0.010056285912230499 0.14361896416436881 0 0.0052711451322874966 0.14430649706712931 0 0.0087417741184536643 0.13987837293796551 0 0.01238480926519909 0.14086949425419931 0 0.010056285912230499 0.14361896416436881 0 0.010573304973877311 0.14810099588445341 0 0.0052711451322874966 0.14430649706712931 0 0.002037105597096525 0.15151695060409001 0 0.0046739851119457828 0.13844047711548191 0 0.0087417741184536643 0.13987837293796551 0 0.0052711451322874966 0.14430649706712931 0 -0.001932496299644968 0.1459540675981712 0 0.0052711451322874966 0.14430649706712931 0 0.002037105597096525 0.15151695060409001 0 -0.001932496299644968 0.1459540675981712 0 0.000228448927285114 0.14012311706009631 0 0.0052711451322874966 0.14430649706712931 0 0.000228448927285114 0.14012311706009631 0 0.0046739851119457828 0.13844047711548191 0 0.0052711451322874966 0.14430649706712931 0 0.010573304973877311 0.14810099588445341 0 0.002037105597096525 0.15151695060409001 0 0.0097219217107780143 0.1605441304936322 0 -0.001399927819642065 0.15853034608675531 0 9.8439874396488518e-06 0.16909653965514321 0 0.0097219217107780143 0.1605441304936322 0 9.8439874396488518e-06 0.16909653965514321 0 0.0097219217107780143 0.1605441304936322 0 0.01923932509198778 0.16727387202292701 0 -0.001399927819642065 0.15853034608675531 0 0.002037105597096525 0.15151695060409001 0 0.0097219217107780143 0.1605441304936322 0 0.0075192663374202447 0.1824792222503463 0 0.01923932509198778 0.16727387202292701 0 0.019414311406637581 0.19171112297853721 0 9.8439874396488518e-06 0.16909653965514321 0 0.0075192663374202447 0.1824792222503463 0 0.01923932509198778 0.16727387202292701 0 -0.0058150648891281392 0.18464487058732859 0 9.8439874396488518e-06 0.16909653965514321 0 0.0075192663374202447 0.1824792222503463 0 0.01923932509198778 0.16727387202292701 0 0.019414311406637581 0.19171112297853721 0 0.01923932509198778 0.16727387202292701 0 0.041253151311174942 0.18351428487242299 0 0.019414311406637581 0.19171112297853721 0 0.019064338777337181 0.1428366210673169 0 0.0097219217107780143 0.1605441304936322 0 0.01923932509198778 0.16727387202292701 0 0.01923932509198778 0.16727387202292701 0 0.045192968381937218 0.16506141320240761 0 0.034840635627581551 0.15270641195697809 0 0.01923932509198778 0.16727387202292701 0 0.045192968381937218 0.16506141320240761 0 0.041253151311174942 0.18351428487242299 0 0.041253151311174942 0.18351428487242299 0 0.056495320393279057 0.1758938039325593 0 0.06399941055398814 0.19765529411200519 0 0.045192968381937218 0.16506141320240761 0 0.041253151311174942 0.18351428487242299 0 0.056495320393279057 0.1758938039325593 0 0.045192968381937218 0.16506141320240761 0 0.058418108920392182 0.16045602069262471 0 0.053913444208845418 0.15009958673064799 0 0.045192968381937218 0.16506141320240761 0 0.056495320393279057 0.1758938039325593 0 0.058418108920392182 0.16045602069262471 0 0.058418108920392182 0.16045602069262471 0 0.053913444208845418 0.15009958673064799 0 0.071039442700249214 0.1514151999732502 0 0.053913444208845418 0.15009958673064799 0 0.044351282800083193 0.13793169854198151 0 0.069638226822829233 0.13302677601664631 0 0.044351282800083193 0.13793169854198151 0 0.069638226822829233 0.13302677601664631 0 0.056785074219297037 0.123962922715022 0 0.045358146108277778 0.122235841909611 0 0.044351282800083193 0.13793169854198151 0 0.056785074219297037 0.123962922715022 0 0.044351282800083193 0.13793169854198151 0 0.069638226822829233 0.13302677601664631 0 0.025814451866404291 0.1323851931955756 0 0.044351282800083193 0.13793169854198151 0 0.03312110355781811 0.12828848758869171 0 0.045358146108277778 0.122235841909611 0 0.044351282800083193 0.13793169854198151 0 0.03312110355781811 0.12828848758869171 0 0.019064338777337181 0.1428366210673169 0 0.044351282800083193 0.13793169854198151 0 0.053913444208845418 0.15009958673064799 0 0.044351282800083193 0.13793169854198151 0 0.034840635627581551 0.15270641195697809 0 0.045192968381937218 0.16506141320240761 0 0.053913444208845418 0.15009958673064799 0 0.034840635627581551 0.15270641195697809 0 0.019064338777337181 0.1428366210673169 0 0.044351282800083193 0.13793169854198151 0 0.034840635627581551 0.15270641195697809 0 0.019733428038529611 0.23627651218177001 0 0.032395297456559217 0.24990448186487541 0 0.01992807415890703 0.26345930130890138 0 0.019733428038529611 0.23627651218177001 0 0.01992807415890703 0.26345930130890138 0 0.019733428038529611 0.23627651218177001 0 0.032900500049065431 0.23758744706011731 0 0.032395297456559217 0.24990448186487541 0 0.019733428038529611 0.23627651218177001 0 0.032900500049065431 0.23758744706011731 0 -0.0054403593235216562 0.23377016940133941 0 0.019733428038529611 0.23627651218177001 0 -0.0054403593235216562 0.23377016940133941 0 0.019733428038529611 0.23627651218177001 0 0.0051881906427589239 0.2429023142665572 0 0.019733428038529611 0.23627651218177001 0 0.0051881906427589239 0.2429023142665572 0 0.0108212759879371 0.25143582124693198 0 -0.004361582131907446 0.25012675423618741 0 0.0051881906427589239 0.2429023142665572 0 0.0108212759879371 0.25143582124693198 0 -0.0054403593235216562 0.23377016940133941 0 0.019733428038529611 0.23627651218177001 0 0.0022205822065663882 0.22338098429998751 0 0.0022205822065663882 0.22338098429998751 0 0.019589297721289551 0.2161483739341474 0 0.019733428038529611 0.23627651218177001 0 0.0022205822065663882 0.22338098429998751 0 0.019589297721289551 0.2161483739341474 0 0.019733428038529611 0.23627651218177001 0 0.019589297721289551 0.2161483739341474 0 0.034101449494264802 0.22244897456428839 0 0.019733428038529611 0.23627651218177001 0 0.019589297721289551 0.2161483739341474 0 0.019733428038529611 0.23627651218177001 0 0.034101449494264802 0.22244897456428839 0 0.032900500049065431 0.23758744706011731 0 0.019589297721289551 0.2161483739341474 0 0.019414311406637581 0.19171112297853721 0 0.041794354137638927 0.20690183402307669 0 0.019589297721289551 0.2161483739341474 0 0.041794354137638927 0.20690183402307669 0 0.019589297721289551 0.2161483739341474 0 0.019414311406637581 0.19171112297853721 0 -0.001618838316679704 0.21186515805952549 0 0.0022205822065663882 0.22338098429998751 0 0.019589297721289551 0.2161483739341474 0 -0.001618838316679704 0.21186515805952549 0 0.019589297721289551 0.2161483739341474 0 0.0047479160901643591 0.19966970600779571 0 0.0075192663374202447 0.1824792222503463 0 0.0047479160901643591 0.19966970600779571 0 0.019414311406637581 0.19171112297853721 0 0.019589297721289551 0.2161483739341474 0 0.0047479160901643591 0.19966970600779571 0 0.019414311406637581 0.19171112297853721 0 -0.0058150648891281392 0.18464487058732859 0 0.0075192663374202447 0.1824792222503463 0 0.0047479160901643591 0.19966970600779571 0 0.041253151311174942 0.18351428487242299 0 0.019414311406637581 0.19171112297853721 0 0.041794354137638927 0.20690183402307669 0 0.041253151311174942 0.18351428487242299 0 0.041794354137638927 0.20690183402307669 0 0.06399941055398814 0.19765529411200519 0 0.041794354137638927 0.20690183402307669 0 0.06399941055398814 0.19765529411200519 0 0.061093413050727782 0.21440081318481749 0 0.041794354137638927 0.20690183402307669 0 0.06399941055398814 0.19765529411200519 0 0.061093413050727782 0.21440081318481749 0 0.041794354137638927 0.20690183402307669 0 0.049967951794046297 0.22590254710105601 0 0.019589297721289551 0.2161483739341474 0 0.041794354137638927 0.20690183402307669 0 0.034101449494264802 0.22244897456428839 0 0.041794354137638927 0.20690183402307669 0 0.034101449494264802 0.22244897456428839 0 0.049967951794046297 0.22590254710105601 0 0.034101449494264802 0.22244897456428839 0 0.049967951794046297 0.22590254710105601 0 0.032900500049065431 0.23758744706011731 0 0.049967951794046297 0.22590254710105601 0 0.049298807743375681 0.24401567068345059 0 0.070152213389441304 0.23042254488525729 0 0.061093413050727782 0.21440081318481749 0 0.049967951794046297 0.22590254710105601 0 0.070152213389441304 0.23042254488525729 0 0.049298807743375681 0.24401567068345059 0 0.032900500049065431 0.23758744706011731 0 0.032395297456559217 0.24990448186487541 0 0.049967951794046297 0.22590254710105601 0 0.049298807743375681 0.24401567068345059 0 0.032900500049065431 0.23758744706011731 0 0.081494970558903312 0.2413152449973858 0 0.068539877812152941 0.25484826761588569 0 0.094153496178737847 0.25278652485753728 0 0.081494970558903312 0.2413152449973858 0 0.092408256837057293 0.22639029288367121 0 0.094153496178737847 0.25278652485753728 0 0.081494970558903312 0.2413152449973858 0 0.070152213389441304 0.23042254488525729 0 0.068539877812152941 0.25484826761588569 0 0.049298807743375681 0.24401567068345059 0 0.070152213389441304 0.23042254488525729 0 0.068539877812152941 0.25484826761588569 0 0.070152213389441304 0.23042254488525729 0 0.079553135378524209 0.21112184580269211 0 0.081494970558903312 0.2413152449973858 0 0.070152213389441304 0.23042254488525729 0 0.092408256837057293 0.22639029288367121 0 0.070152213389441304 0.23042254488525729 0 0.092408256837057293 0.22639029288367121 0 0.079553135378524209 0.21112184580269211 0 0.092408256837057293 0.22639029288367121 0 0.090685729118578778 0.2092827598877062 0 0.079553135378524209 0.21112184580269211 0 0.090685729118578778 0.2092827598877062 0 0.079553135378524209 0.21112184580269211 0 0.088954057367607559 0.19182114672012679 0 0.061093413050727782 0.21440081318481749 0 0.070152213389441304 0.23042254488525729 0 0.079553135378524209 0.21112184580269211 0 0.061093413050727782 0.21440081318481749 0 0.079553135378524209 0.21112184580269211 0 0.06399941055398814 0.19765529411200519 0 0.079553135378524209 0.21112184580269211 0 0.06399941055398814 0.19765529411200519 0 0.086204466970337151 0.18840875420093359 0 0.06399941055398814 0.19765529411200519 0 0.086204466970337151 0.18840875420093359 0 0.079553135378524209 0.21112184580269211 0 0.088954057367607559 0.19182114672012679 0 0.079553135378524209 0.21112184580269211 0 0.086204466970337151 0.18840875420093359 0 0.088954057367607559 0.19182114672012679 0 0.088954057367607559 0.19182114672012679 0 0.091738629482519291 0.1861042405989983 0 0.086204466970337151 0.18840875420093359 0 0.088954057367607559 0.19182114672012679 0 0.091738629482519291 0.1861042405989983 0 0.086204466970337151 0.18840875420093359 0 0.088954057367607559 0.19182114672012679 0 0.10188013338443321 0.1945805347119858 0 0.1223034951297057 0.2015047654836217 0 0.1018274668911264 0.2077977541443348 0 0.090685729118578778 0.2092827598877062 0 0.088954057367607559 0.19182114672012679 0 0.1018274668911264 0.2077977541443348 0 0.088954057367607559 0.19182114672012679 0 0.10188013338443321 0.1945805347119858 0 0.1018274668911264 0.2077977541443348 0 0.088954057367607559 0.19182114672012679 0 0.1018274668911264 0.2077977541443348 0 0.088954057367607559 0.19182114672012679 0 0.10188013338443321 0.1945805347119858 0 0.091738629482519291 0.1861042405989983 0 0.10188013338443321 0.1945805347119858 0 0.1223034951297057 0.2015047654836217 0 0.1143056367611561 0.17670697857169981 0 0.1223034951297057 0.2015047654836217 0 0.1018274668911264 0.2077977541443348 0 0.11470087641464451 0.22377436156854341 0 0.1223034951297057 0.2015047654836217 0 0.11470087641464451 0.22377436156854341 0 0.12985428442346111 0.22473904082679019 0 0.092408256837057293 0.22639029288367121 0 0.090685729118578778 0.2092827598877062 0 0.1018274668911264 0.2077977541443348 0 0.1018274668911264 0.2077977541443348 0 0.11470087641464451 0.22377436156854341 0 0.092408256837057293 0.22639029288367121 0 0.11470087641464451 0.22377436156854341 0 0.1077236677954151 0.23904346403323151 0 0.092408256837057293 0.22639029288367121 0 0.1018274668911264 0.2077977541443348 0 0.11470087641464451 0.22377436156854341 0 0.11470087641464451 0.22377436156854341 0 0.12757428593816261 0.239750968992752 0 0.11470087641464451 0.22377436156854341 0 0.1077236677954151 0.23904346403323151 0 0.12757428593816261 0.239750968992752 0 0.11470087641464451 0.22377436156854341 0 0.12757428593816261 0.239750968992752 0 0.12985428442346111 0.22473904082679019 0 0.1077236677954151 0.23904346403323151 0 0.12757428593816261 0.239750968992752 0 0.1197671145453226 0.2507247820991888 0 0.1077236677954151 0.23904346403323151 0 0.1197671145453226 0.2507247820991888 0 0.094153496178737847 0.25278652485753728 0 0.092408256837057293 0.22639029288367121 0 0.1077236677954151 0.23904346403323151 0 0.094153496178737847 0.25278652485753728 0 0.089241880289002096 0.14489141207420311 0 0.071039442700249214 0.1514151999732502 0 0.087740544640930687 0.16123122417456451 0 0.08262403040743542 0.1174427642681065 0 0.069638226822829233 0.13302677601664631 0 0.094925170845575335 0.12812185349131111 0 0.069638226822829233 0.13302677601664631 0 0.094925170845575335 0.12812185349131111 0 0.089241880289002096 0.14489141207420311 0 0.069638226822829233 0.13302677601664631 0 0.094925170845575335 0.12812185349131111 0 0.053913444208845418 0.15009958673064799 0 0.069638226822829233 0.13302677601664631 0 0.071039442700249214 0.1514151999732502 0 0.089241880289002096 0.14489141207420311 0 0.069638226822829233 0.13302677601664631 0 0.071039442700249214 0.1514151999732502 0 0.058418108920392182 0.16045602069262471 0 0.071039442700249214 0.1514151999732502 0 0.073612962798902823 0.17278200678333611 0 0.071039442700249214 0.1514151999732502 0 0.073612962798902823 0.17278200678333611 0 0.087740544640930687 0.16123122417456451 0 0.056495320393279057 0.1758938039325593 0 0.058418108920392182 0.16045602069262471 0 0.073612962798902823 0.17278200678333611 0 0.06399941055398814 0.19765529411200519 0 0.086204466970337151 0.18840875420093359 0 0.073612962798902823 0.17278200678333611 0 0.056495320393279057 0.1758938039325593 0 0.06399941055398814 0.19765529411200519 0 0.073612962798902823 0.17278200678333611 0 0.086204466970337151 0.18840875420093359 0 0.073612962798902823 0.17278200678333611 0 0.086204466970337151 0.18840875420093359 0 0.073612962798902823 0.17278200678333611 0 0.087615468279621078 0.1760345128920231 0 0.087615468279621078 0.1760345128920231 0 0.091738629482519291 0.1861042405989983 0 0.098780737505415703 0.17164633870228399 0 0.086204466970337151 0.18840875420093359 0 0.087615468279621078 0.1760345128920231 0 0.091738629482519291 0.1861042405989983 0 0.086204466970337151 0.18840875420093359 0 0.091738629482519291 0.1861042405989983 0 0.073612962798902823 0.17278200678333611 0 0.087615468279621078 0.1760345128920231 0 0.087740544640930687 0.16123122417456451 0 0.087615468279621078 0.1760345128920231 0 0.087740544640930687 0.16123122417456451 0 0.098780737505415703 0.17164633870228399 0 0.087740544640930687 0.16123122417456451 0 0.098780737505415703 0.17164633870228399 0 0.10582284552831139 0.15718843680556929 0 0.098780737505415703 0.17164633870228399 0 0.1143056367611561 0.17670697857169981 0 0.11439408025226031 0.1643128731168863 0 0.098780737505415703 0.17164633870228399 0 0.10582284552831139 0.15718843680556929 0 0.11439408025226031 0.1643128731168863 0 0.098780737505415703 0.17164633870228399 0 0.10582284552831139 0.15718843680556929 0 0.091738629482519291 0.1861042405989983 0 0.1143056367611561 0.17670697857169981 0 0.10188013338443321 0.1945805347119858 0 0.091738629482519291 0.1861042405989983 0 0.1143056367611561 0.17670697857169981 0 0.091738629482519291 0.1861042405989983 0 0.098780737505415703 0.17164633870228399 0 0.1143056367611561 0.17670697857169981 0 0.091738629482519291 0.1861042405989983 0 0.098780737505415703 0.17164633870228399 0 0.1223034951297057 0.2015047654836217 0 0.1143056367611561 0.17670697857169981 0 0.12984245568560021 0.18336402612102581 0 0.10582284552831139 0.15718843680556929 0 0.11439408025226031 0.1643128731168863 0 0.118827144549028 0.15045938834785799 0 0.1143056367611561 0.17670697857169981 0 0.11439408025226031 0.1643128731168863 0 0.1269873440417035 0.1621457976822499 0 0.11439408025226031 0.1643128731168863 0 0.118827144549028 0.15045938834785799 0 0.1269873440417035 0.1621457976822499 0 0.10582284552831139 0.15718843680556929 0 0.118827144549028 0.15045938834785799 0 0.1060715668831175 0.14085190817348309 0 0.118827144549028 0.15045938834785799 0 0.1060715668831175 0.14085190817348309 0 0.12165438094055341 0.1382202250837688 0 0.089241880289002096 0.14489141207420311 0 0.10582284552831139 0.15718843680556929 0 0.1060715668831175 0.14085190817348309 0 0.089241880289002096 0.14489141207420311 0 0.087740544640930687 0.16123122417456451 0 0.10582284552831139 0.15718843680556929 0 0.1060715668831175 0.14085190817348309 0 0.094925170845575335 0.12812185349131111 0 0.11184177323789279 0.12866158262702601 0 0.10718004060487731 0.1186919078288297 0 0.094925170845575335 0.12812185349131111 0 0.11184177323789279 0.12866158262702601 0 0.089241880289002096 0.14489141207420311 0 0.1060715668831175 0.14085190817348309 0 0.094925170845575335 0.12812185349131111 0 0.11184177323789279 0.12866158262702601 0 0.12165438094055341 0.1382202250837688 0 0.12877089149896251 0.12628235461406201 0 0.1060715668831175 0.14085190817348309 0 0.11184177323789279 0.12866158262702601 0 0.12165438094055341 0.1382202250837688 0 0.12877089149896251 0.12628235461406201 0 0.13720160688724839 0.13964518263404729 0 0.14559099576285081 0.1211645137464301 0 0.12165438094055341 0.1382202250837688 0 0.13720160688724839 0.13964518263404729 0 0.12165438094055341 0.1382202250837688 0 0.12877089149896251 0.12628235461406201 0 0.13720160688724839 0.13964518263404729 0 0.13720160688724839 0.13964518263404729 0 0.15632661280319129 0.13068902382275449 0 0.14559099576285081 0.1211645137464301 0 0.13720160688724839 0.13964518263404729 0 0.14559099576285081 0.1211645137464301 0 0.13720160688724839 0.13964518263404729 0 0.15632661280319129 0.13068902382275449 0 0.16429194695006341 0.14212810690262639 0 0.13720160688724839 0.13964518263404729 0 0.16429194695006341 0.14212810690262639 0 0.13720160688724839 0.13964518263404729 0 0.14941591407077959 0.14904867938194569 0 0.13673045112737631 0.1565089734740045 0 0.13720160688724839 0.13964518263404729 0 0.14941591407077959 0.14904867938194569 0 0.16429194695006341 0.14212810690262639 0 0.14941591407077959 0.14904867938194569 0 0.13673045112737631 0.1565089734740045 0 0.15943965131843141 0.15791245451710681 0 0.118827144549028 0.15045938834785799 0 0.13720160688724839 0.13964518263404729 0 0.1269873440417035 0.1621457976822499 0 0.13720160688724839 0.13964518263404729 0 0.1269873440417035 0.1621457976822499 0 0.13720160688724839 0.13964518263404729 0 0.1269873440417035 0.1621457976822499 0 0.13673045112737631 0.1565089734740045 0 0.118827144549028 0.15045938834785799 0 0.12165438094055341 0.1382202250837688 0 0.13720160688724839 0.13964518263404729 0 0.1143056367611561 0.17670697857169981 0 0.1269873440417035 0.1621457976822499 0 0.1368726440397933 0.1673097165444021 0 0.1269873440417035 0.1621457976822499 0 0.1368726440397933 0.1673097165444021 0 0.13673045112737631 0.1565089734740045 0 0.1143056367611561 0.17670697857169981 0 0.1368726440397933 0.1673097165444021 0 0.12984245568560021 0.18336402612102581 0 0.1143056367611561 0.17670697857169981 0 0.1368726440397933 0.1673097165444021 0 0.1368726440397933 0.1673097165444021 0 0.12984245568560021 0.18336402612102581 0 0.14395995749662011 0.19046676877908139 0 0.1368726440397933 0.1673097165444021 0 0.1557014301669345 0.17418450516490519 0 0.14395995749662011 0.19046676877908139 0 0.13673045112737631 0.1565089734740045 0 0.15943965131843141 0.15791245451710681 0 0.1368726440397933 0.1673097165444021 0 0.15943965131843141 0.15791245451710681 0 0.1368726440397933 0.1673097165444021 0 0.1557014301669345 0.17418450516490519 0 0.15943965131843141 0.15791245451710681 0 0.1368726440397933 0.1673097165444021 0 0.13673045112737631 0.1565089734740045 0 0.15943965131843141 0.15791245451710681 0 0.1557014301669345 0.17418450516490519 0 0.15943965131843141 0.15791245451710681 0 0.16838221510295989 0.1692040805085635 0 0.15943965131843141 0.15791245451710681 0 0.16838221510295989 0.1692040805085635 0 0.17970147406593759 0.15916468197935521 0 0.15943965131843141 0.15791245451710681 0 0.17970147406593759 0.15916468197935521 0 0.1557014301669345 0.17418450516490519 0 0.16985268287686869 0.18602950547537461 0 0.14395995749662011 0.19046676877908139 0 0.1557014301669345 0.17418450516490519 0 0.16838221510295989 0.1692040805085635 0 0.16985268287686869 0.18602950547537461 0 0.16985268287686869 0.18602950547537461 0 0.17776577537378679 0.1717491724038096 0 0.19009851561998109 0.17546705170333859 0 0.16985268287686869 0.18602950547537461 0 0.1921007491770006 0.19413511782623061 0 0.19009851561998109 0.17546705170333859 0 0.16838221510295989 0.1692040805085635 0 0.16985268287686869 0.18602950547537461 0 0.17776577537378679 0.1717491724038096 0 0.17776577537378679 0.1717491724038096 0 0.17970147406593759 0.15916468197935521 0 0.19009851561998109 0.17546705170333859 0 0.16838221510295989 0.1692040805085635 0 0.17776577537378679 0.1717491724038096 0 0.17970147406593759 0.15916468197935521 0 0.17970147406593759 0.15916468197935521 0 0.17541096916565421 0.151261742844153 0 0.19138228701287849 0.14461103117120311 0 0.17541096916565421 0.151261742844153 0 0.19138228701287849 0.14461103117120311 0 0.17541096916565421 0.151261742844153 0 0.16429194695006341 0.14212810690262639 0 0.19138228701287849 0.14461103117120311 0 0.16429194695006341 0.14212810690262639 0 0.19138228701287849 0.14461103117120311 0 0.1826996939178501 0.134395064982826 0 0.17014020092281509 0.1303647164313487 0 0.16429194695006341 0.14212810690262639 0 0.1826996939178501 0.134395064982826 0 0.16429194695006341 0.14212810690262639 0 0.19138228701287849 0.14461103117120311 0 0.1826996939178501 0.134395064982826 0 0.19400001601888209 0.1301444430180784 0 0.18282874988353909 0.12176719670840121 0 0.1826996939178501 0.134395064982826 0 0.17014020092281509 0.1303647164313487 0 0.18282874988353909 0.12176719670840121 0 0.17014020092281509 0.1303647164313487 0 0.15632661280319129 0.13068902382275449 0 0.1644083134929788 0.12014259939932 0 0.17014020092281509 0.1303647164313487 0 0.15632661280319129 0.13068902382275449 0 0.16429194695006341 0.14212810690262639 0 0.14941591407077959 0.14904867938194569 0 0.15943965131843141 0.15791245451710681 0 0.16429194695006341 0.14212810690262639 0 0.15943965131843141 0.15791245451710681 0 0.17970147406593759 0.15916468197935521 0 0.17541096916565421 0.151261742844153 0 0.15943965131843141 0.15791245451710681 0 0.17541096916565421 0.151261742844153 0 0.15943965131843141 0.15791245451710681 0 0.17541096916565421 0.151261742844153 0 0.16429194695006341 0.14212810690262639 0 0.15269041899089261 0.24018887904249059 0 0.1453807329119074 0.24866303934084041 0 0.15466915334416509 0.25190660019890743 0 0.15269041899089261 0.24018887904249059 0 0.1453807329119074 0.24866303934084041 0 0.14060451702156199 0.2357308345711725 0 0.1453807329119074 0.24866303934084041 0 0.12757428593816261 0.239750968992752 0 0.14060451702156199 0.2357308345711725 0 0.1453807329119074 0.24866303934084041 0 0.1197671145453226 0.2507247820991888 0 0.1453807329119074 0.24866303934084041 0 0.12757428593816261 0.239750968992752 0 0.1197671145453226 0.2507247820991888 0 0.14060451702156199 0.2357308345711725 0 0.12985428442346111 0.22473904082679019 0 0.14752286284338639 0.22531224465298941 0 0.12985428442346111 0.22473904082679019 0 0.14752286284338639 0.22531224465298941 0 0.1398831682024731 0.2101323370399282 0 0.12757428593816261 0.239750968992752 0 0.14060451702156199 0.2357308345711725 0 0.12985428442346111 0.22473904082679019 0 0.15269041899089261 0.24018887904249059 0 0.14752286284338639 0.22531224465298941 0 0.16513181717874489 0.22933158445530699 0 0.14752286284338639 0.22531224465298941 0 0.155775241119192 0.20863886545715829 0 0.16513181717874489 0.22933158445530699 0 0.15269041899089261 0.24018887904249059 0 0.14060451702156199 0.2357308345711725 0 0.14752286284338639 0.22531224465298941 0 0.14752286284338639 0.22531224465298941 0 0.155775241119192 0.20863886545715829 0 0.1398831682024731 0.2101323370399282 0 0.1223034951297057 0.2015047654836217 0 0.12985428442346111 0.22473904082679019 0 0.1398831682024731 0.2101323370399282 0 0.1223034951297057 0.2015047654836217 0 0.12984245568560021 0.18336402612102581 0 0.14395995749662011 0.19046676877908139 0 0.1223034951297057 0.2015047654836217 0 0.1398831682024731 0.2101323370399282 0 0.14395995749662011 0.19046676877908139 0 0.155775241119192 0.20863886545715829 0 0.1398831682024731 0.2101323370399282 0 0.14395995749662011 0.19046676877908139 0 0.16985268287686869 0.18602950547537461 0 0.155775241119192 0.20863886545715829 0 0.17615578699577941 0.211297655888005 0 0.16985268287686869 0.18602950547537461 0 0.155775241119192 0.20863886545715829 0 0.14395995749662011 0.19046676877908139 0 0.16985268287686869 0.18602950547537461 0 0.17615578699577941 0.211297655888005 0 0.1921007491770006 0.19413511782623061 0 0.155775241119192 0.20863886545715829 0 0.17615578699577941 0.211297655888005 0 0.16513181717874489 0.22933158445530699 0 0.17615578699577941 0.211297655888005 0 0.1832321526603185 0.22988712241990911 0 0.19922996910836269 0.2206298732412626 0 0.17615578699577941 0.211297655888005 0 0.16513181717874489 0.22933158445530699 0 0.1832321526603185 0.22988712241990911 0 0.1832321526603185 0.22988712241990911 0 0.17921266192405369 0.24485401564359771 0 0.19643052809465181 0.2433224828713732 0 0.16513181717874489 0.22933158445530699 0 0.1832321526603185 0.22988712241990911 0 0.17921266192405369 0.24485401564359771 0 0.17921266192405369 0.24485401564359771 0 0.19643052809465181 0.2433224828713732 0 0.18608903078984079 0.25995697105729071 0 0.17921266192405369 0.24485401564359771 0 0.1648484701696567 0.24744362212440471 0 0.17332134199895571 0.25758983019522791 0 0.15269041899089261 0.24018887904249059 0 0.16513181717874489 0.22933158445530699 0 0.1648484701696567 0.24744362212440471 0 0.16513181717874489 0.22933158445530699 0 0.17921266192405369 0.24485401564359771 0 0.1648484701696567 0.24744362212440471 0 0.15269041899089261 0.24018887904249059 0 0.1648484701696567 0.24744362212440471 0 0.15466915334416509 0.25190660019890743 0 0.21227379049082179 0.2367256787841478 0 0.19643052809465181 0.2433224828713732 0 0.21668623523937189 0.25273648673926968 0 0.21227379049082179 0.2367256787841478 0 0.19643052809465181 0.2433224828713732 0 0.19922996910836269 0.2206298732412626 0 0.1832321526603185 0.22988712241990911 0 0.19643052809465181 0.2433224828713732 0 0.19922996910836269 0.2206298732412626 0 0.21227379049082179 0.2367256787841478 0 0.19922996910836269 0.2206298732412626 0 0.219709047837161 0.22243828454522341 0 0.19922996910836269 0.2206298732412626 0 0.21843520523288221 0.2053181895842969 0 0.1921007491770006 0.19413511782623061 0 0.19922996910836269 0.2206298732412626 0 0.21843520523288221 0.2053181895842969 0 0.219709047837161 0.22243828454522341 0 0.17615578699577941 0.211297655888005 0 0.19922996910836269 0.2206298732412626 0 0.1921007491770006 0.19413511782623061 0 0.21843520523288221 0.2053181895842969 0 0.1921007491770006 0.19413511782623061 0 0.21508853132578909 0.18630480878971589 0 0.21843520523288221 0.2053181895842969 0 0.1921007491770006 0.19413511782623061 0 0.21843520523288221 0.2053181895842969 0 0.23255597692269961 0.1986700960591046 0 0.21508853132578909 0.18630480878971589 0 0.23255597692269961 0.1986700960591046 0 0.21508853132578909 0.18630480878971589 0 0.23658713197922801 0.1849604865578777 0 0.23255597692269961 0.1986700960591046 0 0.24443808169503289 0.19165573435540739 0 0.23658713197922801 0.1849604865578777 0 0.24443808169503289 0.19165573435540739 0 0.2445919001722652 0.2027793092260104 0 0.25672659357731442 0.18931439154619459 0 0.23255597692269961 0.1986700960591046 0 0.24443808169503289 0.19165573435540739 0 0.2445919001722652 0.2027793092260104 0 0.2445919001722652 0.2027793092260104 0 0.2447696612887639 0.21650126134236319 0 0.26045320274891359 0.2075872277184421 0 0.23255597692269961 0.1986700960591046 0 0.2445919001722652 0.2027793092260104 0 0.2447696612887639 0.21650126134236319 0 0.21843520523288221 0.2053181895842969 0 0.2447696612887639 0.21650126134236319 0 0.21843520523288221 0.2053181895842969 0 0.2447696612887639 0.21650126134236319 0 0.2325803478497725 0.22060216126394189 0 0.21843520523288221 0.2053181895842969 0 0.219709047837161 0.22243828454522341 0 0.2325803478497725 0.22060216126394189 0 0.21843520523288221 0.2053181895842969 0 0.23255597692269961 0.1986700960591046 0 0.2447696612887639 0.21650126134236319 0 0.219709047837161 0.22243828454522341 0 0.2325803478497725 0.22060216126394189 0 0.2358022310961575 0.23066856374322481 0 0.21227379049082179 0.2367256787841478 0 0.219709047837161 0.22243828454522341 0 0.2358022310961575 0.23066856374322481 0 0.2325803478497725 0.22060216126394189 0 0.24210869832250451 0.2249280049623063 0 0.2358022310961575 0.23066856374322481 0 0.2447696612887639 0.21650126134236319 0 0.2325803478497725 0.22060216126394189 0 0.24210869832250451 0.2249280049623063 0 0.2447696612887639 0.21650126134236319 0 0.24210869832250451 0.2249280049623063 0 0.24965972363503919 0.22122943443424911 0 0.24210869832250451 0.2249280049623063 0 0.24965972363503919 0.22122943443424911 0 0.2477315277427897 0.2356386040277525 0 0.24210869832250451 0.2249280049623063 0 0.2358022310961575 0.23066856374322481 0 0.2477315277427897 0.2356386040277525 0 0.2477315277427897 0.2356386040277525 0 0.24791323415382371 0.2458877298954085 0 0.23190300684591059 0.2469757189771403 0 0.2358022310961575 0.23066856374322481 0 0.2477315277427897 0.2356386040277525 0 0.23190300684591059 0.2469757189771403 0 0.21227379049082179 0.2367256787841478 0 0.23190300684591059 0.2469757189771403 0 0.21227379049082179 0.2367256787841478 0 0.23190300684591059 0.2469757189771403 0 0.21668623523937189 0.25273648673926968 0 0.21227379049082179 0.2367256787841478 0 0.2358022310961575 0.23066856374322481 0 0.23190300684591059 0.2469757189771403 0 0.20748271977021249 0.138902265540051 0 0.1939758213121906 0.1435310420930529 0 0.2197013820994709 0.14720657512863261 0 0.19138228701287849 0.14461103117120311 0 0.19996329681344399 0.160416909441601 0 0.2197013820994709 0.14720657512863261 0 0.19138228701287849 0.14461103117120311 0 0.2197013820994709 0.14720657512863261 0 0.2166933327952508 0.13146831334115849 0 0.20748271977021249 0.138902265540051 0 0.2197013820994709 0.14720657512863261 0 0.2166933327952508 0.13146831334115849 0 0.20603233854846789 0.12643210165642249 0 0.20748271977021249 0.138902265540051 0 0.20603233854846789 0.12643210165642249 0 0.20748271977021249 0.138902265540051 0 0.1992161984030385 0.13597632749908109 0 0.20748271977021249 0.138902265540051 0 0.1992161984030385 0.13597632749908109 0 0.1939758213121906 0.1435310420930529 0 0.20603233854846789 0.12643210165642249 0 0.1992161984030385 0.13597632749908109 0 0.19400001601888209 0.1301444430180784 0 0.20603233854846789 0.12643210165642249 0 0.19400001601888209 0.1301444430180784 0 0.19603586944622961 0.11914225126713909 0 0.1826996939178501 0.134395064982826 0 0.19400001601888209 0.1301444430180784 0 0.19225480333296779 0.137731581752848 0 0.1826996939178501 0.134395064982826 0 0.19225480333296779 0.137731581752848 0 0.19138228701287849 0.14461103117120311 0 0.1992161984030385 0.13597632749908109 0 0.19225480333296779 0.137731581752848 0 0.1939758213121906 0.1435310420930529 0 0.1992161984030385 0.13597632749908109 0 0.19400001601888209 0.1301444430180784 0 0.19225480333296779 0.137731581752848 0 0.17970147406593759 0.15916468197935521 0 0.19138228701287849 0.14461103117120311 0 0.19996329681344399 0.160416909441601 0 0.19138228701287849 0.14461103117120311 0 0.1939758213121906 0.1435310420930529 0 0.2197013820994709 0.14720657512863261 0 0.19225480333296779 0.137731581752848 0 0.19138228701287849 0.14461103117120311 0 0.1939758213121906 0.1435310420930529 0 0.19138228701287849 0.14461103117120311 0 0.1939758213121906 0.1435310420930529 0 0.17970147406593759 0.15916468197935521 0 0.19996329681344399 0.160416909441601 0 0.19009851561998109 0.17546705170333859 0 0.19996329681344399 0.160416909441601 0 0.19009851561998109 0.17546705170333859 0 0.20950303158443601 0.17060862998040069 0 0.17970147406593759 0.15916468197935521 0 0.19996329681344399 0.160416909441601 0 0.1921007491770006 0.19413511782623061 0 0.19009851561998109 0.17546705170333859 0 0.21508853132578909 0.18630480878971589 0 0.19009851561998109 0.17546705170333859 0 0.21508853132578909 0.18630480878971589 0 0.20950303158443601 0.17060862998040069 0 0.21508853132578909 0.18630480878971589 0 0.20950303158443601 0.17060862998040069 0 0.2262564526410854 0.1725101510884221 0 0.19996329681344399 0.160416909441601 0 0.22022511956095039 0.16166913690384679 0 0.2197013820994709 0.14720657512863261 0 0.19996329681344399 0.160416909441601 0 0.22022511956095039 0.16166913690384679 0 0.20950303158443601 0.17060862998040069 0 0.22022511956095039 0.16166913690384679 0 0.2262564526410854 0.1725101510884221 0 0.19996329681344399 0.160416909441601 0 0.20950303158443601 0.17060862998040069 0 0.22022511956095039 0.16166913690384679 0 0.22022511956095039 0.16166913690384679 0 0.23219216216083469 0.16070882341124321 0 0.2197013820994709 0.14720657512863261 0 0.23219216216083469 0.16070882341124321 0 0.2262564526410854 0.1725101510884221 0 0.24394273923527451 0.1708090208874482 0 0.22022511956095039 0.16166913690384679 0 0.23219216216083469 0.16070882341124321 0 0.2262564526410854 0.1725101510884221 0 0.21508853132578909 0.18630480878971589 0 0.2262564526410854 0.1725101510884221 0 0.23658713197922801 0.1849604865578777 0 0.2262564526410854 0.1725101510884221 0 0.23658713197922801 0.1849604865578777 0 0.24394273923527451 0.1708090208874482 0 0.23658713197922801 0.1849604865578777 0 0.24394273923527451 0.1708090208874482 0 0.25069145747160237 0.17986975870422739 0 0.24443808169503289 0.19165573435540739 0 0.23658713197922801 0.1849604865578777 0 0.25069145747160237 0.17986975870422739 0 0.23219216216083469 0.16070882341124321 0 0.24394273923527451 0.1708090208874482 0 0.24802047718606329 0.14980211908606039 0 0.24802047718606329 0.14980211908606039 0 0.2197013820994709 0.14720657512863261 0 0.23748423865396681 0.1372069433891186 0 0.24802047718606329 0.14980211908606039 0 0.23748423865396681 0.1372069433891186 0 0.23219216216083469 0.16070882341124321 0 0.24802047718606329 0.14980211908606039 0 0.2197013820994709 0.14720657512863261 0 0.24802047718606329 0.14980211908606039 0 0.2197013820994709 0.14720657512863261 0 0.2166933327952508 0.13146831334115849 0 0.23748423865396681 0.1372069433891186 0 0.2269480001218708 0.1246117676921763 0 0.2166933327952508 0.13146831334115849 0 0.2197013820994709 0.14720657512863261 0 0.23748423865396681 0.1372069433891186 0 0.23748423865396681 0.1372069433891186 0 0.2269480001218708 0.1246117676921763 0 0.23748423865396681 0.1372069433891186 0 0.23787758618680691 0.12376630322824581 0 0.2269480001218708 0.1246117676921763 0 0.24802047718606329 0.14980211908606039 0 0.23748423865396681 0.1372069433891186 0 0.25370366287882878 0.1241816415692342 0 0.23748423865396681 0.1372069433891186 0 0.23787758618680691 0.12376630322824581 0 0.25370366287882878 0.1241816415692342 0 0.24537668551697431 0.097277083683747018 0 0.23337444309256139 0.1090648602624541 0 0.25370366287882878 0.1241816415692342 0 0.24537668551697431 0.097277083683747018 0 0.25370366287882878 0.1241816415692342 0 0.23787758618680691 0.12376630322824581 0 0.23337444309256139 0.1090648602624541 0 0.25370366287882878 0.1241816415692342 0 0.24537668551697431 0.097277083683747018 0 0.23337444309256139 0.1090648602624541 0 0.22484289426170589 0.086614640480542404 0 0.23337444309256139 0.1090648602624541 0 0.21826071202707401 0.1016769895838342 0 0.22484289426170589 0.086614640480542404 0 0.23337444309256139 0.1090648602624541 0 0.21899261390952071 0.1157063141952675 0 0.21826071202707401 0.1016769895838342 0 0.2166933327952508 0.13146831334115849 0 0.2269480001218708 0.1246117676921763 0 0.21899261390952071 0.1157063141952675 0 0.23787758618680691 0.12376630322824581 0 0.23337444309256139 0.1090648602624541 0 0.2269480001218708 0.1246117676921763 0 0.23337444309256139 0.1090648602624541 0 0.2269480001218708 0.1246117676921763 0 0.21899261390952071 0.1157063141952675 0 0.20603233854846789 0.12643210165642249 0 0.21899261390952071 0.1157063141952675 0 0.20619401079708341 0.1103047766005421 0 0.2166933327952508 0.13146831334115849 0 0.20603233854846789 0.12643210165642249 0 0.21899261390952071 0.1157063141952675 0 0.20619401079708341 0.1103047766005421 0 0.20469956129863859 0.094216075576966402 0 0.21826071202707401 0.1016769895838342 0 0.21899261390952071 0.1157063141952675 0 0.20619401079708341 0.1103047766005421 0 0.21826071202707401 0.1016769895838342 0 0.20469956129863859 0.094216075576966402 0 0.21826071202707401 0.1016769895838342 0 0.22484289426170589 0.086614640480542404 0 0.20469956129863859 0.094216075576966402 0 0.1920226837756919 0.1062731432897658 0 0.18562998291260069 0.083724599791867624 0 0.20619401079708341 0.1103047766005421 0 0.20469956129863859 0.094216075576966402 0 0.1920226837756919 0.1062731432897658 0 0.1920226837756919 0.1062731432897658 0 0.19603586944622961 0.11914225126713909 0 0.18282874988353909 0.12176719670840121 0 0.20603233854846789 0.12643210165642249 0 0.20619401079708341 0.1103047766005421 0 0.19603586944622961 0.11914225126713909 0 0.19400001601888209 0.1301444430180784 0 0.19603586944622961 0.11914225126713909 0 0.18282874988353909 0.12176719670840121 0 0.20619401079708341 0.1103047766005421 0 0.1920226837756919 0.1062731432897658 0 0.19603586944622961 0.11914225126713909 0 0.19477888427106471 0.068028226971776184 0 0.20783404156105389 0.078077887697304768 0 0.18562998291260069 0.083724599791867624 0 0.20469956129863859 0.094216075576966402 0 0.20783404156105389 0.078077887697304768 0 0.18562998291260069 0.083724599791867624 0 0.20469956129863859 0.094216075576966402 0 0.20783404156105389 0.078077887697304768 0 0.22484289426170589 0.086614640480542404 0 0.20783404156105389 0.078077887697304768 0 0.2213202312424721 0.066581526905057059 0 0.20805697342917059 0.059178341543759817 0 0.20783404156105389 0.078077887697304768 0 0.2213202312424721 0.066581526905057059 0 0.22484289426170589 0.086614640480542404 0 0.19477888427106471 0.068028226971776184 0 0.20783404156105389 0.078077887697304768 0 0.20805697342917059 0.059178341543759817 0 0.2213202312424721 0.066581526905057059 0 0.23704970815511969 0.070372525798259866 0 0.2300545306497668 0.055557326715756347 0 0.2213202312424721 0.066581526905057059 0 0.22484289426170589 0.086614640480542404 0 0.23704970815511969 0.070372525798259866 0 0.24537668551697431 0.097277083683747018 0 0.22484289426170589 0.086614640480542404 0 0.23704970815511969 0.070372525798259866 0 0.24537668551697431 0.097277083683747018 0 0.23704970815511969 0.070372525798259866 0 0.25923100858263742 0.079351551944828513 0 0.24537668551697431 0.097277083683747018 0 0.23704970815511969 0.070372525798259866 0 0.23704970815511969 0.070372525798259866 0 0.24612717135886061 0.053158967820149818 0 0.25923100858263742 0.079351551944828513 0 0.23704970815511969 0.070372525798259866 0 0.24612717135886061 0.053158967820149818 0 0.2300545306497668 0.055557326715756347 0 0.24612717135886061 0.053158967820149818 0 0.22874243829254329 0.043439904086905012 0 0.2300545306497668 0.055557326715756347 0 0.24612717135886061 0.053158967820149818 0 0.24915942417082321 0.043562136642382059 0 0.25194780840825542 0.047502886957762752 0 0.24612717135886061 0.053158967820149818 0 0.2330233341350838 0.026966383695471149 0 0.24915942417082321 0.043562136642382059 0 0.24442705739527931 0.034620488068712277 0 0.25585841565974538 0.042233258010133973 0 0.24442705739527931 0.034620488068712277 0 0.2489069739425 0.021637400389674748 0 0.25585841565974538 0.042233258010133973 0 0.24612717135886061 0.053158967820149818 0 0.24442705739527931 0.034620488068712277 0 0.2330233341350838 0.026966383695471149 0 0.24612717135886061 0.053158967820149818 0 0.24915942417082321 0.043562136642382059 0 0.24442705739527931 0.034620488068712277 0 0.24612717135886061 0.053158967820149818 0 0.22874243829254329 0.043439904086905012 0 0.2330233341350838 0.026966383695471149 0 0.22874243829254329 0.043439904086905012 0 0.2330233341350838 0.026966383695471149 0 0.21578861999574539 0.032179983081358873 0 0.22874243829254329 0.043439904086905012 0 0.21871853532325961 0.049336859121788867 0 0.21578861999574539 0.032179983081358873 0 0.22874243829254329 0.043439904086905012 0 0.2300545306497668 0.055557326715756347 0 0.21871853532325961 0.049336859121788867 0 0.2213202312424721 0.066581526905057059 0 0.2300545306497668 0.055557326715756347 0 0.21871853532325961 0.049336859121788867 0 0.2489069739425 0.021637400389674748 0 0.2403210271001277 -0.0038011986657945939 0 0.2489069739425 0.021637400389674748 0 0.25900523844679291 0.0090906536209348996 0 0.2403210271001277 -0.0038011986657945939 0 0.23441323542690259 0.011205599980234709 0 0.2489069739425 0.021637400389674748 0 0.2403210271001277 -0.0038011986657945939 0 0.23441323542690259 0.011205599980234709 0 0.24019265022494121 0.023607468033523541 0 0.2330233341350838 0.026966383695471149 0 0.23441323542690259 0.011205599980234709 0 0.2489069739425 0.021637400389674748 0 0.23441323542690259 0.011205599980234709 0 0.2489069739425 0.021637400389674748 0 0.24019265022494121 0.023607468033523541 0 0.24442705739527931 0.034620488068712277 0 0.2489069739425 0.021637400389674748 0 0.24019265022494121 0.023607468033523541 0 0.24442705739527931 0.034620488068712277 0 0.24019265022494121 0.023607468033523541 0 0.2330233341350838 0.026966383695471149 0 0.2330233341350838 0.026966383695471149 0 0.2171386306806895 0.017395263111216398 0 0.21578861999574539 0.032179983081358873 0 0.23441323542690259 0.011205599980234709 0 0.2330233341350838 0.026966383695471149 0 0.21991949691130641 0.00077379957079282309 0 0.2330233341350838 0.026966383695471149 0 0.21991949691130641 0.00077379957079282309 0 0.2171386306806895 0.017395263111216398 0 0.2330233341350838 0.026966383695471149 0 0.21991949691130641 0.00077379957079282309 0 0.23441323542690259 0.011205599980234709 0 0.21991949691130641 0.00077379957079282309 0 0.2403210271001277 -0.0038011986657945939 0 0.23441323542690259 0.011205599980234709 0 0.21991949691130641 0.00077379957079282309 0 0.21991949691130641 0.00077379957079282309 0 0.21233724185039379 0.0083260795074358591 0 0.2171386306806895 0.017395263111216398 0 0.1913914811785945 0.0015479160267864781 0 0.21709144706251299 -0.0012616760615819459 0 0.21233724185039379 0.0083260795074358591 0 0.1913914811785945 0.0015479160267864781 0 0.21709144706251299 -0.0012616760615819459 0 0.21991949691130641 0.00077379957079282309 0 0.21233724185039379 0.0083260795074358591 0 0.21709144706251299 -0.0012616760615819459 0 0.21233724185039379 0.0083260795074358591 0 0.20462446051091829 0.018730069701022731 0 0.2171386306806895 0.017395263111216398 0 0.20462446051091829 0.018730069701022731 0 0.21578861999574539 0.032179983081358873 0 0.19600975553610309 0.033109727657073172 0 0.20462446051091829 0.018730069701022731 0 0.2171386306806895 0.017395263111216398 0 0.21578861999574539 0.032179983081358873 0 0.20462446051091829 0.018730069701022731 0 0.18949896143577891 0.016667400663256809 0 0.19600975553610309 0.033109727657073172 0 0.18949896143577891 0.016667400663256809 0 0.19600975553610309 0.033109727657073172 0 0.17707217964719771 0.025267716345226881 0 0.20462446051091829 0.018730069701022731 0 0.18949896143577891 0.016667400663256809 0 0.1913914811785945 0.0015479160267864781 0 0.21233724185039379 0.0083260795074358591 0 0.20462446051091829 0.018730069701022731 0 0.1913914811785945 0.0015479160267864781 0 0.2213202312424721 0.066581526905057059 0 0.20805697342917059 0.059178341543759817 0 0.21871853532325961 0.049336859121788867 0 0.20805697342917059 0.059178341543759817 0 0.2071731341036451 0.043988411023532258 0 0.1951942265281848 0.052365244609145413 0 0.20805697342917059 0.059178341543759817 0 0.21871853532325961 0.049336859121788867 0 0.2071731341036451 0.043988411023532258 0 0.21578861999574539 0.032179983081358873 0 0.2071731341036451 0.043988411023532258 0 0.19600975553610309 0.033109727657073172 0 0.21871853532325961 0.049336859121788867 0 0.21578861999574539 0.032179983081358873 0 0.2071731341036451 0.043988411023532258 0 0.19600975553610309 0.033109727657073172 0 0.1951942265281848 0.052365244609145413 0 0.18205947828297289 0.04260924739081328 0 0.2071731341036451 0.043988411023532258 0 0.19600975553610309 0.033109727657073172 0 0.1951942265281848 0.052365244609145413 0 0.19477888427106471 0.068028226971776184 0 0.20805697342917059 0.059178341543759817 0 0.1951942265281848 0.052365244609145413 0 0.19477888427106471 0.068028226971776184 0 0.1951942265281848 0.052365244609145413 0 0.1764837945120816 0.061910742511003793 0 0.1951942265281848 0.052365244609145413 0 0.1764837945120816 0.061910742511003793 0 0.18205947828297289 0.04260924739081328 0 0.1764837945120816 0.061910742511003793 0 0.18205947828297289 0.04260924739081328 0 0.16553743519129729 0.040392805831617133 0 0.18205947828297289 0.04260924739081328 0 0.16553743519129729 0.040392805831617133 0 0.17707217964719771 0.025267716345226881 0 0.19600975553610309 0.033109727657073172 0 0.18205947828297289 0.04260924739081328 0 0.17707217964719771 0.025267716345226881 0 0.16553743519129729 0.040392805831617133 0 0.1613139894326964 0.024121653580078981 0 0.1482006011997502 0.031747138067586222 0 0.1764837945120816 0.061910742511003793 0 0.16553743519129729 0.040392805831617133 0 0.15002216982279071 0.058334232048501217 0 0.177795833794237 0.0058736288592868176 0 0.17707217964719771 0.025267716345226881 0 0.16471785852727919 0.01090484445761932 0 0.18949896143577891 0.016667400663256809 0 0.1913914811785945 0.0015479160267864781 0 0.177795833794237 0.0058736288592868176 0 0.18949896143577891 0.016667400663256809 0 0.177795833794237 0.0058736288592868176 0 0.17707217964719771 0.025267716345226881 0 0.16553743519129729 0.040392805831617133 0 0.17707217964719771 0.025267716345226881 0 0.1613139894326964 0.024121653580078981 0 0.17707217964719771 0.025267716345226881 0 0.1613139894326964 0.024121653580078981 0 0.16471785852727919 0.01090484445761932 0 0.1613139894326964 0.024121653580078981 0 0.16471785852727919 0.01090484445761932 0 0.1510418725979574 0.012295763198345371 0 0.16471785852727919 0.01090484445761932 0 0.15628357420278671 0.003810722324721363 0 0.1510418725979574 0.012295763198345371 0 0.16471785852727919 0.01090484445761932 0 0.15628357420278671 0.003810722324721363 0 0.16638725000284621 -0.0041024332455818144 0 0.177795833794237 0.0058736288592868176 0 0.16471785852727919 0.01090484445761932 0 0.16638725000284621 -0.0041024332455818144 0 0.15628357420278671 0.003810722324721363 0 0.1463790325767105 0.0051600440866713393 0 0.1510418725979574 0.012295763198345371 0 0.15628357420278671 0.003810722324721363 0 0.1463790325767105 0.0051600440866713393 0 0.15462421245165581 -0.0058893527151400796 0 0.1463790325767105 0.0051600440866713393 0 0.1510418725979574 0.012295763198345371 0 0.1613139894326964 0.024121653580078981 0 0.1510418725979574 0.012295763198345371 0 0.1482006011997502 0.031747138067586222 0 0.1463790325767105 0.0051600440866713393 0 0.1482006011997502 0.031747138067586222 0 0.1463790325767105 0.0051600440866713393 0 0.1510418725979574 0.012295763198345371 0 0.1482006011997502 0.031747138067586222 0 0.1463790325767105 0.0051600440866713393 0 0.13437116548480091 0.018926778797625429 0 0.1482006011997502 0.031747138067586222 0 0.11744308668179609 0.017774871344802521 0 0.13437116548480091 0.018926778797625429 0 0.12506256882025399 0.035699134337412737 0 0.13437116548480091 0.018926778797625429 0 0.1482006011997502 0.031747138067586222 0 0.12506256882025399 0.035699134337412737 0 0.11744308668179609 0.017774871344802521 0 0.13437116548480091 0.018926778797625429 0 0.12681727907172599 0.0028609529651058472 0 0.1463790325767105 0.0051600440866713393 0 0.13437116548480091 0.018926778797625429 0 0.12681727907172599 0.0028609529651058472 0 0.15002216982279071 0.058334232048501217 0 0.1482006011997502 0.031747138067586222 0 0.13318341665519781 0.054736537254868822 0 0.16553743519129729 0.040392805831617133 0 0.15002216982279071 0.058334232048501217 0 0.1482006011997502 0.031747138067586222 0 0.15002216982279071 0.058334232048501217 0 0.1482006011997502 0.031747138067586222 0 0.1482006011997502 0.031747138067586222 0 0.12506256882025399 0.035699134337412737 0 0.13318341665519781 0.054736537254868822 0 0.1220245952479405 0.07004619687739172 0 0.13318341665519781 0.054736537254868822 0 0.140451324603005 0.079388379798429956 0 0.15002216982279071 0.058334232048501217 0 0.13318341665519781 0.054736537254868822 0 0.140451324603005 0.079388379798429956 0 0.15002216982279071 0.058334232048501217 0 0.140451324603005 0.079388379798429956 0 0.16236977351405571 0.08420317597119574 0 0.140451324603005 0.079388379798429956 0 0.13376660142800201 0.097128283387147629 0 0.1539803846384532 0.10268384485881291 0 0.140451324603005 0.079388379798429956 0 0.1539803846384532 0.10268384485881291 0 0.16236977351405571 0.08420317597119574 0 0.1175203890912727 0.086079419998433368 0 0.140451324603005 0.079388379798429956 0 0.13376660142800201 0.097128283387147629 0 0.1175203890912727 0.086079419998433368 0 0.1220245952479405 0.07004619687739172 0 0.140451324603005 0.079388379798429956 0 0.13376660142800201 0.097128283387147629 0 0.13278919984088661 0.11230677671938701 0 0.1539803846384532 0.10268384485881291 0 0.1204523462490521 0.10350528248164099 0 0.13376660142800201 0.097128283387147629 0 0.13278919984088661 0.11230677671938701 0 0.12877089149896251 0.12628235461406201 0 0.13278919984088661 0.11230677671938701 0 0.14559099576285081 0.1211645137464301 0 0.11923934643535521 0.1171320194813406 0 0.12877089149896251 0.12628235461406201 0 0.13278919984088661 0.11230677671938701 0 0.14559099576285081 0.1211645137464301 0 0.1539803846384532 0.10268384485881291 0 0.15632661280319129 0.13068902382275449 0 0.14559099576285081 0.1211645137464301 0 0.1644083134929788 0.12014259939932 0 0.13278919984088661 0.11230677671938701 0 0.14559099576285081 0.1211645137464301 0 0.1539803846384532 0.10268384485881291 0 0.14559099576285081 0.1211645137464301 0 0.1539803846384532 0.10268384485881291 0 0.1644083134929788 0.12014259939932 0 0.1539803846384532 0.10268384485881291 0 0.1644083134929788 0.12014259939932 0 0.1735399813695532 0.1031324266698939 0 0.1539803846384532 0.10268384485881291 0 0.1735399813695532 0.1031324266698939 0 0.16236977351405571 0.08420317597119574 0 0.1644083134929788 0.12014259939932 0 0.18282874988353909 0.12176719670840121 0 0.1735399813695532 0.1031324266698939 0 0.17014020092281509 0.1303647164313487 0 0.1644083134929788 0.12014259939932 0 0.18282874988353909 0.12176719670840121 0 0.1920226837756919 0.1062731432897658 0 0.18282874988353909 0.12176719670840121 0 0.1735399813695532 0.1031324266698939 0 0.1920226837756919 0.1062731432897658 0 0.1735399813695532 0.1031324266698939 0 0.18562998291260069 0.083724599791867624 0 0.1735399813695532 0.1031324266698939 0 0.18562998291260069 0.083724599791867624 0 0.16236977351405571 0.08420317597119574 0 0.1764837945120816 0.061910742511003793 0 0.18562998291260069 0.083724599791867624 0 0.16236977351405571 0.08420317597119574 0 0.19477888427106471 0.068028226971776184 0 0.1764837945120816 0.061910742511003793 0 0.18562998291260069 0.083724599791867624 0 0.1764837945120816 0.061910742511003793 0 0.15002216982279071 0.058334232048501217 0 0.16236977351405571 0.08420317597119574 0 0.1539803846384532 0.10268384485881291 0 0.16236977351405571 0.08420317597119574 0 0.1048222847563673 0.4786668097115272 0 0.091479988498646442 0.48354315307299939 0 0.09327677099031946 0.46903920507515112 0 0.1048222847563673 0.4786668097115272 0 0.10316008329641591 0.49260778903299252 0 0.092978519966910561 0.49654355170423659 0 0.1048222847563673 0.4786668097115272 0 0.092978519966910561 0.49654355170423659 0 0.1048222847563673 0.4786668097115272 0 0.091479988498646442 0.48354315307299939 0 0.092978519966910561 0.49654355170423659 0 0.10316008329641591 0.49260778903299252 0 0.10312521592474901 0.5 0 0.092978519966910561 0.49654355170423659 0 0.10316008329641591 0.49260778903299252 0 0.10312521592474901 0.5 0 0.1137569863567818 0.48891352741171218 0 0.1048222847563673 0.4786668097115272 0 0.10316008329641591 0.49260778903299252 0 0.1137569863567818 0.48891352741171218 0 0.1048222847563673 0.4786668097115272 0 0.10316008329641591 0.49260778903299252 0 0.1137569863567818 0.48891352741171218 0 0.12567845600013469 0.47929569400969452 0 0.1306299125622308 0.5 0 0.10312521592474901 0.5 0 0.1137569863567818 0.48891352741171218 0 0.1306299125622308 0.5 0 0.1048222847563673 0.4786668097115272 0 0.11648320602364499 0.46106604807885698 0 0.12567845600013469 0.47929569400969452 0 0.1048222847563673 0.4786668097115272 0 0.1137569863567818 0.48891352741171218 0 0.12567845600013469 0.47929569400969452 0 0.1048222847563673 0.4786668097115272 0 0.11648320602364499 0.46106604807885698 0 0.1048222847563673 0.4786668097115272 0 0.11648320602364499 0.46106604807885698 0 0.1073203574995146 0.45771532982499841 0 0.1119099515656637 0.4541769576285038 0 0.11648320602364499 0.46106604807885698 0 0.1073203574995146 0.45771532982499841 0 0.1119099515656637 0.4541769576285038 0 0.11648320602364499 0.46106604807885698 0 0.128144127290927 0.44346528644618949 0 0.1119099515656637 0.4541769576285038 0 0.1098184302426566 0.43676384993846878 0 0.128144127290927 0.44346528644618949 0 0.1119099515656637 0.4541769576285038 0 0.1073203574995146 0.45771532982499841 0 0.1098184302426566 0.43676384993846878 0 0.11648320602364499 0.46106604807885698 0 0.128144127290927 0.44346528644618949 0 0.1119099515656637 0.4541769576285038 0 0.1098184302426566 0.43676384993846878 0 0.1007171253458153 0.44820701469258212 0 0.1073203574995146 0.45771532982499841 0 0.1098184302426566 0.43676384993846878 0 0.1073203574995146 0.45771532982499841 0 0.1098184302426566 0.43676384993846878 0 0.1007171253458153 0.44820701469258212 0 0.097642268156116166 0.44157878137516282 0 0.1098184302426566 0.43676384993846878 0 0.097642268156116166 0.44157878137516282 0 0.1020591419526216 0.43422428691783338 0 0.1098184302426566 0.43676384993846878 0 0.097642268156116166 0.44157878137516282 0 0.1098184302426566 0.43676384993846878 0 0.09475968248970798 0.44694335582238792 0 0.1007171253458153 0.44820701469258212 0 0.092889002414179245 0.45276651635374332 0 0.1007171253458153 0.44820701469258212 0 0.096868601935243229 0.45789063626048049 0 0.092889002414179245 0.45276651635374332 0 0.09475968248970798 0.44694335582238792 0 0.1007171253458153 0.44820701469258212 0 0.097642268156116166 0.44157878137516282 0 0.09475968248970798 0.44694335582238792 0 0.097642268156116166 0.44157878137516282 0 0.088987703810336438 0.44500113512203671 0 0.1007171253458153 0.44820701469258212 0 0.097642268156116166 0.44157878137516282 0 0.1048222847563673 0.4786668097115272 0 0.1073203574995146 0.45771532982499841 0 0.09327677099031946 0.46903920507515112 0 0.1048222847563673 0.4786668097115272 0 0.1073203574995146 0.45771532982499841 0 0.1007171253458153 0.44820701469258212 0 0.1073203574995146 0.45771532982499841 0 0.096868601935243229 0.45789063626048049 0 0.1073203574995146 0.45771532982499841 0 0.096868601935243229 0.45789063626048049 0 0.09327677099031946 0.46903920507515112 0 0.090139753426387581 0.46172511535592747 0 0.079256630923375745 0.46616111205340521 0 0.09327677099031946 0.46903920507515112 0 0.096868601935243229 0.45789063626048049 0 0.090139753426387581 0.46172511535592747 0 0.09327677099031946 0.46903920507515112 0 0.090139753426387581 0.46172511535592747 0 0.092889002414179245 0.45276651635374332 0 0.081384578054001289 0.45283886102268139 0 0.096868601935243229 0.45789063626048049 0 0.090139753426387581 0.46172511535592747 0 0.092889002414179245 0.45276651635374332 0 0.090139753426387581 0.46172511535592747 0 0.079256630923375745 0.46616111205340521 0 0.081384578054001289 0.45283886102268139 0 0.088987703810336438 0.44500113512203671 0 0.082419728037930629 0.44071508101891732 0 0.08961571608665983 0.43565438773200948 0 0.097642268156116166 0.44157878137516282 0 0.088987703810336438 0.44500113512203671 0 0.097642268156116166 0.44157878137516282 0 0.088987703810336438 0.44500113512203671 0 0.08961571608665983 0.43565438773200948 0 0.088987703810336438 0.44500113512203671 0 0.092889002414179245 0.45276651635374332 0 0.081384578054001289 0.45283886102268139 0 0.09475968248970798 0.44694335582238792 0 0.088987703810336438 0.44500113512203671 0 0.092889002414179245 0.45276651635374332 0 0.088987703810336438 0.44500113512203671 0 0.081384578054001289 0.45283886102268139 0 0.082419728037930629 0.44071508101891732 0 0.067599685253138281 0.45287595272104653 0 0.081892131328371143 0.4314429342789402 0 0.067599685253138281 0.45287595272104653 0 0.066001473138610989 0.43632828312433408 0 0.081892131328371143 0.4314429342789402 0 0.082419728037930629 0.44071508101891732 0 0.067599685253138281 0.45287595272104653 0 0.081892131328371143 0.4314429342789402 0 0.081384578054001289 0.45283886102268139 0 0.082419728037930629 0.44071508101891732 0 0.067599685253138281 0.45287595272104653 0 0.079256630923375745 0.46616111205340521 0 0.067599685253138281 0.45287595272104653 0 0.069001794002684108 0.47224329730437981 0 0.067599685253138281 0.45287595272104653 0 0.069001794002684108 0.47224329730437981 0 0.053307239177905349 0.47430897116315313 0 0.079256630923375745 0.46616111205340521 0 0.081384578054001289 0.45283886102268139 0 0.067599685253138281 0.45287595272104653 0 0.069001794002684108 0.47224329730437981 0 0.079794243665170225 0.47979706117662119 0 0.065051170993830898 0.48807338940767292 0 0.079256630923375745 0.46616111205340521 0 0.069001794002684108 0.47224329730437981 0 0.079794243665170225 0.47979706117662119 0 0.079256630923375745 0.46616111205340521 0 0.079794243665170225 0.47979706117662119 0 0.09327677099031946 0.46903920507515112 0 0.079794243665170225 0.47979706117662119 0 0.091479988498646442 0.48354315307299939 0 0.09327677099031946 0.46903920507515112 0 0.092978519966910561 0.49654355170423659 0 0.084553660660575528 0.49009386622585083 0 0.075620519287267318 0.5 0 0.10312521592474901 0.5 0 0.092978519966910561 0.49654355170423659 0 0.075620519287267318 0.5 0 0.091479988498646442 0.48354315307299939 0 0.092978519966910561 0.49654355170423659 0 0.084553660660575528 0.49009386622585083 0 0.079794243665170225 0.47979706117662119 0 0.091479988498646442 0.48354315307299939 0 0.084553660660575528 0.49009386622585083 0 0.079794243665170225 0.47979706117662119 0 0.084553660660575528 0.49009386622585083 0 0.065051170993830898 0.48807338940767292 0 0.065051170993830898 0.48807338940767292 0 0.075620519287267318 0.5 0 0.048115822649785527 0.5 0 0.084553660660575528 0.49009386622585083 0 0.065051170993830898 0.48807338940767292 0 0.075620519287267318 0.5 0 0.065051170993830898 0.48807338940767292 0 0.048115822649785527 0.5 0 0.053307239177905349 0.47430897116315313 0 0.069001794002684108 0.47224329730437981 0 0.065051170993830898 0.48807338940767292 0 0.053307239177905349 0.47430897116315313 0 0.053307239177905349 0.47430897116315313 0 0.036467756559221701 0.47774208688151631 0 0.038707058205945111 0.46145460703462421 0 0.036467756559221701 0.47774208688151631 0 0.024551868698660679 0.47115282030446087 0 0.038707058205945111 0.46145460703462421 0 0.053307239177905349 0.47430897116315313 0 0.036467756559221701 0.47774208688151631 0 0.039014793102672522 0.49574198960525939 0 0.053307239177905349 0.47430897116315313 0 0.039014793102672522 0.49574198960525939 0 0.048115822649785527 0.5 0 0.053307239177905349 0.47430897116315313 0 0.039014793102672522 0.49574198960525939 0 0.048115822649785527 0.5 0 0.039014793102672522 0.49574198960525939 0 0.020611126012303801 0.5 0 0.036467756559221701 0.47774208688151631 0 0.039014793102672522 0.49574198960525939 0 0.026757823610924832 0.48605204630008392 0 0.039014793102672522 0.49574198960525939 0 0.020611126012303801 0.5 0 0.026757823610924832 0.48605204630008392 0 0.020611126012303801 0.5 0 0.026757823610924832 0.48605204630008392 0 0.01184792134048173 0.48364435332619582 0 0.036467756559221701 0.47774208688151631 0 0.026757823610924832 0.48605204630008392 0 0.024551868698660679 0.47115282030446087 0 0.024551868698660679 0.47115282030446087 0 0.01184792134048173 0.48364435332619582 0 0.0113986727330041 0.46548394976725249 0 0.026757823610924832 0.48605204630008392 0 0.024551868698660679 0.47115282030446087 0 0.01184792134048173 0.48364435332619582 0 -0.003089566724048357 0.47326761514296101 0 0.01184792134048173 0.48364435332619582 0 0.0113986727330041 0.46548394976725249 0 -0.0068935706251778139 0.5 0 -0.003089566724048357 0.47326761514296101 0 0.01184792134048173 0.48364435332619582 0 -0.0068935706251778139 0.5 0 0.020611126012303801 0.5 0 0.01184792134048173 0.48364435332619582 0 -0.0072392309157056894 0.43649428994281841 0 0.0026031304198410629 0.45131346537392758 0 0.017959463550051329 0.43401198815683267 0 0.0026031304198410629 0.45131346537392758 0 0.021372524407465811 0.45253342051953771 0 0.017959463550051329 0.43401198815683267 0 0.0026031304198410629 0.45131346537392758 0 0.0113986727330041 0.46548394976725249 0 0.021372524407465811 0.45253342051953771 0 -0.003089566724048357 0.47326761514296101 0 0.0026031304198410629 0.45131346537392758 0 0.0113986727330041 0.46548394976725249 0 0.024551868698660679 0.47115282030446087 0 0.0113986727330041 0.46548394976725249 0 0.021372524407465811 0.45253342051953771 0 0.024551868698660679 0.47115282030446087 0 0.021372524407465811 0.45253342051953771 0 0.038707058205945111 0.46145460703462421 0 0.021372524407465811 0.45253342051953771 0 0.037958531274121507 0.44366308696102769 0 0.017959463550051329 0.43401198815683267 0 0.037958531274121507 0.44366308696102769 0 0.05227214254911447 0.45021359508833869 0 0.050058868244965561 0.43265066952584708 0 0.021372524407465811 0.45253342051953771 0 0.037958531274121507 0.44366308696102769 0 0.038707058205945111 0.46145460703462421 0 0.037958531274121507 0.44366308696102769 0 0.038707058205945111 0.46145460703462421 0 0.05227214254911447 0.45021359508833869 0 0.067599685253138281 0.45287595272104653 0 0.053307239177905349 0.47430897116315313 0 0.053307239177905349 0.47430897116315313 0 0.038707058205945111 0.46145460703462421 0 0.05227214254911447 0.45021359508833869 0 0.067599685253138281 0.45287595272104653 0 0.053307239177905349 0.47430897116315313 0 0.05227214254911447 0.45021359508833869 0 0.05227214254911447 0.45021359508833869 0 0.050058868244965561 0.43265066952584708 0 0.066001473138610989 0.43632828312433408 0 0.067599685253138281 0.45287595272104653 0 0.05227214254911447 0.45021359508833869 0 0.066001473138610989 0.43632828312433408 0 0.050058868244965561 0.43265066952584708 0 0.068804754243522781 0.41994166461739918 0 0.066001473138610989 0.43632828312433408 0 0.050058868244965561 0.43265066952584708 0 0.048852687291388877 0.41459777654824598 0 0.068804754243522781 0.41994166461739918 0 0.048852687291388877 0.41459777654824598 0 0.061313779414970418 0.39987885693449271 0 0.068804754243522781 0.41994166461739918 0 0.048852687291388877 0.41459777654824598 0 0.068804754243522781 0.41994166461739918 0 0.048852687291388877 0.41459777654824598 0 0.036746034139956453 0.42683548193420928 0 0.028900620339254991 0.40925388847909272 0 0.048852687291388877 0.41459777654824598 0 0.028900620339254991 0.40925388847909272 0 0.048852687291388877 0.41459777654824598 0 0.028900620339254991 0.40925388847909272 0 0.042007131815748507 0.39655655075565333 0 0.050058868244965561 0.43265066952584708 0 0.048852687291388877 0.41459777654824598 0 0.036746034139956453 0.42683548193420928 0 0.037958531274121507 0.44366308696102769 0 0.050058868244965561 0.43265066952584708 0 0.036746034139956453 0.42683548193420928 0 0.037958531274121507 0.44366308696102769 0 0.036746034139956453 0.42683548193420928 0 0.017959463550051329 0.43401198815683267 0 0.036746034139956453 0.42683548193420928 0 0.017959463550051329 0.43401198815683267 0 0.028900620339254991 0.40925388847909272 0 0.017959463550051329 0.43401198815683267 0 0.028900620339254991 0.40925388847909272 0 0.0059488009041311612 0.41735624870114602 0 0.028900620339254991 0.40925388847909272 0 0.0059488009041311612 0.41735624870114602 0 0.0058412231562265226 0.39891749499975832 0 -0.0081246324890641812 0.40805065625530412 0 0.0059488009041311612 0.41735624870114602 0 0.0058412231562265226 0.39891749499975832 0 -0.0072392309157056894 0.43649428994281841 0 0.017959463550051329 0.43401198815683267 0 0.0059488009041311612 0.41735624870114602 0 -0.0036227877329230301 0.37947700469323042 0 0.0058412231562265226 0.39891749499975832 0 0.017841208666312069 0.37762534579018298 0 0.028900620339254991 0.40925388847909272 0 0.0058412231562265226 0.39891749499975832 0 0.024450360446550148 0.39274026509825583 0 0.024450360446550148 0.39274026509825583 0 0.017841208666312069 0.37762534579018298 0 0.035089121590226528 0.38253825820529852 0 0.0058412231562265226 0.39891749499975832 0 0.024450360446550148 0.39274026509825583 0 0.017841208666312069 0.37762534579018298 0 0.035089121590226528 0.38253825820529852 0 0.042007131815748507 0.39655655075565333 0 0.051605655867250001 0.38149668432143541 0 0.035089121590226528 0.38253825820529852 0 0.051605655867250001 0.38149668432143541 0 0.039541251155271878 0.36427244506096468 0 0.024450360446550148 0.39274026509825583 0 0.035089121590226528 0.38253825820529852 0 0.042007131815748507 0.39655655075565333 0 0.028900620339254991 0.40925388847909272 0 0.024450360446550148 0.39274026509825583 0 0.042007131815748507 0.39655655075565333 0 0.048852687291388877 0.41459777654824598 0 0.042007131815748507 0.39655655075565333 0 0.061313779414970418 0.39987885693449271 0 0.042007131815748507 0.39655655075565333 0 0.061313779414970418 0.39987885693449271 0 0.051605655867250001 0.38149668432143541 0 0.051605655867250001 0.38149668432143541 0 0.071205150989249344 0.38459031979425368 0 0.062117748859898458 0.36500130546073062 0 0.061313779414970418 0.39987885693449271 0 0.051605655867250001 0.38149668432143541 0 0.071205150989249344 0.38459031979425368 0 0.071205150989249344 0.38459031979425368 0 0.082619379705498486 0.3760424233717975 0 0.075022727430642186 0.36942391052545742 0 0.082619379705498486 0.3760424233717975 0 0.089989672908486834 0.38531380646189939 0 0.096111415589441723 0.36906918257109511 0 0.071205150989249344 0.38459031979425368 0 0.082619379705498486 0.3760424233717975 0 0.089989672908486834 0.38531380646189939 0 0.071205150989249344 0.38459031979425368 0 0.089989672908486834 0.38531380646189939 0 0.080292553118600216 0.40417933412777668 0 0.089989672908486834 0.38531380646189939 0 0.080292553118600216 0.40417933412777668 0 0.098794269534858231 0.4008464147916751 0 0.071205150989249344 0.38459031979425368 0 0.080292553118600216 0.40417933412777668 0 0.061313779414970418 0.39987885693449271 0 0.071205150989249344 0.38459031979425368 0 0.080292553118600216 0.40417933412777668 0 0.061313779414970418 0.39987885693449271 0 0.080292553118600216 0.40417933412777668 0 0.068804754243522781 0.41994166461739918 0 0.068804754243522781 0.41994166461739918 0 0.066001473138610989 0.43632828312433408 0 0.081892131328371143 0.4314429342789402 0 0.068804754243522781 0.41994166461739918 0 0.088756821195656727 0.42528555268655249 0 0.089379955247950782 0.42376834846129979 0 0.068804754243522781 0.41994166461739918 0 0.081892131328371143 0.4314429342789402 0 0.088756821195656727 0.42528555268655249 0 0.068804754243522781 0.41994166461739918 0 0.088756821195656727 0.42528555268655249 0 0.097642268156116166 0.44157878137516282 0 0.090272059233259302 0.42569138845737808 0 0.08961571608665983 0.43565438773200948 0 0.082419728037930629 0.44071508101891732 0 0.088756821195656727 0.42528555268655249 0 0.082419728037930629 0.44071508101891732 0 0.081892131328371143 0.4314429342789402 0 0.088756821195656727 0.42528555268655249 0 0.088756821195656727 0.42528555268655249 0 0.090272059233259302 0.42569138845737808 0 0.08961571608665983 0.43565438773200948 0 0.089379955247950782 0.42376834846129979 0 0.090272059233259302 0.42569138845737808 0 0.100849049247472 0.42323949502706593 0 0.088756821195656727 0.42528555268655249 0 0.089379955247950782 0.42376834846129979 0 0.090272059233259302 0.42569138845737808 0 0.088756821195656727 0.42528555268655249 0 0.090272059233259302 0.42569138845737808 0 0.089379955247950782 0.42376834846129979 0 0.090272059233259302 0.42569138845737808 0 0.088756821195656727 0.42528555268655249 0 0.089379955247950782 0.42376834846129979 0 0.082419728037930629 0.44071508101891732 0 0.088756821195656727 0.42528555268655249 0 0.08961571608665983 0.43565438773200948 0 0.080292553118600216 0.40417933412777668 0 0.089379955247950782 0.42376834846129979 0 0.080292553118600216 0.40417933412777668 0 0.068804754243522781 0.41994166461739918 0 0.089379955247950782 0.42376834846129979 0 0.080292553118600216 0.40417933412777668 0 0.089379955247950782 0.42376834846129979 0 0.098794269534858231 0.4008464147916751 0 0.089379955247950782 0.42376834846129979 0 0.10179294521624289 0.41380452076605601 0 0.098794269534858231 0.4008464147916751 0 0.089379955247950782 0.42376834846129979 0 0.098794269534858231 0.4008464147916751 0 0.10179294521624289 0.41380452076605601 0 0.1107041231999616 0.42933549212480232 0 0.10945635351086461 0.40362998662342647 0 0.089379955247950782 0.42376834846129979 0 0.10179294521624289 0.41380452076605601 0 0.100849049247472 0.42323949502706593 0 0.097642268156116166 0.44157878137516282 0 0.090272059233259302 0.42569138845737808 0 0.1020591419526216 0.43422428691783338 0 0.090272059233259302 0.42569138845737808 0 0.1020591419526216 0.43422428691783338 0 0.1093682320879097 0.430806037006286 0 0.090272059233259302 0.42569138845737808 0 0.1093682320879097 0.430806037006286 0 0.090272059233259302 0.42569138845737808 0 0.100849049247472 0.42323949502706593 0 0.1093682320879097 0.430806037006286 0 0.097642268156116166 0.44157878137516282 0 0.090272059233259302 0.42569138845737808 0 0.100849049247472 0.42323949502706593 0 0.1093682320879097 0.430806037006286 0 0.1107041231999616 0.42933549212480232 0 0.10179294521624289 0.41380452076605601 0 0.100849049247472 0.42323949502706593 0 0.1107041231999616 0.42933549212480232 0 0.1020591419526216 0.43422428691783338 0 0.1093682320879097 0.430806037006286 0 0.1103398931765668 0.43239031029619718 0 0.1020591419526216 0.43422428691783338 0 0.1098184302426566 0.43676384993846878 0 0.1103398931765668 0.43239031029619718 0 0.1020591419526216 0.43422428691783338 0 0.1103398931765668 0.43239031029619718 0 0.1103398931765668 0.43239031029619718 0 0.1206950902667107 0.42206632785564402 0 0.13429496844172059 0.42708486797366702 0 0.1098184302426566 0.43676384993846878 0 0.1103398931765668 0.43239031029619718 0 0.13429496844172059 0.42708486797366702 0 0.1098184302426566 0.43676384993846878 0 0.13429496844172059 0.42708486797366702 0 0.128144127290927 0.44346528644618949 0 0.1103398931765668 0.43239031029619718 0 0.13429496844172059 0.42708486797366702 0 0.1098184302426566 0.43676384993846878 0 0.13429496844172059 0.42708486797366702 0 0.1098184302426566 0.43676384993846878 0 0.1103398931765668 0.43239031029619718 0 0.1093682320879097 0.430806037006286 0 0.1103398931765668 0.43239031029619718 0 0.1107041231999616 0.42933549212480232 0 0.1103398931765668 0.43239031029619718 0 0.1107041231999616 0.42933549212480232 0 0.1103398931765668 0.43239031029619718 0 0.1107041231999616 0.42933549212480232 0 0.1206950902667107 0.42206632785564402 0 0.1107041231999616 0.42933549212480232 0 0.10945635351086461 0.40362998662342647 0 0.1107041231999616 0.42933549212480232 0 0.1127079119913361 0.41252960019287183 0 0.10945635351086461 0.40362998662342647 0 0.1107041231999616 0.42933549212480232 0 0.1206950902667107 0.42206632785564402 0 0.1127079119913361 0.41252960019287183 0 0.1107041231999616 0.42933549212480232 0 0.1127079119913361 0.41252960019287183 0 0.1127079119913361 0.41252960019287183 0 0.11966152561727041 0.40521647558469348 0 0.10945635351086461 0.40362998662342647 0 0.1206950902667107 0.42206632785564402 0 0.1127079119913361 0.41252960019287183 0 0.1238244133614653 0.41259348140785829 0 0.1127079119913361 0.41252960019287183 0 0.1238244133614653 0.41259348140785829 0 0.11966152561727041 0.40521647558469348 0 0.10945635351086461 0.40362998662342647 0 0.12302526621810631 0.39483339242702431 0 0.1082085838217669 0.37792448112205068 0 0.11966152561727041 0.40521647558469348 0 0.12302526621810631 0.39483339242702431 0 0.1317921164680903 0.40545952647836342 0 0.11966152561727041 0.40521647558469348 0 0.10945635351086461 0.40362998662342647 0 0.12302526621810631 0.39483339242702431 0 0.12302526621810631 0.39483339242702431 0 0.1082085838217669 0.37792448112205068 0 0.12936302614305781 0.3806702380723882 0 0.1082085838217669 0.37792448112205068 0 0.1269429757455281 0.3700741961410311 0 0.12936302614305781 0.3806702380723882 0 0.089989672908486834 0.38531380646189939 0 0.1082085838217669 0.37792448112205068 0 0.098794269534858231 0.4008464147916751 0 0.089989672908486834 0.38531380646189939 0 0.1082085838217669 0.37792448112205068 0 0.096111415589441723 0.36906918257109511 0 0.1082085838217669 0.37792448112205068 0 0.098794269534858231 0.4008464147916751 0 0.10945635351086461 0.40362998662342647 0 0.1082085838217669 0.37792448112205068 0 0.098794269534858231 0.4008464147916751 0 0.10945635351086461 0.40362998662342647 0 0.1082085838217669 0.37792448112205068 0 0.10179294521624289 0.41380452076605601 0 0.10945635351086461 0.40362998662342647 0 0.098794269534858231 0.4008464147916751 0 0.1071786794515654 0.3567072543489932 0 0.10614877508136331 0.33549002757593549 0 0.1071786794515654 0.3567072543489932 0 0.113306419652784 0.34577619835524942 0 0.10614877508136331 0.33549002757593549 0 0.1071786794515654 0.3567072543489932 0 0.095546341163152998 0.34721348103654748 0 0.10614877508136331 0.33549002757593549 0 0.1071786794515654 0.3567072543489932 0 0.095546341163152998 0.34721348103654748 0 0.095306363846323322 0.35760506086541671 0 0.1082085838217669 0.37792448112205068 0 0.1071786794515654 0.3567072543489932 0 0.096111415589441723 0.36906918257109511 0 0.1082085838217669 0.37792448112205068 0 0.1071786794515654 0.3567072543489932 0 0.1071786794515654 0.3567072543489932 0 0.095306363846323322 0.35760506086541671 0 0.096111415589441723 0.36906918257109511 0 0.1082085838217669 0.37792448112205068 0 0.1071786794515654 0.3567072543489932 0 0.1164276567709608 0.35791271614101089 0 0.1082085838217669 0.37792448112205068 0 0.1207019799918789 0.36117572882690419 0 0.1269429757455281 0.3700741961410311 0 0.1082085838217669 0.37792448112205068 0 0.1207019799918789 0.36117572882690419 0 0.1164276567709608 0.35791271614101089 0 0.1082085838217669 0.37792448112205068 0 0.1164276567709608 0.35791271614101089 0 0.1207019799918789 0.36117572882690419 0 0.12020614592151201 0.35183052892485178 0 0.1164276567709608 0.35791271614101089 0 0.1207019799918789 0.36117572882690419 0 0.12020614592151201 0.35183052892485178 0 0.1327104347709552 0.34833671648866182 0 0.1071786794515654 0.3567072543489932 0 0.1164276567709608 0.35791271614101089 0 0.1142797254492055 0.35305667444252631 0 0.1071786794515654 0.3567072543489932 0 0.1142797254492055 0.35305667444252631 0 0.113306419652784 0.34577619835524942 0 0.12020614592151201 0.35183052892485178 0 0.1164276567709608 0.35791271614101089 0 0.1142797254492055 0.35305667444252631 0 0.12020614592151201 0.35183052892485178 0 0.1142797254492055 0.35305667444252631 0 0.113306419652784 0.34577619835524942 0 0.12020614592151201 0.35183052892485178 0 0.113306419652784 0.34577619835524942 0 0.12565642337597641 0.34531162420386119 0 0.113306419652784 0.34577619835524942 0 0.10614877508136331 0.33549002757593549 0 0.12728204636342119 0.33264440370185788 0 0.113306419652784 0.34577619835524942 0 0.12728204636342119 0.33264440370185788 0 0.12565642337597641 0.34531162420386119 0 0.1046413786221535 0.32421374287331212 0 0.10614877508136331 0.33549002757593549 0 0.12728204636342119 0.33264440370185788 0 0.1046413786221535 0.32421374287331212 0 0.12728204636342119 0.33264440370185788 0 0.1167242617350734 0.31677866348064548 0 0.1046413786221535 0.32421374287331212 0 0.12728204636342119 0.33264440370185788 0 0.1167242617350734 0.31677866348064548 0 0.1046413786221535 0.32421374287331212 0 0.1046413786221535 0.32421374287331212 0 0.077692308094581719 0.31417877058986282 0 0.103629968386694 0.31192557858664272 0 0.1167242617350734 0.31677866348064548 0 0.1046413786221535 0.32421374287331212 0 0.103629968386694 0.31192557858664272 0 0.1046413786221535 0.32421374287331212 0 0.08294133613319174 0.33756664360252769 0 0.1046413786221535 0.32421374287331212 0 0.10614877508136331 0.33549002757593549 0 0.08294133613319174 0.33756664360252769 0 0.095546341163152998 0.34721348103654748 0 0.10614877508136331 0.33549002757593549 0 0.08294133613319174 0.33756664360252769 0 0.1046413786221535 0.32421374287331212 0 0.077692308094581719 0.31417877058986282 0 0.1046413786221535 0.32421374287331212 0 0.08294133613319174 0.33756664360252769 0 0.077692308094581719 0.31417877058986282 0 0.077692308094581719 0.31417877058986282 0 0.067976715374811009 0.32361441744144559 0 0.058789612577710128 0.31476722793512929 0 0.08294133613319174 0.33756664360252769 0 0.077692308094581719 0.31417877058986282 0 0.067976715374811009 0.32361441744144559 0 0.08294133613319174 0.33756664360252769 0 0.067976715374811009 0.32361441744144559 0 0.060135280265193262 0.33376627043538171 0 0.08294133613319174 0.33756664360252769 0 0.061241293644231747 0.35091954433174621 0 0.060135280265193262 0.33376627043538171 0 0.08294133613319174 0.33756664360252769 0 0.061241293644231747 0.35091954433174621 0 0.08294133613319174 0.33756664360252769 0 0.074215767858206258 0.35718016320722129 0 0.061241293644231747 0.35091954433174621 0 0.074215767858206258 0.35718016320722129 0 0.062117748859898458 0.36500130546073062 0 0.061241293644231747 0.35091954433174621 0 0.08294133613319174 0.33756664360252769 0 0.074215767858206258 0.35718016320722129 0 0.086887140600208246 0.35260595290123381 0 0.074215767858206258 0.35718016320722129 0 0.086887140600208246 0.35260595290123381 0 0.085272644414092907 0.36373677956425621 0 0.095546341163152998 0.34721348103654748 0 0.095306363846323322 0.35760506086541671 0 0.086887140600208246 0.35260595290123381 0 0.095306363846323322 0.35760506086541671 0 0.086887140600208246 0.35260595290123381 0 0.085272644414092907 0.36373677956425621 0 0.095546341163152998 0.34721348103654748 0 0.08294133613319174 0.33756664360252769 0 0.086887140600208246 0.35260595290123381 0 0.082619379705498486 0.3760424233717975 0 0.096111415589441723 0.36906918257109511 0 0.085272644414092907 0.36373677956425621 0 0.095306363846323322 0.35760506086541671 0 0.096111415589441723 0.36906918257109511 0 0.085272644414092907 0.36373677956425621 0 0.074215767858206258 0.35718016320722129 0 0.085272644414092907 0.36373677956425621 0 0.075022727430642186 0.36942391052545742 0 0.082619379705498486 0.3760424233717975 0 0.085272644414092907 0.36373677956425621 0 0.075022727430642186 0.36942391052545742 0 0.071205150989249344 0.38459031979425368 0 0.075022727430642186 0.36942391052545742 0 0.062117748859898458 0.36500130546073062 0 0.071205150989249344 0.38459031979425368 0 0.062117748859898458 0.36500130546073062 0 0.074215767858206258 0.35718016320722129 0 0.075022727430642186 0.36942391052545742 0 0.062117748859898458 0.36500130546073062 0 0.062117748859898458 0.36500130546073062 0 0.061241293644231747 0.35091954433174621 0 0.039541251155271878 0.36427244506096468 0 0.051605655867250001 0.38149668432143541 0 0.062117748859898458 0.36500130546073062 0 0.039541251155271878 0.36427244506096468 0 0.061241293644231747 0.35091954433174621 0 0.039541251155271878 0.36427244506096468 0 0.061241293644231747 0.35091954433174621 0 0.044784474582475392 0.34869393697364293 0 0.052607857505341568 0.34198871306916279 0 0.061241293644231747 0.35091954433174621 0 0.044784474582475392 0.34869393697364293 0 0.039541251155271878 0.36427244506096468 0 0.044784474582475392 0.34869393697364293 0 0.039541251155271878 0.36427244506096468 0 0.023969970644136189 0.34780247639640383 0 0.017841208666312069 0.37762534579018298 0 0.039541251155271878 0.36427244506096468 0 0.022364176625033282 0.36301365865426333 0 0.017841208666312069 0.37762534579018298 0 0.035089121590226528 0.38253825820529852 0 0.039541251155271878 0.36427244506096468 0 0.017841208666312069 0.37762534579018298 0 0.039541251155271878 0.36427244506096468 0 0.017841208666312069 0.37762534579018298 0 0.022364176625033282 0.36301365865426333 0 0.0070688581490178301 0.36290469613376197 0 0.022364176625033282 0.36301365865426333 0 0.023969970644136189 0.34780247639640383 0 0.0070688581490178301 0.36290469613376197 0 0.039541251155271878 0.36427244506096468 0 0.022364176625033282 0.36301365865426333 0 0.023969970644136189 0.34780247639640383 0 0.023969970644136189 0.34780247639640383 0 0.0070688581490178301 0.36290469613376197 0 0.010160838263171251 0.33572436441868259 0 -0.0072621374188671052 0.34147004492185079 0 0.0070688581490178301 0.36290469613376197 0 0.010160838263171251 0.33572436441868259 0 -0.0036227877329230301 0.37947700469323042 0 0.017841208666312069 0.37762534579018298 0 0.0070688581490178301 0.36290469613376197 0 -0.00017254440855824261 0.32560037032276101 0 0.010160838263171251 0.33572436441868259 0 0.020336227673690289 0.32045890090113183 0 -0.0025045175740335168 0.31031314766219981 0 -0.00017254440855824261 0.32560037032276101 0 0.020336227673690289 0.32045890090113183 0 -0.0072621374188671052 0.34147004492185079 0 -0.00017254440855824261 0.32560037032276101 0 0.010160838263171251 0.33572436441868259 0 0.023969970644136189 0.34780247639640383 0 0.010160838263171251 0.33572436441868259 0 0.020336227673690289 0.32045890090113183 0 0.023969970644136189 0.34780247639640383 0 0.020336227673690289 0.32045890090113183 0 0.041998086792626607 0.33406523967628299 0 0.04333949094528719 0.3160267531553359 0 0.041998086792626607 0.33406523967628299 0 0.052729264779742331 0.32427979797466039 0 0.020336227673690289 0.32045890090113183 0 0.04333949094528719 0.3160267531553359 0 0.041998086792626607 0.33406523967628299 0 0.044784474582475392 0.34869393697364293 0 0.023969970644136189 0.34780247639640383 0 0.041998086792626607 0.33406523967628299 0 0.044784474582475392 0.34869393697364293 0 0.041998086792626607 0.33406523967628299 0 0.052607857505341568 0.34198871306916279 0 0.061241293644231747 0.35091954433174621 0 0.052607857505341568 0.34198871306916279 0 0.060135280265193262 0.33376627043538171 0 0.041998086792626607 0.33406523967628299 0 0.060135280265193262 0.33376627043538171 0 0.052729264779742331 0.32427979797466039 0 0.041998086792626607 0.33406523967628299 0 0.052607857505341568 0.34198871306916279 0 0.060135280265193262 0.33376627043538171 0 0.04333949094528719 0.3160267531553359 0 0.052729264779742331 0.32427979797466039 0 0.058789612577710128 0.31476722793512929 0 0.067976715374811009 0.32361441744144559 0 0.052729264779742331 0.32427979797466039 0 0.058789612577710128 0.31476722793512929 0 0.067976715374811009 0.32361441744144559 0 0.060135280265193262 0.33376627043538171 0 0.052729264779742331 0.32427979797466039 0 0.058789612577710128 0.31476722793512929 0 0.050743237567011198 0.30414379830640997 0 0.077692308094581719 0.31417877058986282 0 0.058789612577710128 0.31476722793512929 0 0.050743237567011198 0.30414379830640997 0 0.04333949094528719 0.3160267531553359 0 0.058789612577710128 0.31476722793512929 0 0.050743237567011198 0.30414379830640997 0 0.050743237567011198 0.30414379830640997 0 0.057014991513141711 0.27962034081982778 0 0.068251428351683213 0.29416468787043332 0 0.050743237567011198 0.30414379830640997 0 0.035335655862959579 0.28380154980765537 0 0.057014991513141711 0.27962034081982778 0 0.050743237567011198 0.30414379830640997 0 0.035335655862959579 0.28380154980765537 0 0.050743237567011198 0.30414379830640997 0 0.035335655862959579 0.28380154980765537 0 0.035440516280943121 0.29844555413839979 0 0.020336227673690289 0.32045890090113183 0 0.04333949094528719 0.3160267531553359 0 0.035440516280943121 0.29844555413839979 0 0.04333949094528719 0.3160267531553359 0 0.050743237567011198 0.30414379830640997 0 0.035440516280943121 0.29844555413839979 0 0.050743237567011198 0.30414379830640997 0 0.035440516280943121 0.29844555413839979 0 0.020336227673690289 0.32045890090113183 0 0.035440516280943121 0.29844555413839979 0 0.020137794994874249 0.2927473099703915 0 0.020336227673690289 0.32045890090113183 0 0.020137794994874249 0.2927473099703915 0 0.020336227673690289 0.32045890090113183 0 0.020137794994874249 0.2927473099703915 0 0.010209922096268529 0.3014659822355169 0 0.035335655862959579 0.28380154980765537 0 0.035440516280943121 0.29844555413839979 0 0.020137794994874249 0.2927473099703915 0 0.035440516280943121 0.29844555413839979 0 0.020137794994874249 0.2927473099703915 0 0.020137794994874249 0.2927473099703915 0 0.014388475155295941 0.29060644707198668 0 0.01992807415890703 0.26345930130890138 0 0.020137794994874249 0.2927473099703915 0 0.014388475155295941 0.29060644707198668 0 0.020137794994874249 0.2927473099703915 0 0.014388475155295941 0.29060644707198668 0 0.010209922096268529 0.3014659822355169 0 -0.001308369768482999 0.29320410557187471 0 0.014388475155295941 0.29060644707198668 0 0.010209922096268529 0.3014659822355169 0 -0.001308369768482999 0.29320410557187471 0 0.014388475155295941 0.29060644707198668 0 0.0042686616650212863 0.27440264234540929 0 -0.0025045175740335168 0.31031314766219981 0 0.020336227673690289 0.32045890090113183 0 0.010209922096268529 0.3014659822355169 0 -0.0025045175740335168 0.31031314766219981 0 -0.001308369768482999 0.29320410557187471 0 0.010209922096268529 0.3014659822355169 0 0.0108212759879371 0.25143582124693198 0 0.0045166499774289158 0.26107549289106269 0 0.01992807415890703 0.26345930130890138 0 0.0108212759879371 0.25143582124693198 0 0.01992807415890703 0.26345930130890138 0 -0.004361582131907446 0.25012675423618741 0 0.0108212759879371 0.25143582124693198 0 0.0045166499774289158 0.26107549289106269 0 -0.0080731797928139601 0.26595294531788349 0 0.0045166499774289158 0.26107549289106269 0 0.0042686616650212863 0.27440264234540929 0 0.014388475155295941 0.29060644707198668 0 0.0042686616650212863 0.27440264234540929 0 0.01992807415890703 0.26345930130890138 0 0.0045166499774289158 0.26107549289106269 0 0.0042686616650212863 0.27440264234540929 0 0.01992807415890703 0.26345930130890138 0 0.020137794994874249 0.2927473099703915 0 0.01992807415890703 0.26345930130890138 0 0.035335655862959579 0.28380154980765537 0 0.020137794994874249 0.2927473099703915 0 0.01992807415890703 0.26345930130890138 0 0.035335655862959579 0.28380154980765537 0 0.01992807415890703 0.26345930130890138 0 0.019733428038529611 0.23627651218177001 0 0.0108212759879371 0.25143582124693198 0 0.01992807415890703 0.26345930130890138 0 0.032395297456559217 0.24990448186487541 0 0.01992807415890703 0.26345930130890138 0 0.043558334625058162 0.26267399305688549 0 0.049298807743375681 0.24401567068345059 0 0.032395297456559217 0.24990448186487541 0 0.043558334625058162 0.26267399305688549 0 0.035335655862959579 0.28380154980765537 0 0.01992807415890703 0.26345930130890138 0 0.043558334625058162 0.26267399305688549 0 0.035335655862959579 0.28380154980765537 0 0.043558334625058162 0.26267399305688549 0 0.057014991513141711 0.27962034081982778 0 0.043558334625058162 0.26267399305688549 0 0.057014991513141711 0.27962034081982778 0 0.068539877812152941 0.25484826761588569 0 0.049298807743375681 0.24401567068345059 0 0.043558334625058162 0.26267399305688549 0 0.068539877812152941 0.25484826761588569 0 0.068539877812152941 0.25484826761588569 0 0.094153496178737847 0.25278652485753728 0 0.068539877812152941 0.25484826761588569 0 0.094153496178737847 0.25278652485753728 0 0.094570315268327418 0.27155612350054997 0 0.076756394676448791 0.2775889904003081 0 0.087579642181032397 0.29054902922906578 0 0.094570315268327418 0.27155612350054997 0 0.068539877812152941 0.25484826761588569 0 0.076756394676448791 0.2775889904003081 0 0.094570315268327418 0.27155612350054997 0 0.057014991513141711 0.27962034081982778 0 0.068539877812152941 0.25484826761588569 0 0.076756394676448791 0.2775889904003081 0 0.076756394676448791 0.2775889904003081 0 0.068251428351683213 0.29416468787043332 0 0.087579642181032397 0.29054902922906578 0 0.057014991513141711 0.27962034081982778 0 0.076756394676448791 0.2775889904003081 0 0.068251428351683213 0.29416468787043332 0 0.077692308094581719 0.31417877058986282 0 0.050743237567011198 0.30414379830640997 0 0.068251428351683213 0.29416468787043332 0 0.077692308094581719 0.31417877058986282 0 0.050743237567011198 0.30414379830640997 0 0.077692308094581719 0.31417877058986282 0 0.068251428351683213 0.29416468787043332 0 0.087579642181032397 0.29054902922906578 0 0.077692308094581719 0.31417877058986282 0 0.087579642181032397 0.29054902922906578 0 0.1000908984509512 0.30112340397666981 0 0.087579642181032397 0.29054902922906578 0 0.1081165082442021 0.28468219903657133 0 0.1000908984509512 0.30112340397666981 0 0.1081165082442021 0.28468219903657133 0 0.1000908984509512 0.30112340397666981 0 0.1144297267004354 0.30168664743999352 0 0.087579642181032397 0.29054902922906578 0 0.1081165082442021 0.28468219903657133 0 0.094570315268327418 0.27155612350054997 0 0.077692308094581719 0.31417877058986282 0 0.1000908984509512 0.30112340397666981 0 0.103629968386694 0.31192557858664272 0 0.1000908984509512 0.30112340397666981 0 0.103629968386694 0.31192557858664272 0 0.1144297267004354 0.30168664743999352 0 0.1167242617350734 0.31677866348064548 0 0.1144297267004354 0.30168664743999352 0 0.13022117462186741 0.30154725623692402 0 0.1167242617350734 0.31677866348064548 0 0.103629968386694 0.31192557858664272 0 0.1144297267004354 0.30168664743999352 0 0.1081165082442021 0.28468219903657133 0 0.1144297267004354 0.30168664743999352 0 0.12390947864198219 0.28542069115612873 0 0.1144297267004354 0.30168664743999352 0 0.12390947864198219 0.28542069115612873 0 0.13022117462186741 0.30154725623692402 0 0.112671388523889 0.26641905049976811 0 0.123100174820058 0.26168293397560438 0 0.12910128816626559 0.2715879755468264 0 0.1081165082442021 0.28468219903657133 0 0.12390947864198219 0.28542069115612873 0 0.112671388523889 0.26641905049976811 0 0.12390947864198219 0.28542069115612873 0 0.112671388523889 0.26641905049976811 0 0.12910128816626559 0.2715879755468264 0 0.112671388523889 0.26641905049976811 0 0.123100174820058 0.26168293397560438 0 0.1197671145453226 0.2507247820991888 0 0.112671388523889 0.26641905049976811 0 0.1197671145453226 0.2507247820991888 0 0.094153496178737847 0.25278652485753728 0 0.112671388523889 0.26641905049976811 0 0.094153496178737847 0.25278652485753728 0 0.094570315268327418 0.27155612350054997 0 0.1197671145453226 0.2507247820991888 0 0.094153496178737847 0.25278652485753728 0 0.1081165082442021 0.28468219903657133 0 0.112671388523889 0.26641905049976811 0 0.094570315268327418 0.27155612350054997 0 0.1484138213405074 0.25936399499983281 0 0.14891678559523411 0.28660101817668943 0 0.16201232330786131 0.26387346548696822 0 0.1484138213405074 0.25936399499983281 0 0.1401857002278207 0.2693725498640136 0 0.14891678559523411 0.28660101817668943 0 0.1484138213405074 0.25936399499983281 0 0.14891678559523411 0.28660101817668943 0 0.15466915334416509 0.25190660019890743 0 0.1484138213405074 0.25936399499983281 0 0.16201232330786131 0.26387346548696822 0 0.1453807329119074 0.24866303934084041 0 0.15466915334416509 0.25190660019890743 0 0.1484138213405074 0.25936399499983281 0 0.1453807329119074 0.24866303934084041 0 0.1484138213405074 0.25936399499983281 0 0.13431090580927579 0.25993721073270593 0 0.1484138213405074 0.25936399499983281 0 0.13431090580927579 0.25993721073270593 0 0.1401857002278207 0.2693725498640136 0 0.1453807329119074 0.24866303934084041 0 0.1197671145453226 0.2507247820991888 0 0.13431090580927579 0.25993721073270593 0 0.123100174820058 0.26168293397560438 0 0.1197671145453226 0.2507247820991888 0 0.13431090580927579 0.25993721073270593 0 0.123100174820058 0.26168293397560438 0 0.13431090580927579 0.25993721073270593 0 0.12910128816626559 0.2715879755468264 0 0.12910128816626559 0.2715879755468264 0 0.1401857002278207 0.2693725498640136 0 0.14891678559523411 0.28660101817668943 0 0.12390947864198219 0.28542069115612873 0 0.12910128816626559 0.2715879755468264 0 0.14891678559523411 0.28660101817668943 0 0.13431090580927579 0.25993721073270593 0 0.12910128816626559 0.2715879755468264 0 0.1401857002278207 0.2693725498640136 0 0.12390947864198219 0.28542069115612873 0 0.13022117462186741 0.30154725623692402 0 0.14891678559523411 0.28660101817668943 0 0.13022117462186741 0.30154725623692402 0 0.1494197498499607 0.31383804135354598 0 0.13362732087883861 0.31825791726589631 0 0.1167242617350734 0.31677866348064548 0 0.13022117462186741 0.30154725623692402 0 0.13362732087883861 0.31825791726589631 0 0.14891678559523411 0.28660101817668943 0 0.16502192730860321 0.29833672799327199 0 0.1494197498499607 0.31383804135354598 0 0.14891678559523411 0.28660101817668943 0 0.1494197498499607 0.31383804135354598 0 0.13022117462186741 0.30154725623692402 0 0.14891678559523411 0.28660101817668943 0 0.1494197498499607 0.31383804135354598 0 0.14891678559523411 0.28660101817668943 0 0.16502192730860321 0.29833672799327199 0 0.17258825255407231 0.27567175281796641 0 0.16502192730860321 0.29833672799327199 0 0.17750724151807151 0.31691505049664243 0 0.1494197498499607 0.31383804135354598 0 0.16502192730860321 0.29833672799327199 0 0.18306544781706219 0.29535972807124689 0 0.17750724151807151 0.31691505049664243 0 0.18306544781706219 0.29535972807124689 0 0.19825331032735899 0.30649929221888439 0 0.17750724151807151 0.31691505049664243 0 0.16502192730860321 0.29833672799327199 0 0.18306544781706219 0.29535972807124689 0 0.17258825255407231 0.27567175281796641 0 0.18306544781706219 0.29535972807124689 0 0.17258825255407231 0.27567175281796641 0 0.19225514168233229 0.27637801024750158 0 0.17258825255407231 0.27567175281796641 0 0.18608903078984079 0.25995697105729071 0 0.19225514168233229 0.27637801024750158 0 0.17258825255407231 0.27567175281796641 0 0.16201232330786131 0.26387346548696822 0 0.17332134199895571 0.25758983019522791 0 0.14891678559523411 0.28660101817668943 0 0.17258825255407231 0.27567175281796641 0 0.16201232330786131 0.26387346548696822 0 0.1648484701696567 0.24744362212440471 0 0.15466915334416509 0.25190660019890743 0 0.16201232330786131 0.26387346548696822 0 0.1648484701696567 0.24744362212440471 0 0.16201232330786131 0.26387346548696822 0 0.17332134199895571 0.25758983019522791 0 0.17921266192405369 0.24485401564359771 0 0.17332134199895571 0.25758983019522791 0 0.18608903078984079 0.25995697105729071 0 0.17258825255407231 0.27567175281796641 0 0.17332134199895571 0.25758983019522791 0 0.18608903078984079 0.25995697105729071 0 0.19643052809465181 0.2433224828713732 0 0.18608903078984079 0.25995697105729071 0 0.20272625848497891 0.26192573456807738 0 0.18608903078984079 0.25995697105729071 0 0.20272625848497891 0.26192573456807738 0 0.19225514168233229 0.27637801024750158 0 0.19225514168233229 0.27637801024750158 0 0.20931999553351249 0.2747097540570328 0 0.20479240245397259 0.28930189362021808 0 0.20272625848497891 0.26192573456807738 0 0.19225514168233229 0.27637801024750158 0 0.20931999553351249 0.2747097540570328 0 0.20272625848497891 0.26192573456807738 0 0.20931999553351249 0.2747097540570328 0 0.22276706595432569 0.26722786124429282 0 0.19643052809465181 0.2433224828713732 0 0.20272625848497891 0.26192573456807738 0 0.21668623523937189 0.25273648673926968 0 0.20272625848497891 0.26192573456807738 0 0.21668623523937189 0.25273648673926968 0 0.22276706595432569 0.26722786124429282 0 0.23190300684591059 0.2469757189771403 0 0.21668623523937189 0.25273648673926968 0 0.2340167615655426 0.26024144399058702 0 0.21668623523937189 0.25273648673926968 0 0.2340167615655426 0.26024144399058702 0 0.22276706595432569 0.26722786124429282 0 0.20931999553351249 0.2747097540570328 0 0.22276706595432569 0.26722786124429282 0 0.23407023324957901 0.28358253799766081 0 0.22276706595432569 0.26722786124429282 0 0.2428012282252888 0.27040414858390061 0 0.23407023324957901 0.28358253799766081 0 0.2340167615655426 0.26024144399058702 0 0.22276706595432569 0.26722786124429282 0 0.2428012282252888 0.27040414858390061 0 0.2428012282252888 0.27040414858390061 0 0.23407023324957901 0.28358253799766081 0 0.25491758893057909 0.27951005592881761 0 0.2428012282252888 0.27040414858390061 0 0.23407023324957901 0.28358253799766081 0 0.2428012282252888 0.27040414858390061 0 0.25153222320099622 0.25722575917013901 0 0.25536006440587672 0.26878811273571068 0 0.2428012282252888 0.27040414858390061 0 0.25153222320099622 0.25722575917013901 0 0.2340167615655426 0.26024144399058702 0 0.2428012282252888 0.27040414858390061 0 0.25153222320099622 0.25722575917013901 0 0.24791323415382371 0.2458877298954085 0 0.23190300684591059 0.2469757189771403 0 0.25153222320099622 0.25722575917013901 0 0.23190300684591059 0.2469757189771403 0 0.2340167615655426 0.26024144399058702 0 0.25153222320099622 0.25722575917013901 0 0.23190300684591059 0.2469757189771403 0 0.25153222320099622 0.25722575917013901 0 0.24543399627141721 0.29887735901603257 0 0.2199905643657564 0.30483410896799212 0 0.2412863906095909 0.31706614216088019 0 0.24543399627141721 0.29887735901603257 0 0.2412863906095909 0.31706614216088019 0 0.26071219069447599 0.31197788889560879 0 0.24543399627141721 0.29887735901603257 0 0.23407023324957901 0.28358253799766081 0 0.25491758893057909 0.27951005592881761 0 0.23407023324957901 0.28358253799766081 0 0.25491758893057909 0.27951005592881761 0 0.23407023324957901 0.28358253799766081 0 0.2199905643657564 0.30483410896799212 0 0.20479240245397259 0.28930189362021808 0 0.24543399627141721 0.29887735901603257 0 0.23407023324957901 0.28358253799766081 0 0.2199905643657564 0.30483410896799212 0 0.23407023324957901 0.28358253799766081 0 0.20479240245397259 0.28930189362021808 0 0.23407023324957901 0.28358253799766081 0 0.2199905643657564 0.30483410896799212 0 0.2199905643657564 0.30483410896799212 0 0.19825331032735899 0.30649929221888439 0 0.20591089548193209 0.32608567993832238 0 0.2199905643657564 0.30483410896799212 0 0.20479240245397259 0.28930189362021808 0 0.19825331032735899 0.30649929221888439 0 0.20931999553351249 0.2747097540570328 0 0.23407023324957901 0.28358253799766081 0 0.20479240245397259 0.28930189362021808 0 0.18306544781706219 0.29535972807124689 0 0.19225514168233229 0.27637801024750158 0 0.20479240245397259 0.28930189362021808 0 0.18306544781706219 0.29535972807124689 0 0.20479240245397259 0.28930189362021808 0 0.19825331032735899 0.30649929221888439 0 0.19825331032735899 0.30649929221888439 0 0.20591089548193209 0.32608567993832238 0 0.17750724151807151 0.31691505049664243 0 0.20591089548193209 0.32608567993832238 0 0.1834453935528689 0.33477958080273051 0 0.17750724151807151 0.31691505049664243 0 0.20591089548193209 0.32608567993832238 0 0.1918312265981009 0.34733725090864831 0 0.1834453935528689 0.33477958080273051 0 0.20591089548193209 0.32608567993832238 0 0.1918312265981009 0.34733725090864831 0 0.2120062173118393 0.34341212619813682 0 0.20591089548193209 0.32608567993832238 0 0.2241124479696345 0.32285479690430968 0 0.2120062173118393 0.34341212619813682 0 0.20591089548193209 0.32608567993832238 0 0.1918312265981009 0.34733725090864831 0 0.2199905643657564 0.30483410896799212 0 0.20591089548193209 0.32608567993832238 0 0.2199905643657564 0.30483410896799212 0 0.20591089548193209 0.32608567993832238 0 0.2241124479696345 0.32285479690430968 0 0.2199905643657564 0.30483410896799212 0 0.2241124479696345 0.32285479690430968 0 0.2412863906095909 0.31706614216088019 0 0.2241124479696345 0.32285479690430968 0 0.23218120802557979 0.3394870014876365 0 0.2412863906095909 0.31706614216088019 0 0.2120062173118393 0.34341212619813682 0 0.2241124479696345 0.32285479690430968 0 0.23218120802557979 0.3394870014876365 0 0.2120062173118393 0.34341212619813682 0 0.23218120802557979 0.3394870014876365 0 0.23218120802557979 0.3394870014876365 0 0.2412863906095909 0.31706614216088019 0 0.25235619873932041 0.33556187677713623 0 0.23218120802557979 0.3394870014876365 0 0.25235619873932041 0.33556187677713623 0 0.23218120802557979 0.3394870014876365 0 0.2438273554430464 0.34812574592335249 0 0.25235619873932041 0.33556187677713623 0 0.2412863906095909 0.31706614216088019 0 0.25496362040665271 0.32267745764425643 0 0.25235619873932041 0.33556187677713623 0 0.2444030594993066 0.36261468031945582 0 0.22630598985240971 0.37543582988375418 0 0.247713784970646 0.38075050805242922 0 0.2444030594993066 0.36261468031945582 0 0.22630598985240971 0.37543582988375418 0 0.2444030594993066 0.36261468031945582 0 0.247713784970646 0.38075050805242922 0 0.25490457918629872 0.37507349251653871 0 0.2444030594993066 0.36261468031945582 0 0.2438273554430464 0.34812574592335249 0 0.25711451900508148 0.35258648987221092 0 0.23218120802557979 0.3394870014876365 0 0.2438273554430464 0.34812574592335249 0 0.2288636426087374 0.35578594420060722 0 0.2444030594993066 0.36261468031945582 0 0.2438273554430464 0.34812574592335249 0 0.2288636426087374 0.35578594420060722 0 0.2120062173118393 0.34341212619813682 0 0.23218120802557979 0.3394870014876365 0 0.2288636426087374 0.35578594420060722 0 0.2444030594993066 0.36261468031945582 0 0.2288636426087374 0.35578594420060722 0 0.22630598985240971 0.37543582988375418 0 0.2288636426087374 0.35578594420060722 0 0.21324276167256731 0.36206450472990792 0 0.22630598985240971 0.37543582988375418 0 0.21324276167256731 0.36206450472990792 0 0.19654986060048771 0.37047802484019998 0 0.20820892020551271 0.38825697944805271 0 0.2120062173118393 0.34341212619813682 0 0.2288636426087374 0.35578594420060722 0 0.21324276167256731 0.36206450472990792 0 0.2120062173118393 0.34341212619813682 0 0.21324276167256731 0.36206450472990792 0 0.1918312265981009 0.34733725090864831 0 0.2120062173118393 0.34341212619813682 0 0.1918312265981009 0.34733725090864831 0 0.1918312265981009 0.34733725090864831 0 0.19654986060048771 0.37047802484019998 0 0.1753588575145448 0.37220031576602253 0 0.21324276167256731 0.36206450472990792 0 0.1918312265981009 0.34733725090864831 0 0.19654986060048771 0.37047802484019998 0 0.1918312265981009 0.34733725090864831 0 0.1753588575145448 0.37220031576602253 0 0.1731188016947007 0.36781558424519839 0 0.1753588575145448 0.37220031576602253 0 0.1802318714797885 0.35236122573149797 0 0.1731188016947007 0.36781558424519839 0 0.167364966647951 0.35975083588178058 0 0.1802318714797885 0.35236122573149797 0 0.1731188016947007 0.36781558424519839 0 0.1753588575145448 0.37220031576602253 0 0.1731188016947007 0.36781558424519839 0 0.1753588575145448 0.37220031576602253 0 0.16523354001105911 0.37409983959611109 0 0.1731188016947007 0.36781558424519839 0 0.16523354001105911 0.37409983959611109 0 0.1662459251842697 0.36710584608423269 0 0.167364966647951 0.35975083588178058 0 0.15926639238336801 0.36675712461384091 0 0.15018796347142391 0.35543911342959528 0 0.167364966647951 0.35975083588178058 0 0.1662459251842697 0.36710584608423269 0 0.15926639238336801 0.36675712461384091 0 0.1731188016947007 0.36781558424519839 0 0.167364966647951 0.35975083588178058 0 0.1662459251842697 0.36710584608423269 0 0.16523354001105911 0.37409983959611109 0 0.15926639238336801 0.36675712461384091 0 0.15062115634747231 0.37889780715207888 0 0.16523354001105911 0.37409983959611109 0 0.1662459251842697 0.36710584608423269 0 0.15926639238336801 0.36675712461384091 0 0.1753506460241005 0.35054361342806389 0 0.14992271410468949 0.34107506453040248 0 0.167364966647951 0.35975083588178058 0 0.1753506460241005 0.35054361342806389 0 0.15018796347142391 0.35543911342959528 0 0.1753506460241005 0.35054361342806389 0 0.14992271410468949 0.34107506453040248 0 0.15018796347142391 0.35543911342959528 0 0.1753506460241005 0.35054361342806389 0 0.15018796347142391 0.35543911342959528 0 0.1918312265981009 0.34733725090864831 0 0.1753506460241005 0.35054361342806389 0 0.1918312265981009 0.34733725090864831 0 0.1753506460241005 0.35054361342806389 0 0.1834453935528689 0.33477958080273051 0 0.1918312265981009 0.34733725090864831 0 0.1753506460241005 0.35054361342806389 0 0.1802318714797885 0.35236122573149797 0 0.1918312265981009 0.34733725090864831 0 0.1753588575145448 0.37220031576602253 0 0.1802318714797885 0.35236122573149797 0 0.1753506460241005 0.35054361342806389 0 0.1802318714797885 0.35236122573149797 0 0.167364966647951 0.35975083588178058 0 0.1753506460241005 0.35054361342806389 0 0.1802318714797885 0.35236122573149797 0 0.1753506460241005 0.35054361342806389 0 0.1834453935528689 0.33477958080273051 0 0.1666269581421321 0.33301630924197367 0 0.1834453935528689 0.33477958080273051 0 0.17750724151807151 0.31691505049664243 0 0.1666269581421321 0.33301630924197367 0 0.17750724151807151 0.31691505049664243 0 0.1666269581421321 0.33301630924197367 0 0.1494197498499607 0.31383804135354598 0 0.1753506460241005 0.35054361342806389 0 0.1666269581421321 0.33301630924197367 0 0.14992271410468949 0.34107506453040248 0 0.1666269581421321 0.33301630924197367 0 0.14992271410468949 0.34107506453040248 0 0.1494197498499607 0.31383804135354598 0 0.14992271410468949 0.34107506453040248 0 0.1494197498499607 0.31383804135354598 0 0.14992271410468949 0.34107506453040248 0 0.1494197498499607 0.31383804135354598 0 0.13362732087883861 0.31825791726589631 0 0.1167242617350734 0.31677866348064548 0 0.13362732087883861 0.31825791726589631 0 0.12728204636342119 0.33264440370185788 0 0.14992271410468949 0.34107506453040248 0 0.13362732087883861 0.31825791726589631 0 0.12728204636342119 0.33264440370185788 0 0.14992271410468949 0.34107506453040248 0 0.12728204636342119 0.33264440370185788 0 0.1327104347709552 0.34833671648866182 0 0.14992271410468949 0.34107506453040248 0 0.12728204636342119 0.33264440370185788 0 0.12728204636342119 0.33264440370185788 0 0.12565642337597641 0.34531162420386119 0 0.1327104347709552 0.34833671648866182 0 0.1207019799918789 0.36117572882690419 0 0.1327104347709552 0.34833671648866182 0 0.15018796347142391 0.35543911342959528 0 0.12020614592151201 0.35183052892485178 0 0.12565642337597641 0.34531162420386119 0 0.1327104347709552 0.34833671648866182 0 0.1207019799918789 0.36117572882690419 0 0.15018796347142391 0.35543911342959528 0 0.1207019799918789 0.36117572882690419 0 0.13593835547877689 0.36822566204290602 0 0.15018796347142391 0.35543911342959528 0 0.1207019799918789 0.36117572882690419 0 0.1269429757455281 0.3700741961410311 0 0.13593835547877689 0.36822566204290602 0 0.1269429757455281 0.3700741961410311 0 0.13593835547877689 0.36822566204290602 0 0.12936302614305781 0.3806702380723882 0 0.13593835547877689 0.36822566204290602 0 0.15018796347142391 0.35543911342959528 0 0.15062115634747231 0.37889780715207888 0 0.15018796347142391 0.35543911342959528 0 0.15062115634747231 0.37889780715207888 0 0.15926639238336801 0.36675712461384091 0 0.15018796347142391 0.35543911342959528 0 0.15062115634747231 0.37889780715207888 0 0.14992271410468949 0.34107506453040248 0 0.1327104347709552 0.34833671648866182 0 0.15018796347142391 0.35543911342959528 0 0.14992271410468949 0.34107506453040248 0 0.15018796347142391 0.35543911342959528 0 0.14138495384440489 0.39322107909200571 0 0.1317921164680903 0.40545952647836342 0 0.15222999220591241 0.40711056306127658 0 0.14138495384440489 0.39322107909200571 0 0.15222999220591241 0.40711056306127658 0 0.16379442486022849 0.38965543941364961 0 0.14138495384440489 0.39322107909200571 0 0.15062115634747231 0.37889780715207888 0 0.16379442486022849 0.38965543941364961 0 0.13593835547877689 0.36822566204290602 0 0.15062115634747231 0.37889780715207888 0 0.12936302614305781 0.3806702380723882 0 0.14138495384440489 0.39322107909200571 0 0.15062115634747231 0.37889780715207888 0 0.12936302614305781 0.3806702380723882 0 0.12302526621810631 0.39483339242702431 0 0.14138495384440489 0.39322107909200571 0 0.12936302614305781 0.3806702380723882 0 0.12302526621810631 0.39483339242702431 0 0.14138495384440489 0.39322107909200571 0 0.1317921164680903 0.40545952647836342 0 0.1238244133614653 0.41259348140785829 0 0.11966152561727041 0.40521647558469348 0 0.1317921164680903 0.40545952647836342 0 0.1238244133614653 0.41259348140785829 0 0.1317921164680903 0.40545952647836342 0 0.13391702338258271 0.41648007558095218 0 0.1317921164680903 0.40545952647836342 0 0.13391702338258271 0.41648007558095218 0 0.15222999220591241 0.40711056306127658 0 0.1206950902667107 0.42206632785564402 0 0.1238244133614653 0.41259348140785829 0 0.13391702338258271 0.41648007558095218 0 0.14066555955159241 0.42456568670890099 0 0.128144127290927 0.44346528644618949 0 0.13429496844172059 0.42708486797366702 0 0.14066555955159241 0.42456568670890099 0 0.128144127290927 0.44346528644618949 0 0.14066555955159241 0.42456568670890099 0 0.1468621194973313 0.4432032004000479 0 0.128144127290927 0.44346528644618949 0 0.1206950902667107 0.42206632785564402 0 0.13391702338258271 0.41648007558095218 0 0.13429496844172059 0.42708486797366702 0 0.13391702338258271 0.41648007558095218 0 0.13429496844172059 0.42708486797366702 0 0.14066555955159241 0.42456568670890099 0 0.13429496844172059 0.42708486797366702 0 0.14066555955159241 0.42456568670890099 0 0.14066555955159241 0.42456568670890099 0 0.16808955766080291 0.41960022257260449 0 0.15915405200730839 0.43380743940711708 0 0.14066555955159241 0.42456568670890099 0 0.16808955766080291 0.41960022257260449 0 0.14066555955159241 0.42456568670890099 0 0.15915405200730839 0.43380743940711708 0 0.1468621194973313 0.4432032004000479 0 0.14066555955159241 0.42456568670890099 0 0.15222999220591241 0.40711056306127658 0 0.14066555955159241 0.42456568670890099 0 0.15222999220591241 0.40711056306127658 0 0.16201542307939579 0.41612311438285787 0 0.14066555955159241 0.42456568670890099 0 0.16201542307939579 0.41612311438285787 0 0.13391702338258271 0.41648007558095218 0 0.14066555955159241 0.42456568670890099 0 0.15222999220591241 0.40711056306127658 0 0.16201542307939579 0.41612311438285787 0 0.16941052998224071 0.40948279892878392 0 0.18336528660720119 0.40768054205682042 0 0.16808955766080291 0.41960022257260449 0 0.16201542307939579 0.41612311438285787 0 0.18336528660720119 0.40768054205682042 0 0.14066555955159241 0.42456568670890099 0 0.16808955766080291 0.41960022257260449 0 0.16201542307939579 0.41612311438285787 0 0.15222999220591241 0.40711056306127658 0 0.16201542307939579 0.41612311438285787 0 0.1623232745498161 0.40583988766108697 0 0.16201542307939579 0.41612311438285787 0 0.16941052998224071 0.40948279892878392 0 0.1623232745498161 0.40583988766108697 0 0.16808955766080291 0.41960022257260449 0 0.15915405200730839 0.43380743940711708 0 0.1766721112776041 0.43405941705504181 0 0.18398920852212189 0.42222731617319992 0 0.1766721112776041 0.43405941705504181 0 0.19310721835761019 0.42992761007563862 0 0.16808955766080291 0.41960022257260449 0 0.18398920852212189 0.42222731617319992 0 0.1766721112776041 0.43405941705504181 0 0.1766721112776041 0.43405941705504181 0 0.19310721835761019 0.42992761007563862 0 0.189468296445607 0.44161966517716561 0 0.16808955766080291 0.41960022257260449 0 0.18398920852212189 0.42222731617319992 0 0.19637406676339619 0.41333592033168631 0 0.16201542307939579 0.41612311438285787 0 0.18336528660720119 0.40768054205682042 0 0.16808955766080291 0.41960022257260449 0 0.19637406676339619 0.41333592033168631 0 0.16808955766080291 0.41960022257260449 0 0.18336528660720119 0.40768054205682042 0 0.19637406676339619 0.41333592033168631 0 0.16941052998224071 0.40948279892878392 0 0.18336528660720119 0.40768054205682042 0 0.18177969473327391 0.40698117398671069 0 0.16941052998224071 0.40948279892878392 0 0.18177969473327391 0.40698117398671069 0 0.17544170441619431 0.40324048585703531 0 0.17550339911694879 0.39641485139935639 0 0.16379442486022849 0.38965543941364961 0 0.18273535403657959 0.38663922238918558 0 0.18177969473327391 0.40698117398671069 0 0.18171278421578699 0.39924093208501849 0 0.19011185055861429 0.40107812901234902 0 0.18336528660720119 0.40768054205682042 0 0.18177969473327391 0.40698117398671069 0 0.19011185055861429 0.40107812901234902 0 0.18177969473327391 0.40698117398671069 0 0.19011185055861429 0.40107812901234902 0 0.18171278421578699 0.39924093208501849 0 0.17550339911694879 0.39641485139935639 0 0.18273535403657959 0.38663922238918558 0 0.18171278421578699 0.39924093208501849 0 0.18273535403657959 0.38663922238918558 0 0.19011185055861429 0.40107812901234902 0 0.18273535403657959 0.38663922238918558 0 0.19011185055861429 0.40107812901234902 0 0.18177969473327391 0.40698117398671069 0 0.18171278421578699 0.39924093208501849 0 0.17544170441619431 0.40324048585703531 0 0.18171278421578699 0.39924093208501849 0 0.17550339911694879 0.39641485139935639 0 0.17544170441619431 0.40324048585703531 0 0.17550339911694879 0.39641485139935639 0 0.17544170441619431 0.40324048585703531 0 0.1689722959232661 0.40169126431279728 0 0.16941052998224071 0.40948279892878392 0 0.17544170441619431 0.40324048585703531 0 0.1689722959232661 0.40169126431279728 0 0.1689722959232661 0.40169126431279728 0 0.1623232745498161 0.40583988766108697 0 0.16379442486022849 0.38965543941364961 0 0.15222999220591241 0.40711056306127658 0 0.1623232745498161 0.40583988766108697 0 0.16379442486022849 0.38965543941364961 0 0.15222999220591241 0.40711056306127658 0 0.16379442486022849 0.38965543941364961 0 0.16941052998224071 0.40948279892878392 0 0.1689722959232661 0.40169126431279728 0 0.1623232745498161 0.40583988766108697 0 0.17550339911694879 0.39641485139935639 0 0.1689722959232661 0.40169126431279728 0 0.16379442486022849 0.38965543941364961 0 0.1753588575145448 0.37220031576602253 0 0.16523354001105911 0.37409983959611109 0 0.16379442486022849 0.38965543941364961 0 0.1753588575145448 0.37220031576602253 0 0.16379442486022849 0.38965543941364961 0 0.16523354001105911 0.37409983959611109 0 0.15062115634747231 0.37889780715207888 0 0.16379442486022849 0.38965543941364961 0 0.1753588575145448 0.37220031576602253 0 0.18273535403657959 0.38663922238918558 0 0.1753588575145448 0.37220031576602253 0 0.16379442486022849 0.38965543941364961 0 0.18273535403657959 0.38663922238918558 0 0.19654986060048771 0.37047802484019998 0 0.1753588575145448 0.37220031576602253 0 0.18273535403657959 0.38663922238918558 0 0.19654986060048771 0.37047802484019998 0 0.18273535403657959 0.38663922238918558 0 0.20820892020551271 0.38825697944805271 0 0.19011185055861429 0.40107812901234902 0 0.20820892020551271 0.38825697944805271 0 0.19011185055861429 0.40107812901234902 0 0.20429538739721931 0.40183734425620671 0 0.20820892020551271 0.38825697944805271 0 0.18273535403657959 0.38663922238918558 0 0.19011185055861429 0.40107812901234902 0 0.20820892020551271 0.38825697944805271 0 0.19011185055861429 0.40107812901234902 0 0.20429538739721931 0.40183734425620671 0 0.19637406676339619 0.41333592033168631 0 0.20429538739721931 0.40183734425620671 0 0.20820892020551271 0.38825697944805271 0 0.2202735525657262 0.39552406566479109 0 0.20429538739721931 0.40183734425620671 0 0.2202735525657262 0.39552406566479109 0 0.2145024493426794 0.40932094283274068 0 0.21324276167256731 0.36206450472990792 0 0.20820892020551271 0.38825697944805271 0 0.22630598985240971 0.37543582988375418 0 0.20820892020551271 0.38825697944805271 0 0.22630598985240971 0.37543582988375418 0 0.20820892020551271 0.38825697944805271 0 0.22630598985240971 0.37543582988375418 0 0.2202735525657262 0.39552406566479109 0 0.22630598985240971 0.37543582988375418 0 0.2319341774640927 0.38940141535347877 0 0.2202735525657262 0.39552406566479109 0 0.2202735525657262 0.39552406566479109 0 0.23263083192196299 0.40530596533379709 0 0.2145024493426794 0.40932094283274068 0 0.2319341774640927 0.38940141535347877 0 0.2202735525657262 0.39552406566479109 0 0.23263083192196299 0.40530596533379709 0 0.2386671862694576 0.40396906576347452 0 0.24985329529781791 0.39990667252734718 0 0.247713784970646 0.38075050805242922 0 0.2319341774640927 0.38940141535347877 0 0.23263083192196299 0.40530596533379709 0 0.247713784970646 0.38075050805242922 0 0.23263083192196299 0.40530596533379709 0 0.247713784970646 0.38075050805242922 0 0.23263083192196299 0.40530596533379709 0 0.2386671862694576 0.40396906576347452 0 0.247713784970646 0.38075050805242922 0 0.23263083192196299 0.40530596533379709 0 0.2386671862694576 0.40396906576347452 0 0.23263083192196299 0.40530596533379709 0 0.2386671862694576 0.40396906576347452 0 0.23835521004243199 0.40923349084829558 0 0.2386671862694576 0.40396906576347452 0 0.24985329529781791 0.39990667252734718 0 0.23835521004243199 0.40923349084829558 0 0.22630598985240971 0.37543582988375418 0 0.2319341774640927 0.38940141535347877 0 0.247713784970646 0.38075050805242922 0 0.2385665307870003 0.42747740564887549 0 0.25702987725108101 0.42925349536772212 0 0.2385665307870003 0.42747740564887549 0 0.2488221034234695 0.4223051763495565 0 0.25702987725108101 0.42925349536772212 0 0.2385665307870003 0.42747740564887549 0 0.2448364132796593 0.44231000148378752 0 0.25702987725108101 0.42925349536772212 0 0.2385665307870003 0.42747740564887549 0 0.2406669044851476 0.42214558790778223 0 0.2368791315523423 0.42061341875551328 0 0.2385665307870003 0.42747740564887549 0 0.2406669044851476 0.42214558790778223 0 0.2488221034234695 0.4223051763495565 0 0.24985329529781791 0.39990667252734718 0 0.2383998521777784 0.41818635087718381 0 0.24985329529781791 0.39990667252734718 0 0.23835521004243199 0.40923349084829558 0 0.2383998521777784 0.41818635087718381 0 0.24985329529781791 0.39990667252734718 0 0.2383998521777784 0.41818635087718381 0 0.25380059083303341 0.40846212201461762 0 0.2406669044851476 0.42214558790778223 0 0.2488221034234695 0.4223051763495565 0 0.2383998521777784 0.41818635087718381 0 0.23835521004243199 0.40923349084829558 0 0.2350244704201927 0.41211241555610317 0 0.2383998521777784 0.41818635087718381 0 0.23263083192196299 0.40530596533379709 0 0.23835521004243199 0.40923349084829558 0 0.2350244704201927 0.41211241555610317 0 0.2406669044851476 0.42214558790778223 0 0.2383998521777784 0.41818635087718381 0 0.2368791315523423 0.42061341875551328 0 0.2350244704201927 0.41211241555610317 0 0.2383998521777784 0.41818635087718381 0 0.23071198753859651 0.41572385516513549 0 0.2383998521777784 0.41818635087718381 0 0.2368791315523423 0.42061341875551328 0 0.2383998521777784 0.41818635087718381 0 0.2368791315523423 0.42061341875551328 0 0.22312475613875049 0.42078211493492951 0 0.23263083192196299 0.40530596533379709 0 0.2145024493426794 0.40932094283274068 0 0.23263083192196299 0.40530596533379709 0 0.22312475613875049 0.42078211493492951 0 0.2145024493426794 0.40932094283274068 0 0.2383998521777784 0.41818635087718381 0 0.22312475613875049 0.42078211493492951 0 0.2383998521777784 0.41818635087718381 0 0.23071198753859651 0.41572385516513549 0 0.22312475613875049 0.42078211493492951 0 0.23263083192196299 0.40530596533379709 0 0.2350244704201927 0.41211241555610317 0 0.23071198753859651 0.41572385516513549 0 0.23263083192196299 0.40530596533379709 0 0.23071198753859651 0.41572385516513549 0 0.22312475613875049 0.42078211493492951 0 0.23263083192196299 0.40530596533379709 0 0.22312475613875049 0.42078211493492951 0 0.2385665307870003 0.42747740564887549 0 0.2201031843229195 0.42570131593002969 0 0.2201031843229195 0.42570131593002969 0 0.21059740683120351 0.44117697990449289 0 0.23005064234993169 0.44460645584696262 0 0.2385665307870003 0.42747740564887549 0 0.22312475613875049 0.42078211493492951 0 0.2201031843229195 0.42570131593002969 0 0.22312475613875049 0.42078211493492951 0 0.2201031843229195 0.42570131593002969 0 0.2385665307870003 0.42747740564887549 0 0.2201031843229195 0.42570131593002969 0 0.23005064234993169 0.44460645584696262 0 0.2385665307870003 0.42747740564887549 0 0.2368791315523423 0.42061341875551328 0 0.22312475613875049 0.42078211493492951 0 0.22312475613875049 0.42078211493492951 0 0.2201031843229195 0.42570131593002969 0 0.20354836167302259 0.42410881749736329 0 0.20096476004407141 0.4356284052502909 0 0.202011140198494 0.4243700442839049 0 0.21059740683120351 0.44117697990449289 0 0.20354836167302259 0.42410881749736329 0 0.202011140198494 0.4243700442839049 0 0.21059740683120351 0.44117697990449289 0 0.2201031843229195 0.42570131593002969 0 0.21059740683120351 0.44117697990449289 0 0.2201031843229195 0.42570131593002969 0 0.20354836167302259 0.42410881749736329 0 0.21059740683120351 0.44117697990449289 0 0.2201031843229195 0.42570131593002969 0 0.20354836167302259 0.42410881749736329 0 0.202011140198494 0.4243700442839049 0 0.21059740683120351 0.44117697990449289 0 0.22312475613875049 0.42078211493492951 0 0.20354836167302259 0.42410881749736329 0 0.2145024493426794 0.40932094283274068 0 0.19637406676339619 0.41333592033168631 0 0.22312475613875049 0.42078211493492951 0 0.20354836167302259 0.42410881749736329 0 0.2145024493426794 0.40932094283274068 0 0.20429538739721931 0.40183734425620671 0 0.2145024493426794 0.40932094283274068 0 0.19637406676339619 0.41333592033168631 0 0.20354836167302259 0.42410881749736329 0 0.2145024493426794 0.40932094283274068 0 0.19637406676339619 0.41333592033168631 0 0.18398920852212189 0.42222731617319992 0 0.19637406676339619 0.41333592033168631 0 0.202011140198494 0.4243700442839049 0 0.20354836167302259 0.42410881749736329 0 0.19637406676339619 0.41333592033168631 0 0.202011140198494 0.4243700442839049 0 0.19637406676339619 0.41333592033168631 0 0.202011140198494 0.4243700442839049 0 0.19011185055861429 0.40107812901234902 0 0.19637406676339619 0.41333592033168631 0 0.18336528660720119 0.40768054205682042 0 0.19011185055861429 0.40107812901234902 0 0.19637406676339619 0.41333592033168631 0 0.18398920852212189 0.42222731617319992 0 0.202011140198494 0.4243700442839049 0 0.19310721835761019 0.42992761007563862 0 0.18398920852212189 0.42222731617319992 0 0.202011140198494 0.4243700442839049 0 0.20096476004407141 0.4356284052502909 0 0.19931207414017729 0.42860996549168562 0 0.19310721835761019 0.42992761007563862 0 0.19931207414017729 0.42860996549168562 0 0.202011140198494 0.4243700442839049 0 0.19310721835761019 0.42992761007563862 0 0.20096476004407141 0.4356284052502909 0 0.19931207414017729 0.42860996549168562 0 0.202011140198494 0.4243700442839049 0 0.20354836167302259 0.42410881749736329 0 0.202011140198494 0.4243700442839049 0 0.20096476004407141 0.4356284052502909 0 0.19310721835761019 0.42992761007563862 0 0.189468296445607 0.44161966517716561 0 0.189468296445607 0.44161966517716561 0 0.19808345402660399 0.44429013419941671 0 0.18816718916202771 0.45764189265325561 0 0.19808345402660399 0.44429013419941671 0 0.18816718916202771 0.45764189265325561 0 0.20509446468425149 0.45013591920339668 0 0.20096476004407141 0.4356284052502909 0 0.189468296445607 0.44161966517716561 0 0.19808345402660399 0.44429013419941671 0 0.18816718916202771 0.45764189265325561 0 0.2005182123172754 0.46504183791057307 0 0.20509446468425149 0.45013591920339668 0 0.18816718916202771 0.45764189265325561 0 0.2005182123172754 0.46504183791057307 0 0.18719455148605621 0.47613314112345201 0 0.2103116034304838 0.4602104470792151 0 0.21059740683120351 0.44117697990449289 0 0.22229140550900001 0.46406705440744211 0 0.2103116034304838 0.4602104470792151 0 0.22229140550900001 0.46406705440744211 0 0.21058997783642669 0.48154513501692131 0 0.2005182123172754 0.46504183791057307 0 0.2103116034304838 0.4602104470792151 0 0.20509446468425149 0.45013591920339668 0 0.21059740683120351 0.44117697990449289 0 0.22229140550900001 0.46406705440744211 0 0.2103116034304838 0.4602104470792151 0 0.21059740683120351 0.44117697990449289 0 0.20509446468425149 0.45013591920339668 0 0.20096476004407141 0.4356284052502909 0 0.19808345402660399 0.44429013419941671 0 0.21059740683120351 0.44117697990449289 0 0.19808345402660399 0.44429013419941671 0 0.21059740683120351 0.44117697990449289 0 0.20509446468425149 0.45013591920339668 0 0.21059740683120351 0.44117697990449289 0 0.20509446468425149 0.45013591920339668 0 0.21059740683120351 0.44117697990449289 0 0.23005064234993169 0.44460645584696262 0 0.22229140550900001 0.46406705440744211 0 0.23005064234993169 0.44460645584696262 0 0.22229140550900001 0.46406705440744211 0 0.24184120684035099 0.4581976946154846 0 0.22229140550900001 0.46406705440744211 0 0.24184120684035099 0.4581976946154846 0 0.24193409961780649 0.47367643658526698 0 0.24184120684035099 0.4581976946154846 0 0.2448364132796593 0.44231000148378752 0 0.25709847220363119 0.45283566357848187 0 0.23005064234993169 0.44460645584696262 0 0.24184120684035099 0.4581976946154846 0 0.2448364132796593 0.44231000148378752 0 0.2385665307870003 0.42747740564887549 0 0.23005064234993169 0.44460645584696262 0 0.2448364132796593 0.44231000148378752 0 0.24064869911215761 0.50000000000000244 0 0.24324303354975521 0.48909866857844392 0 0.2572356621087325 0.50000000000000155 0 0.24324303354975521 0.48909866857844392 0 0.2339854041867972 0.48695712891039089 0 0.24064869911215761 0.50000000000000244 0 0.24324303354975521 0.48909866857844392 0 0.2339854041867972 0.48695712891039089 0 0.24064869911215761 0.50000000000000244 0 0.2339854041867972 0.48695712891039089 0 0.24184120684035099 0.4581976946154846 0 0.24193409961780649 0.47367643658526698 0 0.25716706715618193 0.47641783178924169 0 0.24324303354975521 0.48909866857844392 0 0.24193409961780649 0.47367643658526698 0 0.25716706715618193 0.47641783178924169 0 0.24324303354975521 0.48909866857844392 0 0.24193409961780649 0.47367643658526698 0 0.2339854041867972 0.48695712891039089 0 0.22229140550900001 0.46406705440744211 0 0.24193409961780649 0.47367643658526698 0 0.2339854041867972 0.48695712891039089 0 0.22229140550900001 0.46406705440744211 0 0.2339854041867972 0.48695712891039089 0 0.22229140550900001 0.46406705440744211 0 0.2339854041867972 0.48695712891039089 0 0.21058997783642669 0.48154513501692131 0 0.2339854041867972 0.48695712891039089 0 0.21058997783642669 0.48154513501692131 0 0.2339854041867972 0.48695712891039089 0 0.21314400247467591 0.5 0 0.21058997783642669 0.48154513501692131 0 0.24064869911215761 0.50000000000000244 0 0.2339854041867972 0.48695712891039089 0 0.21314400247467591 0.5 0 0.21314400247467591 0.5 0 0.21058997783642669 0.48154513501692131 0 0.19841687033665559 0.48922266484742172 0 0.2005182123172754 0.46504183791057307 0 0.2103116034304838 0.4602104470792151 0 0.21058997783642669 0.48154513501692131 0 0.21058997783642669 0.48154513501692131 0 0.18719455148605621 0.47613314112345201 0 0.21058997783642669 0.48154513501692131 0 0.19841687033665559 0.48922266484742172 0 0.18719455148605621 0.47613314112345201 0 0.2005182123172754 0.46504183791057307 0 0.21058997783642669 0.48154513501692131 0 0.18719455148605621 0.47613314112345201 0 0.21314400247467591 0.5 0 0.19841687033665559 0.48922266484742172 0 0.18563930583719421 0.5 0 0.19841687033665559 0.48922266484742172 0 0.18563930583719421 0.5 0 0.18719455148605621 0.47613314112345201 0 0.18563930583719421 0.5 0 0.17133697046385701 0.48683307990629038 0 0.18719455148605621 0.47613314112345201 0 0.17133697046385701 0.48683307990629038 0 0.15813460919971251 0.5 0 0.1479106042039405 0.48283460682922269 0 0.18563930583719421 0.5 0 0.17133697046385701 0.48683307990629038 0 0.15813460919971251 0.5 0 0.17133697046385701 0.48683307990629038 0 0.16379912513568581 0.47072114722998237 0 0.1479106042039405 0.48283460682922269 0 0.17133697046385701 0.48683307990629038 0 0.16379912513568581 0.47072114722998237 0 0.18719455148605621 0.47613314112345201 0 0.16379912513568581 0.47072114722998237 0 0.18719455148605621 0.47613314112345201 0 0.18816718916202771 0.45764189265325561 0 0.16379912513568581 0.47072114722998237 0 0.18719455148605621 0.47613314112345201 0 0.18816718916202771 0.45764189265325561 0 0.16379912513568581 0.47072114722998237 0 0.1764896290127039 0.45007039086196288 0 0.1766721112776041 0.43405941705504181 0 0.1764896290127039 0.45007039086196288 0 0.16434142304259489 0.44630983219436898 0 0.189468296445607 0.44161966517716561 0 0.18816718916202771 0.45764189265325561 0 0.1764896290127039 0.45007039086196288 0 0.1766721112776041 0.43405941705504181 0 0.189468296445607 0.44161966517716561 0 0.1764896290127039 0.45007039086196288 0 0.15915405200730839 0.43380743940711708 0 0.1766721112776041 0.43405941705504181 0 0.16434142304259489 0.44630983219436898 0 0.15915405200730839 0.43380743940711708 0 0.16434142304259489 0.44630983219436898 0 0.1468621194973313 0.4432032004000479 0 0.16379912513568581 0.47072114722998237 0 0.1764896290127039 0.45007039086196288 0 0.16434142304259489 0.44630983219436898 0 0.16379912513568581 0.47072114722998237 0 0.16434142304259489 0.44630983219436898 0 0.15386760244336481 0.45613183796281243 0 0.16379912513568581 0.47072114722998237 0 0.15386760244336481 0.45613183796281243 0 0.14046774209784721 0.46429317202685039 0 0.15386760244336481 0.45613183796281243 0 0.1468621194973313 0.4432032004000479 0 0.14046774209784721 0.46429317202685039 0 0.16434142304259489 0.44630983219436898 0 0.15386760244336481 0.45613183796281243 0 0.1468621194973313 0.4432032004000479 0 0.1468621194973313 0.4432032004000479 0 0.128144127290927 0.44346528644618949 0 0.14046774209784721 0.46429317202685039 0 0.11648320602364499 0.46106604807885698 0 0.128144127290927 0.44346528644618949 0 0.14046774209784721 0.46429317202685039 0 0.11648320602364499 0.46106604807885698 0 0.14046774209784721 0.46429317202685039 0 0.12567845600013469 0.47929569400969452 0 0.14046774209784721 0.46429317202685039 0 0.12567845600013469 0.47929569400969452 0 0.1479106042039405 0.48283460682922269 0 0.12567845600013469 0.47929569400969452 0 0.1306299125622308 0.5 0 0.1479106042039405 0.48283460682922269 0 0.15813460919971251 0.5 0 0.1306299125622308 0.5 0 0.1479106042039405 0.48283460682922269 0 0.16379912513568581 0.47072114722998237 0 0.14046774209784721 0.46429317202685039 0 0.1479106042039405 0.48283460682922269 0 0.34528538451660062 0.47773379418631268 0 0.36004097027348331 0.48461391470660581 0 0.33995603526071178 0.48633656933393699 0 0.3490806650621458 0.46922782941321262 0 0.36004097027348331 0.48461391470660581 0 0.36717500093372668 0.46757054210475929 0 0.3490806650621458 0.46922782941321262 0 0.36004097027348331 0.48461391470660581 0 0.3490806650621458 0.46922782941321262 0 0.34528538451660062 0.47773379418631268 0 0.36004097027348331 0.48461391470660581 0 0.34701069105550569 0.5 0 0.36004097027348331 0.48461391470660581 0 0.33995603526071178 0.48633656933393699 0 0.34701069105550569 0.5 0 0.36004097027348331 0.48461391470660581 0 0.37100127548482031 0.49999999999999922 0 0.36004097027348331 0.48461391470660581 0 0.37100127548482031 0.49999999999999922 0 0.37501723488010369 0.48021086780116401 0 0.36004097027348331 0.48461391470660581 0 0.37100127548482031 0.49999999999999922 0 0.36004097027348331 0.48461391470660581 0 0.36717500093372668 0.46757054210475929 0 0.37501723488010369 0.48021086780116401 0 0.37143629651032872 0.45720686114999193 0 0.36367632925015653 0.45252291112370391 0 0.35567836915472589 0.45678778088016703 0 0.36415499449082389 0.46121224231392488 0 0.37143629651032872 0.45720686114999193 0 0.38198070339643708 0.45705904394289942 0 0.36415499449082389 0.46121224231392488 0 0.37143629651032872 0.45720686114999193 0 0.35567836915472589 0.45678778088016703 0 0.36415499449082389 0.46121224231392488 0 0.36717500093372668 0.46757054210475929 0 0.38198070339643708 0.45705904394289942 0 0.36415499449082389 0.46121224231392488 0 0.38198070339643708 0.45705904394289942 0 0.3490806650621458 0.46922782941321262 0 0.36415499449082389 0.46121224231392488 0 0.36717500093372668 0.46757054210475929 0 0.37143629651032872 0.45720686114999193 0 0.35567836915472589 0.45678778088016703 0 0.37143629651032872 0.45720686114999193 0 0.36657482697318761 0.446748226791508 0 0.38198070339643708 0.45705904394289942 0 0.36657482697318761 0.446748226791508 0 0.37193014631584848 0.42999924720615068 0 0.38198070339643708 0.45705904394289942 0 0.37143629651032872 0.45720686114999193 0 0.36367632925015653 0.45252291112370391 0 0.36657482697318761 0.446748226791508 0 0.36367632925015653 0.45252291112370391 0 0.36657482697318761 0.446748226791508 0 0.3562845012834378 0.4482926986491193 0 0.34808057550305938 0.44600590612250468 0 0.35567836915472589 0.45678778088016703 0 0.33992044179912329 0.45636870061034079 0 0.36657482697318761 0.446748226791508 0 0.3562845012834378 0.4482926986491193 0 0.35414098508291708 0.43540859867718368 0 0.3562845012834378 0.4482926986491193 0 0.34808057550305938 0.44600590612250468 0 0.35414098508291708 0.43540859867718368 0 0.36367632925015653 0.45252291112370391 0 0.3562845012834378 0.4482926986491193 0 0.35567836915472589 0.45678778088016703 0 0.3562845012834378 0.4482926986491193 0 0.34808057550305938 0.44600590612250468 0 0.35567836915472589 0.45678778088016703 0 0.34808057550305938 0.44600590612250468 0 0.33961570140635172 0.4362099185178574 0 0.35414098508291708 0.43540859867718368 0 0.35567836915472589 0.45678778088016703 0 0.34632928558521042 0.46536544068494828 0 0.33992044179912329 0.45636870061034079 0 0.35567836915472589 0.45678778088016703 0 0.33992044179912329 0.45636870061034079 0 0.3490806650621458 0.46922782941321262 0 0.36415499449082389 0.46121224231392488 0 0.34632928558521042 0.46536544068494828 0 0.3490806650621458 0.46922782941321262 0 0.36717500093372668 0.46757054210475929 0 0.36415499449082389 0.46121224231392488 0 0.35567836915472589 0.45678778088016703 0 0.34632928558521042 0.46536544068494828 0 0.36415499449082389 0.46121224231392488 0 0.34632928558521042 0.46536544068494828 0 0.3490806650621458 0.46922782941321262 0 0.34632928558521042 0.46536544068494828 0 0.3490806650621458 0.46922782941321262 0 0.34632928558521042 0.46536544068494828 0 0.32696081697792789 0.47125381941113659 0 0.34632928558521042 0.46536544068494828 0 0.32521862645877231 0.47028399711148339 0 0.34632928558521042 0.46536544068494828 0 0.33992044179912329 0.45636870061034079 0 0.32521862645877231 0.47028399711148339 0 0.34632928558521042 0.46536544068494828 0 0.33992044179912329 0.45636870061034079 0 0.34808057550305938 0.44600590612250468 0 0.3323541236552271 0.44574709709892307 0 0.33961570140635172 0.4362099185178574 0 0.33992044179912329 0.45636870061034079 0 0.3323541236552271 0.44574709709892307 0 0.32253421818534123 0.44684829148095362 0 0.34808057550305938 0.44600590612250468 0 0.33992044179912329 0.45636870061034079 0 0.3323541236552271 0.44574709709892307 0 0.33992044179912329 0.45636870061034079 0 0.3323541236552271 0.44574709709892307 0 0.3323541236552271 0.44574709709892307 0 0.32610359684421192 0.43678193879044119 0 0.33961570140635172 0.4362099185178574 0 0.33992044179912329 0.45636870061034079 0 0.32253421818534123 0.44684829148095362 0 0.3152464127007425 0.45571249763777588 0 0.32253421818534123 0.44684829148095362 0 0.3152464127007425 0.45571249763777588 0 0.31209623941360759 0.43776564917250638 0 0.3152464127007425 0.45571249763777588 0 0.31209623941360759 0.43776564917250638 0 0.3323541236552271 0.44574709709892307 0 0.32253421818534123 0.44684829148095362 0 0.32610359684421192 0.43678193879044119 0 0.32253421818534123 0.44684829148095362 0 0.31209623941360759 0.43776564917250638 0 0.32610359684421192 0.43678193879044119 0 0.33992044179912329 0.45636870061034079 0 0.3152464127007425 0.45571249763777588 0 0.32521862645877231 0.47028399711148339 0 0.3152464127007425 0.45571249763777588 0 0.31913325966346701 0.47785624881888772 0 0.32521862645877231 0.47028399711148339 0 0.33992044179912329 0.45636870061034079 0 0.3152464127007425 0.45571249763777588 0 0.3152464127007425 0.45571249763777588 0 0.31913325966346701 0.47785624881888772 0 0.30420975952634299 0.46947331586472302 0 0.3152464127007425 0.45571249763777588 0 0.31913325966346701 0.47785624881888772 0 0.31913325966346701 0.47785624881888772 0 0.32591742888426312 0.47548348654552591 0 0.329001796240801 0.48161473987402198 0 0.32591742888426312 0.47548348654552591 0 0.32927264508034731 0.47640862751209928 0 0.329001796240801 0.48161473987402198 0 0.31913325966346701 0.47785624881888772 0 0.32591742888426312 0.47548348654552591 0 0.32521862645877231 0.47028399711148339 0 0.32591742888426312 0.47548348654552591 0 0.32696081697792789 0.47125381941113659 0 0.32927264508034731 0.47640862751209928 0 0.32591742888426312 0.47548348654552591 0 0.32521862645877231 0.47028399711148339 0 0.32696081697792789 0.47125381941113659 0 0.3490806650621458 0.46922782941321262 0 0.32696081697792789 0.47125381941113659 0 0.33647616413196407 0.47630837646213342 0 0.34632928558521042 0.46536544068494828 0 0.32521862645877231 0.47028399711148339 0 0.32696081697792789 0.47125381941113659 0 0.32696081697792789 0.47125381941113659 0 0.32927264508034731 0.47640862751209928 0 0.33647616413196407 0.47630837646213342 0 0.3490806650621458 0.46922782941321262 0 0.32696081697792789 0.47125381941113659 0 0.32927264508034731 0.47640862751209928 0 0.329001796240801 0.48161473987402198 0 0.33647616413196407 0.47630837646213342 0 0.329001796240801 0.48161473987402198 0 0.33647616413196407 0.47630837646213342 0 0.33995603526071178 0.48633656933393699 0 0.34528538451660062 0.47773379418631268 0 0.33647616413196407 0.47630837646213342 0 0.33995603526071178 0.48633656933393699 0 0.3490806650621458 0.46922782941321262 0 0.34528538451660062 0.47773379418631268 0 0.33647616413196407 0.47630837646213342 0 0.329001796240801 0.48161473987402198 0 0.33995603526071178 0.48633656933393699 0 0.32302010662619118 0.49999999999999961 0 0.34701069105550569 0.5 0 0.33995603526071178 0.48633656933393699 0 0.32302010662619118 0.49999999999999961 0 0.31913325966346701 0.47785624881888772 0 0.32302010662619118 0.49999999999999961 0 0.30499869470741492 0.48476163660817662 0 0.31913325966346701 0.47785624881888772 0 0.329001796240801 0.48161473987402198 0 0.32302010662619118 0.49999999999999961 0 0.31913325966346701 0.47785624881888772 0 0.32302010662619118 0.49999999999999961 0 0.30109195845370501 0.5 0 0.30499869470741492 0.48476163660817662 0 0.28958375731165181 0.48005255167767952 0 0.32302010662619118 0.49999999999999961 0 0.30109195845370501 0.5 0 0.30499869470741492 0.48476163660817662 0 0.31913325966346701 0.47785624881888772 0 0.30499869470741492 0.48476163660817662 0 0.30420975952634299 0.46947331586472302 0 0.30499869470741492 0.48476163660817662 0 0.30420975952634299 0.46947331586472302 0 0.28958375731165181 0.48005255167767952 0 0.30109195845370501 0.5 0 0.28958375731165181 0.48005255167767952 0 0.27916381028121873 0.5 0 0.27916381028121873 0.5 0 0.27240166341444522 0.48425749185169831 0 0.2572356621087325 0.50000000000000155 0 0.28958375731165181 0.48005255167767952 0 0.27916381028121873 0.5 0 0.27240166341444522 0.48425749185169831 0 0.27240166341444522 0.48425749185169831 0 0.25716706715618193 0.47641783178924169 0 0.27345808637904001 0.4661952126215072 0 0.28958375731165181 0.48005255167767952 0 0.27240166341444522 0.48425749185169831 0 0.27345808637904001 0.4661952126215072 0 0.25716706715618193 0.47641783178924169 0 0.2572356621087325 0.50000000000000155 0 0.24324303354975521 0.48909866857844392 0 0.25716706715618193 0.47641783178924169 0 0.2572356621087325 0.50000000000000155 0 0.27240166341444522 0.48425749185169831 0 0.25716706715618193 0.47641783178924169 0 0.2572356621087325 0.50000000000000155 0 0.25709847220363119 0.45283566357848187 0 0.25702987725108101 0.42925349536772212 0 0.25709847220363119 0.45283566357848187 0 0.25702987725108101 0.42925349536772212 0 0.25836746492245471 0.43174768403659147 0 0.25709847220363119 0.45283566357848187 0 0.2660695066302855 0.43871015010979147 0 0.25836746492245471 0.43174768403659147 0 0.2448364132796593 0.44231000148378752 0 0.25709847220363119 0.45283566357848187 0 0.25702987725108101 0.42925349536772212 0 0.25716706715618193 0.47641783178924169 0 0.25709847220363119 0.45283566357848187 0 0.25716706715618193 0.47641783178924169 0 0.25709847220363119 0.45283566357848187 0 0.27345808637904001 0.4661952126215072 0 0.24184120684035099 0.4581976946154846 0 0.25716706715618193 0.47641783178924169 0 0.25709847220363119 0.45283566357848187 0 0.27345808637904001 0.4661952126215072 0 0.27379346358837398 0.44854793932786308 0 0.29070409459995628 0.45505979750407899 0 0.25709847220363119 0.45283566357848187 0 0.27345808637904001 0.4661952126215072 0 0.27379346358837398 0.44854793932786308 0 0.25709847220363119 0.45283566357848187 0 0.27379346358837398 0.44854793932786308 0 0.2660695066302855 0.43871015010979147 0 0.27379346358837398 0.44854793932786308 0 0.2660695066302855 0.43871015010979147 0 0.27312045032292342 0.43870088492299869 0 0.27379346358837398 0.44854793932786308 0 0.27312045032292342 0.43870088492299869 0 0.28291697042830632 0.43588410089467061 0 0.27379346358837398 0.44854793932786308 0 0.29070409459995628 0.45505979750407899 0 0.28291697042830632 0.43588410089467061 0 0.29070409459995628 0.45505979750407899 0 0.29777872383227422 0.43475991775429229 0 0.28291697042830632 0.43588410089467061 0 0.28958375731165181 0.48005255167767952 0 0.27345808637904001 0.4661952126215072 0 0.29070409459995628 0.45505979750407899 0 0.30420975952634299 0.46947331586472302 0 0.28958375731165181 0.48005255167767952 0 0.29070409459995628 0.45505979750407899 0 0.3152464127007425 0.45571249763777588 0 0.30420975952634299 0.46947331586472302 0 0.29070409459995628 0.45505979750407899 0 0.3152464127007425 0.45571249763777588 0 0.29070409459995628 0.45505979750407899 0 0.3152464127007425 0.45571249763777588 0 0.29070409459995628 0.45505979750407899 0 0.31209623941360759 0.43776564917250638 0 0.29070409459995628 0.45505979750407899 0 0.31209623941360759 0.43776564917250638 0 0.29777872383227422 0.43475991775429229 0 0.29777872383227422 0.43475991775429229 0 0.28982240375417168 0.42299913491174501 0 0.31495791781995791 0.41600820478279921 0 0.31209623941360759 0.43776564917250638 0 0.29777872383227422 0.43475991775429229 0 0.31495791781995791 0.41600820478279921 0 0.28982240375417168 0.42299913491174501 0 0.31495791781995791 0.41600820478279921 0 0.28950248352475311 0.4095022566254774 0 0.28982240375417168 0.42299913491174501 0 0.31495791781995791 0.41600820478279921 0 0.28950248352475311 0.4095022566254774 0 0.29925209770985872 0.40107025153885512 0 0.31495791781995791 0.41600820478279921 0 0.28950248352475311 0.4095022566254774 0 0.28982240375417168 0.42299913491174501 0 0.27496603255160451 0.42014298348928741 0 0.29777872383227422 0.43475991775429229 0 0.28982240375417168 0.42299913491174501 0 0.28291697042830632 0.43588410089467061 0 0.28982240375417168 0.42299913491174501 0 0.26935029905594432 0.43043866375212297 0 0.26468688968838561 0.42999006504069143 0 0.27312045032292342 0.43870088492299869 0 0.28291697042830632 0.43588410089467061 0 0.26935029905594432 0.43043866375212297 0 0.28982240375417168 0.42299913491174501 0 0.26468688968838561 0.42999006504069143 0 0.28982240375417168 0.42299913491174501 0 0.28291697042830632 0.43588410089467061 0 0.26935029905594432 0.43043866375212297 0 0.28982240375417168 0.42299913491174501 0 0.27496603255160451 0.42014298348928741 0 0.26468688968838561 0.42999006504069143 0 0.2660695066302855 0.43871015010979147 0 0.26935029905594432 0.43043866375212297 0 0.26468688968838561 0.42999006504069143 0 0.2660695066302855 0.43871015010979147 0 0.27312045032292342 0.43870088492299869 0 0.26935029905594432 0.43043866375212297 0 0.26935029905594432 0.43043866375212297 0 0.26468688968838561 0.42999006504069143 0 0.27496603255160451 0.42014298348928741 0 0.26468688968838561 0.42999006504069143 0 0.2651281327625446 0.42188031555685962 0 0.28950248352475311 0.4095022566254774 0 0.26395116785126571 0.41384430375133069 0 0.28950248352475311 0.4095022566254774 0 0.27496603255160451 0.42014298348928741 0 0.26395116785126571 0.41384430375133069 0 0.28950248352475311 0.4095022566254774 0 0.26395116785126571 0.41384430375133069 0 0.27343145984221179 0.40601604463393609 0 0.26395116785126571 0.41384430375133069 0 0.26299804800527138 0.40191116090260848 0 0.27343145984221179 0.40601604463393609 0 0.27496603255160451 0.42014298348928741 0 0.26395116785126571 0.41384430375133069 0 0.2651281327625446 0.42188031555685962 0 0.26395116785126571 0.41384430375133069 0 0.25700903327720531 0.4220875730974884 0 0.2651281327625446 0.42188031555685962 0 0.2383998521777784 0.41818635087718381 0 0.26395116785126571 0.41384430375133069 0 0.25380059083303341 0.40846212201461762 0 0.2488221034234695 0.4223051763495565 0 0.2383998521777784 0.41818635087718381 0 0.26395116785126571 0.41384430375133069 0 0.2383998521777784 0.41818635087718381 0 0.26395116785126571 0.41384430375133069 0 0.26395116785126571 0.41384430375133069 0 0.25380059083303341 0.40846212201461762 0 0.26299804800527138 0.40191116090260848 0 0.2488221034234695 0.4223051763495565 0 0.26395116785126571 0.41384430375133069 0 0.25700903327720531 0.4220875730974884 0 0.2488221034234695 0.4223051763495565 0 0.25700903327720531 0.4220875730974884 0 0.25702987725108101 0.42925349536772212 0 0.25700903327720531 0.4220875730974884 0 0.25702987725108101 0.42925349536772212 0 0.25836746492245471 0.43174768403659147 0 0.26468688968838561 0.42999006504069143 0 0.25702987725108101 0.42925349536772212 0 0.25836746492245471 0.43174768403659147 0 0.26468688968838561 0.42999006504069143 0 0.2660695066302855 0.43871015010979147 0 0.25836746492245471 0.43174768403659147 0 0.26468688968838561 0.42999006504069143 0 0.25702987725108101 0.42925349536772212 0 0.26468688968838561 0.42999006504069143 0 0.2651281327625446 0.42188031555685962 0 0.25700903327720531 0.4220875730974884 0 0.25702987725108101 0.42925349536772212 0 0.2651281327625446 0.42188031555685962 0 0.25702987725108101 0.42925349536772212 0 0.26468688968838561 0.42999006504069143 0 0.24985329529781791 0.39990667252734718 0 0.247713784970646 0.38075050805242922 0 0.26130673841785779 0.38162699417751078 0 0.26130673841785779 0.38162699417751078 0 0.25751014003425049 0.39127202551525408 0 0.26130673841785779 0.38162699417751078 0 0.25751014003425049 0.39127202551525408 0 0.26555566989124457 0.39385691981445009 0 0.247713784970646 0.38075050805242922 0 0.26130673841785779 0.38162699417751078 0 0.25490457918629872 0.37507349251653871 0 0.24985329529781791 0.39990667252734718 0 0.26130673841785779 0.38162699417751078 0 0.24985329529781791 0.39990667252734718 0 0.26130673841785779 0.38162699417751078 0 0.25751014003425049 0.39127202551525408 0 0.24985329529781791 0.39990667252734718 0 0.25751014003425049 0.39127202551525408 0 0.26299804800527138 0.40191116090260848 0 0.24985329529781791 0.39990667252734718 0 0.25380059083303341 0.40846212201461762 0 0.26299804800527138 0.40191116090260848 0 0.25751014003425049 0.39127202551525408 0 0.26299804800527138 0.40191116090260848 0 0.26555566989124457 0.39385691981445009 0 0.26555566989124457 0.39385691981445009 0 0.27430006382294309 0.39784586166294189 0 0.27120134665021761 0.38756895009831732 0 0.26299804800527138 0.40191116090260848 0 0.26555566989124457 0.39385691981445009 0 0.27430006382294309 0.39784586166294189 0 0.26299804800527138 0.40191116090260848 0 0.27343145984221179 0.40601604463393609 0 0.27430006382294309 0.39784586166294189 0 0.27343145984221179 0.40601604463393609 0 0.28106797903805247 0.40257602375425933 0 0.27430006382294309 0.39784586166294189 0 0.28106797903805247 0.40257602375425933 0 0.27430006382294309 0.39784586166294189 0 0.28703790896230208 0.39693993209468148 0 0.27430006382294309 0.39784586166294189 0 0.27993136792368678 0.39059144184020128 0 0.27120134665021761 0.38756895009831732 0 0.27430006382294309 0.39784586166294189 0 0.27993136792368678 0.39059144184020128 0 0.28703790896230208 0.39693993209468148 0 0.27993136792368678 0.39059144184020128 0 0.27120134665021761 0.38756895009831732 0 0.27779903165459169 0.3822920493098666 0 0.26130673841785779 0.38162699417751078 0 0.26555566989124457 0.39385691981445009 0 0.27120134665021761 0.38756895009831732 0 0.27120134665021761 0.38756895009831732 0 0.27107463499663109 0.37851234507980008 0 0.27779903165459169 0.3822920493098666 0 0.26130673841785779 0.38162699417751078 0 0.27120134665021761 0.38756895009831732 0 0.27107463499663109 0.37851234507980008 0 0.27107463499663109 0.37851234507980008 0 0.27779903165459169 0.3822920493098666 0 0.2766490591355068 0.37433388147839908 0 0.27779903165459169 0.3822920493098666 0 0.28390095120816711 0.37562544504190132 0 0.2766490591355068 0.37433388147839908 0 0.28390095120816711 0.37562544504190132 0 0.28652318226166418 0.38492160690775928 0 0.29373006398809498 0.37700175091789651 0 0.27779903165459169 0.3822920493098666 0 0.28390095120816711 0.37562544504190132 0 0.28652318226166418 0.38492160690775928 0 0.27993136792368678 0.39059144184020128 0 0.27779903165459169 0.3822920493098666 0 0.28652318226166418 0.38492160690775928 0 0.28652318226166418 0.38492160690775928 0 0.29667622102462171 0.38885955313607279 0 0.28703790896230208 0.39693993209468148 0 0.28652318226166418 0.38492160690775928 0 0.29667622102462171 0.38885955313607279 0 0.29373006398809498 0.37700175091789651 0 0.28950248352475311 0.4095022566254774 0 0.27343145984221179 0.40601604463393609 0 0.28106797903805247 0.40257602375425933 0 0.28950248352475311 0.4095022566254774 0 0.28106797903805247 0.40257602375425933 0 0.28703790896230208 0.39693993209468148 0 0.27993136792368678 0.39059144184020128 0 0.28652318226166418 0.38492160690775928 0 0.28703790896230208 0.39693993209468148 0 0.29667622102462171 0.38885955313607279 0 0.28703790896230208 0.39693993209468148 0 0.29925209770985872 0.40107025153885512 0 0.28950248352475311 0.4095022566254774 0 0.28703790896230208 0.39693993209468148 0 0.29925209770985872 0.40107025153885512 0 0.29925209770985872 0.40107025153885512 0 0.30808595721765852 0.39404131105524431 0 0.31495791781995791 0.41600820478279921 0 0.29667622102462171 0.38885955313607279 0 0.29925209770985872 0.40107025153885512 0 0.30808595721765852 0.39404131105524431 0 0.29667622102462171 0.38885955313607279 0 0.29373006398809498 0.37700175091789651 0 0.30704607127102962 0.37874789135054893 0 0.29667622102462171 0.38885955313607279 0 0.30808595721765852 0.39404131105524431 0 0.30704607127102962 0.37874789135054893 0 0.30808595721765852 0.39404131105524431 0 0.30704607127102962 0.37874789135054893 0 0.32845424032326143 0.38484820442882378 0 0.32845424032326143 0.38484820442882378 0 0.35182903215467742 0.3758796537326512 0 0.34790646022865218 0.39538457505576469 0 0.32845424032326143 0.38484820442882378 0 0.35182903215467742 0.3758796537326512 0 0.33494999436834533 0.36683291921078343 0 0.32845424032326143 0.38484820442882378 0 0.34009343188574281 0.40901727465384918 0 0.34790646022865218 0.39538457505576469 0 0.32845424032326143 0.38484820442882378 0 0.34009343188574281 0.40901727465384918 0 0.32845424032326143 0.38484820442882378 0 0.31495791781995791 0.41600820478279921 0 0.34009343188574281 0.40901727465384918 0 0.30808595721765852 0.39404131105524431 0 0.32845424032326143 0.38484820442882378 0 0.31495791781995791 0.41600820478279921 0 0.31495791781995791 0.41600820478279921 0 0.32365546110746413 0.42694996431045568 0 0.33527312640506091 0.41934143736272778 0 0.31495791781995791 0.41600820478279921 0 0.34009343188574281 0.40901727465384918 0 0.31209623941360759 0.43776564917250638 0 0.31495791781995791 0.41600820478279921 0 0.32365546110746413 0.42694996431045568 0 0.32365546110746413 0.42694996431045568 0 0.32610359684421192 0.43678193879044119 0 0.33309445048640007 0.42842800460629599 0 0.31209623941360759 0.43776564917250638 0 0.32365546110746413 0.42694996431045568 0 0.32610359684421192 0.43678193879044119 0 0.32610359684421192 0.43678193879044119 0 0.33309445048640007 0.42842800460629599 0 0.33961570140635172 0.4362099185178574 0 0.32365546110746413 0.42694996431045568 0 0.33309445048640007 0.42842800460629599 0 0.33527312640506091 0.41934143736272778 0 0.33309445048640007 0.42842800460629599 0 0.33527312640506091 0.41934143736272778 0 0.34392047686629479 0.42488796581179539 0 0.33309445048640007 0.42842800460629599 0 0.33961570140635172 0.4362099185178574 0 0.34392047686629479 0.42488796581179539 0 0.31495791781995791 0.41600820478279921 0 0.33527312640506091 0.41934143736272778 0 0.34009343188574281 0.40901727465384918 0 0.33527312640506091 0.41934143736272778 0 0.34212939465805281 0.41814630590263291 0 0.34392047686629479 0.42488796581179539 0 0.33527312640506091 0.41934143736272778 0 0.34212939465805281 0.41814630590263291 0 0.34186442441667098 0.41269478460960501 0 0.34212939465805281 0.41814630590263291 0 0.34186442441667098 0.41269478460960501 0 0.34552380666320143 0.41323543455967687 0 0.34186442441667098 0.41269478460960501 0 0.34009343188574281 0.40901727465384918 0 0.34552380666320143 0.41323543455967687 0 0.33527312640506091 0.41934143736272778 0 0.34186442441667098 0.41269478460960501 0 0.34009343188574281 0.40901727465384918 0 0.34186442441667098 0.41269478460960501 0 0.34009343188574281 0.40901727465384918 0 0.34009343188574281 0.40901727465384918 0 0.35091829865975332 0.41092335925812529 0 0.35727600754431599 0.40423829199409889 0 0.34009343188574281 0.40901727465384918 0 0.35727600754431599 0.40423829199409889 0 0.34009343188574281 0.40901727465384918 0 0.35091829865975332 0.41092335925812529 0 0.34552380666320143 0.41323543455967687 0 0.35091829865975332 0.41092335925812529 0 0.34552380666320143 0.41323543455967687 0 0.34772672207850669 0.4169791994607831 0 0.34212939465805281 0.41814630590263291 0 0.34772672207850669 0.4169791994607831 0 0.34392047686629479 0.42488796581179539 0 0.34212939465805281 0.41814630590263291 0 0.34552380666320143 0.41323543455967687 0 0.34772672207850669 0.4169791994607831 0 0.34772672207850669 0.4169791994607831 0 0.35532758082363769 0.41783269502340331 0 0.34392047686629479 0.42488796581179539 0 0.35091829865975332 0.41092335925812529 0 0.34772672207850669 0.4169791994607831 0 0.35532758082363769 0.41783269502340331 0 0.35091829865975332 0.41092335925812529 0 0.35532758082363769 0.41783269502340331 0 0.35727600754431599 0.40423829199409889 0 0.35532758082363769 0.41783269502340331 0 0.36187958923526292 0.40293945046940088 0 0.35727600754431599 0.40423829199409889 0 0.35532758082363769 0.41783269502340331 0 0.34392047686629479 0.42488796581179539 0 0.35414098508291708 0.43540859867718368 0 0.33961570140635172 0.4362099185178574 0 0.34392047686629479 0.42488796581179539 0 0.35414098508291708 0.43540859867718368 0 0.35532758082363769 0.41783269502340331 0 0.35414098508291708 0.43540859867718368 0 0.37193014631584848 0.42999924720615068 0 0.36657482697318761 0.446748226791508 0 0.35414098508291708 0.43540859867718368 0 0.37193014631584848 0.42999924720615068 0 0.35532758082363769 0.41783269502340331 0 0.37193014631584848 0.42999924720615068 0 0.36187958923526292 0.40293945046940088 0 0.37193014631584848 0.42999924720615068 0 0.36187958923526292 0.40293945046940088 0 0.37193014631584848 0.42999924720615068 0 0.36187958923526292 0.40293945046940088 0 0.39091832328282361 0.41087193027100549 0 0.36187958923526292 0.40293945046940088 0 0.35182903215467742 0.3758796537326512 0 0.37807898130569972 0.38198010331448301 0 0.36187958923526292 0.40293945046940088 0 0.35182903215467742 0.3758796537326512 0 0.36187958923526292 0.40293945046940088 0 0.35182903215467742 0.3758796537326512 0 0.34790646022865218 0.39538457505576469 0 0.34009343188574281 0.40901727465384918 0 0.34790646022865218 0.39538457505576469 0 0.35727600754431599 0.40423829199409889 0 0.36187958923526292 0.40293945046940088 0 0.34790646022865218 0.39538457505576469 0 0.35727600754431599 0.40423829199409889 0 0.35182903215467742 0.3758796537326512 0 0.3722477765496085 0.35016695762591221 0 0.37807898130569972 0.38198010331448301 0 0.35182903215467742 0.3758796537326512 0 0.3722477765496085 0.35016695762591221 0 0.34177847507409181 0.34881985699590151 0 0.35182903215467742 0.3758796537326512 0 0.34177847507409181 0.34881985699590151 0 0.3722477765496085 0.35016695762591221 0 0.37069175466933912 0.32875176142968793 0 0.35660426620688718 0.33158813156598749 0 0.3722477765496085 0.35016695762591221 0 0.37069175466933912 0.32875176142968793 0 0.38018026091455548 0.33583017463534492 0 0.36908544359869788 0.31711993858565868 0 0.37552929986171052 0.31147094895867028 0 0.37512131353827649 0.31993777409944391 0 0.37069175466933912 0.32875176142968793 0 0.36908544359869788 0.31711993858565868 0 0.37512131353827649 0.31993777409944391 0 0.37069175466933912 0.32875176142968793 0 0.36908544359869788 0.31711993858565868 0 0.36227265828944472 0.32102596309161863 0 0.37069175466933912 0.32875176142968793 0 0.36227265828944472 0.32102596309161863 0 0.35660426620688718 0.33158813156598749 0 0.36908544359869788 0.31711993858565868 0 0.36216199407232552 0.31421251507807352 0 0.36873564116109159 0.30732066885645792 0 0.36908544359869788 0.31711993858565868 0 0.36227265828944472 0.32102596309161863 0 0.36216199407232552 0.31421251507807352 0 0.36227265828944472 0.32102596309161863 0 0.36216199407232552 0.31421251507807352 0 0.35548040964913802 0.3182867922552447 0 0.33172791799350532 0.32176006025915199 0 0.34669185149407039 0.31235854363774268 0 0.35483192959872478 0.30892549123100937 0 0.34679263072992478 0.32222161781041447 0 0.33172791799350532 0.32176006025915199 0 0.35483192959872478 0.30892549123100937 0 0.35548040964913802 0.3182867922552447 0 0.34679263072992478 0.32222161781041447 0 0.35483192959872478 0.30892549123100937 0 0.36216199407232552 0.31421251507807352 0 0.35548040964913802 0.3182867922552447 0 0.35483192959872478 0.30892549123100937 0 0.35548040964913802 0.3182867922552447 0 0.34679263072992478 0.32222161781041447 0 0.35660426620688718 0.33158813156598749 0 0.36227265828944472 0.32102596309161863 0 0.35548040964913802 0.3182867922552447 0 0.35660426620688718 0.33158813156598749 0 0.34679263072992478 0.32222161781041447 0 0.35660426620688718 0.33158813156598749 0 0.34177847507409181 0.34881985699590151 0 0.3722477765496085 0.35016695762591221 0 0.35660426620688718 0.33158813156598749 0 0.34177847507409181 0.34881985699590151 0 0.33172791799350532 0.32176006025915199 0 0.32481653016515311 0.34395618279456119 0 0.34177847507409181 0.34881985699590151 0 0.34679263072992478 0.32222161781041447 0 0.33172791799350532 0.32176006025915199 0 0.34177847507409181 0.34881985699590151 0 0.33172791799350532 0.32176006025915199 0 0.34177847507409181 0.34881985699590151 0 0.33172791799350532 0.32176006025915199 0 0.35483192959872478 0.30892549123100937 0 0.33172791799350532 0.32176006025915199 0 0.33433715661558527 0.30915126849091529 0 0.34669185149407039 0.31235854363774268 0 0.33172791799350532 0.32176006025915199 0 0.32649517228490349 0.30767158395733452 0 0.33433715661558527 0.30915126849091529 0 0.33172791799350532 0.32176006025915199 0 0.32649517228490349 0.30767158395733452 0 0.33172791799350532 0.32176006025915199 0 0.31845188759589887 0.32913506211895882 0 0.3124215414252603 0.31463851826348332 0 0.33172791799350532 0.32176006025915199 0 0.3124215414252603 0.31463851826348332 0 0.32649517228490349 0.30767158395733452 0 0.33172791799350532 0.32176006025915199 0 0.31845188759589887 0.32913506211895882 0 0.33172791799350532 0.32176006025915199 0 0.31845188759589887 0.32913506211895882 0 0.32481653016515311 0.34395618279456119 0 0.31845188759589887 0.32913506211895882 0 0.32481653016515311 0.34395618279456119 0 0.3051758571982971 0.3365100639787737 0 0.32481653016515311 0.34395618279456119 0 0.31681504876077932 0.36067913420379871 0 0.3051758571982971 0.3365100639787737 0 0.32481653016515311 0.34395618279456119 0 0.33494999436834533 0.36683291921078343 0 0.31681504876077932 0.36067913420379871 0 0.32481653016515311 0.34395618279456119 0 0.34177847507409181 0.34881985699590151 0 0.33494999436834533 0.36683291921078343 0 0.35182903215467742 0.3758796537326512 0 0.34177847507409181 0.34881985699590151 0 0.33494999436834533 0.36683291921078343 0 0.30704607127102962 0.37874789135054893 0 0.32845424032326143 0.38484820442882378 0 0.31681504876077932 0.36067913420379871 0 0.32845424032326143 0.38484820442882378 0 0.31681504876077932 0.36067913420379871 0 0.32845424032326143 0.38484820442882378 0 0.33494999436834533 0.36683291921078343 0 0.31681504876077932 0.36067913420379871 0 0.30704607127102962 0.37874789135054893 0 0.31681504876077932 0.36067913420379871 0 0.30062517624183088 0.36676896646786628 0 0.31681504876077932 0.36067913420379871 0 0.30062517624183088 0.36676896646786628 0 0.29985560249366611 0.35416009340586768 0 0.29373006398809498 0.37700175091789651 0 0.30704607127102962 0.37874789135054893 0 0.30062517624183088 0.36676896646786628 0 0.31681504876077932 0.36067913420379871 0 0.3051758571982971 0.3365100639787737 0 0.31681504876077932 0.36067913420379871 0 0.29985560249366611 0.35416009340586768 0 0.3051758571982971 0.3365100639787737 0 0.29985560249366611 0.35416009340586768 0 0.29642893485056382 0.34373170356788069 0 0.3051758571982971 0.3365100639787737 0 0.29156997961887149 0.34921014654590388 0 0.28547266882539629 0.3430582048410174 0 0.29642893485056382 0.34373170356788069 0 0.29985560249366611 0.35416009340586768 0 0.29156997961887149 0.34921014654590388 0 0.29642893485056382 0.34373170356788069 0 0.29985560249366611 0.35416009340586768 0 0.2845227123058599 0.35589058436884952 0 0.28847801066549428 0.36644572303251932 0 0.29985560249366611 0.35416009340586768 0 0.29156997961887149 0.34921014654590388 0 0.2845227123058599 0.35589058436884952 0 0.29156997961887149 0.34921014654590388 0 0.2845227123058599 0.35589058436884952 0 0.28547266882539629 0.3430582048410174 0 0.29373006398809498 0.37700175091789651 0 0.30062517624183088 0.36676896646786628 0 0.28847801066549428 0.36644572303251932 0 0.30062517624183088 0.36676896646786628 0 0.29985560249366611 0.35416009340586768 0 0.28847801066549428 0.36644572303251932 0 0.2845227123058599 0.35589058436884952 0 0.28170395393251652 0.36324765217496502 0 0.28847801066549428 0.36644572303251932 0 0.28170395393251652 0.36324765217496502 0 0.28847801066549428 0.36644572303251932 0 0.28042538913708492 0.36831170178922717 0 0.28390095120816711 0.37562544504190132 0 0.29373006398809498 0.37700175091789651 0 0.28847801066549428 0.36644572303251932 0 0.28390095120816711 0.37562544504190132 0 0.28847801066549428 0.36644572303251932 0 0.28042538913708492 0.36831170178922717 0 0.28042538913708492 0.36831170178922717 0 0.2766490591355068 0.37433388147839908 0 0.27338970362162712 0.36234259950926417 0 0.26130673841785779 0.38162699417751078 0 0.27338970362162712 0.36234259950926417 0 0.26130673841785779 0.38162699417751078 0 0.27338970362162712 0.36234259950926417 0 0.27075156819252399 0.35763296848608189 0 0.26130673841785779 0.38162699417751078 0 0.27107463499663109 0.37851234507980008 0 0.27338970362162712 0.36234259950926417 0 0.26130673841785779 0.38162699417751078 0 0.27075156819252399 0.35763296848608189 0 0.27107463499663109 0.37851234507980008 0 0.2766490591355068 0.37433388147839908 0 0.27338970362162712 0.36234259950926417 0 0.28390095120816711 0.37562544504190132 0 0.28042538913708492 0.36831170178922717 0 0.2766490591355068 0.37433388147839908 0 0.28170395393251652 0.36324765217496502 0 0.28042538913708492 0.36831170178922717 0 0.27338970362162712 0.36234259950926417 0 0.2845227123058599 0.35589058436884952 0 0.28170395393251652 0.36324765217496502 0 0.27338970362162712 0.36234259950926417 0 0.27075156819252399 0.35763296848608189 0 0.26558463596339632 0.34150625501184179 0 0.28019639796719031 0.33363894279465311 0 0.27075156819252399 0.35763296848608189 0 0.28019639796719031 0.33363894279465311 0 0.28547266882539629 0.3430582048410174 0 0.2845227123058599 0.35589058436884952 0 0.27338970362162712 0.36234259950926417 0 0.28547266882539629 0.3430582048410174 0 0.27075156819252399 0.35763296848608189 0 0.28019639796719031 0.33363894279465311 0 0.27338970362162712 0.36234259950926417 0 0.28547266882539629 0.3430582048410174 0 0.27338970362162712 0.36234259950926417 0 0.27075156819252399 0.35763296848608189 0 0.28547266882539629 0.3430582048410174 0 0.27075156819252399 0.35763296848608189 0 0.25711451900508148 0.35258648987221092 0 0.26558463596339632 0.34150625501184179 0 0.2438273554430464 0.34812574592335249 0 0.25711451900508148 0.35258648987221092 0 0.25235619873932041 0.33556187677713623 0 0.27075156819252399 0.35763296848608189 0 0.25711451900508148 0.35258648987221092 0 0.25830082874688443 0.36636652218621663 0 0.26130673841785779 0.38162699417751078 0 0.27075156819252399 0.35763296848608189 0 0.25830082874688443 0.36636652218621663 0 0.2444030594993066 0.36261468031945582 0 0.25711451900508148 0.35258648987221092 0 0.25830082874688443 0.36636652218621663 0 0.2444030594993066 0.36261468031945582 0 0.25490457918629872 0.37507349251653871 0 0.25830082874688443 0.36636652218621663 0 0.26130673841785779 0.38162699417751078 0 0.25490457918629872 0.37507349251653871 0 0.25830082874688443 0.36636652218621663 0 0.2412863906095909 0.31706614216088019 0 0.25496362040665271 0.32267745764425643 0 0.26071219069447599 0.31197788889560879 0 0.25496362040665271 0.32267745764425643 0 0.26589958482641279 0.32752631364072038 0 0.26071219069447599 0.31197788889560879 0 0.25496362040665271 0.32267745764425643 0 0.25235619873932041 0.33556187677713623 0 0.26589958482641279 0.32752631364072038 0 0.25711451900508148 0.35258648987221092 0 0.25235619873932041 0.33556187677713623 0 0.26558463596339632 0.34150625501184179 0 0.25235619873932041 0.33556187677713623 0 0.26558463596339632 0.34150625501184179 0 0.26589958482641279 0.32752631364072038 0 0.26558463596339632 0.34150625501184179 0 0.28019639796719031 0.33363894279465311 0 0.26589958482641279 0.32752631364072038 0 0.28019639796719031 0.33363894279465311 0 0.26589958482641279 0.32752631364072038 0 0.27489680020354851 0.31780650302536112 0 0.26589958482641279 0.32752631364072038 0 0.27489680020354851 0.31780650302536112 0 0.26071219069447599 0.31197788889560879 0 0.28019639796719031 0.33363894279465311 0 0.28964122774185652 0.30964491710322428 0 0.28019639796719031 0.33363894279465311 0 0.27489680020354851 0.31780650302536112 0 0.28964122774185652 0.30964491710322428 0 0.28019639796719031 0.33363894279465311 0 0.29537221966939131 0.31615256727250862 0 0.28964122774185652 0.30964491710322428 0 0.28019639796719031 0.33363894279465311 0 0.29537221966939131 0.31615256727250862 0 0.29755563402916552 0.32377381017277068 0 0.28019639796719031 0.33363894279465311 0 0.28547266882539629 0.3430582048410174 0 0.29755563402916552 0.32377381017277068 0 0.28547266882539629 0.3430582048410174 0 0.29755563402916552 0.32377381017277068 0 0.28547266882539629 0.3430582048410174 0 0.29642893485056382 0.34373170356788069 0 0.29755563402916552 0.32377381017277068 0 0.29642893485056382 0.34373170356788069 0 0.3051758571982971 0.3365100639787737 0 0.29755563402916552 0.32377381017277068 0 0.31845188759589887 0.32913506211895882 0 0.3051758571982971 0.3365100639787737 0 0.29537221966939131 0.31615256727250862 0 0.3051758571982971 0.3365100639787737 0 0.29755563402916552 0.32377381017277068 0 0.31845188759589887 0.32913506211895882 0 0.3051758571982971 0.3365100639787737 0 0.3124215414252603 0.31463851826348332 0 0.29537221966939131 0.31615256727250862 0 0.3051758571982971 0.3365100639787737 0 0.29537221966939131 0.31615256727250862 0 0.3051758571982971 0.3365100639787737 0 0.3124215414252603 0.31463851826348332 0 0.29537221966939131 0.31615256727250862 0 0.3064038210334884 0.30067388223127611 0 0.29780590900410991 0.29124285186599119 0 0.29537221966939131 0.31615256727250862 0 0.3124215414252603 0.31463851826348332 0 0.3064038210334884 0.30067388223127611 0 0.3124215414252603 0.31463851826348332 0 0.3064038210334884 0.30067388223127611 0 0.31797064105596812 0.29669460242380358 0 0.3064038210334884 0.30067388223127611 0 0.30706453001149392 0.28545611992336922 0 0.31797064105596812 0.29669460242380358 0 0.3064038210334884 0.30067388223127611 0 0.30706453001149392 0.28545611992336922 0 0.29780590900410991 0.29124285186599119 0 0.30706453001149392 0.28545611992336922 0 0.29780590900410991 0.29124285186599119 0 0.29516751126046797 0.28001135836836077 0 0.28556858214048553 0.29579507056624349 0 0.28351082165216779 0.2739244349354083 0 0.29516751126046797 0.28001135836836077 0 0.29780590900410991 0.29124285186599119 0 0.28556858214048553 0.29579507056624349 0 0.29516751126046797 0.28001135836836077 0 0.28556858214048553 0.29579507056624349 0 0.27576494461157991 0.27543757385997852 0 0.28351082165216779 0.2739244349354083 0 0.29537221966939131 0.31615256727250862 0 0.29780590900410991 0.29124285186599119 0 0.28556858214048553 0.29579507056624349 0 0.29537221966939131 0.31615256727250862 0 0.28556858214048553 0.29579507056624349 0 0.28964122774185652 0.30964491710322428 0 0.29537221966939131 0.31615256727250862 0 0.28556858214048553 0.29579507056624349 0 0.28556858214048553 0.29579507056624349 0 0.28964122774185652 0.30964491710322428 0 0.27438759942090191 0.30337842557507938 0 0.27489680020354851 0.31780650302536112 0 0.28964122774185652 0.30964491710322428 0 0.27438759942090191 0.30337842557507938 0 0.27489680020354851 0.31780650302536112 0 0.27438759942090191 0.30337842557507938 0 0.26071219069447599 0.31197788889560879 0 0.27248032494705132 0.28939396479480628 0 0.25491758893057909 0.27951005592881761 0 0.27576494461157991 0.27543757385997852 0 0.28556858214048553 0.29579507056624349 0 0.27576494461157991 0.27543757385997852 0 0.28556858214048553 0.29579507056624349 0 0.27248032494705132 0.28939396479480628 0 0.27576494461157991 0.27543757385997852 0 0.28556858214048553 0.29579507056624349 0 0.27438759942090191 0.30337842557507938 0 0.27248032494705132 0.28939396479480628 0 0.27438759942090191 0.30337842557507938 0 0.27248032494705132 0.28939396479480628 0 0.26162700977852021 0.29629342014523508 0 0.27248032494705132 0.28939396479480628 0 0.26162700977852021 0.29629342014523508 0 0.25491758893057909 0.27951005592881761 0 0.24543399627141721 0.29887735901603257 0 0.26162700977852021 0.29629342014523508 0 0.25491758893057909 0.27951005592881761 0 0.27438759942090191 0.30337842557507938 0 0.26162700977852021 0.29629342014523508 0 0.26071219069447599 0.31197788889560879 0 0.24543399627141721 0.29887735901603257 0 0.26162700977852021 0.29629342014523508 0 0.26071219069447599 0.31197788889560879 0 0.25153222320099622 0.25722575917013901 0 0.27218921726664158 0.26801248725998528 0 0.26048617882559622 0.24371083740660091 0 0.25153222320099622 0.25722575917013901 0 0.25536006440587672 0.26878811273571068 0 0.27218921726664158 0.26801248725998528 0 0.25153222320099622 0.25722575917013901 0 0.27218921726664158 0.26801248725998528 0 0.25153222320099622 0.25722575917013901 0 0.26048617882559622 0.24371083740660091 0 0.25491758893057909 0.27951005592881761 0 0.27576494461157991 0.27543757385997852 0 0.25536006440587672 0.26878811273571068 0 0.25491758893057909 0.27951005592881761 0 0.27218921726664158 0.26801248725998528 0 0.2428012282252888 0.27040414858390061 0 0.25536006440587672 0.26878811273571068 0 0.25491758893057909 0.27951005592881761 0 0.25491758893057909 0.27951005592881761 0 0.27218921726664158 0.26801248725998528 0 0.27576494461157991 0.27543757385997852 0 0.27576494461157991 0.27543757385997852 0 0.28351082165216779 0.2739244349354083 0 0.27218921726664158 0.26801248725998528 0 0.28351082165216779 0.2739244349354083 0 0.28241209558822961 0.26632916093747078 0 0.27218921726664158 0.26801248725998528 0 0.27576494461157991 0.27543757385997852 0 0.28351082165216779 0.2739244349354083 0 0.27218921726664158 0.26801248725998528 0 0.28351082165216779 0.2739244349354083 0 0.27218921726664158 0.26801248725998528 0 0.27576494461157991 0.27543757385997852 0 0.27218921726664158 0.26801248725998528 0 0.27691591880596222 0.25729022711116639 0 0.28241209558822961 0.26632916093747078 0 0.27218921726664158 0.26801248725998528 0 0.26048617882559622 0.24371083740660091 0 0.27218921726664158 0.26801248725998528 0 0.27691591880596222 0.25729022711116639 0 0.26048617882559622 0.24371083740660091 0 0.27691591880596222 0.25729022711116639 0 0.28359094229813148 0.25448793817281579 0 0.27685630599777589 0.2478154210616699 0 0.27691591880596222 0.25729022711116639 0 0.28359094229813148 0.25448793817281579 0 0.2851673007449898 0.26023557940088332 0 0.3039173510814423 0.25972757105281219 0 0.28965918427723281 0.24218391352450211 0 0.28359094229813148 0.25448793817281579 0 0.27685630599777589 0.2478154210616699 0 0.28494106210013392 0.2498489505319901 0 0.29345893722613059 0.25129825022350127 0 0.3039173510814423 0.25972757105281219 0 0.28965918427723281 0.24218391352450211 0 0.28868459035541499 0.25311981898255947 0 0.28494106210013392 0.2498489505319901 0 0.28892582916583598 0.2492018439528669 0 0.28868459035541499 0.25311981898255947 0 0.28359094229813148 0.25448793817281579 0 0.28494106210013392 0.2498489505319901 0 0.28868459035541499 0.25311981898255947 0 0.28687158554486092 0.25569243113247692 0 0.28359094229813148 0.25448793817281579 0 0.28687158554486092 0.25569243113247692 0 0.28359094229813148 0.25448793817281579 0 0.2851673007449898 0.26023557940088332 0 0.28687158554486092 0.25569243113247692 0 0.28807077596690611 0.2581880435182905 0 0.28931157611965458 0.25623197766376038 0 0.28868459035541499 0.25311981898255947 0 0.28687158554486092 0.25569243113247692 0 0.28931157611965458 0.25623197766376038 0 0.27691591880596222 0.25729022711116639 0 0.2851673007449898 0.26023557940088332 0 0.28241209558822961 0.26632916093747078 0 0.28612348479105743 0.26557280400170857 0 0.2851673007449898 0.26023557940088332 0 0.28241209558822961 0.26632916093747078 0 0.28612348479105743 0.26557280400170857 0 0.28820153575970392 0.26340271637493412 0 0.2851673007449898 0.26023557940088332 0 0.28612348479105743 0.26557280400170857 0 0.28820153575970392 0.26340271637493412 0 0.28928435291432292 0.26627202701476832 0 0.28820153575970392 0.26340271637493412 0 0.2851673007449898 0.26023557940088332 0 0.28910030818167282 0.2606462295185657 0 0.28687158554486092 0.25569243113247692 0 0.2851673007449898 0.26023557940088332 0 0.28807077596690611 0.2581880435182905 0 0.2851673007449898 0.26023557940088332 0 0.28807077596690611 0.2581880435182905 0 0.28910030818167282 0.2606462295185657 0 0.28807077596690611 0.2581880435182905 0 0.29012458656076978 0.25822105451885852 0 0.28910030818167282 0.2606462295185657 0 0.29012458656076978 0.25822105451885852 0 0.28910030818167282 0.2606462295185657 0 0.29181146649833112 0.25980397671080041 0 0.28910030818167282 0.2606462295185657 0 0.29181146649833112 0.25980397671080041 0 0.29208830856188789 0.26336840763512592 0 0.29012458656076978 0.25822105451885852 0 0.29181146649833112 0.25980397671080041 0 0.29232880603728451 0.25623504518287532 0 0.28820153575970392 0.26340271637493412 0 0.29208830856188789 0.26336840763512592 0 0.28928435291432292 0.26627202701476832 0 0.28820153575970392 0.26340271637493412 0 0.28910030818167282 0.2606462295185657 0 0.29208830856188789 0.26336840763512592 0 0.29208830856188789 0.26336840763512592 0 0.295861748010873 0.25998823260247511 0 0.29765944308527592 0.26593032899830249 0 0.29208830856188789 0.26336840763512592 0 0.29297695870925222 0.26738919668419731 0 0.29765944308527592 0.26593032899830249 0 0.29181146649833112 0.25980397671080041 0 0.29208830856188789 0.26336840763512592 0 0.295861748010873 0.25998823260247511 0 0.29181146649833112 0.25980397671080041 0 0.295861748010873 0.25998823260247511 0 0.29232880603728451 0.25623504518287532 0 0.295861748010873 0.25998823260247511 0 0.29345893722613059 0.25129825022350127 0 0.29232880603728451 0.25623504518287532 0 0.28868459035541499 0.25311981898255947 0 0.29345893722613059 0.25129825022350127 0 0.29232880603728451 0.25623504518287532 0 0.28868459035541499 0.25311981898255947 0 0.29345893722613059 0.25129825022350127 0 0.28892582916583598 0.2492018439528669 0 0.28868459035541499 0.25311981898255947 0 0.28931157611965458 0.25623197766376038 0 0.29232880603728451 0.25623504518287532 0 0.29012458656076978 0.25822105451885852 0 0.28931157611965458 0.25623197766376038 0 0.29232880603728451 0.25623504518287532 0 0.28807077596690611 0.2581880435182905 0 0.29012458656076978 0.25822105451885852 0 0.28931157611965458 0.25623197766376038 0 0.28351082165216779 0.2739244349354083 0 0.28733438825076368 0.27108796110478978 0 0.2907816862342732 0.27306575569366948 0 0.28733438825076368 0.27108796110478978 0 0.28661589797855402 0.26840505384568097 0 0.29024227766669058 0.26954619460490381 0 0.28733438825076368 0.27108796110478978 0 0.2848684593192698 0.27078404615639318 0 0.28661589797855402 0.26840505384568097 0 0.28351082165216779 0.2739244349354083 0 0.28733438825076368 0.27108796110478978 0 0.2848684593192698 0.27078404615639318 0 0.28351082165216779 0.2739244349354083 0 0.2848684593192698 0.27078404615639318 0 0.28241209558822961 0.26632916093747078 0 0.28612348479105743 0.26557280400170857 0 0.28241209558822961 0.26632916093747078 0 0.28661589797855402 0.26840505384568097 0 0.2848684593192698 0.27078404615639318 0 0.28241209558822961 0.26632916093747078 0 0.28661589797855402 0.26840505384568097 0 0.28661589797855402 0.26840505384568097 0 0.28928435291432292 0.26627202701476832 0 0.29024227766669058 0.26954619460490381 0 0.28612348479105743 0.26557280400170857 0 0.28661589797855402 0.26840505384568097 0 0.28928435291432292 0.26627202701476832 0 0.29208830856188789 0.26336840763512592 0 0.28928435291432292 0.26627202701476832 0 0.29297695870925222 0.26738919668419731 0 0.28928435291432292 0.26627202701476832 0 0.29297695870925222 0.26738919668419731 0 0.29024227766669058 0.26954619460490381 0 0.29297695870925222 0.26738919668419731 0 0.29576201226787813 0.27118247982537402 0 0.29024227766669058 0.26954619460490381 0 0.29297695870925222 0.26738919668419731 0 0.29576201226787813 0.27118247982537402 0 0.29765944308527592 0.26593032899830249 0 0.29576201226787813 0.27118247982537402 0 0.29024227766669058 0.26954619460490381 0 0.2907816862342732 0.27306575569366948 0 0.28733438825076368 0.27108796110478978 0 0.29024227766669058 0.26954619460490381 0 0.2907816862342732 0.27306575569366948 0 0.28351082165216779 0.2739244349354083 0 0.2907816862342732 0.27306575569366948 0 0.29516751126046797 0.28001135836836077 0 0.29576201226787813 0.27118247982537402 0 0.2907816862342732 0.27306575569366948 0 0.29516751126046797 0.28001135836836077 0 0.28351082165216779 0.2739244349354083 0 0.29516751126046797 0.28001135836836077 0 0.30323688172566321 0.27316773846810899 0 0.3039173510814423 0.25972757105281219 0 0.31817551788565168 0.27727122858112241 0 0.3039173510814423 0.25972757105281219 0 0.31817551788565168 0.27727122858112241 0 0.29576201226787813 0.27118247982537402 0 0.29516751126046797 0.28001135836836077 0 0.30323688172566321 0.27316773846810899 0 0.30706453001149392 0.28545611992336922 0 0.29516751126046797 0.28001135836836077 0 0.30323688172566321 0.27316773846810899 0 0.30323688172566321 0.27316773846810899 0 0.29765944308527592 0.26593032899830249 0 0.3039173510814423 0.25972757105281219 0 0.29576201226787813 0.27118247982537402 0 0.30323688172566321 0.27316773846810899 0 0.29765944308527592 0.26593032899830249 0 0.30706453001149392 0.28545611992336922 0 0.30323688172566321 0.27316773846810899 0 0.31817551788565168 0.27727122858112241 0 0.3039173510814423 0.25972757105281219 0 0.31246354634074469 0.25301562706991498 0 0.31817551788565168 0.27727122858112241 0 0.3039173510814423 0.25972757105281219 0 0.31246354634074469 0.25301562706991498 0 0.28965918427723281 0.24218391352450211 0 0.295861748010873 0.25998823260247511 0 0.29345893722613059 0.25129825022350127 0 0.3039173510814423 0.25972757105281219 0 0.295861748010873 0.25998823260247511 0 0.29765944308527592 0.26593032899830249 0 0.3039173510814423 0.25972757105281219 0 0.31246354634074469 0.25301562706991498 0 0.33526790840425669 0.26384734061532772 0 0.31246354634074469 0.25301562706991498 0 0.33526790840425669 0.26384734061532772 0 0.32643540241908581 0.2493154440826276 0 0.31246354634074469 0.25301562706991498 0 0.33526790840425669 0.26384734061532772 0 0.31817551788565168 0.27727122858112241 0 0.33526790840425669 0.26384734061532772 0 0.3379127634661398 0.24049180221066491 0 0.32643540241908581 0.2493154440826276 0 0.33526790840425669 0.26384734061532772 0 0.35634129443021012 0.25447852924978431 0 0.3379127634661398 0.24049180221066491 0 0.33526790840425669 0.26384734061532772 0 0.31817551788565168 0.27727122858112241 0 0.34172042880505471 0.28277804546335827 0 0.31817551788565168 0.27727122858112241 0 0.31797064105596812 0.29669460242380358 0 0.33243368468986112 0.29481488610943257 0 0.31817551788565168 0.27727122858112241 0 0.33243368468986112 0.29481488610943257 0 0.30706453001149392 0.28545611992336922 0 0.31817551788565168 0.27727122858112241 0 0.31797064105596812 0.29669460242380358 0 0.3124215414252603 0.31463851826348332 0 0.31797064105596812 0.29669460242380358 0 0.32649517228490349 0.30767158395733452 0 0.31797064105596812 0.29669460242380358 0 0.32649517228490349 0.30767158395733452 0 0.33243368468986112 0.29481488610943257 0 0.33433715661558527 0.30915126849091529 0 0.33243368468986112 0.29481488610943257 0 0.34669185149407039 0.31235854363774268 0 0.33243368468986112 0.29481488610943257 0 0.34669185149407039 0.31235854363774268 0 0.34568712778571031 0.29860929543060832 0 0.33243368468986112 0.29481488610943257 0 0.34669185149407039 0.31235854363774268 0 0.32649517228490349 0.30767158395733452 0 0.33433715661558527 0.30915126849091529 0 0.33243368468986112 0.29481488610943257 0 0.31817551788565168 0.27727122858112241 0 0.34172042880505471 0.28277804546335827 0 0.33243368468986112 0.29481488610943257 0 0.34172042880505471 0.28277804546335827 0 0.33243368468986112 0.29481488610943257 0 0.34568712778571031 0.29860929543060832 0 0.35199353865369548 0.28986078273705529 0 0.36153231744840347 0.2937746187606235 0 0.35807227046776868 0.27467905416074029 0 0.34172042880505471 0.28277804546335827 0 0.35199353865369548 0.28986078273705529 0 0.35807227046776868 0.27467905416074029 0 0.34172042880505471 0.28277804546335827 0 0.35199353865369548 0.28986078273705529 0 0.34568712778571031 0.29860929543060832 0 0.35199353865369548 0.28986078273705529 0 0.34568712778571031 0.29860929543060832 0 0.35295554876154028 0.29946289986994618 0 0.35199353865369548 0.28986078273705529 0 0.35295554876154028 0.29946289986994618 0 0.36153231744840347 0.2937746187606235 0 0.34669185149407039 0.31235854363774268 0 0.350707664864299 0.30502754758011252 0 0.35483192959872478 0.30892549123100937 0 0.34669185149407039 0.31235854363774268 0 0.350707664864299 0.30502754758011252 0 0.34568712778571031 0.29860929543060832 0 0.350707664864299 0.30502754758011252 0 0.34568712778571031 0.29860929543060832 0 0.35295554876154028 0.29946289986994618 0 0.35295554876154028 0.29946289986994618 0 0.35483192959872478 0.30892549123100937 0 0.36153231744840347 0.2937746187606235 0 0.350707664864299 0.30502754758011252 0 0.35295554876154028 0.29946289986994618 0 0.35483192959872478 0.30892549123100937 0 0.35483192959872478 0.30892549123100937 0 0.36873564116109159 0.30732066885645792 0 0.37793594120394791 0.29609092220287331 0 0.35483192959872478 0.30892549123100937 0 0.36153231744840347 0.2937746187606235 0 0.37793594120394791 0.29609092220287331 0 0.35483192959872478 0.30892549123100937 0 0.37793594120394791 0.29609092220287331 0 0.36216199407232552 0.31421251507807352 0 0.35483192959872478 0.30892549123100937 0 0.36873564116109159 0.30732066885645792 0 0.36873564116109159 0.30732066885645792 0 0.37793594120394791 0.29609092220287331 0 0.37618493526913999 0.30531787431980001 0 0.36908544359869788 0.31711993858565868 0 0.36873564116109159 0.30732066885645792 0 0.37552929986171052 0.31147094895867028 0 0.36873564116109159 0.30732066885645792 0 0.37552929986171052 0.31147094895867028 0 0.37618493526913999 0.30531787431980001 0 0.36153231744840347 0.2937746187606235 0 0.3696042904128502 0.28751384070759761 0 0.37793594120394791 0.29609092220287331 0 0.3696042904128502 0.28751384070759761 0 0.35807227046776868 0.27467905416074029 0 0.38087663253128068 0.28551076770615302 0 0.36153231744840347 0.2937746187606235 0 0.3696042904128502 0.28751384070759761 0 0.35807227046776868 0.27467905416074029 0 0.35807227046776868 0.27467905416074029 0 0.38087663253128068 0.28551076770615302 0 0.35807227046776868 0.27467905416074029 0 0.37543677279847171 0.26770278157766031 0 0.38087663253128068 0.28551076770615302 0 0.35634129443021012 0.25447852924978431 0 0.35807227046776868 0.27467905416074029 0 0.37543677279847171 0.26770278157766031 0 0.35634129443021012 0.25447852924978431 0 0.37543677279847171 0.26770278157766031 0 0.37588607332036628 0.2490878796733729 0 0.33526790840425669 0.26384734061532772 0 0.35634129443021012 0.25447852924978431 0 0.35807227046776868 0.27467905416074029 0 0.33526790840425669 0.26384734061532772 0 0.34172042880505471 0.28277804546335827 0 0.35807227046776868 0.27467905416074029 0 0.33526790840425669 0.26384734061532772 0 0.35807227046776868 0.27467905416074029 0 0.39392409312874033 0.26548119861246328 0 0.41196211293711438 0.28187451755155379 0 0.39392409312874033 0.26548119861246328 0 0.38745056937483863 0.27594374287878148 0 0.39653744276239639 0.28470199660397738 0 0.39392409312874033 0.26548119861246328 0 0.39653744276239639 0.28470199660397738 0 0.41196211293711438 0.28187451755155379 0 0.39392409312874033 0.26548119861246328 0 0.41530077718395331 0.26533492563787903 0 0.40933178642478668 0.24530746794650141 0 0.39392409312874033 0.26548119861246328 0 0.37543677279847171 0.26770278157766031 0 0.37588607332036628 0.2490878796733729 0 0.39392409312874033 0.26548119861246328 0 0.37588607332036628 0.2490878796733729 0 0.39392409312874033 0.26548119861246328 0 0.39103074677198191 0.2378645478919707 0 0.37588607332036628 0.2490878796733729 0 0.39392409312874033 0.26548119861246328 0 0.38745056937483863 0.27594374287878148 0 0.37543677279847171 0.26770278157766031 0 0.38745056937483863 0.27594374287878148 0 0.37543677279847171 0.26770278157766031 0 0.38087663253128068 0.28551076770615302 0 0.38087663253128068 0.28551076770615302 0 0.39129466819619951 0.29801807429951538 0 0.39653744276239639 0.28470199660397738 0 0.38745056937483863 0.27594374287878148 0 0.38087663253128068 0.28551076770615302 0 0.39653744276239639 0.28470199660397738 0 0.3696042904128502 0.28751384070759761 0 0.38087663253128068 0.28551076770615302 0 0.37793594120394791 0.29609092220287331 0 0.38087663253128068 0.28551076770615302 0 0.37793594120394791 0.29609092220287331 0 0.39129466819619951 0.29801807429951538 0 0.37552929986171052 0.31147094895867028 0 0.38253885884981009 0.30638895726119819 0 0.38253365066345929 0.31657150904984471 0 0.37552929986171052 0.31147094895867028 0 0.37618493526913999 0.30531787431980001 0 0.38253885884981009 0.30638895726119819 0 0.37793594120394791 0.29609092220287331 0 0.37618493526913999 0.30531787431980001 0 0.38253885884981009 0.30638895726119819 0 0.37793594120394791 0.29609092220287331 0 0.38253885884981009 0.30638895726119819 0 0.39129466819619951 0.29801807429951538 0 0.38253885884981009 0.30638895726119819 0 0.39212940840629362 0.31318847352025442 0 0.38253365066345929 0.31657150904984471 0 0.38253885884981009 0.30638895726119819 0 0.39129466819619951 0.29801807429951538 0 0.39212940840629362 0.31318847352025442 0 0.39129466819619951 0.29801807429951538 0 0.40057903262284272 0.30682002081122939 0 0.39212940840629362 0.31318847352025442 0 0.39129466819619951 0.29801807429951538 0 0.40479167519220871 0.29803551582379922 0 0.40057903262284272 0.30682002081122939 0 0.40057903262284272 0.30682002081122939 0 0.40276015360382211 0.3144041531339446 0 0.39212940840629362 0.31318847352025442 0 0.40479167519220871 0.29803551582379922 0 0.40057903262284272 0.30682002081122939 0 0.40860853726765339 0.309318938863758 0 0.40057903262284272 0.30682002081122939 0 0.40860853726765339 0.309318938863758 0 0.40276015360382211 0.3144041531339446 0 0.40479167519220871 0.29803551582379922 0 0.39653744276239639 0.28470199660397738 0 0.41196211293711438 0.28187451755155379 0 0.39129466819619951 0.29801807429951538 0 0.40479167519220871 0.29803551582379922 0 0.39653744276239639 0.28470199660397738 0 0.40479167519220871 0.29803551582379922 0 0.41196211293711438 0.28187451755155379 0 0.42604734048813458 0.28838989128274578 0 0.40479167519220871 0.29803551582379922 0 0.42604734048813458 0.28838989128274578 0 0.41196211293711438 0.28187451755155379 0 0.42604734048813458 0.28838989128274578 0 0.42096165520647338 0.27640965763746961 0 0.41751736358108449 0.30523346237375532 0 0.43213625579819431 0.30543734923285137 0 0.41316086399048302 0.31918962555795088 0 0.40479167519220871 0.29803551582379922 0 0.41751736358108449 0.30523346237375532 0 0.42604734048813458 0.28838989128274578 0 0.40860853726765339 0.309318938863758 0 0.41751736358108449 0.30523346237375532 0 0.41316086399048302 0.31918962555795088 0 0.40479167519220871 0.29803551582379922 0 0.40860853726765339 0.309318938863758 0 0.41751736358108449 0.30523346237375532 0 0.41751736358108449 0.30523346237375532 0 0.43213625579819431 0.30543734923285137 0 0.42604734048813458 0.28838989128274578 0 0.43213625579819431 0.30543734923285137 0 0.41316086399048302 0.31918962555795088 0 0.43213625579819431 0.30543734923285137 0 0.44422558879226298 0.30694386780845051 0 0.43154308657343537 0.31483265104709918 0 0.42604734048813458 0.28838989128274578 0 0.44730300578406051 0.27874426674169239 0 0.43914956241907371 0.29106414504126032 0 0.43213625579819431 0.30543734923285137 0 0.42604734048813458 0.28838989128274578 0 0.43914956241907371 0.29106414504126032 0 0.42604734048813458 0.28838989128274578 0 0.44730300578406051 0.27874426674169239 0 0.42604734048813458 0.28838989128274578 0 0.43053639021669149 0.27003929607769961 0 0.44730300578406051 0.27874426674169239 0 0.42604734048813458 0.28838989128274578 0 0.43053639021669149 0.27003929607769961 0 0.42096165520647338 0.27640965763746961 0 0.43053639021669149 0.27003929607769961 0 0.42096165520647338 0.27640965763746961 0 0.41530077718395331 0.26533492563787903 0 0.39392409312874033 0.26548119861246328 0 0.41196211293711438 0.28187451755155379 0 0.41530077718395331 0.26533492563787903 0 0.41196211293711438 0.28187451755155379 0 0.42096165520647338 0.27640965763746961 0 0.41530077718395331 0.26533492563787903 0 0.41530077718395331 0.26533492563787903 0 0.42507863072368701 0.2531856777568211 0 0.40933178642478668 0.24530746794650141 0 0.43053639021669149 0.27003929607769961 0 0.42507863072368701 0.2531856777568211 0 0.43671171400039921 0.25931077911745237 0 0.43053639021669149 0.27003929607769961 0 0.41530077718395331 0.26533492563787903 0 0.42507863072368701 0.2531856777568211 0 0.43053639021669149 0.27003929607769961 0 0.43671171400039921 0.25931077911745237 0 0.4433298154441227 0.26629613073356512 0 0.42507863072368701 0.2531856777568211 0 0.43671171400039921 0.25931077911745237 0 0.43876594592942619 0.2491002947533556 0 0.48930401013157893 0.26400543771054868 0 0.5 0.30014541135995981 0 0.50000000000000078 0.23475110787519651 0 0.43671171400039921 0.25931077911745237 0 0.44893917376128722 0.25670587451621701 0 0.43876594592942619 0.2491002947533556 0 0.43671171400039921 0.25931077911745237 0 0.44893917376128722 0.25670587451621701 0 0.4433298154441227 0.26629613073356512 0 0.44893917376128722 0.25670587451621701 0 0.4433298154441227 0.26629613073356512 0 0.45470448649478412 0.26606712633996182 0 0.43053639021669149 0.27003929607769961 0 0.4433298154441227 0.26629613073356512 0 0.44730300578406051 0.27874426674169239 0 0.4433298154441227 0.26629613073356512 0 0.44730300578406051 0.27874426674169239 0 0.45470448649478412 0.26606712633996182 0 0.44730300578406051 0.27874426674169239 0 0.45470448649478412 0.26606712633996182 0 0.46855867107998628 0.26909864220063873 0 0.44730300578406051 0.27874426674169239 0 0.46855867107998628 0.26909864220063873 0 0.47008703941361663 0.27793279658265219 0 0.44730300578406051 0.27874426674169239 0 0.46855867107998628 0.26909864220063873 0 0.44893917376128722 0.25670587451621701 0 0.4657425708042397 0.25282124097232528 0 0.45444189403291402 0.2411770147019261 0 0.46855867107998628 0.26909864220063873 0 0.4657425708042397 0.25282124097232528 0 0.45470448649478412 0.26606712633996182 0 0.46855867107998628 0.26909864220063873 0 0.4657425708042397 0.25282124097232528 0 0.44893917376128722 0.25670587451621701 0 0.45470448649478412 0.26606712633996182 0 0.4657425708042397 0.25282124097232528 0 0.4657425708042397 0.25282124097232528 0 0.48060284673389919 0.263633106558882 0 0.48319944748130261 0.24680576274814439 0 0.48060284673389919 0.263633106558882 0 0.48930401013157893 0.26400543771054868 0 0.48319944748130261 0.24680576274814439 0 0.46855867107998628 0.26909864220063873 0 0.4657425708042397 0.25282124097232528 0 0.48060284673389919 0.263633106558882 0 0.47008703941361663 0.27793279658265219 0 0.48930401013157893 0.26400543771054868 0 0.46855867107998628 0.26909864220063873 0 0.48060284673389919 0.263633106558882 0 0.48060284673389919 0.263633106558882 0 0.47008703941361663 0.27793279658265219 0 0.48930401013157893 0.26400543771054868 0 0.47008703941361663 0.27793279658265219 0 0.48006412771999057 0.27905949761247589 0 0.48930401013157893 0.26400543771054868 0 0.46855867107998628 0.26909864220063873 0 0.48060284673389919 0.263633106558882 0 0.47008703941361663 0.27793279658265219 0 0.46855867107998628 0.26909864220063873 0 0.47008703941361663 0.27793279658265219 0 0.48006412771999057 0.27905949761247589 0 0.48930401013157893 0.26400543771054868 0 0.48625483393177482 0.28246926535835643 0 0.48930401013157893 0.26400543771054868 0 0.5 0.30014541135995981 0 0.48625483393177482 0.28246926535835643 0 0.5 0.30014541135995981 0 0.48970041229178968 0.29406901354624332 0 0.4885492687023667 0.31475660787172299 0 0.5 0.30014541135995981 0 0.48625483393177482 0.28246926535835643 0 0.48970041229178968 0.29406901354624332 0 0.48625483393177482 0.28246926535835643 0 0.48970041229178968 0.29406901354624332 0 0.47848665946962488 0.28859017348115529 0 0.48970041229178968 0.29406901354624332 0 0.47848665946962488 0.28859017348115529 0 0.47416262890117539 0.30149019824985379 0 0.47008703941361663 0.27793279658265219 0 0.47416262890117539 0.30149019824985379 0 0.47008703941361663 0.27793279658265219 0 0.47848665946962488 0.28859017348115529 0 0.47416262890117539 0.30149019824985379 0 0.47008703941361663 0.27793279658265219 0 0.47416262890117539 0.30149019824985379 0 0.46463260069651119 0.29140132306620031 0 0.48006412771999057 0.27905949761247589 0 0.48625483393177482 0.28246926535835643 0 0.47848665946962488 0.28859017348115529 0 0.47008703941361663 0.27793279658265219 0 0.48006412771999057 0.27905949761247589 0 0.47848665946962488 0.28859017348115529 0 0.48970041229178968 0.29406901354624332 0 0.47416262890117539 0.30149019824985379 0 0.4885492687023667 0.31475660787172299 0 0.48970041229178968 0.29406901354624332 0 0.47416262890117539 0.30149019824985379 0 0.47416262890117539 0.30149019824985379 0 0.45853060084376801 0.29977374142415342 0 0.45560674310843452 0.3103528945782269 0 0.47416262890117539 0.30149019824985379 0 0.45560674310843452 0.3103528945782269 0 0.47416262890117539 0.30149019824985379 0 0.45853060084376801 0.29977374142415342 0 0.46463260069651119 0.29140132306620031 0 0.47008703941361663 0.27793279658265219 0 0.46463260069651119 0.29140132306620031 0 0.45111164760590539 0.29168507290775181 0 0.47008703941361663 0.27793279658265219 0 0.45111164760590539 0.29168507290775181 0 0.44730300578406051 0.27874426674169239 0 0.47008703941361663 0.27793279658265219 0 0.45111164760590539 0.29168507290775181 0 0.45853060084376801 0.29977374142415342 0 0.46463260069651119 0.29140132306620031 0 0.45111164760590539 0.29168507290775181 0 0.43213625579819431 0.30543734923285137 0 0.45111164760590539 0.29168507290775181 0 0.43914956241907371 0.29106414504126032 0 0.44730300578406051 0.27874426674169239 0 0.45111164760590539 0.29168507290775181 0 0.43914956241907371 0.29106414504126032 0 0.43213625579819431 0.30543734923285137 0 0.45111164760590539 0.29168507290775181 0 0.43213625579819431 0.30543734923285137 0 0.45111164760590539 0.29168507290775181 0 0.44422558879226298 0.30694386780845051 0 0.45560674310843452 0.3103528945782269 0 0.44422558879226298 0.30694386780845051 0 0.43842966418539248 0.31774810934188358 0 0.45853060084376801 0.29977374142415342 0 0.45560674310843452 0.3103528945782269 0 0.44422558879226298 0.30694386780845051 0 0.45853060084376801 0.29977374142415342 0 0.45111164760590539 0.29168507290775181 0 0.44422558879226298 0.30694386780845051 0 0.45560674310843452 0.3103528945782269 0 0.43705085731569332 0.31921559090659912 0 0.45560674310843452 0.3103528945782269 0 0.445574462909617 0.32293984437028 0 0.43705085731569332 0.31921559090659912 0 0.45560674310843452 0.3103528945782269 0 0.445574462909617 0.32293984437028 0 0.45356547482711718 0.33018117931006491 0 0.45560674310843452 0.3103528945782269 0 0.43842966418539248 0.31774810934188358 0 0.43705085731569332 0.31921559090659912 0 0.44422558879226298 0.30694386780845051 0 0.43842966418539248 0.31774810934188358 0 0.43154308657343537 0.31483265104709918 0 0.43842966418539248 0.31774810934188358 0 0.43705085731569332 0.31921559090659912 0 0.43892997145578388 0.32563168502311662 0 0.445574462909617 0.32293984437028 0 0.44083529419097978 0.33094373067874189 0 0.43892997145578388 0.32563168502311662 0 0.445574462909617 0.32293984437028 0 0.43705085731569332 0.31921559090659912 0 0.445574462909617 0.32293984437028 0 0.44083529419097978 0.33094373067874189 0 0.45356547482711718 0.33018117931006491 0 0.44165801472227312 0.34323984209273423 0 0.45356547482711718 0.33018117931006491 0 0.45850926574073331 0.34651392194864622 0 0.44165801472227312 0.34323984209273423 0 0.44083529419097978 0.33094373067874189 0 0.43166902790598161 0.33929201054700048 0 0.43892997145578388 0.32563168502311662 0 0.44083529419097978 0.33094373067874189 0 0.43317574323615998 0.33104402243960368 0 0.44165801472227312 0.34323984209273423 0 0.44083529419097978 0.33094373067874189 0 0.45356547482711718 0.33018117931006491 0 0.45356547482711718 0.33018117931006491 0 0.47888330231886822 0.32877626329145132 0 0.45850926574073331 0.34651392194864622 0 0.45560674310843452 0.3103528945782269 0 0.45356547482711718 0.33018117931006491 0 0.47888330231886822 0.32877626329145132 0 0.5 0.30014541135995981 0 0.4885492687023667 0.31475660787172299 0 0.5 0.34930215291110689 0 0.47888330231886822 0.32877626329145132 0 0.4885492687023667 0.31475660787172299 0 0.5 0.34930215291110689 0 0.47416262890117539 0.30149019824985379 0 0.45560674310843452 0.3103528945782269 0 0.47888330231886822 0.32877626329145132 0 0.47416262890117539 0.30149019824985379 0 0.47888330231886822 0.32877626329145132 0 0.4885492687023667 0.31475660787172299 0 0.47416262890117539 0.30149019824985379 0 0.47888330231886822 0.32877626329145132 0 0.47888330231886822 0.32877626329145132 0 0.47565767627723321 0.35367653303588131 0 0.45850926574073331 0.34651392194864622 0 0.5 0.34930215291110689 0 0.47565767627723321 0.35367653303588131 0 0.47781149018510388 0.37869427749857482 0 0.47888330231886822 0.32877626329145132 0 0.5 0.34930215291110689 0 0.47565767627723321 0.35367653303588131 0 0.47565767627723321 0.35367653303588131 0 0.45733288770108432 0.36201985544527537 0 0.47781149018510388 0.37869427749857482 0 0.47565767627723321 0.35367653303588131 0 0.45733288770108432 0.36201985544527537 0 0.45850926574073331 0.34651392194864622 0 0.44165801472227312 0.34323984209273423 0 0.45850926574073331 0.34651392194864622 0 0.4413887647347946 0.35929889092681982 0 0.45733288770108432 0.36201985544527537 0 0.45850926574073331 0.34651392194864622 0 0.4413887647347946 0.35929889092681982 0 0.45733288770108432 0.36201985544527537 0 0.4413887647347946 0.35929889092681982 0 0.44153901264778062 0.37343480580038879 0 0.45733288770108432 0.36201985544527537 0 0.44153901264778062 0.37343480580038879 0 0.45482676763662039 0.38809293299633429 0 0.42640845802995259 0.36892404556868708 0 0.41557269665981 0.35954071959013117 0 0.42852438312620561 0.35190461944610102 0 0.4413887647347946 0.35929889092681982 0 0.42640845802995259 0.36892404556868708 0 0.42852438312620561 0.35190461944610102 0 0.4413887647347946 0.35929889092681982 0 0.44153901264778062 0.37343480580038879 0 0.42640845802995259 0.36892404556868708 0 0.41557269665981 0.35954071959013117 0 0.39773627330903077 0.36105859917852151 0 0.40780080352149928 0.37567923871478631 0 0.42640845802995259 0.36892404556868708 0 0.41557269665981 0.35954071959013117 0 0.40780080352149928 0.37567923871478631 0 0.41557269665981 0.35954071959013117 0 0.42852438312620561 0.35190461944610102 0 0.41739356531236188 0.34013709504256018 0 0.41557269665981 0.35954071959013117 0 0.41739356531236188 0.34013709504256018 0 0.39773627330903077 0.36105859917852151 0 0.41739356531236188 0.34013709504256018 0 0.39773627330903077 0.36105859917852151 0 0.42852438312620561 0.35190461944610102 0 0.43166902790598161 0.33929201054700048 0 0.41739356531236188 0.34013709504256018 0 0.44165801472227312 0.34323984209273423 0 0.4413887647347946 0.35929889092681982 0 0.42852438312620561 0.35190461944610102 0 0.44165801472227312 0.34323984209273423 0 0.42852438312620561 0.35190461944610102 0 0.43166902790598161 0.33929201054700048 0 0.43705085731569332 0.31921559090659912 0 0.41739356531236188 0.34013709504256018 0 0.41544983039366512 0.32953271314637039 0 0.43705085731569332 0.31921559090659912 0 0.41739356531236188 0.34013709504256018 0 0.43317574323615998 0.33104402243960368 0 0.43705085731569332 0.31921559090659912 0 0.41739356531236188 0.34013709504256018 0 0.43166902790598161 0.33929201054700048 0 0.43317574323615998 0.33104402243960368 0 0.41739356531236188 0.34013709504256018 0 0.44083529419097978 0.33094373067874189 0 0.43166902790598161 0.33929201054700048 0 0.43317574323615998 0.33104402243960368 0 0.43213625579819431 0.30543734923285137 0 0.43154308657343537 0.31483265104709918 0 0.41316086399048302 0.31918962555795088 0 0.43705085731569332 0.31921559090659912 0 0.41544983039366512 0.32953271314637039 0 0.43705085731569332 0.31921559090659912 0 0.42444684759267981 0.32028615430654062 0 0.41544983039366512 0.32953271314637039 0 0.43154308657343537 0.31483265104709918 0 0.42444684759267981 0.32028615430654062 0 0.41316086399048302 0.31918962555795088 0 0.43154308657343537 0.31483265104709918 0 0.43705085731569332 0.31921559090659912 0 0.42444684759267981 0.32028615430654062 0 0.43842966418539248 0.31774810934188358 0 0.43154308657343537 0.31483265104709918 0 0.43705085731569332 0.31921559090659912 0 0.43892997145578388 0.32563168502311662 0 0.43317574323615998 0.33104402243960368 0 0.43705085731569332 0.31921559090659912 0 0.41316086399048302 0.31918962555795088 0 0.41544983039366512 0.32953271314637039 0 0.39418547218277172 0.33294190188305062 0 0.42444684759267981 0.32028615430654062 0 0.41316086399048302 0.31918962555795088 0 0.41544983039366512 0.32953271314637039 0 0.40860853726765339 0.309318938863758 0 0.41316086399048302 0.31918962555795088 0 0.40276015360382211 0.3144041531339446 0 0.41739356531236188 0.34013709504256018 0 0.41544983039366512 0.32953271314637039 0 0.39384880347163692 0.33984983538614127 0 0.41544983039366512 0.32953271314637039 0 0.39418547218277172 0.33294190188305062 0 0.39384880347163692 0.33984983538614127 0 0.41544983039366512 0.32953271314637039 0 0.39384880347163692 0.33984983538614127 0 0.39418547218277172 0.33294190188305062 0 0.39384880347163692 0.33984983538614127 0 0.38763626903965592 0.33142256612758492 0 0.39418547218277172 0.33294190188305062 0 0.39181849880786379 0.32717555703993689 0 0.38763626903965592 0.33142256612758492 0 0.41316086399048302 0.31918962555795088 0 0.39418547218277172 0.33294190188305062 0 0.39708961803314868 0.32200780813679419 0 0.41316086399048302 0.31918962555795088 0 0.40276015360382211 0.3144041531339446 0 0.39708961803314868 0.32200780813679419 0 0.41316086399048302 0.31918962555795088 0 0.39418547218277172 0.33294190188305062 0 0.39418547218277172 0.33294190188305062 0 0.39708961803314868 0.32200780813679419 0 0.39181849880786379 0.32717555703993689 0 0.39708961803314868 0.32200780813679419 0 0.39181849880786379 0.32717555703993689 0 0.38758066886242332 0.32336225559927501 0 0.39708961803314868 0.32200780813679419 0 0.39212940840629362 0.31318847352025442 0 0.38758066886242332 0.32336225559927501 0 0.40276015360382211 0.3144041531339446 0 0.39708961803314868 0.32200780813679419 0 0.39212940840629362 0.31318847352025442 0 0.39212940840629362 0.31318847352025442 0 0.38758066886242332 0.32336225559927501 0 0.38253365066345929 0.31657150904984471 0 0.38758066886242332 0.32336225559927501 0 0.37951212113643251 0.32682582922079478 0 0.38253365066345929 0.31657150904984471 0 0.39181849880786379 0.32717555703993689 0 0.38758066886242332 0.32336225559927501 0 0.38763626903965592 0.33142256612758492 0 0.38758066886242332 0.32336225559927501 0 0.37951212113643251 0.32682582922079478 0 0.38763626903965592 0.33142256612758492 0 0.37069175466933912 0.32875176142968793 0 0.37951212113643251 0.32682582922079478 0 0.37512131353827649 0.31993777409944391 0 0.37951212113643251 0.32682582922079478 0 0.38253365066345929 0.31657150904984471 0 0.37512131353827649 0.31993777409944391 0 0.37552929986171052 0.31147094895867028 0 0.38253365066345929 0.31657150904984471 0 0.37512131353827649 0.31993777409944391 0 0.3722477765496085 0.35016695762591221 0 0.39384880347163692 0.33984983538614127 0 0.38018026091455548 0.33583017463534492 0 0.39384880347163692 0.33984983538614127 0 0.38763626903965592 0.33142256612758492 0 0.38018026091455548 0.33583017463534492 0 0.37069175466933912 0.32875176142968793 0 0.37951212113643251 0.32682582922079478 0 0.38018026091455548 0.33583017463534492 0 0.37951212113643251 0.32682582922079478 0 0.38763626903965592 0.33142256612758492 0 0.38018026091455548 0.33583017463534492 0 0.3722477765496085 0.35016695762591221 0 0.39384880347163692 0.33984983538614127 0 0.3722477765496085 0.35016695762591221 0 0.39384880347163692 0.33984983538614127 0 0.38596182216836522 0.35527606173029752 0 0.3722477765496085 0.35016695762591221 0 0.38596182216836522 0.35527606173029752 0 0.37807898130569972 0.38198010331448301 0 0.38596182216836522 0.35527606173029752 0 0.39773627330903077 0.36105859917852151 0 0.37807898130569972 0.38198010331448301 0 0.39773627330903077 0.36105859917852151 0 0.37807898130569972 0.38198010331448301 0 0.39773627330903077 0.36105859917852151 0 0.37807898130569972 0.38198010331448301 0 0.40780080352149928 0.37567923871478631 0 0.41739356531236188 0.34013709504256018 0 0.39384880347163692 0.33984983538614127 0 0.39773627330903077 0.36105859917852151 0 0.39384880347163692 0.33984983538614127 0 0.38596182216836522 0.35527606173029752 0 0.39773627330903077 0.36105859917852151 0 0.40390821143883249 0.39309141821086863 0 0.37807898130569972 0.38198010331448301 0 0.39091832328282361 0.41087193027100549 0 0.40390821143883249 0.39309141821086863 0 0.39091832328282361 0.41087193027100549 0 0.41386422373874859 0.406371997932643 0 0.40390821143883249 0.39309141821086863 0 0.37807898130569972 0.38198010331448301 0 0.40780080352149928 0.37567923871478631 0 0.36187958923526292 0.40293945046940088 0 0.37807898130569972 0.38198010331448301 0 0.39091832328282361 0.41087193027100549 0 0.37193014631584848 0.42999924720615068 0 0.39355396721594382 0.43664913910555569 0 0.39091832328282361 0.41087193027100549 0 0.39355396721594382 0.43664913910555569 0 0.4086430402520686 0.43726383809014391 0 0.41286414250946218 0.42378426033622751 0 0.39355396721594382 0.43664913910555569 0 0.39091832328282361 0.41087193027100549 0 0.41286414250946218 0.42378426033622751 0 0.39091832328282361 0.41087193027100549 0 0.41386422373874859 0.406371997932643 0 0.41286414250946218 0.42378426033622751 0 0.41386422373874859 0.406371997932643 0 0.41286414250946218 0.42378426033622751 0 0.43221705047033082 0.4090921792360791 0 0.41286414250946218 0.42378426033622751 0 0.43133933500857929 0.43201167421733949 0 0.41892553910608071 0.43791135523627978 0 0.4086430402520686 0.43726383809014391 0 0.41286414250946218 0.42378426033622751 0 0.41892553910608071 0.43791135523627978 0 0.41286414250946218 0.42378426033622751 0 0.43133933500857929 0.43201167421733949 0 0.41286414250946218 0.42378426033622751 0 0.43133933500857929 0.43201167421733949 0 0.43221705047033082 0.4090921792360791 0 0.41386422373874859 0.406371997932643 0 0.43221705047033082 0.4090921792360791 0 0.42773818513645112 0.38883830406482728 0 0.40390821143883249 0.39309141821086863 0 0.41386422373874859 0.406371997932643 0 0.42773818513645112 0.38883830406482728 0 0.40390821143883249 0.39309141821086863 0 0.40780080352149928 0.37567923871478631 0 0.42773818513645112 0.38883830406482728 0 0.42640845802995259 0.36892404556868708 0 0.40780080352149928 0.37567923871478631 0 0.42773818513645112 0.38883830406482728 0 0.44153901264778062 0.37343480580038879 0 0.42640845802995259 0.36892404556868708 0 0.42773818513645112 0.38883830406482728 0 0.44153901264778062 0.37343480580038879 0 0.42773818513645112 0.38883830406482728 0 0.45482676763662039 0.38809293299633429 0 0.5 0.34930215291110689 0 0.47781149018510388 0.37869427749857482 0 0.5 0.41423412078117261 0 0.43221705047033082 0.4090921792360791 0 0.42773818513645112 0.38883830406482728 0 0.45482676763662039 0.38809293299633429 0 0.43221705047033082 0.4090921792360791 0 0.45482676763662039 0.38809293299633429 0 0.45232064757215651 0.41416601054739322 0 0.45482676763662039 0.38809293299633429 0 0.47121798163558132 0.40484318606820219 0 0.45232064757215651 0.41416601054739322 0 0.45482676763662039 0.38809293299633429 0 0.45232064757215651 0.41416601054739322 0 0.45733288770108432 0.36201985544527537 0 0.45482676763662039 0.38809293299633429 0 0.47781149018510388 0.37869427749857482 0 0.45482676763662039 0.38809293299633429 0 0.47781149018510388 0.37869427749857482 0 0.47121798163558132 0.40484318606820219 0 0.45733288770108432 0.36201985544527537 0 0.45482676763662039 0.38809293299633429 0 0.47781149018510388 0.37869427749857482 0 0.47121798163558132 0.40484318606820219 0 0.5 0.41423412078117261 0 0.5 0.41423412078117261 0 0.47113100278402542 0.42902858851753611 0 0.48237845739663598 0.45474052989964669 0 0.47121798163558132 0.40484318606820219 0 0.5 0.41423412078117261 0 0.47113100278402542 0.42902858851753611 0 0.47113100278402542 0.42902858851753611 0 0.45232064757215651 0.41416601054739322 0 0.44981452750769602 0.44023908809845258 0 0.47121798163558132 0.40484318606820219 0 0.47113100278402542 0.42902858851753611 0 0.45232064757215651 0.41416601054739322 0 0.43133933500857929 0.43201167421733949 0 0.43221705047033082 0.4090921792360791 0 0.45232064757215651 0.41416601054739322 0 0.43133933500857929 0.43201167421733949 0 0.44981452750769602 0.44023908809845258 0 0.45232064757215651 0.41416601054739322 0 0.44981452750769602 0.44023908809845258 0 0.43133933500857929 0.43201167421733949 0 0.45232064757215651 0.41416601054739322 0 0.44981452750769602 0.44023908809845258 0 0.43133933500857929 0.43201167421733949 0 0.44981452750769602 0.44023908809845258 0 0.43647632095713862 0.44436215142212632 0 0.44981452750769602 0.44023908809845258 0 0.44828887142136431 0.4561116514361514 0 0.43647632095713862 0.44436215142212632 0 0.5 0.41423412078117261 0 0.48237845739663598 0.45474052989964669 0 0.5 0.5 0 0.44981452750769602 0.44023908809845258 0 0.44828887142136431 0.4561116514361514 0 0.44828887142136431 0.4561116514361514 0 0.46262912319994498 0.4617517767316669 0 0.44676321533503599 0.47198421477385039 0 0.44828887142136431 0.4561116514361514 0 0.44676321533503599 0.47198421477385039 0 0.44828887142136431 0.4561116514361514 0 0.44676321533503599 0.47198421477385039 0 0.43105685511778941 0.46008286853249242 0 0.44828887142136431 0.4561116514361514 0 0.43105685511778941 0.46008286853249242 0 0.43647632095713862 0.44436215142212632 0 0.44828887142136431 0.4561116514361514 0 0.46262912319994498 0.4617517767316669 0 0.46609649245216622 0.44748980899904922 0 0.44981452750769602 0.44023908809845258 0 0.46609649245216622 0.44748980899904922 0 0.47113100278402542 0.42902858851753611 0 0.44981452750769602 0.44023908809845258 0 0.46609649245216622 0.44748980899904922 0 0.44981452750769602 0.44023908809845258 0 0.44828887142136431 0.4561116514361514 0 0.46609649245216622 0.44748980899904922 0 0.46609649245216622 0.44748980899904922 0 0.48237845739663598 0.45474052989964669 0 0.47113100278402542 0.42902858851753611 0 0.46609649245216622 0.44748980899904922 0 0.48237845739663598 0.45474052989964669 0 0.46262912319994498 0.4617517767316669 0 0.46609649245216622 0.44748980899904922 0 0.48237845739663598 0.45474052989964669 0 0.46262912319994498 0.4617517767316669 0 0.48237845739663598 0.45474052989964669 0 0.46961857939452217 0.47843267854963678 0 0.5 0.5 0 0.46961857939452217 0.47843267854963678 0 0.45695651283274419 0.5 0 0.48237845739663598 0.45474052989964669 0 0.5 0.5 0 0.46961857939452217 0.47843267854963678 0 0.46262912319994498 0.4617517767316669 0 0.46961857939452217 0.47843267854963678 0 0.44676321533503599 0.47198421477385039 0 0.46961857939452217 0.47843267854963678 0 0.45695651283274419 0.5 0 0.44676321533503599 0.47198421477385039 0 0.45695651283274419 0.5 0 0.44676321533503599 0.47198421477385039 0 0.42715067833807191 0.48563837301334373 0 0.45695651283274419 0.5 0 0.42715067833807191 0.48563837301334373 0 0.39792984500105372 0.49999999999999267 0 0.42715067833807191 0.48563837301334373 0 0.40953154044098622 0.4794767255128099 0 0.39792984500105372 0.49999999999999267 0 0.40953154044098622 0.4794767255128099 0 0.41525465208730261 0.46316685488367448 0 0.40032430733366781 0.47438196319643627 0 0.42715067833807191 0.48563837301334373 0 0.40953154044098622 0.4794767255128099 0 0.42565961132635199 0.47168315798381388 0 0.40953154044098622 0.4794767255128099 0 0.42565961132635199 0.47168315798381388 0 0.41525465208730261 0.46316685488367448 0 0.44676321533503599 0.47198421477385039 0 0.42715067833807191 0.48563837301334373 0 0.42565961132635199 0.47168315798381388 0 0.42565961132635199 0.47168315798381388 0 0.43105685511778941 0.46008286853249242 0 0.41525465208730261 0.46316685488367448 0 0.44676321533503599 0.47198421477385039 0 0.42565961132635199 0.47168315798381388 0 0.43105685511778941 0.46008286853249242 0 0.43647632095713862 0.44436215142212632 0 0.4092285121767878 0.4507105976825127 0 0.43133933500857929 0.43201167421733949 0 0.43647632095713862 0.44436215142212632 0 0.41892553910608071 0.43791135523627978 0 0.43105685511778941 0.46008286853249242 0 0.43647632095713862 0.44436215142212632 0 0.4092285121767878 0.4507105976825127 0 0.43647632095713862 0.44436215142212632 0 0.41892553910608071 0.43791135523627978 0 0.4092285121767878 0.4507105976825127 0 0.4086430402520686 0.43726383809014391 0 0.41892553910608071 0.43791135523627978 0 0.4092285121767878 0.4507105976825127 0 0.43105685511778941 0.46008286853249242 0 0.4092285121767878 0.4507105976825127 0 0.41525465208730261 0.46316685488367448 0 0.41525465208730261 0.46316685488367448 0 0.38526933680530762 0.46591325479630669 0 0.40032430733366781 0.47438196319643627 0 0.4092285121767878 0.4507105976825127 0 0.41525465208730261 0.46316685488367448 0 0.38526933680530762 0.46591325479630669 0 0.4092285121767878 0.4507105976825127 0 0.38526933680530762 0.46591325479630669 0 0.38198070339643708 0.45705904394289942 0 0.4092285121767878 0.4507105976825127 0 0.38198070339643708 0.45705904394289942 0 0.41525465208730261 0.46316685488367448 0 0.38526933680530762 0.46591325479630669 0 0.39355396721594382 0.43664913910555569 0 0.4086430402520686 0.43726383809014391 0 0.4092285121767878 0.4507105976825127 0 0.39355396721594382 0.43664913910555569 0 0.4092285121767878 0.4507105976825127 0 0.38198070339643708 0.45705904394289942 0 0.37193014631584848 0.42999924720615068 0 0.39355396721594382 0.43664913910555569 0 0.38198070339643708 0.45705904394289942 0 0.37193014631584848 0.42999924720615068 0 0.38198070339643708 0.45705904394289942 0 0.36717500093372668 0.46757054210475929 0 0.38526933680530762 0.46591325479630669 0 0.36717500093372668 0.46757054210475929 0 0.38526933680530762 0.46591325479630669 0 0.38198070339643708 0.45705904394289942 0 0.38526933680530762 0.46591325479630669 0 0.38198070339643708 0.45705904394289942 0 0.36717500093372668 0.46757054210475929 0 0.38526933680530762 0.46591325479630669 0 0.37501723488010369 0.48021086780116401 0 0.38526933680530762 0.46591325479630669 0 0.39159959090318019 0.48295662739814987 0 0.38526933680530762 0.46591325479630669 0 0.37501723488010369 0.48021086780116401 0 0.39159959090318019 0.48295662739814987 0 0.37100127548482031 0.49999999999999922 0 0.39792984500105372 0.49999999999999267 0 0.39159959090318019 0.48295662739814987 0 0.37100127548482031 0.49999999999999922 0 0.37501723488010369 0.48021086780116401 0 0.39159959090318019 0.48295662739814987 0 0.40953154044098622 0.4794767255128099 0 0.39792984500105372 0.49999999999999267 0 0.39159959090318019 0.48295662739814987 0 0.39792984500105372 0.49999999999999267 0 0.39159959090318019 0.48295662739814987 0 0.38526933680530762 0.46591325479630669 0 0.39159959090318019 0.48295662739814987 0 0.40032430733366781 0.47438196319643627 0 0.40953154044098622 0.4794767255128099 0 0.39159959090318019 0.48295662739814987 0 0.40032430733366781 0.47438196319643627 0 0.33044620589452839 0.087817198709655944 0 0.34171554996877818 0.096966806733087524 0 0.34881532063442522 0.082201530692034883 0 0.33044620589452839 0.087817198709655944 0 0.32566991147381341 0.070879840112157963 0 0.34881532063442522 0.082201530692034883 0 0.32566991147381341 0.070879840112157963 0 0.34881532063442522 0.082201530692034883 0 0.34230685448842202 0.061943355546023537 0 0.32566991147381341 0.070879840112157963 0 0.31072716300308328 0.059331554637136651 0 0.31153776068034922 0.089135316111794982 0 0.33044620589452839 0.087817198709655944 0 0.32806927392538099 0.098855845298032555 0 0.31153776068034922 0.089135316111794982 0 0.33044620589452839 0.087817198709655944 0 0.32566991147381341 0.070879840112157963 0 0.31153776068034922 0.089135316111794982 0 0.32260309590447922 0.1123122165003074 0 0.31153776068034922 0.089135316111794982 0 0.31234835835761571 0.11893907758645331 0 0.32806927392538099 0.098855845298032555 0 0.32260309590447922 0.1123122165003074 0 0.31153776068034922 0.089135316111794982 0 0.32260309590447922 0.1123122165003074 0 0.33019904407723683 0.1184739086744384 0 0.31234835835761571 0.11893907758645331 0 0.33019904407723683 0.1184739086744384 0 0.31234835835761571 0.11893907758645331 0 0.33442235067943221 0.13211305649348251 0 0.32260309590447922 0.1123122165003074 0 0.33019904407723683 0.1184739086744384 0 0.33404375717876961 0.1080476884353169 0 0.33404375717876961 0.1080476884353169 0 0.343988490580944 0.1176741160108202 0 0.33019904407723683 0.1184739086744384 0 0.33404375717876961 0.1080476884353169 0 0.343988490580944 0.1176741160108202 0 0.343988490580944 0.1176741160108202 0 0.33442235067943221 0.13211305649348251 0 0.33019904407723683 0.1184739086744384 0 0.343988490580944 0.1176741160108202 0 0.33442235067943221 0.13211305649348251 0 0.33404375717876961 0.1080476884353169 0 0.34171554996877818 0.096966806733087524 0 0.35392152912869879 0.10268138604034791 0 0.33044620589452839 0.087817198709655944 0 0.32806927392538099 0.098855845298032555 0 0.34171554996877818 0.096966806733087524 0 0.32806927392538099 0.098855845298032555 0 0.33404375717876961 0.1080476884353169 0 0.34171554996877818 0.096966806733087524 0 0.32806927392538099 0.098855845298032555 0 0.32260309590447922 0.1123122165003074 0 0.33404375717876961 0.1080476884353169 0 0.35392152912869879 0.10268138604034791 0 0.35491381869304151 0.1011836439930483 0 0.34881532063442522 0.082201530692034883 0 0.34171554996877818 0.096966806733087524 0 0.35392152912869879 0.10268138604034791 0 0.34881532063442522 0.082201530692034883 0 0.35392152912869879 0.10268138604034791 0 0.35546062987876292 0.1088543734464716 0 0.35491381869304151 0.1011836439930483 0 0.35392152912869879 0.10268138604034791 0 0.35491381869304151 0.1011836439930483 0 0.35392152912869879 0.10268138604034791 0 0.35546062987876292 0.1088543734464716 0 0.33404375717876961 0.1080476884353169 0 0.35392152912869879 0.10268138604034791 0 0.343988490580944 0.1176741160108202 0 0.35546062987876292 0.1088543734464716 0 0.35491381869304151 0.1011836439930483 0 0.36234477620530581 0.12431315491142481 0 0.35491381869304151 0.1011836439930483 0 0.36234477620530581 0.12431315491142481 0 0.343988490580944 0.1176741160108202 0 0.3557614600719885 0.1290702624504714 0 0.35392152912869879 0.10268138604034791 0 0.343988490580944 0.1176741160108202 0 0.35392152912869879 0.10268138604034791 0 0.35546062987876292 0.1088543734464716 0 0.343988490580944 0.1176741160108202 0 0.35546062987876292 0.1088543734464716 0 0.343988490580944 0.1176741160108202 0 0.35889290538618501 0.1204186727105461 0 0.343988490580944 0.1176741160108202 0 0.35889290538618501 0.1204186727105461 0 0.3557614600719885 0.1290702624504714 0 0.35546062987876292 0.1088543734464716 0 0.35889290538618501 0.1204186727105461 0 0.36234477620530581 0.12431315491142481 0 0.35889290538618501 0.1204186727105461 0 0.36234477620530581 0.12431315491142481 0 0.3557614600719885 0.1290702624504714 0 0.35491381869304151 0.1011836439930483 0 0.36234477620530581 0.12431315491142481 0 0.37533236417423199 0.11575217945856781 0 0.35889290538618501 0.1204186727105461 0 0.36234477620530581 0.12431315491142481 0 0.35491381869304151 0.1011836439930483 0 0.36864505415383159 0.080457991471440893 0 0.37989514383216261 0.1008811074142211 0 0.35491381869304151 0.1011836439930483 0 0.37989514383216261 0.1008811074142211 0 0.37533236417423199 0.11575217945856781 0 0.35491381869304151 0.1011836439930483 0 0.36864505415383159 0.080457991471440893 0 0.36864505415383159 0.080457991471440893 0 0.37194242117794668 0.076772614526931793 0 0.37989514383216261 0.1008811074142211 0 0.35491381869304151 0.1011836439930483 0 0.36864505415383159 0.080457991471440893 0 0.34881532063442522 0.082201530692034883 0 0.35491381869304151 0.1011836439930483 0 0.34881532063442522 0.082201530692034883 0 0.35392152912869879 0.10268138604034791 0 0.34881532063442522 0.082201530692034883 0 0.34881532063442522 0.082201530692034883 0 0.34230685448842202 0.061943355546023537 0 0.34881532063442522 0.082201530692034883 0 0.34385440331789768 0.06230440562327498 0 0.34881532063442522 0.082201530692034883 0 0.36113142589940772 0.067155945135465897 0 0.34385440331789768 0.06230440562327498 0 0.34881532063442522 0.082201530692034883 0 0.34385440331789768 0.06230440562327498 0 0.34230685448842202 0.061943355546023537 0 0.36864505415383159 0.080457991471440893 0 0.36113142589940772 0.067155945135465897 0 0.38237628961462611 0.059732338949836518 0 0.36864505415383159 0.080457991471440893 0 0.34881532063442522 0.082201530692034883 0 0.36113142589940772 0.067155945135465897 0 0.36864505415383159 0.080457991471440893 0 0.37194242117794668 0.076772614526931793 0 0.38237628961462611 0.059732338949836518 0 0.36113142589940772 0.067155945135465897 0 0.36196606177625779 0.051083458940742198 0 0.38237628961462611 0.059732338949836518 0 0.36196606177625779 0.051083458940742198 0 0.37923500638336632 0.043068186250585699 0 0.38237628961462611 0.059732338949836518 0 0.36196606177625779 0.051083458940742198 0 0.36321924137845568 0.02934286747329215 0 0.37923500638336632 0.043068186250585699 0 0.36196606177625779 0.051083458940742198 0 0.36321924137845568 0.02934286747329215 0 0.33889348600137009 0.042407280554515127 0 0.36321924137845568 0.02934286747329215 0 0.33393256868484111 0.02251015548575569 0 0.33889348600137009 0.042407280554515127 0 0.36113142589940772 0.067155945135465897 0 0.36196606177625779 0.051083458940742198 0 0.34385440331789768 0.06230440562327498 0 0.36196606177625779 0.051083458940742198 0 0.34385440331789768 0.06230440562327498 0 0.33889348600137009 0.042407280554515127 0 0.37357914744350779 0.002440479778912224 0 0.37424442014871812 0.021820824704299101 0 0.35598292622536432 0.0074660699477739154 0 0.37424442014871812 0.021820824704299101 0 0.35598292622536432 0.0074660699477739154 0 0.36321924137845568 0.02934286747329215 0 0.37424442014871812 0.021820824704299101 0 0.35598292622536432 0.0074660699477739154 0 0.36321924137845568 0.02934286747329215 0 0.34509322139385162 0.01518667904233665 0 0.33393256868484111 0.02251015548575569 0 0.36321924137845568 0.02934286747329215 0 0.33393256868484111 0.02251015548575569 0 0.36321924137845568 0.02934286747329215 0 0.35598292622536432 0.0074660699477739154 0 0.34509322139385162 0.01518667904233665 0 0.35598292622536432 0.0074660699477739154 0 0.33772143230201052 -0.0068886848087512803 0 0.35598292622536432 0.0074660699477739154 0 0.33877017139388149 0.0064718171092321003 0 0.33772143230201052 -0.0068886848087512803 0 0.35598292622536432 0.0074660699477739154 0 0.34509322139385162 0.01518667904233665 0 0.33877017139388149 0.0064718171092321003 0 0.33877017139388149 0.0064718171092321003 0 0.32325249182581611 0.0026349705202008129 0 0.33772143230201052 -0.0068886848087512803 0 0.33877017139388149 0.0064718171092321003 0 0.33180078522236511 0.01396005084460041 0 0.32325249182581611 0.0026349705202008129 0 0.34509322139385162 0.01518667904233665 0 0.33877017139388149 0.0064718171092321003 0 0.33180078522236511 0.01396005084460041 0 0.3292899221964134 0.021427005254001569 0 0.33393256868484111 0.02251015548575569 0 0.33579838834241882 0.04168518040001222 0 0.33180078522236511 0.01396005084460041 0 0.3292899221964134 0.021427005254001569 0 0.33393256868484111 0.02251015548575569 0 0.33180078522236511 0.01396005084460041 0 0.33393256868484111 0.02251015548575569 0 0.3292899221964134 0.021427005254001569 0 0.33393256868484111 0.02251015548575569 0 0.34509322139385162 0.01518667904233665 0 0.33180078522236511 0.01396005084460041 0 0.33393256868484111 0.02251015548575569 0 0.3292899221964134 0.021427005254001569 0 0.31293781791285569 0.017611986042758699 0 0.31923969929816981 0.035830495662194838 0 0.3292899221964134 0.021427005254001569 0 0.31293781791285569 0.017611986042758699 0 0.33180078522236511 0.01396005084460041 0 0.3292899221964134 0.021427005254001569 0 0.32325249182581611 0.0026349705202008129 0 0.3292899221964134 0.021427005254001569 0 0.31293781791285569 0.017611986042758699 0 0.32325249182581611 0.0026349705202008129 0 0.3292899221964134 0.021427005254001569 0 0.32325249182581611 0.0026349705202008129 0 0.31293781791285569 0.017611986042758699 0 0.32325249182581611 0.0026349705202008129 0 0.30690038754225768 -0.0011800486910433781 0 0.34230685448842202 0.061943355546023537 0 0.33579838834241882 0.04168518040001222 0 0.33889348600137009 0.042407280554515127 0 0.34385440331789768 0.06230440562327498 0 0.34230685448842202 0.061943355546023537 0 0.33889348600137009 0.042407280554515127 0 0.32566991147381341 0.070879840112157963 0 0.34230685448842202 0.061943355546023537 0 0.33579838834241882 0.04168518040001222 0 0.34230685448842202 0.061943355546023537 0 0.33579838834241882 0.04168518040001222 0 0.34385440331789768 0.06230440562327498 0 0.33889348600137009 0.042407280554515127 0 0.3292899221964134 0.021427005254001569 0 0.33579838834241882 0.04168518040001222 0 0.33393256868484111 0.02251015548575569 0 0.33889348600137009 0.042407280554515127 0 0.33393256868484111 0.02251015548575569 0 0.33579838834241882 0.04168518040001222 0 0.33889348600137009 0.042407280554515127 0 0.33579838834241882 0.04168518040001222 0 0.31923969929816981 0.035830495662194838 0 0.31072716300308328 0.059331554637136651 0 0.3292899221964134 0.021427005254001569 0 0.33579838834241882 0.04168518040001222 0 0.31923969929816981 0.035830495662194838 0 0.32566991147381341 0.070879840112157963 0 0.33579838834241882 0.04168518040001222 0 0.31072716300308328 0.059331554637136651 0 0.31072716300308328 0.059331554637136651 0 0.30691000426459791 0.042169890293137127 0 0.29424159478151202 0.042911142587019738 0 0.31923969929816981 0.035830495662194838 0 0.30691000426459791 0.042169890293137127 0 0.30060566889494089 0.02714657897289334 0 0.30691000426459791 0.042169890293137127 0 0.29424159478151202 0.042911142587019738 0 0.30060566889494089 0.02714657897289334 0 0.31923969929816981 0.035830495662194838 0 0.31072716300308328 0.059331554637136651 0 0.30691000426459791 0.042169890293137127 0 0.29424159478151202 0.042911142587019738 0 0.30060566889494089 0.02714657897289334 0 0.28762295502011598 0.027200489278051441 0 0.29424159478151202 0.042911142587019738 0 0.28762295502011598 0.027200489278051441 0 0.27805620151387522 0.042617420402232667 0 0.31072716300308328 0.059331554637136651 0 0.29424159478151202 0.042911142587019738 0 0.28127895804124392 0.05869653450612005 0 0.29424159478151202 0.042911142587019738 0 0.28127895804124392 0.05869653450612005 0 0.27805620151387522 0.042617420402232667 0 0.31293781791285569 0.017611986042758699 0 0.29658571362929892 0.01379696683151194 0 0.30690038754225768 -0.0011800486910433781 0 0.29658571362929892 0.01379696683151194 0 0.30050921735997521 -0.004605356182754896 0 0.30690038754225768 -0.0011800486910433781 0 0.29658571362929892 0.01379696683151194 0 0.30690038754225768 -0.0011800486910433781 0 0.31293781791285569 0.017611986042758699 0 0.30060566889494089 0.02714657897289334 0 0.29658571362929892 0.01379696683151194 0 0.31293781791285569 0.017611986042758699 0 0.31923969929816981 0.035830495662194838 0 0.30060566889494089 0.02714657897289334 0 0.31293781791285569 0.017611986042758699 0 0.29658571362929892 0.01379696683151194 0 0.30060566889494089 0.02714657897289334 0 0.29500274332330728 0.016095456443948788 0 0.29658571362929892 0.01379696683151194 0 0.30060566889494089 0.02714657897289334 0 0.28762295502011598 0.027200489278051441 0 0.29289454178864649 0.022456661223579269 0 0.28762295502011598 0.027200489278051441 0 0.28116395689077539 0.015207467567734259 0 0.27775173961206168 0.02941095978416057 0 0.28762295502011598 0.027200489278051441 0 0.28836526088227099 0.018465508051837269 0 0.28116395689077539 0.015207467567734259 0 0.28762295502011598 0.027200489278051441 0 0.28116395689077539 0.015207467567734259 0 0.30060566889494089 0.02714657897289334 0 0.29289454178864649 0.022456661223579269 0 0.29500274332330728 0.016095456443948788 0 0.28836526088227099 0.018465508051837269 0 0.29289454178864649 0.022456661223579269 0 0.29500274332330728 0.016095456443948788 0 0.28762295502011598 0.027200489278051441 0 0.28836526088227099 0.018465508051837269 0 0.29289454178864649 0.022456661223579269 0 0.28514691493175248 0.01112824383243886 0 0.30050921735997521 -0.004605356182754896 0 0.29658571362929892 0.01379696683151194 0 0.28514691493175248 0.01112824383243886 0 0.30050921735997521 -0.004605356182754896 0 0.28514691493175248 0.01112824383243886 0 0.27791710391185381 -0.0010379811687957271 0 0.28512431700806451 -0.0086992195202469716 0 0.29658571362929892 0.01379696683151194 0 0.28514691493175248 0.01112824383243886 0 0.28836526088227099 0.018465508051837269 0 0.29500274332330728 0.016095456443948788 0 0.28514691493175248 0.01112824383243886 0 0.29500274332330728 0.016095456443948788 0 0.29658571362929892 0.01379696683151194 0 0.28514691493175248 0.01112824383243886 0 0.29500274332330728 0.016095456443948788 0 0.29658571362929892 0.01379696683151194 0 0.28836526088227099 0.018465508051837269 0 0.28514691493175248 0.01112824383243886 0 0.28116395689077539 0.015207467567734259 0 0.28514691493175248 0.01112824383243886 0 0.27807895442698177 0.0094792569716416024 0 0.28116395689077539 0.015207467567734259 0 0.28514691493175248 0.01112824383243886 0 0.28116395689077539 0.015207467567734259 0 0.28514691493175248 0.01112824383243886 0 0.27807895442698177 0.0094792569716416024 0 0.27127393371108272 0.0054169343353159512 0 0.27807895442698177 0.0094792569716416024 0 0.2692248172919926 -0.0069610417805164738 0 0.27807895442698177 0.0094792569716416024 0 0.2692248172919926 -0.0069610417805164738 0 0.27807895442698177 0.0094792569716416024 0 0.2692248172919926 -0.0069610417805164738 0 0.27791710391185381 -0.0010379811687957271 0 0.26701986470523431 0.0028523954276382379 0 0.27127393371108272 0.0054169343353159512 0 0.2692248172919926 -0.0069610417805164738 0 0.26701986470523431 0.0028523954276382379 0 0.27127393371108272 0.0054169343353159512 0 0.26928034954363472 0.01099432455637152 0 0.28514691493175248 0.01112824383243886 0 0.27807895442698177 0.0094792569716416024 0 0.27791710391185381 -0.0010379811687957271 0 0.27807895442698177 0.0094792569716416024 0 0.27458783582826463 0.012565755321843329 0 0.27310560452179761 0.0095674853239665035 0 0.27127393371108272 0.0054169343353159512 0 0.27807895442698177 0.0094792569716416024 0 0.27310560452179761 0.0095674853239665035 0 0.27807895442698177 0.0094792569716416024 0 0.28116395689077539 0.015207467567734259 0 0.27807895442698177 0.0094792569716416024 0 0.28116395689077539 0.015207467567734259 0 0.27458783582826463 0.012565755321843329 0 0.27458783582826463 0.012565755321843329 0 0.26928034954363472 0.01099432455637152 0 0.26815911709364498 0.019514489362225031 0 0.27458783582826463 0.012565755321843329 0 0.27310560452179761 0.0095674853239665035 0 0.26928034954363472 0.01099432455637152 0 0.27127393371108272 0.0054169343353159512 0 0.27310560452179761 0.0095674853239665035 0 0.26928034954363472 0.01099432455637152 0 0.28116395689077539 0.015207467567734259 0 0.26416384502347939 0.032618461888623121 0 0.28116395689077539 0.015207467567734259 0 0.26815911709364498 0.019514489362225031 0 0.26416384502347939 0.032618461888623121 0 0.28116395689077539 0.015207467567734259 0 0.27775173961206168 0.02941095978416057 0 0.26416384502347939 0.032618461888623121 0 0.28116395689077539 0.015207467567734259 0 0.27458783582826463 0.012565755321843329 0 0.26815911709364498 0.019514489362225031 0 0.2489069739425 0.021637400389674748 0 0.25228035847618863 0.02688679106582054 0 0.25585841565974538 0.042233258010133973 0 0.26815911709364498 0.019514489362225031 0 0.25311855338379191 0.024668664965947041 0 0.26416384502347939 0.032618461888623121 0 0.25311855338379191 0.024668664965947041 0 0.26416384502347939 0.032618461888623121 0 0.25228035847618863 0.02688679106582054 0 0.25311855338379191 0.024668664965947041 0 0.26416384502347939 0.032618461888623121 0 0.2489069739425 0.021637400389674748 0 0.25228035847618863 0.02688679106582054 0 0.25311855338379191 0.024668664965947041 0 0.25228035847618863 0.02688679106582054 0 0.25311855338379191 0.024668664965947041 0 0.2489069739425 0.021637400389674748 0 0.25311855338379191 0.024668664965947041 0 0.25900523844679291 0.0090906536209348996 0 0.25311855338379191 0.024668664965947041 0 0.25900523844679291 0.0090906536209348996 0 0.2489069739425 0.021637400389674748 0 0.25311855338379191 0.024668664965947041 0 0.26815911709364498 0.019514489362225031 0 0.25311855338379191 0.024668664965947041 0 0.25900523844679291 0.0090906536209348996 0 0.26928034954363472 0.01099432455637152 0 0.26815911709364498 0.019514489362225031 0 0.25900523844679291 0.0090906536209348996 0 0.26701986470523431 0.0028523954276382379 0 0.26928034954363472 0.01099432455637152 0 0.25900523844679291 0.0090906536209348996 0 0.25900523844679291 0.0090906536209348996 0 0.26489192350979318 -0.0064873577240775106 0 0.26701986470523431 0.0028523954276382379 0 0.25900523844679291 0.0090906536209348996 0 0.26489192350979318 -0.0064873577240775106 0 0.28127895804124392 0.05869653450612005 0 0.26794279917258279 0.048584654113773551 0 0.27805620151387522 0.042617420402232667 0 0.28127895804124392 0.05869653450612005 0 0.26794279917258279 0.048584654113773551 0 0.26429652163301431 0.061701359010517647 0 0.26794279917258279 0.048584654113773551 0 0.27805620151387522 0.042617420402232667 0 0.26416384502347939 0.032618461888623121 0 0.28762295502011598 0.027200489278051441 0 0.27775173961206168 0.02941095978416057 0 0.27805620151387522 0.042617420402232667 0 0.27805620151387522 0.042617420402232667 0 0.26416384502347939 0.032618461888623121 0 0.27775173961206168 0.02941095978416057 0 0.27805620151387522 0.042617420402232667 0 0.26416384502347939 0.032618461888623121 0 0.26794279917258279 0.048584654113773551 0 0.2611959089814877 0.042898221548277563 0 0.26416384502347939 0.032618461888623121 0 0.2611959089814877 0.042898221548277563 0 0.25585841565974538 0.042233258010133973 0 0.25799090162224952 0.051667623778106117 0 0.2489069739425 0.021637400389674748 0 0.25585841565974538 0.042233258010133973 0 0.2611959089814877 0.042898221548277563 0 0.25868336492166327 0.038231401890038208 0 0.25585841565974538 0.042233258010133973 0 0.25228035847618863 0.02688679106582054 0 0.26416384502347939 0.032618461888623121 0 0.25868336492166327 0.038231401890038208 0 0.2611959089814877 0.042898221548277563 0 0.26416384502347939 0.032618461888623121 0 0.25868336492166327 0.038231401890038208 0 0.26416384502347939 0.032618461888623121 0 0.25868336492166327 0.038231401890038208 0 0.25228035847618863 0.02688679106582054 0 0.25868336492166327 0.038231401890038208 0 0.25585841565974538 0.042233258010133973 0 0.24915942417082321 0.043562136642382059 0 0.25585841565974538 0.042233258010133973 0 0.25194780840825542 0.047502886957762752 0 0.25585841565974538 0.042233258010133973 0 0.25194780840825542 0.047502886957762752 0 0.25799090162224952 0.051667623778106117 0 0.24612717135886061 0.053158967820149818 0 0.25194780840825542 0.047502886957762752 0 0.25799090162224952 0.051667623778106117 0 0.24612717135886061 0.053158967820149818 0 0.25799090162224952 0.051667623778106117 0 0.26429652163301431 0.061701359010517647 0 0.26794279917258279 0.048584654113773551 0 0.2611959089814877 0.042898221548277563 0 0.25799090162224952 0.051667623778106117 0 0.26794279917258279 0.048584654113773551 0 0.25799090162224952 0.051667623778106117 0 0.26429652163301431 0.061701359010517647 0 0.24612717135886061 0.053158967820149818 0 0.25923100858263742 0.079351551944828513 0 0.24612717135886061 0.053158967820149818 0 0.26429652163301431 0.061701359010517647 0 0.25923100858263742 0.079351551944828513 0 0.24537668551697431 0.097277083683747018 0 0.25923100858263742 0.079351551944828513 0 0.25922747002471352 0.097974378356717087 0 0.27555977218924488 0.077439952611008278 0 0.28759873658278978 0.090030408643589632 0 0.27101928807639453 0.09427347599549088 0 0.25923100858263742 0.079351551944828513 0 0.27555977218924488 0.077439952611008278 0 0.27101928807639453 0.09427347599549088 0 0.25923100858263742 0.079351551944828513 0 0.27101928807639453 0.09427347599549088 0 0.27233484580641432 0.1055441360695072 0 0.25923100858263742 0.079351551944828513 0 0.27233484580641432 0.1055441360695072 0 0.28127895804124392 0.05869653450612005 0 0.26429652163301431 0.061701359010517647 0 0.27555977218924488 0.077439952611008278 0 0.26429652163301431 0.061701359010517647 0 0.25923100858263742 0.079351551944828513 0 0.27555977218924488 0.077439952611008278 0 0.31072716300308328 0.059331554637136651 0 0.28127895804124392 0.05869653450612005 0 0.29303234378028109 0.075428628958087107 0 0.28127895804124392 0.05869653450612005 0 0.27555977218924488 0.077439952611008278 0 0.29303234378028109 0.075428628958087107 0 0.27555977218924488 0.077439952611008278 0 0.29303234378028109 0.075428628958087107 0 0.28759873658278978 0.090030408643589632 0 0.29303234378028109 0.075428628958087107 0 0.28759873658278978 0.090030408643589632 0 0.31153776068034922 0.089135316111794982 0 0.31072716300308328 0.059331554637136651 0 0.29303234378028109 0.075428628958087107 0 0.31153776068034922 0.089135316111794982 0 0.31072716300308328 0.059331554637136651 0 0.31153776068034922 0.089135316111794982 0 0.31234835835761571 0.11893907758645331 0 0.29168382321700531 0.1066062767909717 0 0.29960507646434792 0.12683409122409009 0 0.31234835835761571 0.11893907758645331 0 0.29168382321700531 0.1066062767909717 0 0.31153776068034922 0.089135316111794982 0 0.31234835835761571 0.11893907758645331 0 0.28759873658278978 0.090030408643589632 0 0.31153776068034922 0.089135316111794982 0 0.29168382321700531 0.1066062767909717 0 0.31153776068034922 0.089135316111794982 0 0.31234835835761571 0.11893907758645331 0 0.29168382321700531 0.1066062767909717 0 0.29168382321700531 0.1066062767909717 0 0.27101928807639453 0.09427347599549088 0 0.28759873658278978 0.090030408643589632 0 0.29168382321700531 0.1066062767909717 0 0.27101928807639453 0.09427347599549088 0 0.28726560712948962 0.11768030606968879 0 0.27233484580641432 0.1055441360695072 0 0.28543868303019121 0.131736720194186 0 0.29168382321700531 0.1066062767909717 0 0.28726560712948962 0.11768030606968879 0 0.29960507646434792 0.12683409122409009 0 0.29168382321700531 0.1066062767909717 0 0.28726560712948962 0.11768030606968879 0 0.27233484580641432 0.1055441360695072 0 0.2688255279836298 0.12262400996184721 0 0.27233484580641432 0.1055441360695072 0 0.28543868303019121 0.131736720194186 0 0.2688255279836298 0.12262400996184721 0 0.27233484580641432 0.1055441360695072 0 0.25996734019282808 0.1097247417287856 0 0.27233484580641432 0.1055441360695072 0 0.28543868303019121 0.131736720194186 0 0.29168382321700531 0.1066062767909717 0 0.27101928807639453 0.09427347599549088 0 0.27233484580641432 0.1055441360695072 0 0.25923100858263742 0.079351551944828513 0 0.27233484580641432 0.1055441360695072 0 0.25922747002471352 0.097974378356717087 0 0.27233484580641432 0.1055441360695072 0 0.25922747002471352 0.097974378356717087 0 0.25996734019282808 0.1097247417287856 0 0.24537668551697431 0.097277083683747018 0 0.25922747002471352 0.097974378356717087 0 0.25996734019282808 0.1097247417287856 0 0.24537668551697431 0.097277083683747018 0 0.25996734019282808 0.1097247417287856 0 0.25370366287882878 0.1241816415692342 0 0.2688255279836298 0.12262400996184721 0 0.25996734019282808 0.1097247417287856 0 0.25370366287882878 0.1241816415692342 0 0.25370366287882878 0.1241816415692342 0 0.26203064024068312 0.15108619945472171 0 0.2688255279836298 0.12262400996184721 0 0.25370366287882878 0.1241816415692342 0 0.27163016425534958 0.13738497633274069 0 0.25370366287882878 0.1241816415692342 0 0.27163016425534958 0.13738497633274069 0 0.26203064024068312 0.15108619945472171 0 0.2688255279836298 0.12262400996184721 0 0.27163016425534958 0.13738497633274069 0 0.28543868303019121 0.131736720194186 0 0.27163016425534958 0.13738497633274069 0 0.28543868303019121 0.131736720194186 0 0.2826446853024604 0.14124270427211749 0 0.27163016425534958 0.13738497633274069 0 0.27808704382392468 0.15255782491348299 0 0.26203064024068312 0.15108619945472171 0 0.27808704382392468 0.15255782491348299 0 0.26203064024068312 0.15108619945472171 0 0.26470071343822532 0.15971323610680241 0 0.27808704382392468 0.15255782491348299 0 0.26203064024068312 0.15108619945472171 0 0.27163016425534958 0.13738497633274069 0 0.27808704382392468 0.15255782491348299 0 0.2826446853024604 0.14124270427211749 0 0.27808704382392468 0.15255782491348299 0 0.26470071343822532 0.15971323610680241 0 0.24802047718606329 0.14980211908606039 0 0.25370366287882878 0.1241816415692342 0 0.26203064024068312 0.15108619945472171 0 0.26203064024068312 0.15108619945472171 0 0.26470071343822532 0.15971323610680241 0 0.26203064024068312 0.15108619945472171 0 0.25841385897244001 0.15585338151222791 0 0.26470071343822532 0.15971323610680241 0 0.24802047718606329 0.14980211908606039 0 0.25841385897244001 0.15585338151222791 0 0.25890360502478721 0.16281197140132819 0 0.24802047718606329 0.14980211908606039 0 0.26203064024068312 0.15108619945472171 0 0.24802047718606329 0.14980211908606039 0 0.26203064024068312 0.15108619945472171 0 0.25841385897244001 0.15585338151222791 0 0.26470071343822532 0.15971323610680241 0 0.25890360502478721 0.16281197140132819 0 0.26962736994955661 0.17563131892736969 0 0.24394273923527451 0.1708090208874482 0 0.25890360502478721 0.16281197140132819 0 0.25069145747160237 0.17986975870422739 0 0.24394273923527451 0.1708090208874482 0 0.24802047718606329 0.14980211908606039 0 0.25890360502478721 0.16281197140132819 0 0.24802047718606329 0.14980211908606039 0 0.25890360502478721 0.16281197140132819 0 0.24394273923527451 0.1708090208874482 0 0.25890360502478721 0.16281197140132819 0 0.25890360502478721 0.16281197140132819 0 0.26962736994955661 0.17563131892736969 0 0.26470071343822532 0.15971323610680241 0 0.25890360502478721 0.16281197140132819 0 0.25841385897244001 0.15585338151222791 0 0.26470071343822532 0.15971323610680241 0 0.25890360502478721 0.16281197140132819 0 0.25890360502478721 0.16281197140132819 0 0.25069145747160237 0.17986975870422739 0 0.2622875918713119 0.17871532590777511 0 0.25890360502478721 0.16281197140132819 0 0.2622875918713119 0.17871532590777511 0 0.26962736994955661 0.17563131892736969 0 0.24443808169503289 0.19165573435540739 0 0.25069145747160237 0.17986975870422739 0 0.25672659357731442 0.18931439154619459 0 0.25069145747160237 0.17986975870422739 0 0.2622875918713119 0.17871532590777511 0 0.25672659357731442 0.18931439154619459 0 0.2622875918713119 0.17871532590777511 0 0.2666871346110174 0.18721551203983949 0 0.25672659357731442 0.18931439154619459 0 0.2666871346110174 0.18721551203983949 0 0.2707313294469027 0.17919822452935469 0 0.28262567674856709 0.19158292471432059 0 0.2707313294469027 0.17919822452935469 0 0.26962736994955661 0.17563131892736969 0 0.28262567674856709 0.19158292471432059 0 0.26962736994955661 0.17563131892736969 0 0.28262567674856709 0.19158292471432059 0 0.26962736994955661 0.17563131892736969 0 0.28063414626850292 0.17836588696170111 0 0.28262567674856709 0.19158292471432059 0 0.2622875918713119 0.17871532590777511 0 0.2666871346110174 0.18721551203983949 0 0.2707313294469027 0.17919822452935469 0 0.2622875918713119 0.17871532590777511 0 0.2707313294469027 0.17919822452935469 0 0.26962736994955661 0.17563131892736969 0 0.2707313294469027 0.17919822452935469 0 0.26962736994955661 0.17563131892736969 0 0.26962736994955661 0.17563131892736969 0 0.28063414626850292 0.17836588696170111 0 0.27791551735799302 0.17228039079135241 0 0.26470071343822532 0.15971323610680241 0 0.26962736994955661 0.17563131892736969 0 0.26470071343822532 0.15971323610680241 0 0.26962736994955661 0.17563131892736969 0 0.27525802885731437 0.16516718346708009 0 0.27808704382392468 0.15255782491348299 0 0.26470071343822532 0.15971323610680241 0 0.27525802885731437 0.16516718346708009 0 0.26962736994955661 0.17563131892736969 0 0.27791551735799302 0.17228039079135241 0 0.27525802885731437 0.16516718346708009 0 0.27791551735799302 0.17228039079135241 0 0.27525802885731437 0.16516718346708009 0 0.28614252435659893 0.16995717380925851 0 0.27808704382392468 0.15255782491348299 0 0.27525802885731437 0.16516718346708009 0 0.28831271101088052 0.16150411312056051 0 0.27525802885731437 0.16516718346708009 0 0.28831271101088052 0.16150411312056051 0 0.28614252435659893 0.16995717380925851 0 0.28831271101088052 0.16150411312056051 0 0.28614252435659893 0.16995717380925851 0 0.2949765541501792 0.16654736560739511 0 0.28614252435659893 0.16995717380925851 0 0.2949765541501792 0.16654736560739511 0 0.2966990425067918 0.17398076245598329 0 0.28831271101088052 0.16150411312056051 0 0.2949765541501792 0.16654736560739511 0 0.29843684607612081 0.16152557188150271 0 0.28831271101088052 0.16150411312056051 0 0.29843684607612081 0.16152557188150271 0 0.2957188317017474 0.15417383984422159 0 0.28063414626850292 0.17836588696170111 0 0.28878787233227138 0.1800597202735717 0 0.28262567674856709 0.19158292471432059 0 0.28063414626850292 0.17836588696170111 0 0.28614252435659893 0.16995717380925851 0 0.28878787233227138 0.1800597202735717 0 0.28063414626850292 0.17836588696170111 0 0.27791551735799302 0.17228039079135241 0 0.28614252435659893 0.16995717380925851 0 0.28614252435659893 0.16995717380925851 0 0.28878787233227138 0.1800597202735717 0 0.2966990425067918 0.17398076245598329 0 0.28878787233227138 0.1800597202735717 0 0.2966990425067918 0.17398076245598329 0 0.29802567422580972 0.18704947290502161 0 0.28878787233227138 0.1800597202735717 0 0.29802567422580972 0.18704947290502161 0 0.28262567674856709 0.19158292471432059 0 0.29802567422580972 0.18704947290502161 0 0.32181551132831843 0.18004621980614391 0 0.2966990425067918 0.17398076245598329 0 0.29802567422580972 0.18704947290502161 0 0.31104746434799968 0.1673946430062502 0 0.29802567422580972 0.18704947290502161 0 0.31104746434799968 0.1673946430062502 0 0.29802567422580972 0.18704947290502161 0 0.31104746434799968 0.1673946430062502 0 0.32181551132831843 0.18004621980614391 0 0.30601579003330748 0.16116038764967211 0 0.2957188317017474 0.15417383984422159 0 0.31335061957957011 0.15578985477495891 0 0.29843684607612081 0.16152557188150271 0 0.30601579003330748 0.16116038764967211 0 0.2957188317017474 0.15417383984422159 0 0.29843684607612081 0.16152557188150271 0 0.3040416986791476 0.16682267597464789 0 0.30601579003330748 0.16116038764967211 0 0.2949765541501792 0.16654736560739511 0 0.2966990425067918 0.17398076245598329 0 0.3040416986791476 0.16682267597464789 0 0.2966990425067918 0.17398076245598329 0 0.3040416986791476 0.16682267597464789 0 0.31104746434799968 0.1673946430062502 0 0.2949765541501792 0.16654736560739511 0 0.29843684607612081 0.16152557188150271 0 0.3040416986791476 0.16682267597464789 0 0.3040416986791476 0.16682267597464789 0 0.31104746434799968 0.1673946430062502 0 0.30601579003330748 0.16116038764967211 0 0.3040416986791476 0.16682267597464789 0 0.31104746434799968 0.1673946430062502 0 0.31104746434799968 0.1673946430062502 0 0.30601579003330748 0.16116038764967211 0 0.31349927981525749 0.1612557404164488 0 0.30601579003330748 0.16116038764967211 0 0.31335061957957011 0.15578985477495891 0 0.31349927981525749 0.1612557404164488 0 0.30483300733717872 0.1478702823059759 0 0.29542285010037611 0.14329129564805981 0 0.31275865637682793 0.1340247663826373 0 0.30483300733717872 0.1478702823059759 0 0.31275865637682793 0.1340247663826373 0 0.31335061957957011 0.15578985477495891 0 0.30483300733717872 0.1478702823059759 0 0.2957188317017474 0.15417383984422159 0 0.31335061957957011 0.15578985477495891 0 0.2957188317017474 0.15417383984422159 0 0.31335061957957011 0.15578985477495891 0 0.30483300733717872 0.1478702823059759 0 0.2957188317017474 0.15417383984422159 0 0.29542285010037611 0.14329129564805981 0 0.29960507646434792 0.12683409122409009 0 0.29542285010037611 0.14329129564805981 0 0.31275865637682793 0.1340247663826373 0 0.29542285010037611 0.14329129564805981 0 0.31275865637682793 0.1340247663826373 0 0.31234835835761571 0.11893907758645331 0 0.29960507646434792 0.12683409122409009 0 0.31275865637682793 0.1340247663826373 0 0.29960507646434792 0.12683409122409009 0 0.28543868303019121 0.131736720194186 0 0.29542285010037611 0.14329129564805981 0 0.28726560712948962 0.11768030606968879 0 0.29960507646434792 0.12683409122409009 0 0.28543868303019121 0.131736720194186 0 0.28543868303019121 0.131736720194186 0 0.2826446853024604 0.14124270427211749 0 0.29542285010037611 0.14329129564805981 0 0.27808704382392468 0.15255782491348299 0 0.2826446853024604 0.14124270427211749 0 0.29542285010037611 0.14329129564805981 0 0.27808704382392468 0.15255782491348299 0 0.2957188317017474 0.15417383984422159 0 0.29542285010037611 0.14329129564805981 0 0.27808704382392468 0.15255782491348299 0 0.2957188317017474 0.15417383984422159 0 0.27808704382392468 0.15255782491348299 0 0.29542285010037611 0.14329129564805981 0 0.27808704382392468 0.15255782491348299 0 0.28831271101088052 0.16150411312056051 0 0.2957188317017474 0.15417383984422159 0 0.27685630599777589 0.2478154210616699 0 0.27299157826480569 0.23766007785357521 0 0.26048617882559622 0.24371083740660091 0 0.26048617882559622 0.24371083740660091 0 0.27110411734464762 0.2276843331004246 0 0.27299157826480569 0.23766007785357521 0 0.26048617882559622 0.24371083740660091 0 0.27110411734464762 0.2276843331004246 0 0.27691591880596222 0.25729022711116639 0 0.27685630599777589 0.2478154210616699 0 0.26048617882559622 0.24371083740660091 0 0.27685630599777589 0.2478154210616699 0 0.27901295757983852 0.24225897862297641 0 0.27299157826480569 0.23766007785357521 0 0.27685630599777589 0.2478154210616699 0 0.27901295757983852 0.24225897862297641 0 0.28234947844706793 0.24570967974740021 0 0.27901295757983852 0.24225897862297641 0 0.27719652076970691 0.235876877536806 0 0.2822644445936543 0.2387958425564555 0 0.27719652076970691 0.235876877536806 0 0.28215825558210461 0.2340236887935741 0 0.2822644445936543 0.2387958425564555 0 0.27901295757983852 0.24225897862297641 0 0.27719652076970691 0.235876877536806 0 0.27299157826480569 0.23766007785357521 0 0.24791323415382371 0.2458877298954085 0 0.25153222320099622 0.25722575917013901 0 0.26048617882559622 0.24371083740660091 0 0.2477315277427897 0.2356386040277525 0 0.24791323415382371 0.2458877298954085 0 0.26048617882559622 0.24371083740660091 0 0.24965972363503919 0.22122943443424911 0 0.26048617882559622 0.24371083740660091 0 0.27110411734464762 0.2276843331004246 0 0.2447696612887639 0.21650126134236319 0 0.24965972363503919 0.22122943443424911 0 0.27110411734464762 0.2276843331004246 0 0.24965972363503919 0.22122943443424911 0 0.26048617882559622 0.24371083740660091 0 0.2447696612887639 0.21650126134236319 0 0.27110411734464762 0.2276843331004246 0 0.2447696612887639 0.21650126134236319 0 0.27110411734464762 0.2276843331004246 0 0.2677963164460333 0.2150467959949465 0 0.24965972363503919 0.22122943443424911 0 0.2477315277427897 0.2356386040277525 0 0.26048617882559622 0.24371083740660091 0 0.27110411734464762 0.2276843331004246 0 0.28456489578522731 0.2073669030027222 0 0.2860351544522664 0.22291189892421159 0 0.27299157826480569 0.23766007785357521 0 0.27110411734464762 0.2276843331004246 0 0.27329338907126849 0.2286140193929726 0 0.27110411734464762 0.2276843331004246 0 0.27329338907126849 0.2286140193929726 0 0.27329338907126849 0.2286140193929726 0 0.27769713930278977 0.2310580429220736 0 0.28096010293809309 0.2280773344569369 0 0.27719652076970691 0.235876877536806 0 0.27299157826480569 0.23766007785357521 0 0.27329338907126849 0.2286140193929726 0 0.27110411734464762 0.2276843331004246 0 0.27329338907126849 0.2286140193929726 0 0.28096010293809309 0.2280773344569369 0 0.27719652076970691 0.235876877536806 0 0.27329338907126849 0.2286140193929726 0 0.27769713930278977 0.2310580429220736 0 0.27719652076970691 0.235876877536806 0 0.27769713930278977 0.2310580429220736 0 0.28215825558210461 0.2340236887935741 0 0.27769713930278977 0.2310580429220736 0 0.28096010293809309 0.2280773344569369 0 0.28215825558210461 0.2340236887935741 0 0.27110411734464762 0.2276843331004246 0 0.28096010293809309 0.2280773344569369 0 0.2860351544522664 0.22291189892421159 0 0.27110411734464762 0.2276843331004246 0 0.2677963164460333 0.2150467959949465 0 0.28456489578522731 0.2073669030027222 0 0.27110411734464762 0.2276843331004246 0 0.28456489578522731 0.2073669030027222 0 0.272670307474219 0.206747045740371 0 0.2677963164460333 0.2150467959949465 0 0.28456489578522731 0.2073669030027222 0 0.272670307474219 0.206747045740371 0 0.2677963164460333 0.2150467959949465 0 0.26045320274891359 0.2075872277184421 0 0.2447696612887639 0.21650126134236319 0 0.2677963164460333 0.2150467959949465 0 0.26045320274891359 0.2075872277184421 0 0.2445919001722652 0.2027793092260104 0 0.26045320274891359 0.2075872277184421 0 0.27130878719903789 0.19491439106551739 0 0.2445919001722652 0.2027793092260104 0 0.27130878719903789 0.19491439106551739 0 0.2445919001722652 0.2027793092260104 0 0.25672659357731442 0.18931439154619459 0 0.27130878719903789 0.19491439106551739 0 0.2666871346110174 0.18721551203983949 0 0.25672659357731442 0.18931439154619459 0 0.27130878719903789 0.19491439106551739 0 0.2666871346110174 0.18721551203983949 0 0.27130878719903789 0.19491439106551739 0 0.28262567674856709 0.19158292471432059 0 0.27130878719903789 0.19491439106551739 0 0.28262567674856709 0.19158292471432059 0 0.28456489578522731 0.2073669030027222 0 0.272670307474219 0.206747045740371 0 0.26045320274891359 0.2075872277184421 0 0.27130878719903789 0.19491439106551739 0 0.272670307474219 0.206747045740371 0 0.27130878719903789 0.19491439106551739 0 0.28456489578522731 0.2073669030027222 0 0.27130878719903789 0.19491439106551739 0 0.28262567674856709 0.19158292471432059 0 0.29802567422580972 0.18704947290502161 0 0.30459187314032082 0.20471057237354329 0 0.28456489578522731 0.2073669030027222 0 0.29802567422580972 0.18704947290502161 0 0.28456489578522731 0.2073669030027222 0 0.29802567422580972 0.18704947290502161 0 0.28262567674856709 0.19158292471432059 0 0.28456489578522731 0.2073669030027222 0 0.29802567422580972 0.18704947290502161 0 0.28262567674856709 0.19158292471432059 0 0.29802567422580972 0.18704947290502161 0 0.30459187314032082 0.20471057237354329 0 0.31598770299826118 0.19548598602398221 0 0.29802567422580972 0.18704947290502161 0 0.31598770299826118 0.19548598602398221 0 0.32181551132831843 0.18004621980614391 0 0.30459187314032082 0.20471057237354329 0 0.3112657248503683 0.22109255247881221 0 0.32160390274705047 0.2085142031879387 0 0.30459187314032082 0.20471057237354329 0 0.29694173849475131 0.21805006650638351 0 0.3112657248503683 0.22109255247881221 0 0.30459187314032082 0.20471057237354329 0 0.29694173849475131 0.21805006650638351 0 0.28456489578522731 0.2073669030027222 0 0.29694173849475131 0.21805006650638351 0 0.28456489578522731 0.2073669030027222 0 0.2860351544522664 0.22291189892421159 0 0.28096010293809309 0.2280773344569369 0 0.2860351544522664 0.22291189892421159 0 0.28751134043047888 0.23164143954930111 0 0.2860351544522664 0.22291189892421159 0 0.28751134043047888 0.23164143954930111 0 0.29310118177853489 0.2272447710257052 0 0.28096010293809309 0.2280773344569369 0 0.28215825558210461 0.2340236887935741 0 0.28751134043047888 0.23164143954930111 0 0.28215825558210461 0.2340236887935741 0 0.28751134043047888 0.23164143954930111 0 0.28579805486088677 0.2374330691078928 0 0.29310118177853489 0.2272447710257052 0 0.30108985200492661 0.22865112575325311 0 0.2939278235102516 0.23496932439537649 0 0.28751134043047888 0.23164143954930111 0 0.29310118177853489 0.2272447710257052 0 0.2939278235102516 0.23496932439537649 0 0.29694173849475131 0.21805006650638351 0 0.2860351544522664 0.22291189892421159 0 0.29310118177853489 0.2272447710257052 0 0.29694173849475131 0.21805006650638351 0 0.3112657248503683 0.22109255247881221 0 0.30108985200492661 0.22865112575325311 0 0.29694173849475131 0.21805006650638351 0 0.29310118177853489 0.2272447710257052 0 0.30108985200492661 0.22865112575325311 0 0.3112657248503683 0.22109255247881221 0 0.30108985200492661 0.22865112575325311 0 0.30814982578715833 0.23504095730125821 0 0.30108985200492661 0.22865112575325311 0 0.30079101833485439 0.23667575875814051 0 0.30814982578715833 0.23504095730125821 0 0.30108985200492661 0.22865112575325311 0 0.30079101833485439 0.23667575875814051 0 0.2939278235102516 0.23496932439537649 0 0.31246354634074469 0.25301562706991498 0 0.28965918427723281 0.24218391352450211 0 0.30079101833485439 0.23667575875814051 0 0.29637482176907359 0.2407438087058773 0 0.2939278235102516 0.23496932439537649 0 0.31246354634074469 0.25301562706991498 0 0.30301881801219099 0.2434786808704178 0 0.28965918427723281 0.24218391352450211 0 0.30079101833485439 0.23667575875814051 0 0.30814982578715833 0.23504095730125821 0 0.30301881801219099 0.2434786808704178 0 0.30079101833485439 0.23667575875814051 0 0.30301881801219099 0.2434786808704178 0 0.29637482176907359 0.2407438087058773 0 0.30814982578715833 0.23504095730125821 0 0.30301881801219099 0.2434786808704178 0 0.31261059057147461 0.2434248305083811 0 0.31246354634074469 0.25301562706991498 0 0.30301881801219099 0.2434786808704178 0 0.31261059057147461 0.2434248305083811 0 0.29345893722613059 0.25129825022350127 0 0.29035996411889098 0.24599513786664159 0 0.28965918427723281 0.24218391352450211 0 0.29345893722613059 0.25129825022350127 0 0.29035996411889098 0.24599513786664159 0 0.28892582916583598 0.2492018439528669 0 0.29035996411889098 0.24599513786664159 0 0.28965918427723281 0.24218391352450211 0 0.28783672664197268 0.24359463822150959 0 0.30301881801219099 0.2434786808704178 0 0.29637482176907359 0.2407438087058773 0 0.28965918427723281 0.24218391352450211 0 0.29637482176907359 0.2407438087058773 0 0.2939278235102516 0.23496932439537649 0 0.29248016532158921 0.23880015382188749 0 0.2939278235102516 0.23496932439537649 0 0.28995883172979869 0.23730356866179431 0 0.29248016532158921 0.23880015382188749 0 0.28751134043047888 0.23164143954930111 0 0.2939278235102516 0.23496932439537649 0 0.28995883172979869 0.23730356866179431 0 0.29637482176907359 0.2407438087058773 0 0.29248016532158921 0.23880015382188749 0 0.28965918427723281 0.24218391352450211 0 0.28995883172979869 0.23730356866179431 0 0.29248016532158921 0.23880015382188749 0 0.28965918427723281 0.24218391352450211 0 0.28995883172979869 0.23730356866179431 0 0.28965918427723281 0.24218391352450211 0 0.28579805486088677 0.2374330691078928 0 0.28965918427723281 0.24218391352450211 0 0.28777867495787518 0.24129070115530599 0 0.28579805486088677 0.2374330691078928 0 0.28965918427723281 0.24218391352450211 0 0.28777867495787518 0.24129070115530599 0 0.28965918427723281 0.24218391352450211 0 0.28579805486088677 0.2374330691078928 0 0.28777867495787518 0.24129070115530599 0 0.28579805486088677 0.2374330691078928 0 0.28505636658832489 0.24015885991938871 0 0.28777867495787518 0.24129070115530599 0 0.28505636658832489 0.24015885991938871 0 0.28397084752209928 0.24268433257024799 0 0.28751134043047888 0.23164143954930111 0 0.28995883172979869 0.23730356866179431 0 0.28579805486088677 0.2374330691078928 0 0.28215825558210461 0.2340236887935741 0 0.28579805486088677 0.2374330691078928 0 0.2822644445936543 0.2387958425564555 0 0.27901295757983852 0.24225897862297641 0 0.2822644445936543 0.2387958425564555 0 0.28397084752209928 0.24268433257024799 0 0.28505636658832489 0.24015885991938871 0 0.2822644445936543 0.2387958425564555 0 0.28397084752209928 0.24268433257024799 0 0.28579805486088677 0.2374330691078928 0 0.28505636658832489 0.24015885991938871 0 0.2822644445936543 0.2387958425564555 0 0.27901295757983852 0.24225897862297641 0 0.28234947844706793 0.24570967974740021 0 0.28397084752209928 0.24268433257024799 0 0.27685630599777589 0.2478154210616699 0 0.28234947844706793 0.24570967974740021 0 0.28494106210013392 0.2498489505319901 0 0.28234947844706793 0.24570967974740021 0 0.28397084752209928 0.24268433257024799 0 0.2869662190354918 0.2459407159501166 0 0.28234947844706793 0.24570967974740021 0 0.28494106210013392 0.2498489505319901 0 0.2869662190354918 0.2459407159501166 0 0.28494106210013392 0.2498489505319901 0 0.28892582916583598 0.2492018439528669 0 0.2869662190354918 0.2459407159501166 0 0.29035996411889098 0.24599513786664159 0 0.28892582916583598 0.2492018439528669 0 0.2869662190354918 0.2459407159501166 0 0.29035996411889098 0.24599513786664159 0 0.28783672664197268 0.24359463822150959 0 0.2869662190354918 0.2459407159501166 0 0.28965918427723281 0.24218391352450211 0 0.28777867495787518 0.24129070115530599 0 0.28783672664197268 0.24359463822150959 0 0.28397084752209928 0.24268433257024799 0 0.28783672664197268 0.24359463822150959 0 0.2869662190354918 0.2459407159501166 0 0.28777867495787518 0.24129070115530599 0 0.28397084752209928 0.24268433257024799 0 0.28783672664197268 0.24359463822150959 0 0.3379127634661398 0.24049180221066491 0 0.32643540241908581 0.2493154440826276 0 0.31942597565379999 0.2366753470562844 0 0.31246354634074469 0.25301562706991498 0 0.32643540241908581 0.2493154440826276 0 0.31261059057147461 0.2434248305083811 0 0.32643540241908581 0.2493154440826276 0 0.31261059057147461 0.2434248305083811 0 0.31942597565379999 0.2366753470562844 0 0.30814982578715833 0.23504095730125821 0 0.31261059057147461 0.2434248305083811 0 0.31942597565379999 0.2366753470562844 0 0.3379127634661398 0.24049180221066491 0 0.31942597565379999 0.2366753470562844 0 0.32600368008419539 0.22461502934577851 0 0.3112657248503683 0.22109255247881221 0 0.30814982578715833 0.23504095730125821 0 0.31942597565379999 0.2366753470562844 0 0.3112657248503683 0.22109255247881221 0 0.31942597565379999 0.2366753470562844 0 0.32600368008419539 0.22461502934577851 0 0.3379127634661398 0.24049180221066491 0 0.32600368008419539 0.22461502934577851 0 0.3398100337036184 0.2163012417951922 0 0.3398100337036184 0.2163012417951922 0 0.32160390274705047 0.2085142031879387 0 0.33063695298837592 0.19682719513420929 0 0.32600368008419539 0.22461502934577851 0 0.3398100337036184 0.2163012417951922 0 0.32160390274705047 0.2085142031879387 0 0.3112657248503683 0.22109255247881221 0 0.32600368008419539 0.22461502934577851 0 0.32160390274705047 0.2085142031879387 0 0.30459187314032082 0.20471057237354329 0 0.32160390274705047 0.2085142031879387 0 0.31598770299826118 0.19548598602398221 0 0.32160390274705047 0.2085142031879387 0 0.31598770299826118 0.19548598602398221 0 0.33063695298837592 0.19682719513420929 0 0.31598770299826118 0.19548598602398221 0 0.33063695298837592 0.19682719513420929 0 0.32181551132831843 0.18004621980614391 0 0.3398100337036184 0.2163012417951922 0 0.33063695298837592 0.19682719513420929 0 0.34652165966209031 0.1951830619424908 0 0.33063695298837592 0.19682719513420929 0 0.34652165966209031 0.1951830619424908 0 0.33808290749091702 0.1854324580495085 0 0.34652165966209031 0.1951830619424908 0 0.33808290749091702 0.1854324580495085 0 0.34805963641287802 0.18313381139210541 0 0.34652165966209031 0.1951830619424908 0 0.35834447101042982 0.1885307986193322 0 0.34805963641287802 0.18313381139210541 0 0.34652165966209031 0.1951830619424908 0 0.35697604229412883 0.20282503597125329 0 0.35834447101042982 0.1885307986193322 0 0.35834447101042982 0.1885307986193322 0 0.36867711819290189 0.19558193609178909 0 0.37211726383392318 0.18243968588977941 0 0.36867711819290189 0.19558193609178909 0 0.37211726383392318 0.18243968588977941 0 0.37959621891343998 0.18888004806970329 0 0.35697604229412883 0.20282503597125329 0 0.35834447101042982 0.1885307986193322 0 0.36867711819290189 0.19558193609178909 0 0.35697604229412883 0.20282503597125329 0 0.36867711819290189 0.19558193609178909 0 0.36464593244806109 0.2145418940701225 0 0.36867711819290189 0.19558193609178909 0 0.36464593244806109 0.2145418940701225 0 0.38262777372413942 0.20056577775977211 0 0.3398100337036184 0.2163012417951922 0 0.35697604229412883 0.20282503597125329 0 0.36464593244806109 0.2145418940701225 0 0.3398100337036184 0.2163012417951922 0 0.34652165966209031 0.1951830619424908 0 0.35697604229412883 0.20282503597125329 0 0.3379127634661398 0.24049180221066491 0 0.3398100337036184 0.2163012417951922 0 0.35784805351199239 0.2326945607342826 0 0.3398100337036184 0.2163012417951922 0 0.36464593244806109 0.2145418940701225 0 0.35784805351199239 0.2326945607342826 0 0.3398100337036184 0.2163012417951922 0 0.35784805351199239 0.2326945607342826 0 0.36464593244806109 0.2145418940701225 0 0.35784805351199239 0.2326945607342826 0 0.37504625414522869 0.2303727958758012 0 0.35784805351199239 0.2326945607342826 0 0.37588607332036628 0.2490878796733729 0 0.35784805351199239 0.2326945607342826 0 0.37588607332036628 0.2490878796733729 0 0.37504625414522869 0.2303727958758012 0 0.35634129443021012 0.25447852924978431 0 0.35784805351199239 0.2326945607342826 0 0.37588607332036628 0.2490878796733729 0 0.35634129443021012 0.25447852924978431 0 0.3379127634661398 0.24049180221066491 0 0.35784805351199239 0.2326945607342826 0 0.33844782525489081 0.14552375979656301 0 0.33442235067943221 0.13211305649348251 0 0.31842762243075678 0.15625517981560311 0 0.33844782525489081 0.14552375979656301 0 0.31842762243075678 0.15625517981560311 0 0.3463391887874393 0.1588133723418115 0 0.343988490580944 0.1176741160108202 0 0.33926610740018709 0.13500385884312699 0 0.33442235067943221 0.13211305649348251 0 0.33844782525489081 0.14552375979656301 0 0.33926610740018709 0.13500385884312699 0 0.33442235067943221 0.13211305649348251 0 0.33926610740018709 0.13500385884312699 0 0.33442235067943221 0.13211305649348251 0 0.31234835835761571 0.11893907758645331 0 0.33442235067943221 0.13211305649348251 0 0.31795714297393313 0.13124601312364301 0 0.33442235067943221 0.13211305649348251 0 0.31795714297393313 0.13124601312364301 0 0.31842762243075678 0.15625517981560311 0 0.31795714297393313 0.13124601312364301 0 0.31275865637682793 0.1340247663826373 0 0.31842762243075678 0.15625517981560311 0 0.31234835835761571 0.11893907758645331 0 0.33442235067943221 0.13211305649348251 0 0.31234835835761571 0.11893907758645331 0 0.31795714297393313 0.13124601312364301 0 0.31275865637682793 0.1340247663826373 0 0.31234835835761571 0.11893907758645331 0 0.31275865637682793 0.1340247663826373 0 0.31795714297393313 0.13124601312364301 0 0.31275865637682793 0.1340247663826373 0 0.31275865637682793 0.1340247663826373 0 0.31335061957957011 0.15578985477495891 0 0.31275865637682793 0.1340247663826373 0 0.31335061957957011 0.15578985477495891 0 0.31842762243075678 0.15625517981560311 0 0.33442235067943221 0.13211305649348251 0 0.31842762243075678 0.15625517981560311 0 0.31335061957957011 0.15578985477495891 0 0.31842762243075678 0.15625517981560311 0 0.31104746434799968 0.1673946430062502 0 0.31842762243075678 0.15625517981560311 0 0.33486110727476232 0.16933884429702981 0 0.31104746434799968 0.1673946430062502 0 0.31842762243075678 0.15625517981560311 0 0.31349927981525749 0.1612557404164488 0 0.31335061957957011 0.15578985477495891 0 0.31349927981525749 0.1612557404164488 0 0.31104746434799968 0.1673946430062502 0 0.33486110727476232 0.16933884429702981 0 0.31104746434799968 0.1673946430062502 0 0.31842762243075678 0.15625517981560311 0 0.31335061957957011 0.15578985477495891 0 0.31842762243075678 0.15625517981560311 0 0.31349927981525749 0.1612557404164488 0 0.31104746434799968 0.1673946430062502 0 0.32181551132831843 0.18004621980614391 0 0.33486110727476232 0.16933884429702981 0 0.32181551132831843 0.18004621980614391 0 0.33808290749091702 0.1854324580495085 0 0.34560534843082608 0.17304296670726349 0 0.33063695298837592 0.19682719513420929 0 0.32181551132831843 0.18004621980614391 0 0.33808290749091702 0.1854324580495085 0 0.32181551132831843 0.18004621980614391 0 0.33486110727476232 0.16933884429702981 0 0.34560534843082608 0.17304296670726349 0 0.32181551132831843 0.18004621980614391 0 0.34560534843082608 0.17304296670726349 0 0.31842762243075678 0.15625517981560311 0 0.33486110727476232 0.16933884429702981 0 0.3463391887874393 0.1588133723418115 0 0.31842762243075678 0.15625517981560311 0 0.3463391887874393 0.1588133723418115 0 0.33486110727476232 0.16933884429702981 0 0.35867475020152417 0.1712830455878149 0 0.33486110727476232 0.16933884429702981 0 0.3463391887874393 0.1588133723418115 0 0.35867475020152417 0.1712830455878149 0 0.33486110727476232 0.16933884429702981 0 0.35867475020152417 0.1712830455878149 0 0.34560534843082608 0.17304296670726349 0 0.35834447101042982 0.1885307986193322 0 0.35867475020152417 0.1712830455878149 0 0.34805963641287802 0.18313381139210541 0 0.33808290749091702 0.1854324580495085 0 0.34805963641287802 0.18313381139210541 0 0.34560534843082608 0.17304296670726349 0 0.35867475020152417 0.1712830455878149 0 0.34805963641287802 0.18313381139210541 0 0.34560534843082608 0.17304296670726349 0 0.35834447101042982 0.1885307986193322 0 0.35867475020152417 0.1712830455878149 0 0.37211726383392318 0.18243968588977941 0 0.35867475020152417 0.1712830455878149 0 0.37211726383392318 0.18243968588977941 0 0.38248839312828642 0.17322724687860011 0 0.35867475020152417 0.1712830455878149 0 0.38248839312828642 0.17322724687860011 0 0.3463391887874393 0.1588133723418115 0 0.35867475020152417 0.1712830455878149 0 0.37425075514412182 0.1613715648680196 0 0.35867475020152417 0.1712830455878149 0 0.37425075514412182 0.1613715648680196 0 0.38248839312828642 0.17322724687860011 0 0.3463391887874393 0.1588133723418115 0 0.37425075514412182 0.1613715648680196 0 0.37425075514412182 0.1613715648680196 0 0.36753442956304122 0.14046640889011411 0 0.37911076050976511 0.15167221068913639 0 0.37425075514412182 0.1613715648680196 0 0.35378385697663972 0.14543333148879159 0 0.36753442956304122 0.14046640889011411 0 0.37425075514412182 0.1613715648680196 0 0.36753442956304122 0.14046640889011411 0 0.36753442956304122 0.14046640889011411 0 0.37911076050976511 0.15167221068913639 0 0.3463391887874393 0.1588133723418115 0 0.37425075514412182 0.1613715648680196 0 0.35378385697663972 0.14543333148879159 0 0.33844782525489081 0.14552375979656301 0 0.33926610740018709 0.13500385884312699 0 0.35378385697663972 0.14543333148879159 0 0.33844782525489081 0.14552375979656301 0 0.3463391887874393 0.1588133723418115 0 0.35378385697663972 0.14543333148879159 0 0.343988490580944 0.1176741160108202 0 0.33926610740018709 0.13500385884312699 0 0.3557614600719885 0.1290702624504714 0 0.35378385697663972 0.14543333148879159 0 0.3557614600719885 0.1290702624504714 0 0.36753442956304122 0.14046640889011411 0 0.33926610740018709 0.13500385884312699 0 0.35378385697663972 0.14543333148879159 0 0.3557614600719885 0.1290702624504714 0 0.36234477620530581 0.12431315491142481 0 0.38206466283770479 0.146561596848436 0 0.36234477620530581 0.12431315491142481 0 0.36753442956304122 0.14046640889011411 0 0.38206466283770479 0.146561596848436 0 0.36234477620530581 0.12431315491142481 0 0.3557614600719885 0.1290702624504714 0 0.36753442956304122 0.14046640889011411 0 0.36234477620530581 0.12431315491142481 0 0.36753442956304122 0.14046640889011411 0 0.3557614600719885 0.1290702624504714 0 0.36753442956304122 0.14046640889011411 0 0.36234477620530581 0.12431315491142481 0 0.38206466283770479 0.146561596848436 0 0.38784786648637848 0.12498960030151041 0 0.39580058914059452 0.1490980931887998 0 0.38206466283770479 0.146561596848436 0 0.38784786648637848 0.12498960030151041 0 0.39580058914059452 0.1490980931887998 0 0.38784786648637848 0.12498960030151041 0 0.39497711538788383 0.13620291539220281 0 0.38784786648637848 0.12498960030151041 0 0.40536034682354632 0.12481683740862159 0 0.39497711538788383 0.13620291539220281 0 0.40981053908925419 0.14123984962813549 0 0.40536034682354632 0.12481683740862159 0 0.39497711538788383 0.13620291539220281 0 0.39580058914059452 0.1490980931887998 0 0.38784786648637848 0.12498960030151041 0 0.39497711538788383 0.13620291539220281 0 0.40981053908925419 0.14123984962813549 0 0.39580058914059452 0.1490980931887998 0 0.38206466283770479 0.146561596848436 0 0.39687031602956763 0.16326568453002829 0 0.39580058914059452 0.1490980931887998 0 0.40981053908925419 0.14123984962813549 0 0.41018078742555969 0.15504633733473569 0 0.39497711538788383 0.13620291539220281 0 0.39580058914059452 0.1490980931887998 0 0.40981053908925419 0.14123984962813549 0 0.38206466283770479 0.146561596848436 0 0.37911076050976511 0.15167221068913639 0 0.39068709145648911 0.16287801248815861 0 0.38206466283770479 0.146561596848436 0 0.39687031602956763 0.16326568453002829 0 0.36753442956304122 0.14046640889011411 0 0.38206466283770479 0.146561596848436 0 0.37911076050976511 0.15167221068913639 0 0.37425075514412182 0.1613715648680196 0 0.37911076050976511 0.15167221068913639 0 0.39068709145648911 0.16287801248815861 0 0.38206466283770479 0.146561596848436 0 0.39687031602956763 0.16326568453002829 0 0.39068709145648911 0.16287801248815861 0 0.37425075514412182 0.1613715648680196 0 0.39068709145648911 0.16287801248815861 0 0.37425075514412182 0.1613715648680196 0 0.38248839312828642 0.17322724687860011 0 0.39068709145648911 0.16287801248815861 0 0.38248839312828642 0.17322724687860011 0 0.39068709145648911 0.16287801248815861 0 0.39173266295372422 0.1703821586821625 0 0.37911076050976511 0.15167221068913639 0 0.39068709145648911 0.16287801248815861 0 0.37211726383392318 0.18243968588977941 0 0.38456142671463689 0.18119341109058101 0 0.37959621891343998 0.18888004806970329 0 0.37211726383392318 0.18243968588977941 0 0.38248839312828642 0.17322724687860011 0 0.38456142671463689 0.18119341109058101 0 0.38248839312828642 0.17322724687860011 0 0.39015071041641458 0.1752968202883449 0 0.38456142671463689 0.18119341109058101 0 0.39015071041641458 0.1752968202883449 0 0.38456142671463689 0.18119341109058101 0 0.3936647719149563 0.17997510126181099 0 0.38248839312828642 0.17322724687860011 0 0.39015071041641458 0.1752968202883449 0 0.39173266295372422 0.1703821586821625 0 0.38935120208080087 0.18734156415524739 0 0.38456142671463689 0.18119341109058101 0 0.37959621891343998 0.18888004806970329 0 0.38935120208080087 0.18734156415524739 0 0.38456142671463689 0.18119341109058101 0 0.3936647719149563 0.17997510126181099 0 0.40402992335265742 0.18295193175906091 0 0.40178454947010472 0.1688100387854462 0 0.4113280318459675 0.18796372784287679 0 0.38935120208080087 0.18734156415524739 0 0.39769522389517081 0.18613352877741379 0 0.3936647719149563 0.17997510126181099 0 0.39769522389517081 0.18613352877741379 0 0.3936647719149563 0.17997510126181099 0 0.39874070762402308 0.17719757549675871 0 0.3936647719149563 0.17997510126181099 0 0.39444527572727123 0.17454960687581639 0 0.39874070762402308 0.17719757549675871 0 0.39015071041641458 0.1752968202883449 0 0.3936647719149563 0.17997510126181099 0 0.39444527572727123 0.17454960687581639 0 0.39015071041641458 0.1752968202883449 0 0.39444527572727123 0.17454960687581639 0 0.39173266295372422 0.1703821586821625 0 0.39444527572727123 0.17454960687581639 0 0.39874070762402308 0.17719757549675871 0 0.39793752572723801 0.16989637865000479 0 0.39874070762402308 0.17719757549675871 0 0.40402992335265742 0.18295193175906091 0 0.40178454947010472 0.1688100387854462 0 0.39874070762402308 0.17719757549675871 0 0.39793752572723801 0.16989637865000479 0 0.40178454947010472 0.1688100387854462 0 0.39769522389517081 0.18613352877741379 0 0.39874070762402308 0.17719757549675871 0 0.40402992335265742 0.18295193175906091 0 0.39580058914059452 0.1490980931887998 0 0.39687031602956763 0.16326568453002829 0 0.40178454947010472 0.1688100387854462 0 0.39580058914059452 0.1490980931887998 0 0.40178454947010472 0.1688100387854462 0 0.41018078742555969 0.15504633733473569 0 0.39687031602956763 0.16326568453002829 0 0.39068709145648911 0.16287801248815861 0 0.39068709145648911 0.16287801248815861 0 0.39793752572723801 0.16989637865000479 0 0.39068709145648911 0.16287801248815861 0 0.39173266295372422 0.1703821586821625 0 0.39793752572723801 0.16989637865000479 0 0.39444527572727123 0.17454960687581639 0 0.39173266295372422 0.1703821586821625 0 0.39793752572723801 0.16989637865000479 0 0.39687031602956763 0.16326568453002829 0 0.39068709145648911 0.16287801248815861 0 0.39793752572723801 0.16989637865000479 0 0.39687031602956763 0.16326568453002829 0 0.40178454947010472 0.1688100387854462 0 0.39687031602956763 0.16326568453002829 0 0.39793752572723801 0.16989637865000479 0 0.40178454947010472 0.1688100387854462 0 0.42156831075211598 0.1680848541833582 0 0.42464396279062439 0.14627678386406909 0 0.41018078742555969 0.15504633733473569 0 0.40178454947010472 0.1688100387854462 0 0.42156831075211598 0.1680848541833582 0 0.41018078742555969 0.15504633733473569 0 0.40178454947010472 0.1688100387854462 0 0.4113280318459675 0.18796372784287679 0 0.42150443610250471 0.1910584807224564 0 0.40178454947010472 0.1688100387854462 0 0.42150443610250471 0.1910584807224564 0 0.40178454947010472 0.1688100387854462 0 0.42156831075211598 0.1680848541833582 0 0.42150443610250471 0.1910584807224564 0 0.42156831075211598 0.1680848541833582 0 0.43118451961009657 0.17908750652768421 0 0.42150443610250471 0.1910584807224564 0 0.43118451961009657 0.17908750652768421 0 0.42150443610250471 0.1910584807224564 0 0.44066350929549042 0.1899546779532231 0 0.42156831075211598 0.1680848541833582 0 0.43118451961009657 0.17908750652768421 0 0.44223327263954998 0.1675638295240294 0 0.42156831075211598 0.1680848541833582 0 0.42464396279062439 0.14627678386406909 0 0.44223327263954998 0.1675638295240294 0 0.42464396279062439 0.14627678386406909 0 0.44223327263954998 0.1675638295240294 0 0.42464396279062439 0.14627678386406909 0 0.44100510488797162 0.1518324801367677 0 0.42464396279062439 0.14627678386406909 0 0.43171131441089522 0.13754306829591861 0 0.44100510488797162 0.1518324801367677 0 0.43731578770263868 0.15311191614552969 0 0.42464396279062439 0.14627678386406909 0 0.44100510488797162 0.1518324801367677 0 0.43731578770263868 0.15311191614552969 0 0.42464396279062439 0.14627678386406909 0 0.44223327263954998 0.1675638295240294 0 0.43171131441089522 0.13754306829591861 0 0.41885098875887777 0.13391820237067861 0 0.42338535559027479 0.1205090768914225 0 0.43171131441089522 0.13754306829591861 0 0.44201491538503751 0.1221884416046867 0 0.42338535559027479 0.1205090768914225 0 0.42464396279062439 0.14627678386406909 0 0.43171131441089522 0.13754306829591861 0 0.41885098875887777 0.13391820237067861 0 0.41885098875887777 0.13391820237067861 0 0.40981053908925419 0.14123984962813549 0 0.40536034682354632 0.12481683740862159 0 0.41885098875887777 0.13391820237067861 0 0.42338535559027479 0.1205090768914225 0 0.40536034682354632 0.12481683740862159 0 0.42464396279062439 0.14627678386406909 0 0.41885098875887777 0.13391820237067861 0 0.40981053908925419 0.14123984962813549 0 0.42464396279062439 0.14627678386406909 0 0.40981053908925419 0.14123984962813549 0 0.42464396279062439 0.14627678386406909 0 0.40981053908925419 0.14123984962813549 0 0.41018078742555969 0.15504633733473569 0 0.39103074677198191 0.2378645478919707 0 0.40699913865084292 0.2200073724427305 0 0.40933178642478668 0.24530746794650141 0 0.39392409312874033 0.26548119861246328 0 0.39103074677198191 0.2378645478919707 0 0.40933178642478668 0.24530746794650141 0 0.39103074677198191 0.2378645478919707 0 0.37588607332036628 0.2490878796733729 0 0.37504625414522869 0.2303727958758012 0 0.39103074677198191 0.2378645478919707 0 0.37504625414522869 0.2303727958758012 0 0.38582046467374198 0.21767509700925741 0 0.36464593244806109 0.2145418940701225 0 0.37504625414522869 0.2303727958758012 0 0.38582046467374198 0.21767509700925741 0 0.39103074677198191 0.2378645478919707 0 0.38582046467374198 0.21767509700925741 0 0.40699913865084292 0.2200073724427305 0 0.39535308900850558 0.20493870697966851 0 0.38582046467374198 0.21767509700925741 0 0.40699913865084292 0.2200073724427305 0 0.39535308900850558 0.20493870697966851 0 0.40736650267529367 0.20534760411496161 0 0.40699913865084292 0.2200073724427305 0 0.36464593244806109 0.2145418940701225 0 0.38582046467374198 0.21767509700925741 0 0.38262777372413942 0.20056577775977211 0 0.39535308900850558 0.20493870697966851 0 0.38582046467374198 0.21767509700925741 0 0.38262777372413942 0.20056577775977211 0 0.36867711819290189 0.19558193609178909 0 0.38262777372413942 0.20056577775977211 0 0.37959621891343998 0.18888004806970329 0 0.38935120208080087 0.18734156415524739 0 0.38262777372413942 0.20056577775977211 0 0.37959621891343998 0.18888004806970329 0 0.38935120208080087 0.18734156415524739 0 0.38262777372413942 0.20056577775977211 0 0.39495039075152383 0.19500119794261639 0 0.38935120208080087 0.18734156415524739 0 0.39769522389517081 0.18613352877741379 0 0.39495039075152383 0.19500119794261639 0 0.39535308900850558 0.20493870697966851 0 0.38262777372413942 0.20056577775977211 0 0.39495039075152383 0.19500119794261639 0 0.39535308900850558 0.20493870697966851 0 0.40543434764706382 0.19433380204898831 0 0.40736650267529367 0.20534760411496161 0 0.39535308900850558 0.20493870697966851 0 0.39495039075152383 0.19500119794261639 0 0.40543434764706382 0.19433380204898831 0 0.39769522389517081 0.18613352877741379 0 0.39495039075152383 0.19500119794261639 0 0.40543434764706382 0.19433380204898831 0 0.39769522389517081 0.18613352877741379 0 0.40402992335265742 0.18295193175906091 0 0.40543434764706382 0.19433380204898831 0 0.41405593538476537 0.1978098369375659 0 0.42150443610250471 0.1910584807224564 0 0.41932031768340311 0.20743549227764799 0 0.40543434764706382 0.19433380204898831 0 0.4113280318459675 0.18796372784287679 0 0.41405593538476537 0.1978098369375659 0 0.40402992335265742 0.18295193175906091 0 0.40543434764706382 0.19433380204898831 0 0.4113280318459675 0.18796372784287679 0 0.40543434764706382 0.19433380204898831 0 0.41405593538476537 0.1978098369375659 0 0.40736650267529367 0.20534760411496161 0 0.4113280318459675 0.18796372784287679 0 0.41405593538476537 0.1978098369375659 0 0.41800374937960327 0.1912601641577685 0 0.4113280318459675 0.18796372784287679 0 0.41800374937960327 0.1912601641577685 0 0.42150443610250471 0.1910584807224564 0 0.41405593538476537 0.1978098369375659 0 0.41800374937960327 0.1912601641577685 0 0.42150443610250471 0.1910584807224564 0 0.41800374937960327 0.1912601641577685 0 0.42150443610250471 0.1910584807224564 0 0.42150443610250471 0.1910584807224564 0 0.43964605568812892 0.21152628449425559 0 0.44066350929549042 0.1899546779532231 0 0.42150443610250471 0.1910584807224564 0 0.44066350929549042 0.1899546779532231 0 0.42150443610250471 0.1910584807224564 0 0.43964605568812892 0.21152628449425559 0 0.42692227912344938 0.2185749218571387 0 0.41932031768340311 0.20743549227764799 0 0.43964605568812892 0.21152628449425559 0 0.42150443610250471 0.1910584807224564 0 0.41932031768340311 0.20743549227764799 0 0.43964605568812892 0.21152628449425559 0 0.42692227912344938 0.2185749218571387 0 0.41932031768340311 0.20743549227764799 0 0.40699913865084292 0.2200073724427305 0 0.41932031768340311 0.20743549227764799 0 0.40736650267529367 0.20534760411496161 0 0.40699913865084292 0.2200073724427305 0 0.41405593538476537 0.1978098369375659 0 0.41932031768340311 0.20743549227764799 0 0.40736650267529367 0.20534760411496161 0 0.40699913865084292 0.2200073724427305 0 0.42791060214005622 0.23524578657545639 0 0.40933178642478668 0.24530746794650141 0 0.42692227912344938 0.2185749218571387 0 0.40699913865084292 0.2200073724427305 0 0.42791060214005622 0.23524578657545639 0 0.42692227912344938 0.2185749218571387 0 0.42791060214005622 0.23524578657545639 0 0.44687549402799981 0.2240274878755969 0 0.42507863072368701 0.2531856777568211 0 0.42791060214005622 0.23524578657545639 0 0.43876594592942619 0.2491002947533556 0 0.42791060214005622 0.23524578657545639 0 0.43876594592942619 0.2491002947533556 0 0.44210509291822658 0.23713285843962781 0 0.42507863072368701 0.2531856777568211 0 0.42791060214005622 0.23524578657545639 0 0.40933178642478668 0.24530746794650141 0 0.4657425708042397 0.25282124097232528 0 0.45444189403291402 0.2411770147019261 0 0.46902648610557401 0.23978031661179641 0 0.45444189403291402 0.2411770147019261 0 0.46153812927118693 0.22769678494989409 0 0.46902648610557401 0.23978031661179641 0 0.44893917376128722 0.25670587451621701 0 0.45444189403291402 0.2411770147019261 0 0.43876594592942619 0.2491002947533556 0 0.45444189403291402 0.2411770147019261 0 0.43876594592942619 0.2491002947533556 0 0.44210509291822658 0.23713285843962781 0 0.42791060214005622 0.23524578657545639 0 0.44210509291822658 0.23713285843962781 0 0.44687549402799981 0.2240274878755969 0 0.45444189403291402 0.2411770147019261 0 0.44210509291822658 0.23713285843962781 0 0.44687549402799981 0.2240274878755969 0 0.45444189403291402 0.2411770147019261 0 0.44687549402799981 0.2240274878755969 0 0.46153812927118693 0.22769678494989409 0 0.44687549402799981 0.2240274878755969 0 0.46153812927118693 0.22769678494989409 0 0.45434831412809351 0.2169717754240589 0 0.46153812927118693 0.22769678494989409 0 0.46788422009904918 0.21602458295004651 0 0.45434831412809351 0.2169717754240589 0 0.46788422009904918 0.21602458295004651 0 0.45579767155410239 0.20558373685050119 0 0.47298928242684912 0.20478556194466599 0 0.46788422009904918 0.21602458295004651 0 0.45579767155410239 0.20558373685050119 0 0.45434831412809351 0.2169717754240589 0 0.45579767155410239 0.20558373685050119 0 0.45434831412809351 0.2169717754240589 0 0.43964605568812892 0.21152628449425559 0 0.45579767155410239 0.20558373685050119 0 0.43964605568812892 0.21152628449425559 0 0.44944268158891898 0.19797959918788341 0 0.42692227912344938 0.2185749218571387 0 0.44687549402799981 0.2240274878755969 0 0.43964605568812892 0.21152628449425559 0 0.44687549402799981 0.2240274878755969 0 0.45434831412809351 0.2169717754240589 0 0.43964605568812892 0.21152628449425559 0 0.43964605568812892 0.21152628449425559 0 0.44944268158891898 0.19797959918788341 0 0.44066350929549042 0.1899546779532231 0 0.44066350929549042 0.1899546779532231 0 0.45982258248847607 0.18885087518398949 0 0.44944268158891898 0.19797959918788341 0 0.44066350929549042 0.1899546779532231 0 0.45982258248847607 0.18885087518398949 0 0.45579767155410239 0.20558373685050119 0 0.44944268158891898 0.19797959918788341 0 0.45982258248847607 0.18885087518398949 0 0.45982258248847607 0.18885087518398949 0 0.47298928242684912 0.20478556194466599 0 0.45579767155410239 0.20558373685050119 0 0.45982258248847607 0.18885087518398949 0 0.47298928242684912 0.20478556194466599 0 0.45982258248847607 0.18885087518398949 0 0.46246267395613577 0.18869877282268771 0 0.47298928242684912 0.20478556194466599 0 0.45982258248847607 0.18885087518398949 0 0.46246267395613577 0.18869877282268771 0 0.48123133697806858 0.18761746257298201 0 0.49061566848903448 0.19913054633610969 0 0.48123133697806791 0.21172494034894249 0 0.46246267395613577 0.18869877282268771 0 0.48123133697806791 0.21172494034894249 0 0.47298928242684912 0.20478556194466599 0 0.46246267395613577 0.18869877282268771 0 0.48123133697806791 0.21172494034894249 0 0.46246267395613577 0.18869877282268771 0 0.48123133697806858 0.18761746257298201 0 0.48123133697806791 0.21172494034894249 0 0.46246267395613577 0.18869877282268771 0 0.48123133697806858 0.18761746257298201 0 0.49061566848903448 0.19913054633610969 0 0.5 0.21064363009923689 0 0.50000000000000144 0.18653615232327739 0 0.48123133697806858 0.18761746257298201 0 0.49061566848903448 0.19913054633610969 0 0.50000000000000144 0.18653615232327739 0 0.49061566848903448 0.19913054633610969 0 0.5 0.21064363009923689 0 0.48123133697806791 0.21172494034894249 0 0.46788422009904918 0.21602458295004651 0 0.48123133697806791 0.21172494034894249 0 0.47298928242684912 0.20478556194466599 0 0.46153812927118693 0.22769678494989409 0 0.47761079907368659 0.22975513346519441 0 0.46902648610557401 0.23978031661179641 0 0.46153812927118693 0.22769678494989409 0 0.46788422009904918 0.21602458295004651 0 0.47761079907368659 0.22975513346519441 0 0.46788422009904918 0.21602458295004651 0 0.48123133697806791 0.21172494034894249 0 0.47761079907368659 0.22975513346519441 0 0.48123133697806791 0.21172494034894249 0 0.50000000000000078 0.23475110787519651 0 0.48123133697806791 0.21172494034894249 0 0.47761079907368659 0.22975513346519441 0 0.50000000000000078 0.23475110787519651 0 0.5 0.21064363009923689 0 0.48123133697806791 0.21172494034894249 0 0.50000000000000078 0.23475110787519651 0 0.47761079907368659 0.22975513346519441 0 0.50000000000000078 0.23475110787519651 0 0.48319944748130261 0.24680576274814439 0 0.48930401013157893 0.26400543771054868 0 0.50000000000000078 0.23475110787519651 0 0.48319944748130261 0.24680576274814439 0 0.47761079907368659 0.22975513346519441 0 0.48319944748130261 0.24680576274814439 0 0.46902648610557401 0.23978031661179641 0 0.4657425708042397 0.25282124097232528 0 0.48319944748130261 0.24680576274814439 0 0.46902648610557401 0.23978031661179641 0 0.46067006992531578 0.14501277255513739 0 0.44100510488797162 0.1518324801367677 0 0.45842061247378069 0.15774620364127601 0 0.46067006992531578 0.14501277255513739 0 0.45842061247378069 0.15774620364127601 0 0.47181417780450058 0.15130991192119209 0 0.46067006992531578 0.14501277255513739 0 0.44779797982522251 0.13591138282507809 0 0.46358849451689271 0.12298015153287919 0 0.46067006992531578 0.14501277255513739 0 0.48033503496266028 0.13819306497350831 0 0.46358849451689271 0.12298015153287919 0 0.44779797982522251 0.13591138282507809 0 0.46358849451689271 0.12298015153287919 0 0.44201491538503751 0.1221884416046867 0 0.43171131441089522 0.13754306829591861 0 0.44779797982522251 0.13591138282507809 0 0.44201491538503751 0.1221884416046867 0 0.46067006992531578 0.14501277255513739 0 0.44100510488797162 0.1518324801367677 0 0.43171131441089522 0.13754306829591861 0 0.44779797982522251 0.13591138282507809 0 0.44100510488797162 0.1518324801367677 0 0.44100510488797162 0.1518324801367677 0 0.45842061247378069 0.15774620364127601 0 0.46067006992531578 0.14501277255513739 0 0.44779797982522251 0.13591138282507809 0 0.44100510488797162 0.1518324801367677 0 0.43731578770263868 0.15311191614552969 0 0.44100510488797162 0.1518324801367677 0 0.43731578770263868 0.15311191614552969 0 0.44100510488797162 0.1518324801367677 0 0.44223327263954998 0.1675638295240294 0 0.44100510488797162 0.1518324801367677 0 0.44223327263954998 0.1675638295240294 0 0.45064745071206469 0.16407050785850311 0 0.44100510488797162 0.1518324801367677 0 0.45064745071206469 0.16407050785850311 0 0.45842061247378069 0.15774620364127601 0 0.44223327263954998 0.1675638295240294 0 0.45064745071206469 0.16407050785850311 0 0.45252365300287162 0.17650517324400131 0 0.44066350929549042 0.1899546779532231 0 0.45982258248847607 0.18885087518398949 0 0.44223327263954998 0.1675638295240294 0 0.45982258248847607 0.18885087518398949 0 0.44223327263954998 0.1675638295240294 0 0.45982258248847607 0.18885087518398949 0 0.44223327263954998 0.1675638295240294 0 0.45252365300287162 0.17650517324400131 0 0.43118451961009657 0.17908750652768421 0 0.44066350929549042 0.1899546779532231 0 0.44223327263954998 0.1675638295240294 0 0.45252365300287162 0.17650517324400131 0 0.46852950543390098 0.17564223008125701 0 0.45888445054831062 0.16819836462120771 0 0.46246267395613577 0.18869877282268771 0 0.45252365300287162 0.17650517324400131 0 0.46852950543390098 0.17564223008125701 0 0.46246267395613577 0.18869877282268771 0 0.45252365300287162 0.17650517324400131 0 0.45982258248847607 0.18885087518398949 0 0.46246267395613577 0.18869877282268771 0 0.45252365300287162 0.17650517324400131 0 0.45842061247378069 0.15774620364127601 0 0.4758361200595902 0.1636599271457834 0 0.47181417780450058 0.15130991192119209 0 0.45842061247378069 0.15774620364127601 0 0.4758361200595902 0.1636599271457834 0 0.45842061247378069 0.15774620364127601 0 0.45888445054831062 0.16819836462120771 0 0.4758361200595902 0.1636599271457834 0 0.46852950543390098 0.17564223008125701 0 0.45888445054831062 0.16819836462120771 0 0.4758361200595902 0.1636599271457834 0 0.45064745071206469 0.16407050785850311 0 0.45842061247378069 0.15774620364127601 0 0.45888445054831062 0.16819836462120771 0 0.45064745071206469 0.16407050785850311 0 0.45252365300287162 0.17650517324400131 0 0.45888445054831062 0.16819836462120771 0 0.4758361200595902 0.1636599271457834 0 0.48630368258704137 0.17140311931871249 0 0.48517032610197292 0.15232670889348399 0 0.46852950543390098 0.17564223008125701 0 0.4758361200595902 0.1636599271457834 0 0.48630368258704137 0.17140311931871249 0 0.46246267395613577 0.18869877282268771 0 0.48123133697806858 0.18761746257298201 0 0.46852950543390098 0.17564223008125701 0 0.48123133697806858 0.18761746257298201 0 0.46852950543390098 0.17564223008125701 0 0.48630368258704137 0.17140311931871249 0 0.48123133697806858 0.18761746257298201 0 0.50000000000000144 0.18653615232327739 0 0.48123133697806858 0.18761746257298201 0 0.50000000000000144 0.18653615232327739 0 0.48630368258704137 0.17140311931871249 0 0.50000000000000144 0.18653615232327739 0 0.48630368258704137 0.17140311931871249 0 0.5 0.15895475485757751 0 0.48630368258704137 0.17140311931871249 0 0.5 0.15895475485757751 0 0.48517032610197292 0.15232670889348399 0 0.48517032610197292 0.15232670889348399 0 0.48033503496266028 0.13819306497350831 0 0.50000000000000444 0.13137335739187769 0 0.5 0.15895475485757751 0 0.48517032610197292 0.15232670889348399 0 0.50000000000000444 0.13137335739187769 0 0.46067006992531578 0.14501277255513739 0 0.47181417780450058 0.15130991192119209 0 0.48033503496266028 0.13819306497350831 0 0.46067006992531578 0.14501277255513739 0 0.48033503496266028 0.13819306497350831 0 0.4758361200595902 0.1636599271457834 0 0.48517032610197292 0.15232670889348399 0 0.47181417780450058 0.15130991192119209 0 0.48517032610197292 0.15232670889348399 0 0.47181417780450058 0.15130991192119209 0 0.48033503496266028 0.13819306497350831 0 0.48033503496266028 0.13819306497350831 0 0.48287207193790682 0.119833017198512 0 0.46358849451689271 0.12298015153287919 0 0.48033503496266028 0.13819306497350831 0 0.50000000000000444 0.13137335739187769 0 0.48287207193790682 0.119833017198512 0 0.48033503496266028 0.13819306497350831 0 0.50000000000000444 0.13137335739187769 0 0.50000000000000444 0.13137335739187769 0 0.5 0.112750504140729 0 0.48287207193790682 0.119833017198512 0 0.5 0.112750504140729 0 0.47708970494047592 0.096547162644013557 0 0.48287207193790682 0.119833017198512 0 0.5 0.112750504140729 0 0.49999999999999811 0.094127650889580305 0 0.47708970494047592 0.096547162644013557 0 0.49999999999999811 0.094127650889580305 0 0.47708970494047592 0.096547162644013557 0 0.47708970494047592 0.096547162644013557 0 0.48287207193790682 0.119833017198512 0 0.46358849451689271 0.12298015153287919 0 0.49999999999999811 0.094127650889580305 0 0.5 0.065085683867034727 0 0.49030416231355511 0.073256317384286063 0 0.49030416231355511 0.073256317384286063 0 0.47714578073418512 0.066537383845565096 0 0.49228297291204992 0.059454014438704107 0 0.5 0.065085683867034727 0 0.49030416231355511 0.073256317384286063 0 0.49228297291204992 0.059454014438704107 0 0.49999999999999811 0.094127650889580305 0 0.47708970494047592 0.096547162644013557 0 0.48209205792154058 0.081076853880546043 0 0.49999999999999811 0.094127650889580305 0 0.49030416231355511 0.073256317384286063 0 0.48209205792154058 0.081076853880546043 0 0.47708970494047592 0.096547162644013557 0 0.48209205792154058 0.081076853880546043 0 0.46573084566111861 0.080721753047445138 0 0.48209205792154058 0.081076853880546043 0 0.47714578073418512 0.066537383845565096 0 0.46573084566111861 0.080721753047445138 0 0.49030416231355511 0.073256317384286063 0 0.48209205792154058 0.081076853880546043 0 0.47714578073418512 0.066537383845565096 0 0.45650324214529259 0.065280330615496637 0 0.46573084566111861 0.080721753047445138 0 0.4463318017969411 0.077534016390637867 0 0.47714578073418512 0.066537383845565096 0 0.45650324214529259 0.065280330615496637 0 0.46573084566111861 0.080721753047445138 0 0.46573084566111861 0.080721753047445138 0 0.4463318017969411 0.077534016390637867 0 0.45417940988095362 0.098966674398447016 0 0.47708970494047592 0.096547162644013557 0 0.46573084566111861 0.080721753047445138 0 0.45417940988095362 0.098966674398447016 0 0.4463318017969411 0.077534016390637867 0 0.45417940988095362 0.098966674398447016 0 0.43319821241535611 0.085947639564665793 0 0.4463318017969411 0.077534016390637867 0 0.44127530461137909 0.064432497562673663 0 0.4323056194460711 0.072068218276874901 0 0.45650324214529259 0.065280330615496637 0 0.4463318017969411 0.077534016390637867 0 0.44127530461137909 0.064432497562673663 0 0.46358849451689271 0.12298015153287919 0 0.45417940988095362 0.098966674398447016 0 0.44201491538503751 0.1221884416046867 0 0.47708970494047592 0.096547162644013557 0 0.46358849451689271 0.12298015153287919 0 0.45417940988095362 0.098966674398447016 0 0.47708970494047592 0.096547162644013557 0 0.45417940988095362 0.098966674398447016 0 0.45417940988095362 0.098966674398447016 0 0.43126911482143138 0.1013861861528805 0 0.43319821241535611 0.085947639564665793 0 0.45417940988095362 0.098966674398447016 0 0.43126911482143138 0.1013861861528805 0 0.45417940988095362 0.098966674398447016 0 0.44201491538503751 0.1221884416046867 0 0.43126911482143138 0.1013861861528805 0 0.44201491538503751 0.1221884416046867 0 0.42338535559027479 0.1205090768914225 0 0.43126911482143138 0.1013861861528805 0 0.42338535559027479 0.1205090768914225 0 0.40835881976190908 0.10380569790731391 0 0.40536034682354632 0.12481683740862159 0 0.40835881976190908 0.10380569790731391 0 0.43126911482143138 0.1013861861528805 0 0.42338535559027479 0.1205090768914225 0 0.40835881976190908 0.10380569790731391 0 0.43126911482143138 0.1013861861528805 0 0.40835881976190908 0.10380569790731391 0 0.43126911482143138 0.1013861861528805 0 0.41935522763475591 0.089699073352522835 0 0.4463318017969411 0.077534016390637867 0 0.43319821241535611 0.085947639564665793 0 0.4323056194460711 0.072068218276874901 0 0.43319821241535611 0.085947639564665793 0 0.41924297708616731 0.074654461475880396 0 0.41935522763475591 0.089699073352522835 0 0.43126911482143138 0.1013861861528805 0 0.43319821241535611 0.085947639564665793 0 0.41935522763475591 0.089699073352522835 0 0.4323056194460711 0.072068218276874901 0 0.41924297708616731 0.074654461475880396 0 0.42690609811089331 0.059013607202760512 0 0.44127530461137909 0.064432497562673663 0 0.4323056194460711 0.072068218276874901 0 0.42690609811089331 0.059013607202760512 0 0.43319821241535611 0.085947639564665793 0 0.4323056194460711 0.072068218276874901 0 0.41924297708616731 0.074654461475880396 0 0.41924297708616731 0.074654461475880396 0 0.41572401702962131 0.06154942829698281 0 0.42690609811089331 0.059013607202760512 0 0.41924297708616731 0.074654461475880396 0 0.40863285456409321 0.067745049984629005 0 0.41572401702962131 0.06154942829698281 0 0.41924297708616731 0.074654461475880396 0 0.40863285456409321 0.067745049984629005 0 0.40581890464532883 0.082285452545517224 0 0.40835881976190908 0.10380569790731391 0 0.41935522763475591 0.089699073352522835 0 0.40581890464532883 0.082285452545517224 0 0.41924297708616731 0.074654461475880396 0 0.41935522763475591 0.089699073352522835 0 0.40581890464532883 0.082285452545517224 0 0.40581890464532883 0.082285452545517224 0 0.39175039171038772 0.087168104040655559 0 0.39624558431573131 0.06624045880030964 0 0.40835881976190908 0.10380569790731391 0 0.40581890464532883 0.082285452545517224 0 0.39175039171038772 0.087168104040655559 0 0.39175039171038772 0.087168104040655559 0 0.39624558431573131 0.06624045880030964 0 0.38418619936747078 0.072555057714184676 0 0.40863285456409321 0.067745049984629005 0 0.40581890464532883 0.082285452545517224 0 0.39624558431573131 0.06624045880030964 0 0.40863285456409321 0.067745049984629005 0 0.39624558431573131 0.06624045880030964 0 0.40829937009812589 0.05445646228617778 0 0.37194242117794668 0.076772614526931793 0 0.38418619936747078 0.072555057714184676 0 0.38237628961462611 0.059732338949836518 0 0.36864505415383159 0.080457991471440893 0 0.38237628961462611 0.059732338949836518 0 0.39624558431573131 0.06624045880030964 0 0.38418619936747078 0.072555057714184676 0 0.38237628961462611 0.059732338949836518 0 0.37194242117794668 0.076772614526931793 0 0.38418619936747078 0.072555057714184676 0 0.38194353902199202 0.084344220923998292 0 0.39175039171038772 0.087168104040655559 0 0.38194353902199202 0.084344220923998292 0 0.37989514383216261 0.1008811074142211 0 0.37194242117794668 0.076772614526931793 0 0.37989514383216261 0.1008811074142211 0 0.37194242117794668 0.076772614526931793 0 0.38194353902199202 0.084344220923998292 0 0.37989514383216261 0.1008811074142211 0 0.39175039171038772 0.087168104040655559 0 0.38418619936747078 0.072555057714184676 0 0.38194353902199202 0.084344220923998292 0 0.39175039171038772 0.087168104040655559 0 0.37989514383216261 0.1008811074142211 0 0.39428450139263399 0.1099935163928351 0 0.37989514383216261 0.1008811074142211 0 0.38784786648637848 0.12498960030151041 0 0.37989514383216261 0.1008811074142211 0 0.38784786648637848 0.12498960030151041 0 0.39428450139263399 0.1099935163928351 0 0.37989514383216261 0.1008811074142211 0 0.38784786648637848 0.12498960030151041 0 0.37533236417423199 0.11575217945856781 0 0.36234477620530581 0.12431315491142481 0 0.38784786648637848 0.12498960030151041 0 0.37533236417423199 0.11575217945856781 0 0.38784786648637848 0.12498960030151041 0 0.39428450139263399 0.1099935163928351 0 0.40536034682354632 0.12481683740862159 0 0.40835881976190908 0.10380569790731391 0 0.39428450139263399 0.1099935163928351 0 0.40536034682354632 0.12481683740862159 0 0.40835881976190908 0.10380569790731391 0 0.39175039171038772 0.087168104040655559 0 0.39428450139263399 0.1099935163928351 0 0.4022109480673669 0.029794301680725051 0 0.39903054770448521 0.019764345079569041 0 0.38956197386376129 0.02112761593547402 0 0.4022109480673669 0.029794301680725051 0 0.38956197386376129 0.02112761593547402 0 0.39250591407207142 0.036175579460824843 0 0.4022109480673669 0.029794301680725051 0 0.39903054770448521 0.019764345079569041 0 0.40715192280340562 0.01462234732060084 0 0.3939873043738738 0.005606014803845533 0 0.40715192280340562 0.01462234732060084 0 0.41629264407573002 -0.006850845090226044 0 0.39903054770448521 0.019764345079569041 0 0.3939873043738738 0.005606014803845533 0 0.40715192280340562 0.01462234732060084 0 0.39903054770448521 0.019764345079569041 0 0.3939873043738738 0.005606014803845533 0 0.38956197386376129 0.02112761593547402 0 0.3939873043738738 0.005606014803845533 0 0.38284321145746519 0.01274873380563272 0 0.38956197386376129 0.02112761593547402 0 0.37357914744350779 0.002440479778912224 0 0.37424442014871812 0.021820824704299101 0 0.38284321145746519 0.01274873380563272 0 0.37357914744350779 0.002440479778912224 0 0.3939873043738738 0.005606014803845533 0 0.38284321145746519 0.01274873380563272 0 0.37424442014871812 0.021820824704299101 0 0.39250591407207142 0.036175579460824843 0 0.36321924137845568 0.02934286747329215 0 0.37424442014871812 0.021820824704299101 0 0.39250591407207142 0.036175579460824843 0 0.37424442014871812 0.021820824704299101 0 0.38956197386376129 0.02112761593547402 0 0.39250591407207142 0.036175579460824843 0 0.37424442014871812 0.021820824704299101 0 0.38284321145746519 0.01274873380563272 0 0.38956197386376129 0.02112761593547402 0 0.36321924137845568 0.02934286747329215 0 0.37923500638336632 0.043068186250585699 0 0.39250591407207142 0.036175579460824843 0 0.36321924137845568 0.02934286747329215 0 0.39250591407207142 0.036175579460824843 0 0.37923500638336632 0.043068186250585699 0 0.39610752507542107 0.039006686428232497 0 0.39250591407207142 0.036175579460824843 0 0.37923500638336632 0.043068186250585699 0 0.38237628961462611 0.059732338949836518 0 0.39610752507542107 0.039006686428232497 0 0.38237628961462611 0.059732338949836518 0 0.39610752507542107 0.039006686428232497 0 0.38237628961462611 0.059732338949836518 0 0.39498436831919048 0.053995491217328308 0 0.39610752507542107 0.039006686428232497 0 0.39624558431573131 0.06624045880030964 0 0.38237628961462611 0.059732338949836518 0 0.39498436831919048 0.053995491217328308 0 0.39624558431573131 0.06624045880030964 0 0.39498436831919048 0.053995491217328308 0 0.40127216254757908 0.052142880950221668 0 0.39498436831919048 0.053995491217328308 0 0.40127216254757908 0.052142880950221668 0 0.39610752507542107 0.039006686428232497 0 0.40127216254757908 0.052142880950221668 0 0.40829937009812589 0.05445646228617778 0 0.40647643562697111 0.047157343142538291 0 0.39624558431573131 0.06624045880030964 0 0.40127216254757908 0.052142880950221668 0 0.40829937009812589 0.05445646228617778 0 0.39624558431573131 0.06624045880030964 0 0.40829937009812589 0.05445646228617778 0 0.4022109480673669 0.029794301680725051 0 0.39724992059935432 0.037282377443883637 0 0.39250591407207142 0.036175579460824843 0 0.39724992059935432 0.037282377443883637 0 0.39250591407207142 0.036175579460824843 0 0.39610752507542107 0.039006686428232497 0 0.39724992059935432 0.037282377443883637 0 0.39250591407207142 0.036175579460824843 0 0.39610752507542107 0.039006686428232497 0 0.39724992059935432 0.037282377443883637 0 0.39610752507542107 0.039006686428232497 0 0.39250591407207142 0.036175579460824843 0 0.39610752507542107 0.039006686428232497 0 0.40647643562697111 0.047157343142538291 0 0.40127216254757908 0.052142880950221668 0 0.39610752507542107 0.039006686428232497 0 0.40647643562697111 0.047157343142538291 0 0.39610752507542107 0.039006686428232497 0 0.39724992059935432 0.037282377443883637 0 0.40647643562697111 0.047157343142538291 0 0.4022109480673669 0.029794301680725051 0 0.39724992059935432 0.037282377443883637 0 0.41056521822753728 0.033900572446116307 0 0.4022109480673669 0.029794301680725051 0 0.39724992059935432 0.037282377443883637 0 0.39724992059935432 0.037282377443883637 0 0.42035315588052052 0.042672465772045823 0 0.39724992059935432 0.037282377443883637 0 0.41056521822753728 0.033900572446116307 0 0.42035315588052052 0.042672465772045823 0 0.39724992059935432 0.037282377443883637 0 0.42035315588052052 0.042672465772045823 0 0.40647643562697111 0.047157343142538291 0 0.41056521822753728 0.033900572446116307 0 0.42035315588052052 0.042672465772045823 0 0.41918056088687422 0.025106301550984179 0 0.42035315588052052 0.042672465772045823 0 0.41807260402200452 0.053616349792940499 0 0.42690609811089331 0.059013607202760512 0 0.40863285456409321 0.067745049984629005 0 0.40829937009812589 0.05445646228617778 0 0.41572401702962131 0.06154942829698281 0 0.40829937009812589 0.05445646228617778 0 0.41807260402200452 0.053616349792940499 0 0.41572401702962131 0.06154942829698281 0 0.42035315588052052 0.042672465772045823 0 0.40829937009812589 0.05445646228617778 0 0.40647643562697111 0.047157343142538291 0 0.42035315588052052 0.042672465772045823 0 0.40829937009812589 0.05445646228617778 0 0.42035315588052052 0.042672465772045823 0 0.40829937009812589 0.05445646228617778 0 0.41807260402200452 0.053616349792940499 0 0.41807260402200452 0.053616349792940499 0 0.41572401702962131 0.06154942829698281 0 0.42690609811089331 0.059013607202760512 0 0.42035315588052052 0.042672465772045823 0 0.42690609811089331 0.059013607202760512 0 0.44432976155769699 0.048266315327598383 0 0.42035315588052052 0.042672465772045823 0 0.43671568676264189 0.026676163003921921 0 0.42035315588052052 0.042672465772045823 0 0.43671568676264189 0.026676163003921921 0 0.44432976155769699 0.048266315327598383 0 0.42035315588052052 0.042672465772045823 0 0.44432976155769699 0.048266315327598383 0 0.42035315588052052 0.042672465772045823 0 0.43671568676264189 0.026676163003921921 0 0.41918056088687422 0.025106301550984179 0 0.43671568676264189 0.026676163003921921 0 0.41918056088687422 0.025106301550984179 0 0.43085411213296282 0.0071934808399317304 0 0.4022109480673669 0.029794301680725051 0 0.41918056088687422 0.025106301550984179 0 0.40715192280340562 0.01462234732060084 0 0.41918056088687422 0.025106301550984179 0 0.40715192280340562 0.01462234732060084 0 0.43085411213296282 0.0071934808399317304 0 0.4022109480673669 0.029794301680725051 0 0.41056521822753728 0.033900572446116307 0 0.41918056088687422 0.025106301550984179 0 0.40715192280340562 0.01462234732060084 0 0.43085411213296282 0.0071934808399317304 0 0.41629264407573002 -0.006850845090226044 0 0.43085411213296282 0.0071934808399317304 0 0.45307821764476319 0.010679860235798 0 0.45275060893296981 -0.0060266252809792519 0 0.43671568676264189 0.026676163003921921 0 0.43085411213296282 0.0071934808399317304 0 0.45307821764476319 0.010679860235798 0 0.43671568676264189 0.026676163003921921 0 0.45307821764476319 0.010679860235798 0 0.45536773125663488 0.033055304065500078 0 0.43671568676264189 0.026676163003921921 0 0.45307821764476319 0.010679860235798 0 0.45307821764476319 0.010679860235798 0 0.45536773125663488 0.033055304065500078 0 0.4743220131113518 0.027463297392627269 0 0.45307821764476319 0.010679860235798 0 0.47441986059974051 0.002164373494884166 0 0.4743220131113518 0.027463297392627269 0 0.45307821764476319 0.010679860235798 0 0.47441986059974051 0.002164373494884166 0 0.45275060893296981 -0.0060266252809792519 0 0.45650324214529259 0.065280330615496637 0 0.44127530461137909 0.064432497562673663 0 0.44432976155769699 0.048266315327598383 0 0.44127530461137909 0.064432497562673663 0 0.42690609811089331 0.059013607202760512 0 0.44432976155769699 0.048266315327598383 0 0.43671568676264189 0.026676163003921921 0 0.44432976155769699 0.048266315327598383 0 0.45536773125663488 0.033055304065500078 0 0.45536773125663488 0.033055304065500078 0 0.4683063672348734 0.053860164883151249 0 0.4743220131113518 0.027463297392627269 0 0.44432976155769699 0.048266315327598383 0 0.45536773125663488 0.033055304065500078 0 0.4683063672348734 0.053860164883151249 0 0.44432976155769699 0.048266315327598383 0 0.4683063672348734 0.053860164883151249 0 0.45650324214529259 0.065280330615496637 0 0.44432976155769699 0.048266315327598383 0 0.4683063672348734 0.053860164883151249 0 0.47714578073418512 0.066537383845565096 0 0.45650324214529259 0.065280330615496637 0 0.4683063672348734 0.053860164883151249 0 0.47714578073418512 0.066537383845565096 0 0.4683063672348734 0.053860164883151249 0 0.49228297291204992 0.059454014438704107 0 0.4683063672348734 0.053860164883151249 0 0.48335627184046892 0.043534316590418197 0 0.49228297291204992 0.059454014438704107 0 0.4683063672348734 0.053860164883151249 0 0.49228297291204992 0.059454014438704107 0 0.4683063672348734 0.053860164883151249 0 0.48335627184046892 0.043534316590418197 0 0.4743220131113518 0.027463297392627269 0 0.48335627184046892 0.043534316590418197 0 0.5 0.03604371684448926 0 0.4743220131113518 0.027463297392627269 0 0.48335627184046892 0.043534316590418197 0 0.5 0.03604371684448926 0 0.49228297291204992 0.059454014438704107 0 0.5 0.065085683867034727 0 0.5 0.03604371684448926 0 0.49228297291204992 0.059454014438704107 0 0.47441986059974051 0.002164373494884166 0 0.4743220131113518 0.027463297392627269 0 0.5 0.0070017498219436813 0 0.5 0.03604371684448926 0 0.4743220131113518 0.027463297392627269 0 0.5 0.0070017498219436813 0 0.47441986059974051 0.002164373494884166 0 0.5 0.0070017498219436813 0 0.48435038112254591 -0.01295811459108822 0 0.5 0.0070017498219436813 0 0.48435038112254591 -0.01295811459108822 0 0.5 -0.022040217200601949 0 0.47441986059974051 0.002164373494884166 0 0.48435038112254591 -0.01295811459108822 0 0.46567746476080879 -0.018036067265790781 0 0.48165458025218022 -0.033880411805876212 0 0.46055892944421639 -0.034826981934293802 0 0.46567746476080879 -0.018036067265790781 0 0.48435038112254591 -0.01295811459108822 0 0.48165458025218022 -0.033880411805876212 0 0.46567746476080879 -0.018036067265790781 0 0.48435038112254591 -0.01295811459108822 0 0.5 -0.022040217200601949 0 0.48165458025218022 -0.033880411805876212 0 0.5 -0.051082184223147482 0 0.48331950433178789 -0.05028970193443566 0 0.48165458025218022 -0.033880411805876212 0 0.5 -0.022040217200601949 0 0.5 -0.051082184223147482 0 0.48165458025218022 -0.033880411805876212 0 0.5 -0.051082184223147482 0 0.48331950433178789 -0.05028970193443566 0 0.48351099524096458 -0.065188187078006596 0 0.46811244183400691 -0.051008024630712363 0 0.48351099524096458 -0.065188187078006596 0 0.46325174163611299 -0.065085723760132191 0 0.48331950433178789 -0.05028970193443566 0 0.46811244183400691 -0.051008024630712363 0 0.48351099524096458 -0.065188187078006596 0 0.48331950433178789 -0.05028970193443566 0 0.48165458025218022 -0.033880411805876212 0 0.46811244183400691 -0.051008024630712363 0 0.48165458025218022 -0.033880411805876212 0 0.46055892944421639 -0.034826981934293802 0 0.46811244183400691 -0.051008024630712363 0 0.46055892944421639 -0.034826981934293802 0 0.46811244183400691 -0.051008024630712363 0 0.44580381826440463 -0.044156532015693237 0 0.46811244183400691 -0.051008024630712363 0 0.44580381826440463 -0.044156532015693237 0 0.46325174163611299 -0.065085723760132191 0 0.44580381826440463 -0.044156532015693237 0 0.46325174163611299 -0.065085723760132191 0 0.46811244183400691 -0.051008024630712363 0 0.46325174163611299 -0.065085723760132191 0 0.44420654965085082 -0.062216100931960373 0 0.44580381826440463 -0.044156532015693237 0 0.42712667170951002 -0.058909162300086547 0 0.44420654965085082 -0.062216100931960373 0 0.44580381826440463 -0.044156532015693237 0 0.46325174163611299 -0.065085723760132191 0 0.46055892944421639 -0.034826981934293802 0 0.44580381826440463 -0.044156532015693237 0 0.43960160651246799 -0.018737423931294579 0 0.43960160651246799 -0.018737423931294579 0 0.45275060893296981 -0.0060266252809792519 0 0.46567746476080879 -0.018036067265790781 0 0.43085411213296282 0.0071934808399317304 0 0.43960160651246799 -0.018737423931294579 0 0.45275060893296981 -0.0060266252809792519 0 0.47441986059974051 0.002164373494884166 0 0.45275060893296981 -0.0060266252809792519 0 0.46567746476080879 -0.018036067265790781 0 0.46055892944421639 -0.034826981934293802 0 0.43960160651246799 -0.018737423931294579 0 0.46567746476080879 -0.018036067265790781 0 0.47818452339587708 -0.1165119508780514 0 0.50000000000000278 -0.1091661182682386 0 0.5 -0.13347981615570359 0 0.50000000000000278 -0.1091661182682386 0 0.48162587081805858 -0.087125921014184843 0 0.47818452339587708 -0.1165119508780514 0 0.50000000000000278 -0.1091661182682386 0 0.47745756082527618 -0.1021495788090297 0 0.50000000000000278 -0.1091661182682386 0 0.47745756082527618 -0.1021495788090297 0 0.48162587081805858 -0.087125921014184843 0 0.47818452339587708 -0.1165119508780514 0 0.47745756082527618 -0.1021495788090297 0 0.45929027747438272 -0.10448110762161331 0 0.47745756082527618 -0.1021495788090297 0 0.48162587081805858 -0.087125921014184843 0 0.46818713243806243 -0.093462796263060144 0 0.48162587081805858 -0.087125921014184843 0 0.46325174163611299 -0.065085723760132191 0 0.46656747462136422 -0.083363997574371698 0 0.48162587081805858 -0.087125921014184843 0 0.46656747462136422 -0.083363997574371698 0 0.46818713243806243 -0.093462796263060144 0 0.50000000000000278 -0.1091661182682386 0 0.48162587081805858 -0.087125921014184843 0 0.5 -0.080124151245693054 0 0.48162587081805858 -0.087125921014184843 0 0.5 -0.080124151245693054 0 0.48351099524096458 -0.065188187078006596 0 0.5 -0.051082184223147482 0 0.5 -0.080124151245693054 0 0.48351099524096458 -0.065188187078006596 0 0.48162587081805858 -0.087125921014184843 0 0.48351099524096458 -0.065188187078006596 0 0.46325174163611299 -0.065085723760132191 0 0.48162587081805858 -0.087125921014184843 0 0.46325174163611299 -0.065085723760132191 0 0.46325174163611299 -0.065085723760132191 0 0.44779547222269012 -0.07571174360441861 0 0.4542230721705241 -0.091234814858292518 0 0.44420654965085082 -0.062216100931960373 0 0.46325174163611299 -0.065085723760132191 0 0.44779547222269012 -0.07571174360441861 0 0.44420654965085082 -0.062216100931960373 0 0.44779547222269012 -0.07571174360441861 0 0.43605259790445722 -0.074801038719200894 0 0.44779547222269012 -0.07571174360441861 0 0.441034556727114 -0.086800976364950752 0 0.4542230721705241 -0.091234814858292518 0 0.44779547222269012 -0.07571174360441861 0 0.441034556727114 -0.086800976364950752 0 0.43605259790445722 -0.074801038719200894 0 0.441034556727114 -0.086800976364950752 0 0.4542230721705241 -0.091234814858292518 0 0.44037425786955031 -0.1001430447449046 0 0.46325174163611299 -0.065085723760132191 0 0.4542230721705241 -0.091234814858292518 0 0.46325174163611299 -0.065085723760132191 0 0.4542230721705241 -0.091234814858292518 0 0.46656747462136422 -0.083363997574371698 0 0.4542230721705241 -0.091234814858292518 0 0.46656747462136422 -0.083363997574371698 0 0.46818713243806243 -0.093462796263060144 0 0.47745756082527618 -0.1021495788090297 0 0.46818713243806243 -0.093462796263060144 0 0.45929027747438272 -0.10448110762161331 0 0.4542230721705241 -0.091234814858292518 0 0.46818713243806243 -0.093462796263060144 0 0.45929027747438272 -0.10448110762161331 0 0.4542230721705241 -0.091234814858292518 0 0.45929027747438272 -0.10448110762161331 0 0.44519440270493238 -0.1173839059564518 0 0.4542230721705241 -0.091234814858292518 0 0.44519440270493238 -0.1173839059564518 0 0.4542230721705241 -0.091234814858292518 0 0.44037425786955031 -0.1001430447449046 0 0.44519440270493238 -0.1173839059564518 0 0.45929027747438272 -0.10448110762161331 0 0.44519440270493238 -0.1173839059564518 0 0.44037425786955031 -0.1001430447449046 0 0.44519440270493238 -0.1173839059564518 0 0.43733469804818831 -0.11156713863760261 0 0.44519440270493238 -0.1173839059564518 0 0.43583674875745881 -0.11887614197332121 0 0.43733469804818831 -0.11156713863760261 0 0.44519440270493238 -0.1173839059564518 0 0.44103349219651622 -0.1294348541443999 0 0.44519440270493238 -0.1173839059564518 0 0.43473286131254663 -0.1269599813022704 0 0.44519440270493238 -0.1173839059564518 0 0.43652399803370612 -0.1266503843383173 0 0.44103349219651622 -0.1294348541443999 0 0.44519440270493238 -0.1173839059564518 0 0.43473286131254663 -0.1269599813022704 0 0.43652399803370612 -0.1266503843383173 0 0.44519440270493238 -0.1173839059564518 0 0.43583674875745881 -0.11887614197332121 0 0.43473286131254663 -0.1269599813022704 0 0.44519440270493238 -0.1173839059564518 0 0.4507048422038758 -0.1254569291466279 0 0.44103349219651622 -0.1294348541443999 0 0.44519440270493238 -0.1173839059564518 0 0.45845740270007618 -0.1179768520576317 0 0.4507048422038758 -0.1254569291466279 0 0.47818452339587708 -0.1165119508780514 0 0.45929027747438272 -0.10448110762161331 0 0.45845740270007618 -0.1179768520576317 0 0.45845740270007618 -0.1179768520576317 0 0.46233294642030121 -0.13029577410444981 0 0.4507048422038758 -0.1254569291466279 0 0.47818452339587708 -0.1165119508780514 0 0.45845740270007618 -0.1179768520576317 0 0.46233294642030121 -0.13029577410444981 0 0.45929027747438272 -0.10448110762161331 0 0.44519440270493238 -0.1173839059564518 0 0.45845740270007618 -0.1179768520576317 0 0.40724277249555002 -0.1192463337858536 0 0.41884687315735308 -0.1196411488000769 0 0.41208161927757919 -0.13087523561031761 0 0.40724277249555002 -0.1192463337858536 0 0.41698364908723728 -0.1130169343472482 0 0.41068457829189181 -0.1070723437572161 0 0.41698364908723728 -0.1130169343472482 0 0.4250766521847687 -0.1135111272305598 0 0.42274743771597889 -0.1059915359454271 0 0.41698364908723728 -0.1130169343472482 0 0.41884687315735308 -0.1196411488000769 0 0.4250766521847687 -0.1135111272305598 0 0.40724277249555002 -0.1192463337858536 0 0.41698364908723728 -0.1130169343472482 0 0.41884687315735308 -0.1196411488000769 0 0.41884687315735308 -0.1196411488000769 0 0.42661387223904329 -0.12098454377727109 0 0.41208161927757919 -0.13087523561031761 0 0.41884687315735308 -0.1196411488000769 0 0.42661387223904329 -0.12098454377727109 0 0.4250766521847687 -0.1135111272305598 0 0.42661387223904329 -0.12098454377727109 0 0.43583674875745881 -0.11887614197332121 0 0.43473286131254663 -0.1269599813022704 0 0.42661387223904329 -0.12098454377727109 0 0.43583674875745881 -0.11887614197332121 0 0.43287065052056112 -0.1145040342651165 0 0.43733469804818831 -0.11156713863760261 0 0.43287065052056112 -0.1145040342651165 0 0.43239743038843881 -0.106928566248219 0 0.43583674875745881 -0.11887614197332121 0 0.43733469804818831 -0.11156713863760261 0 0.43287065052056112 -0.1145040342651165 0 0.43287065052056112 -0.1145040342651165 0 0.4250766521847687 -0.1135111272305598 0 0.43239743038843881 -0.106928566248219 0 0.42661387223904329 -0.12098454377727109 0 0.43287065052056112 -0.1145040342651165 0 0.4250766521847687 -0.1135111272305598 0 0.4250766521847687 -0.1135111272305598 0 0.42274743771597889 -0.1059915359454271 0 0.43239743038843881 -0.106928566248219 0 0.42274743771597889 -0.1059915359454271 0 0.43239743038843881 -0.106928566248219 0 0.42854124961890733 -0.099856724000988273 0 0.44037425786955031 -0.1001430447449046 0 0.43239743038843881 -0.106928566248219 0 0.42854124961890733 -0.099856724000988273 0 0.44037425786955031 -0.1001430447449046 0 0.43733469804818831 -0.11156713863760261 0 0.43239743038843881 -0.106928566248219 0 0.44037425786955031 -0.1001430447449046 0 0.42854124961890733 -0.099856724000988273 0 0.42870758522811919 -0.089164076341860632 0 0.42274743771597889 -0.1059915359454271 0 0.42854124961890733 -0.099856724000988273 0 0.41847953689244971 -0.097056396724529995 0 0.42854124961890733 -0.099856724000988273 0 0.41847953689244971 -0.097056396724529995 0 0.42870758522811919 -0.089164076341860632 0 0.42274743771597889 -0.1059915359454271 0 0.41847953689244971 -0.097056396724529995 0 0.41068457829189181 -0.1070723437572161 0 0.41698364908723728 -0.1130169343472482 0 0.42274743771597889 -0.1059915359454271 0 0.41068457829189181 -0.1070723437572161 0 0.41847953689244971 -0.097056396724529995 0 0.41068457829189181 -0.1070723437572161 0 0.40440998182912408 -0.094196755676502056 0 0.40751187940595462 -0.08478461483936342 0 0.41476450049512009 -0.087087396641621656 0 0.40440998182912408 -0.094196755676502056 0 0.41847953689244971 -0.097056396724529995 0 0.41476450049512009 -0.087087396641621656 0 0.40440998182912408 -0.094196755676502056 0 0.40751187940595462 -0.08478461483936342 0 0.41476450049512009 -0.087087396641621656 0 0.40927176781453312 -0.077086569868640542 0 0.40751187940595462 -0.08478461483936342 0 0.40927176781453312 -0.077086569868640542 0 0.40237588567979138 -0.081472047511817525 0 0.41476450049512009 -0.087087396641621656 0 0.42870758522811919 -0.089164076341860632 0 0.42122478008006597 -0.0757594802833121 0 0.41476450049512009 -0.087087396641621656 0 0.42122478008006597 -0.0757594802833121 0 0.40927176781453312 -0.077086569868640542 0 0.41847953689244971 -0.097056396724529995 0 0.41476450049512009 -0.087087396641621656 0 0.42870758522811919 -0.089164076341860632 0 0.441034556727114 -0.086800976364950752 0 0.44037425786955031 -0.1001430447449046 0 0.42870758522811919 -0.089164076341860632 0 0.441034556727114 -0.086800976364950752 0 0.42870758522811919 -0.089164076341860632 0 0.43605259790445722 -0.074801038719200894 0 0.42870758522811919 -0.089164076341860632 0 0.43605259790445722 -0.074801038719200894 0 0.42122478008006597 -0.0757594802833121 0 0.43605259790445722 -0.074801038719200894 0 0.42122478008006597 -0.0757594802833121 0 0.42712667170951002 -0.058909162300086547 0 0.44420654965085082 -0.062216100931960373 0 0.43605259790445722 -0.074801038719200894 0 0.42712667170951002 -0.058909162300086547 0 0.42122478008006597 -0.0757594802833121 0 0.4114316245373863 -0.068167670275121897 0 0.42712667170951002 -0.058909162300086547 0 0.40927176781453312 -0.077086569868640542 0 0.4114316245373863 -0.068167670275121897 0 0.39842538017083612 -0.076484449263173909 0 0.42122478008006597 -0.0757594802833121 0 0.40927176781453312 -0.077086569868640542 0 0.4114316245373863 -0.068167670275121897 0 0.4114316245373863 -0.068167670275121897 0 0.39842538017083612 -0.076484449263173909 0 0.40640664480004829 -0.052123305293471443 0 0.39842538017083612 -0.076484449263173909 0 0.38906844471504909 -0.048791226331097663 0 0.4114316245373863 -0.068167670275121897 0 0.39842538017083612 -0.076484449263173909 0 0.39842538017083612 -0.076484449263173909 0 0.38333741963197843 -0.065496938221855289 0 0.38906844471504909 -0.048791226331097663 0 0.39842538017083612 -0.076484449263173909 0 0.38333741963197843 -0.065496938221855289 0 0.37036238702559748 -0.076146834841134659 0 0.39842538017083612 -0.076484449263173909 0 0.373127492796404 -0.092661058915291472 0 0.39842538017083612 -0.076484449263173909 0 0.37036238702559748 -0.076146834841134659 0 0.373127492796404 -0.092661058915291472 0 0.39842538017083612 -0.076484449263173909 0 0.3905434538793735 -0.094168622203984975 0 0.373127492796404 -0.092661058915291472 0 0.39842538017083612 -0.076484449263173909 0 0.40142869859064212 -0.08537321064543299 0 0.3905434538793735 -0.094168622203984975 0 0.39842538017083612 -0.076484449263173909 0 0.40142869859064212 -0.08537321064543299 0 0.40237588567979138 -0.081472047511817525 0 0.40927176781453312 -0.077086569868640542 0 0.39842538017083612 -0.076484449263173909 0 0.40237588567979138 -0.081472047511817525 0 0.39842538017083612 -0.076484449263173909 0 0.40142869859064212 -0.08537321064543299 0 0.40142869859064212 -0.08537321064543299 0 0.40237588567979138 -0.081472047511817525 0 0.40751187940595462 -0.08478461483936342 0 0.40142869859064212 -0.08537321064543299 0 0.40237588567979138 -0.081472047511817525 0 0.40751187940595462 -0.08478461483936342 0 0.40142869859064212 -0.08537321064543299 0 0.40440998182912408 -0.094196755676502056 0 0.40142869859064212 -0.08537321064543299 0 0.40440998182912408 -0.094196755676502056 0 0.40142869859064212 -0.08537321064543299 0 0.39542953791662688 -0.1100818502818986 0 0.40142869859064212 -0.08537321064543299 0 0.3905434538793735 -0.094168622203984975 0 0.39542953791662688 -0.1100818502818986 0 0.40142869859064212 -0.08537321064543299 0 0.40440998182912408 -0.094196755676502056 0 0.39542953791662688 -0.1100818502818986 0 0.41068457829189181 -0.1070723437572161 0 0.40440998182912408 -0.094196755676502056 0 0.39542953791662688 -0.1100818502818986 0 0.3905434538793735 -0.094168622203984975 0 0.38430615992235861 -0.10624254191412789 0 0.373127492796404 -0.092661058915291472 0 0.3905434538793735 -0.094168622203984975 0 0.38430615992235861 -0.10624254191412789 0 0.39542953791662688 -0.1100818502818986 0 0.38430615992235861 -0.10624254191412789 0 0.373127492796404 -0.092661058915291472 0 0.37262698081820339 -0.10985920037046069 0 0.38430615992235861 -0.10624254191412789 0 0.37980885755413418 -0.11928611433555709 0 0.39542953791662688 -0.1100818502818986 0 0.37980885755413418 -0.11928611433555709 0 0.39542953791662688 -0.1100818502818986 0 0.38943037724261159 -0.1347904899183642 0 0.38430615992235861 -0.10624254191412789 0 0.37980885755413418 -0.11928611433555709 0 0.37262698081820339 -0.10985920037046069 0 0.40724277249555002 -0.1192463337858536 0 0.39542953791662688 -0.1100818502818986 0 0.38943037724261159 -0.1347904899183642 0 0.39542953791662688 -0.1100818502818986 0 0.38943037724261159 -0.1347904899183642 0 0.40724277249555002 -0.1192463337858536 0 0.41068457829189181 -0.1070723437572161 0 0.39542953791662688 -0.1100818502818986 0 0.41629264407573002 -0.006850845090226044 0 0.42276864855888052 -0.033584784942844392 0 0.40125875037878711 -0.026146768788422061 0 0.43085411213296282 0.0071934808399317304 0 0.43960160651246799 -0.018737423931294579 0 0.41629264407573002 -0.006850845090226044 0 0.43960160651246799 -0.018737423931294579 0 0.41629264407573002 -0.006850845090226044 0 0.42276864855888052 -0.033584784942844392 0 0.44580381826440463 -0.044156532015693237 0 0.42276864855888052 -0.033584784942844392 0 0.42712667170951002 -0.058909162300086547 0 0.44580381826440463 -0.044156532015693237 0 0.43960160651246799 -0.018737423931294579 0 0.42276864855888052 -0.033584784942844392 0 0.4114316245373863 -0.068167670275121897 0 0.42712667170951002 -0.058909162300086547 0 0.40640664480004829 -0.052123305293471443 0 0.42276864855888052 -0.033584784942844392 0 0.42712667170951002 -0.058909162300086547 0 0.40640664480004829 -0.052123305293471443 0 0.42276864855888052 -0.033584784942844392 0 0.40640664480004829 -0.052123305293471443 0 0.40125875037878711 -0.026146768788422061 0 0.40640664480004829 -0.052123305293471443 0 0.38906844471504909 -0.048791226331097663 0 0.40125875037878711 -0.026146768788422061 0 0.39842538017083612 -0.076484449263173909 0 0.40640664480004829 -0.052123305293471443 0 0.38906844471504909 -0.048791226331097663 0 0.38906844471504909 -0.048791226331097663 0 0.36552082236990341 -0.042261935088275922 0 0.37096486530484057 -0.058236420929508259 0 0.38333741963197843 -0.065496938221855289 0 0.38906844471504909 -0.048791226331097663 0 0.37096486530484057 -0.058236420929508259 0 0.38906844471504909 -0.048791226331097663 0 0.37971150925926189 -0.0210980033990215 0 0.40125875037878711 -0.026146768788422061 0 0.38906844471504909 -0.048791226331097663 0 0.37971150925926189 -0.0210980033990215 0 0.36552082236990341 -0.042261935088275922 0 0.38906844471504909 -0.048791226331097663 0 0.37971150925926189 -0.0210980033990215 0 0.3939873043738738 0.005606014803845533 0 0.37971150925926189 -0.0210980033990215 0 0.40125875037878711 -0.026146768788422061 0 0.3939873043738738 0.005606014803845533 0 0.41629264407573002 -0.006850845090226044 0 0.40125875037878711 -0.026146768788422061 0 0.37357914744350779 0.002440479778912224 0 0.3939873043738738 0.005606014803845533 0 0.37971150925926189 -0.0210980033990215 0 0.37357914744350779 0.002440479778912224 0 0.35598292622536432 0.0074660699477739154 0 0.35747226134953669 -0.011539359516293059 0 0.37357914744350779 0.002440479778912224 0 0.37971150925926189 -0.0210980033990215 0 0.35747226134953669 -0.011539359516293059 0 0.37971150925926189 -0.0210980033990215 0 0.3567572465296398 -0.028300240308235611 0 0.35747226134953669 -0.011539359516293059 0 0.37971150925926189 -0.0210980033990215 0 0.3567572465296398 -0.028300240308235611 0 0.36552082236990341 -0.042261935088275922 0 0.3567572465296398 -0.028300240308235611 0 0.34108130633743572 -0.022855778308436141 0 0.34876980709143918 -0.036804132634757111 0 0.3567572465296398 -0.028300240308235611 0 0.35747226134953669 -0.011539359516293059 0 0.34108130633743572 -0.022855778308436141 0 0.35598292622536432 0.0074660699477739154 0 0.35747226134953669 -0.011539359516293059 0 0.33772143230201052 -0.0068886848087512803 0 0.35747226134953669 -0.011539359516293059 0 0.33772143230201052 -0.0068886848087512803 0 0.34108130633743572 -0.022855778308436141 0 0.33772143230201052 -0.0068886848087512803 0 0.34108130633743572 -0.022855778308436141 0 0.317215061455216 -0.016157064213598971 0 0.34108130633743572 -0.022855778308436141 0 0.317215061455216 -0.016157064213598971 0 0.33020564447161199 -0.035019528032180489 0 0.317215061455216 -0.016157064213598971 0 0.33020564447161199 -0.035019528032180489 0 0.317215061455216 -0.016157064213598971 0 0.31587151978819911 -0.020338956197947448 0 0.33020564447161199 -0.035019528032180489 0 0.31587151978819911 -0.020338956197947448 0 0.33020564447161199 -0.035019528032180489 0 0.317215061455216 -0.016157064213598971 0 0.31587151978819911 -0.020338956197947448 0 0.32325249182581611 0.0026349705202008129 0 0.317215061455216 -0.016157064213598971 0 0.32325249182581611 0.0026349705202008129 0 0.33772143230201052 -0.0068886848087512803 0 0.317215061455216 -0.016157064213598971 0 0.32325249182581611 0.0026349705202008129 0 0.317215061455216 -0.016157064213598971 0 0.30690038754225768 -0.0011800486910433781 0 0.32587161445787949 -0.051186402763021513 0 0.31829608624605688 -0.065472752473192938 0 0.30886460616181383 -0.042148593106558697 0 0.32587161445787949 -0.051186402763021513 0 0.33198766712898281 -0.064044197254424853 0 0.31829608624605688 -0.065472752473192938 0 0.31587151978819911 -0.020338956197947448 0 0.33020564447161199 -0.035019528032180489 0 0.30886460616181383 -0.042148593106558697 0 0.32587161445787949 -0.051186402763021513 0 0.33020564447161199 -0.035019528032180489 0 0.30886460616181383 -0.042148593106558697 0 0.34108130633743572 -0.022855778308436141 0 0.33020564447161199 -0.035019528032180489 0 0.34876980709143918 -0.036804132634757111 0 0.32587161445787949 -0.051186402763021513 0 0.33020564447161199 -0.035019528032180489 0 0.34000406828093183 -0.049246942948750677 0 0.33020564447161199 -0.035019528032180489 0 0.3502840157486049 -0.055583181436657553 0 0.33020564447161199 -0.035019528032180489 0 0.34000406828093183 -0.049246942948750677 0 0.33020564447161199 -0.035019528032180489 0 0.34000406828093183 -0.049246942948750677 0 0.3502840157486049 -0.055583181436657553 0 0.33020564447161199 -0.035019528032180489 0 0.3502840157486049 -0.055583181436657553 0 0.34876980709143918 -0.036804132634757111 0 0.34000406828093183 -0.049246942948750677 0 0.33198766712898281 -0.064044197254424853 0 0.34180884154053498 -0.065879049105621951 0 0.32587161445787949 -0.051186402763021513 0 0.34000406828093183 -0.049246942948750677 0 0.33198766712898281 -0.064044197254424853 0 0.34000406828093183 -0.049246942948750677 0 0.34980249209025183 -0.063474357865320699 0 0.34000406828093183 -0.049246942948750677 0 0.34980249209025183 -0.063474357865320699 0 0.34180884154053498 -0.065879049105621951 0 0.34000406828093183 -0.049246942948750677 0 0.3502840157486049 -0.055583181436657553 0 0.34980249209025183 -0.063474357865320699 0 0.3502840157486049 -0.055583181436657553 0 0.34980249209025183 -0.063474357865320699 0 0.35472253155892502 -0.068395270968063401 0 0.3502840157486049 -0.055583181436657553 0 0.34876980709143918 -0.036804132634757111 0 0.36552082236990341 -0.042261935088275922 0 0.3567572465296398 -0.028300240308235611 0 0.34876980709143918 -0.036804132634757111 0 0.36552082236990341 -0.042261935088275922 0 0.3502840157486049 -0.055583181436657553 0 0.36552082236990341 -0.042261935088275922 0 0.37096486530484057 -0.058236420929508259 0 0.3502840157486049 -0.055583181436657553 0 0.37096486530484057 -0.058236420929508259 0 0.37036238702559748 -0.076146834841134659 0 0.38333741963197843 -0.065496938221855289 0 0.37096486530484057 -0.058236420929508259 0 0.37036238702559748 -0.076146834841134659 0 0.3502840157486049 -0.055583181436657553 0 0.37036238702559748 -0.076146834841134659 0 0.37036238702559748 -0.076146834841134659 0 0.35472253155892502 -0.068395270968063401 0 0.35439705838588692 -0.077054866778644621 0 0.37036238702559748 -0.076146834841134659 0 0.36026598055858428 -0.086219317086442732 0 0.35439705838588692 -0.077054866778644621 0 0.37036238702559748 -0.076146834841134659 0 0.373127492796404 -0.092661058915291472 0 0.36026598055858428 -0.086219317086442732 0 0.373127492796404 -0.092661058915291472 0 0.36026598055858428 -0.086219317086442732 0 0.35442896873054819 -0.093899165736773108 0 0.36026598055858428 -0.086219317086442732 0 0.34819406691839527 -0.085912356067407769 0 0.35439705838588692 -0.077054866778644621 0 0.36026598055858428 -0.086219317086442732 0 0.34819406691839527 -0.085912356067407769 0 0.35442896873054819 -0.093899165736773108 0 0.34819406691839527 -0.085912356067407769 0 0.35442896873054819 -0.093899165736773108 0 0.34250823495700278 -0.096843945418323016 0 0.34819406691839527 -0.085912356067407769 0 0.35439705838588692 -0.077054866778644621 0 0.34213718893203959 -0.07422010281979162 0 0.3502840157486049 -0.055583181436657553 0 0.37036238702559748 -0.076146834841134659 0 0.35472253155892502 -0.068395270968063401 0 0.34876670454428399 -0.06971711391855949 0 0.35439705838588692 -0.077054866778644621 0 0.34213718893203959 -0.07422010281979162 0 0.34980249209025183 -0.063474357865320699 0 0.34876670454428399 -0.06971711391855949 0 0.34180884154053498 -0.065879049105621951 0 0.34876670454428399 -0.06971711391855949 0 0.34180884154053498 -0.065879049105621951 0 0.34213718893203959 -0.07422010281979162 0 0.34980249209025183 -0.063474357865320699 0 0.34876670454428399 -0.06971711391855949 0 0.35472253155892502 -0.068395270968063401 0 0.34876670454428399 -0.06971711391855949 0 0.35472253155892502 -0.068395270968063401 0 0.35439705838588692 -0.077054866778644621 0 0.36703358201424818 -0.1205643964158449 0 0.35968204517414459 -0.1107584800748472 0 0.35606369033391522 -0.1259709067163762 0 0.37980885755413418 -0.11928611433555709 0 0.36703358201424818 -0.1205643964158449 0 0.37262698081820339 -0.10985920037046069 0 0.36703358201424818 -0.1205643964158449 0 0.37262698081820339 -0.10985920037046069 0 0.35968204517414459 -0.1107584800748472 0 0.373127492796404 -0.092661058915291472 0 0.3478296054219725 -0.1088376685674099 0 0.373127492796404 -0.092661058915291472 0 0.37262698081820339 -0.10985920037046069 0 0.35968204517414459 -0.1107584800748472 0 0.373127492796404 -0.092661058915291472 0 0.35968204517414459 -0.1107584800748472 0 0.3478296054219725 -0.1088376685674099 0 0.373127492796404 -0.092661058915291472 0 0.35442896873054819 -0.093899165736773108 0 0.3478296054219725 -0.1088376685674099 0 0.35442896873054819 -0.093899165736773108 0 0.3478296054219725 -0.1088376685674099 0 0.34250823495700278 -0.096843945418323016 0 0.3478296054219725 -0.1088376685674099 0 0.34004518790650529 -0.12527848050574 0 0.35606369033391522 -0.1259709067163762 0 0.35968204517414459 -0.1107584800748472 0 0.3478296054219725 -0.1088376685674099 0 0.35606369033391522 -0.1259709067163762 0 0.35968204517414459 -0.1107584800748472 0 0.35606369033391522 -0.1259709067163762 0 0.3478296054219725 -0.1088376685674099 0 0.3336003219875231 -0.1076211020920432 0 0.32253171804754088 -0.12501427821952829 0 0.3478296054219725 -0.1088376685674099 0 0.32253171804754088 -0.12501427821952829 0 0.34004518790650529 -0.12527848050574 0 0.3478296054219725 -0.1088376685674099 0 0.32253171804754088 -0.12501427821952829 0 0.3336003219875231 -0.1076211020920432 0 0.3322859580981179 -0.098725703467523684 0 0.32284609341298121 -0.10868391478743129 0 0.3478296054219725 -0.1088376685674099 0 0.3336003219875231 -0.1076211020920432 0 0.34250823495700278 -0.096843945418323016 0 0.3336003219875231 -0.1076211020920432 0 0.34250823495700278 -0.096843945418323016 0 0.3322859580981179 -0.098725703467523684 0 0.34250823495700278 -0.096843945418323016 0 0.3322859580981179 -0.098725703467523684 0 0.33540967344911948 -0.088036983583798772 0 0.32220919005921328 -0.094454801116449272 0 0.31258915767766499 -0.1029799685902579 0 0.31246538712165289 -0.087003597160487944 0 0.3322859580981179 -0.098725703467523684 0 0.32220919005921328 -0.094454801116449272 0 0.32284609341298121 -0.10868391478743129 0 0.32220919005921328 -0.094454801116449272 0 0.31258915767766499 -0.1029799685902579 0 0.32284609341298121 -0.10868391478743129 0 0.31258915767766499 -0.1029799685902579 0 0.32284609341298121 -0.10868391478743129 0 0.30701266551867318 -0.11795202584412939 0 0.3336003219875231 -0.1076211020920432 0 0.32284609341298121 -0.10868391478743129 0 0.32253171804754088 -0.12501427821952829 0 0.32284609341298121 -0.10868391478743129 0 0.30701266551867318 -0.11795202584412939 0 0.32253171804754088 -0.12501427821952829 0 0.33198766712898281 -0.064044197254424853 0 0.34213718893203959 -0.07422010281979162 0 0.32642601186692399 -0.078569743361430744 0 0.33198766712898281 -0.064044197254424853 0 0.34180884154053498 -0.065879049105621951 0 0.34213718893203959 -0.07422010281979162 0 0.34213718893203959 -0.07422010281979162 0 0.33540967344911948 -0.088036983583798772 0 0.32642601186692399 -0.078569743361430744 0 0.34819406691839527 -0.085912356067407769 0 0.34213718893203959 -0.07422010281979162 0 0.33540967344911948 -0.088036983583798772 0 0.34819406691839527 -0.085912356067407769 0 0.34250823495700278 -0.096843945418323016 0 0.33540967344911948 -0.088036983583798772 0 0.3322859580981179 -0.098725703467523684 0 0.32220919005921328 -0.094454801116449272 0 0.33540967344911948 -0.088036983583798772 0 0.32220919005921328 -0.094454801116449272 0 0.33540967344911948 -0.088036983583798772 0 0.32642601186692399 -0.078569743361430744 0 0.32220919005921328 -0.094454801116449272 0 0.32642601186692399 -0.078569743361430744 0 0.31246538712165289 -0.087003597160487944 0 0.32642601186692399 -0.078569743361430744 0 0.31246538712165289 -0.087003597160487944 0 0.32642601186692399 -0.078569743361430744 0 0.31829608624605688 -0.065472752473192938 0 0.31246538712165289 -0.087003597160487944 0 0.33198766712898281 -0.064044197254424853 0 0.32642601186692399 -0.078569743361430744 0 0.31829608624605688 -0.065472752473192938 0 0.31829608624605688 -0.065472752473192938 0 0.30185769253542699 -0.063958230015169509 0 0.31246538712165289 -0.087003597160487944 0 0.30185769253542699 -0.063958230015169509 0 0.29485077890903838 -0.08576786692377969 0 0.31246538712165289 -0.087003597160487944 0 0.29485077890903838 -0.08576786692377969 0 0.29850476237638052 -0.095437450959542897 0 0.30185769253542699 -0.063958230015169509 0 0.31246538712165289 -0.087003597160487944 0 0.29485077890903838 -0.08576786692377969 0 0.31246538712165289 -0.087003597160487944 0 0.29850476237638052 -0.095437450959542897 0 0.29485077890903838 -0.08576786692377969 0 0.29011601486440819 -0.10050523777883651 0 0.27233191485367331 -0.086662364145387083 0 0.29485077890903838 -0.08576786692377969 0 0.29850476237638052 -0.095437450959542897 0 0.29485077890903838 -0.08576786692377969 0 0.29011601486440819 -0.10050523777883651 0 0.30185769253542699 -0.063958230015169509 0 0.29485077890903838 -0.08576786692377969 0 0.28549509337792828 -0.061009794462930381 0 0.29485077890903838 -0.08576786692377969 0 0.27233191485367331 -0.086662364145387083 0 0.28549509337792828 -0.061009794462930381 0 0.29485077890903838 -0.08576786692377969 0 0.28549509337792828 -0.061009794462930381 0 0.30701266551867318 -0.11795202584412939 0 0.29478762612759141 -0.11288625738249181 0 0.29867666688697703 -0.1272849549211697 0 0.30701266551867318 -0.11795202584412939 0 0.29850476237638052 -0.095437450959542897 0 0.29478762612759141 -0.11288625738249181 0 0.31258915767766499 -0.1029799685902579 0 0.30701266551867318 -0.11795202584412939 0 0.29850476237638052 -0.095437450959542897 0 0.30701266551867318 -0.11795202584412939 0 0.29850476237638052 -0.095437450959542897 0 0.31258915767766499 -0.1029799685902579 0 0.31246538712165289 -0.087003597160487944 0 0.29850476237638052 -0.095437450959542897 0 0.29850476237638052 -0.095437450959542897 0 0.29011601486440819 -0.10050523777883651 0 0.29478762612759141 -0.11288625738249181 0 0.29850476237638052 -0.095437450959542897 0 0.29011601486440819 -0.10050523777883651 0 0.29485077890903838 -0.08576786692377969 0 0.29850476237638052 -0.095437450959542897 0 0.29011601486440819 -0.10050523777883651 0 0.29011601486440819 -0.10050523777883651 0 0.27631136395687561 -0.10884486509677729 0 0.29011601486440819 -0.10050523777883651 0 0.28377904751550082 -0.12022960778689511 0 0.29011601486440819 -0.10050523777883651 0 0.28377904751550082 -0.12022960778689511 0 0.27631136395687561 -0.10884486509677729 0 0.29011601486440819 -0.10050523777883651 0 0.29478762612759141 -0.11288625738249181 0 0.28377904751550082 -0.12022960778689511 0 0.29478762612759141 -0.11288625738249181 0 0.28377904751550082 -0.12022960778689511 0 0.29867666688697703 -0.1272849549211697 0 0.28377904751550082 -0.12022960778689511 0 0.27500980117207829 -0.12155323577333579 0 0.27631136395687561 -0.10884486509677729 0 0.27631136395687561 -0.10884486509677729 0 0.26250671304934198 -0.1171844924147165 0 0.27500980117207829 -0.12155323577333579 0 0.27631136395687561 -0.10884486509677729 0 0.26250671304934198 -0.1171844924147165 0 0.29011601486440819 -0.10050523777883651 0 0.27631136395687561 -0.10884486509677729 0 0.27233191485367331 -0.086662364145387083 0 0.27631136395687561 -0.10884486509677729 0 0.26480060580106352 -0.1019600400236301 0 0.27233191485367331 -0.086662364145387083 0 0.27631136395687561 -0.10884486509677729 0 0.26480060580106352 -0.1019600400236301 0 0.26250671304934198 -0.1171844924147165 0 0.26480060580106352 -0.1019600400236301 0 0.27233191485367331 -0.086662364145387083 0 0.248052431344363 -0.095148438437639593 0 0.26480060580106352 -0.1019600400236301 0 0.26250671304934198 -0.1171844924147165 0 0.248052431344363 -0.095148438437639593 0 0.26250671304934198 -0.1171844924147165 0 0.248052431344363 -0.095148438437639593 0 0.26250671304934198 -0.1171844924147165 0 0.248052431344363 -0.095148438437639593 0 0.24260121657943401 -0.11258968035378961 0 0.26250671304934198 -0.1171844924147165 0 0.2441250445765018 -0.1282891748563233 0 0.27233191485367331 -0.086662364145387083 0 0.25578894406637898 -0.071814983055159112 0 0.28549509337792828 -0.061009794462930381 0 0.27233191485367331 -0.086662364145387083 0 0.25578894406637898 -0.071814983055159112 0 0.248052431344363 -0.095148438437639593 0 0.25578894406637898 -0.071814983055159112 0 0.26356106344924501 -0.050736506704392427 0 0.24466000719816181 -0.052572806154117767 0 0.27613940784681967 -0.036251722002080641 0 0.28549509337792828 -0.061009794462930381 0 0.26356106344924501 -0.050736506704392427 0 0.27613940784681967 -0.036251722002080641 0 0.28549509337792828 -0.061009794462930381 0 0.25578894406637898 -0.071814983055159112 0 0.26356106344924501 -0.050736506704392427 0 0.28549509337792828 -0.061009794462930381 0 0.26356106344924501 -0.050736506704392427 0 0.25572186475693609 -0.032033227847674262 0 0.24466000719816181 -0.052572806154117767 0 0.26356106344924501 -0.050736506704392427 0 0.27613940784681967 -0.036251722002080641 0 0.25572186475693609 -0.032033227847674262 0 0.25572186475693609 -0.032033227847674262 0 0.24466000719816181 -0.052572806154117767 0 0.25572186475693609 -0.032033227847674262 0 0.25159771702699008 -0.014371615300676641 0 0.26678372231571063 -0.011493649541230871 0 0.25572186475693609 -0.032033227847674262 0 0.26678372231571063 -0.011493649541230871 0 0.26489192350979318 -0.0064873577240775106 0 0.2403210271001277 -0.0038011986657945939 0 0.25900523844679291 0.0090906536209348996 0 0.26489192350979318 -0.0064873577240775106 0 0.2403210271001277 -0.0038011986657945939 0 0.25159771702699008 -0.014371615300676641 0 0.26489192350979318 -0.0064873577240775106 0 0.2403210271001277 -0.0038011986657945939 0 0.25159771702699008 -0.014371615300676641 0 0.26489192350979318 -0.0064873577240775106 0 0.26678372231571063 -0.011493649541230871 0 0.2692248172919926 -0.0069610417805164738 0 0.27741899960964289 -0.015799745368864509 0 0.28512431700806451 -0.0086992195202469716 0 0.2692248172919926 -0.0069610417805164738 0 0.27791710391185381 -0.0010379811687957271 0 0.28512431700806451 -0.0086992195202469716 0 0.2692248172919926 -0.0069610417805164738 0 0.28512431700806451 -0.0086992195202469716 0 0.26701986470523431 0.0028523954276382379 0 0.26489192350979318 -0.0064873577240775106 0 0.2692248172919926 -0.0069610417805164738 0 0.26489192350979318 -0.0064873577240775106 0 0.2692248172919926 -0.0069610417805164738 0 0.2692248172919926 -0.0069610417805164738 0 0.26678372231571063 -0.011493649541230871 0 0.27741899960964289 -0.015799745368864509 0 0.26489192350979318 -0.0064873577240775106 0 0.26678372231571063 -0.011493649541230871 0 0.26489192350979318 -0.0064873577240775106 0 0.2692248172919926 -0.0069610417805164738 0 0.26678372231571063 -0.011493649541230871 0 0.2692248172919926 -0.0069610417805164738 0 0.26678372231571063 -0.011493649541230871 0 0.27613940784681967 -0.036251722002080641 0 0.26678372231571063 -0.011493649541230871 0 0.27613940784681967 -0.036251722002080641 0 0.26678372231571063 -0.011493649541230871 0 0.27741899960964289 -0.015799745368864509 0 0.27613940784681967 -0.036251722002080641 0 0.25572186475693609 -0.032033227847674262 0 0.26678372231571063 -0.011493649541230871 0 0.27613940784681967 -0.036251722002080641 0 0.27741899960964289 -0.015799745368864509 0 0.29413594975842328 -0.02512550933568073 0 0.27741899960964289 -0.015799745368864509 0 0.29413594975842328 -0.02512550933568073 0 0.28512431700806451 -0.0086992195202469716 0 0.28514691493175248 0.01112824383243886 0 0.28512431700806451 -0.0086992195202469716 0 0.30050921735997521 -0.004605356182754896 0 0.29413594975842328 -0.02512550933568073 0 0.28512431700806451 -0.0086992195202469716 0 0.30050921735997521 -0.004605356182754896 0 0.317215061455216 -0.016157064213598971 0 0.31587151978819911 -0.020338956197947448 0 0.30050921735997521 -0.004605356182754896 0 0.31587151978819911 -0.020338956197947448 0 0.30050921735997521 -0.004605356182754896 0 0.317215061455216 -0.016157064213598971 0 0.30050921735997521 -0.004605356182754896 0 0.30690038754225768 -0.0011800486910433781 0 0.317215061455216 -0.016157064213598971 0 0.30690038754225768 -0.0011800486910433781 0 0.31587151978819911 -0.020338956197947448 0 0.29413594975842328 -0.02512550933568073 0 0.30886460616181383 -0.042148593106558697 0 0.31587151978819911 -0.020338956197947448 0 0.29413594975842328 -0.02512550933568073 0 0.30050921735997521 -0.004605356182754896 0 0.31587151978819911 -0.020338956197947448 0 0.30886460616181383 -0.042148593106558697 0 0.29413594975842328 -0.02512550933568073 0 0.30886460616181383 -0.042148593106558697 0 0.29329854993608251 -0.045698769784483992 0 0.31829608624605688 -0.065472752473192938 0 0.30185769253542699 -0.063958230015169509 0 0.30886460616181383 -0.042148593106558697 0 0.30185769253542699 -0.063958230015169509 0 0.30886460616181383 -0.042148593106558697 0 0.30185769253542699 -0.063958230015169509 0 0.30886460616181383 -0.042148593106558697 0 0.29329854993608251 -0.045698769784483992 0 0.27613940784681967 -0.036251722002080641 0 0.28549509337792828 -0.061009794462930381 0 0.29329854993608251 -0.045698769784483992 0 0.30185769253542699 -0.063958230015169509 0 0.28549509337792828 -0.061009794462930381 0 0.29329854993608251 -0.045698769784483992 0 0.27613940784681967 -0.036251722002080641 0 0.29413594975842328 -0.02512550933568073 0 0.29329854993608251 -0.045698769784483992 0 0.28257577117233168 -0.20518994938083851 0 0.30379191605182437 -0.20471284840499179 0 0.29252942038038049 -0.2260032745248223 0 0.28257577117233168 -0.20518994938083851 0 0.29252942038038049 -0.2260032745248223 0 0.27440370665207992 -0.22158759206732809 0 0.28257577117233168 -0.20518994938083851 0 0.29805932829815662 -0.18954203104115269 0 0.30379191605182437 -0.20471284840499179 0 0.28257577117233168 -0.20518994938083851 0 0.29805932829815662 -0.18954203104115269 0 0.28309810934824442 -0.18139531770741171 0 0.29805932829815662 -0.18954203104115269 0 0.30379191605182437 -0.20471284840499179 0 0.31670590871501719 -0.18767809548444081 0 0.30379191605182437 -0.20471284840499179 0 0.31109634377457301 -0.22154997806035029 0 0.29252942038038049 -0.2260032745248223 0 0.31109634377457301 -0.22154997806035029 0 0.30987088180634448 -0.24125362874219619 0 0.29252942038038049 -0.2260032745248223 0 0.30987088180634448 -0.24125362874219619 0 0.29250997527574701 -0.24677647679701359 0 0.29252942038038049 -0.2260032745248223 0 0.29250997527574701 -0.24677647679701359 0 0.29252942038038049 -0.2260032745248223 0 0.27462122614518292 -0.24127539045551061 0 0.29252942038038049 -0.2260032745248223 0 0.27440370665207992 -0.22158759206732809 0 0.27462122614518292 -0.24127539045551061 0 0.27440370665207992 -0.22158759206732809 0 0.27462122614518292 -0.24127539045551061 0 0.25406429941061343 -0.23112732810889039 0 0.29250997527574701 -0.24677647679701359 0 0.27462122614518292 -0.24127539045551061 0 0.27534065318434953 -0.25880162201512719 0 0.25406429941061343 -0.23112732810889039 0 0.25726365536858148 -0.25362034743760148 0 0.24146341680214309 -0.24448521489457861 0 0.27462122614518292 -0.24127539045551061 0 0.25406429941061343 -0.23112732810889039 0 0.25726365536858148 -0.25362034743760148 0 0.27440370665207992 -0.22158759206732809 0 0.25406429941061343 -0.23112732810889039 0 0.25948399805722178 -0.21095426616987389 0 0.25406429941061343 -0.23112732810889039 0 0.25948399805722178 -0.21095426616987389 0 0.23924146656863479 -0.21600942233651971 0 0.25948399805722178 -0.21095426616987389 0 0.25294493867930001 -0.1971512634910503 0 0.23924146656863479 -0.21600942233651971 0 0.28257577117233168 -0.20518994938083851 0 0.27440370665207992 -0.22158759206732809 0 0.25948399805722178 -0.21095426616987389 0 0.28257577117233168 -0.20518994938083851 0 0.26980921912182793 -0.19283345323968809 0 0.28309810934824442 -0.18139531770741171 0 0.28257577117233168 -0.20518994938083851 0 0.25948399805722178 -0.21095426616987389 0 0.26980921912182793 -0.19283345323968809 0 0.26980921912182793 -0.19283345323968809 0 0.25294493867930001 -0.1971512634910503 0 0.26076150014885863 -0.1842019471946538 0 0.25948399805722178 -0.21095426616987389 0 0.26980921912182793 -0.19283345323968809 0 0.25294493867930001 -0.1971512634910503 0 0.25294493867930001 -0.1971512634910503 0 0.25115080808597218 -0.18349252771031549 0 0.26076150014885863 -0.1842019471946538 0 0.25115080808597218 -0.18349252771031549 0 0.26076150014885863 -0.1842019471946538 0 0.25889962869698091 -0.1746028342129915 0 0.26076150014885863 -0.1842019471946538 0 0.25889962869698091 -0.1746028342129915 0 0.27017957837672091 -0.17747692395416009 0 0.25115080808597218 -0.18349252771031549 0 0.25889962869698091 -0.1746028342129915 0 0.24727016264961249 -0.1692414738038848 0 0.25889962869698091 -0.1746028342129915 0 0.26616743516329899 -0.16248611748055669 0 0.24727016264961249 -0.1692414738038848 0 0.26140577643439422 -0.14332992145424359 0 0.24727016264961249 -0.1692414738038848 0 0.26616743516329899 -0.16248611748055669 0 0.26140577643439422 -0.14332992145424359 0 0.24727016264961249 -0.1692414738038848 0 0.25889962869698091 -0.1746028342129915 0 0.26616743516329899 -0.16248611748055669 0 0.27017957837672091 -0.17747692395416009 0 0.26616743516329899 -0.16248611748055669 0 0.27825348655266058 -0.16907893574793359 0 0.27017957837672091 -0.17747692395416009 0 0.26616743516329899 -0.16248611748055669 0 0.27746834422487981 -0.157383776805052 0 0.26883056353995632 -0.15253713768717189 0 0.26616743516329899 -0.16248611748055669 0 0.27746834422487981 -0.157383776805052 0 0.27825348655266058 -0.16907893574793359 0 0.27825348655266058 -0.16907893574793359 0 0.27017957837672091 -0.17747692395416009 0 0.28309810934824442 -0.18139531770741171 0 0.26980921912182793 -0.19283345323968809 0 0.27017957837672091 -0.17747692395416009 0 0.28309810934824442 -0.18139531770741171 0 0.26980921912182793 -0.19283345323968809 0 0.26076150014885863 -0.1842019471946538 0 0.27017957837672091 -0.17747692395416009 0 0.25959792799319448 -0.13115630782849941 0 0.26140577643439422 -0.14332992145424359 0 0.2441250445765018 -0.1282891748563233 0 0.26250671304934198 -0.1171844924147165 0 0.25959792799319448 -0.13115630782849941 0 0.2441250445765018 -0.1282891748563233 0 0.26616743516329899 -0.16248611748055669 0 0.26140577643439422 -0.14332992145424359 0 0.26883056353995632 -0.15253713768717189 0 0.26140577643439422 -0.14332992145424359 0 0.2760714190023883 -0.1442202816071636 0 0.27744208016659549 -0.13995397779495439 0 0.27746834422487981 -0.157383776805052 0 0.26883056353995632 -0.15253713768717189 0 0.27327340453904758 -0.14909472247049649 0 0.27746834422487981 -0.157383776805052 0 0.27327340453904758 -0.14909472247049649 0 0.27944720334199591 -0.1510298305388795 0 0.27746834422487981 -0.157383776805052 0 0.27944720334199591 -0.1510298305388795 0 0.28543485155381138 -0.1532631785773593 0 0.27944720334199591 -0.1510298305388795 0 0.27867318395593788 -0.14678707333018209 0 0.28267306369304718 -0.14834113794059131 0 0.27327340453904758 -0.14909472247049649 0 0.27944720334199591 -0.1510298305388795 0 0.27867318395593788 -0.14678707333018209 0 0.27327340453904758 -0.14909472247049649 0 0.27867318395593788 -0.14678707333018209 0 0.2760714190023883 -0.1442202816071636 0 0.27867318395593788 -0.14678707333018209 0 0.28203705400801471 -0.14409361128278431 0 0.28267306369304718 -0.14834113794059131 0 0.27867318395593788 -0.14678707333018209 0 0.27862243637812423 -0.14384960257769991 0 0.2760714190023883 -0.1442202816071636 0 0.27867318395593788 -0.14678707333018209 0 0.27862243637812423 -0.14384960257769991 0 0.28203705400801471 -0.14409361128278431 0 0.27862243637812423 -0.14384960257769991 0 0.27744208016659549 -0.13995397779495439 0 0.28203705400801471 -0.14409361128278431 0 0.27862243637812423 -0.14384960257769991 0 0.2760714190023883 -0.1442202816071636 0 0.27744208016659549 -0.13995397779495439 0 0.2760714190023883 -0.1442202816071636 0 0.27744208016659549 -0.13995397779495439 0 0.26140577643439422 -0.14332992145424359 0 0.27327340453904758 -0.14909472247049649 0 0.2760714190023883 -0.1442202816071636 0 0.26140577643439422 -0.14332992145424359 0 0.26883056353995632 -0.15253713768717189 0 0.27327340453904758 -0.14909472247049649 0 0.26250671304934198 -0.1171844924147165 0 0.25959792799319448 -0.13115630782849941 0 0.27744208016659549 -0.13995397779495439 0 0.27500980117207829 -0.12155323577333579 0 0.26250671304934198 -0.1171844924147165 0 0.27744208016659549 -0.13995397779495439 0 0.28377904751550082 -0.12022960778689511 0 0.27500980117207829 -0.12155323577333579 0 0.27744208016659549 -0.13995397779495439 0 0.26250671304934198 -0.1171844924147165 0 0.27744208016659549 -0.13995397779495439 0 0.28377904751550082 -0.12022960778689511 0 0.27744208016659549 -0.13995397779495439 0 0.25959792799319448 -0.13115630782849941 0 0.26140577643439422 -0.14332992145424359 0 0.27744208016659549 -0.13995397779495439 0 0.28377904751550082 -0.12022960778689511 0 0.27744208016659549 -0.13995397779495439 0 0.28932323864627207 -0.13288207724771259 0 0.28377904751550082 -0.12022960778689511 0 0.28932323864627207 -0.13288207724771259 0 0.29867666688697703 -0.1272849549211697 0 0.28932323864627207 -0.13288207724771259 0 0.29298701750044082 -0.14249666764126889 0 0.28471550868115297 -0.14112277714418339 0 0.27744208016659549 -0.13995397779495439 0 0.28932323864627207 -0.13288207724771259 0 0.28471550868115297 -0.14112277714418339 0 0.28932323864627207 -0.13288207724771259 0 0.29298701750044082 -0.14249666764126889 0 0.30163685485285813 -0.1392931605370735 0 0.28932323864627207 -0.13288207724771259 0 0.30163685485285813 -0.1392931605370735 0 0.29867666688697703 -0.1272849549211697 0 0.29298701750044082 -0.14249666764126889 0 0.28777302560547591 -0.14653199597375141 0 0.29658698791447552 -0.15065635986343121 0 0.29298701750044082 -0.14249666764126889 0 0.28471550868115297 -0.14112277714418339 0 0.28777302560547591 -0.14653199597375141 0 0.28471550868115297 -0.14112277714418339 0 0.28203705400801471 -0.14409361128278431 0 0.28777302560547591 -0.14653199597375141 0 0.27744208016659549 -0.13995397779495439 0 0.28471550868115297 -0.14112277714418339 0 0.28203705400801471 -0.14409361128278431 0 0.28203705400801471 -0.14409361128278431 0 0.28267306369304718 -0.14834113794059131 0 0.28777302560547591 -0.14653199597375141 0 0.28267306369304718 -0.14834113794059131 0 0.28777302560547591 -0.14653199597375141 0 0.28543485155381138 -0.1532631785773593 0 0.27944720334199591 -0.1510298305388795 0 0.28267306369304718 -0.14834113794059131 0 0.28543485155381138 -0.1532631785773593 0 0.28543485155381138 -0.1532631785773593 0 0.29658698791447552 -0.15065635986343121 0 0.29083384063311041 -0.16291767632429169 0 0.28777302560547591 -0.14653199597375141 0 0.28543485155381138 -0.1532631785773593 0 0.29658698791447552 -0.15065635986343121 0 0.29658698791447552 -0.15065635986343121 0 0.30903803874224028 -0.154944676915485 0 0.29083384063311041 -0.16291767632429169 0 0.30903803874224028 -0.154944676915485 0 0.30163685485285813 -0.1392931605370735 0 0.31552056866096628 -0.14046660072871581 0 0.29658698791447552 -0.15065635986343121 0 0.30903803874224028 -0.154944676915485 0 0.30163685485285813 -0.1392931605370735 0 0.29298701750044082 -0.14249666764126889 0 0.29658698791447552 -0.15065635986343121 0 0.30163685485285813 -0.1392931605370735 0 0.30163685485285813 -0.1392931605370735 0 0.29867666688697703 -0.1272849549211697 0 0.31552056866096628 -0.14046660072871581 0 0.30701266551867318 -0.11795202584412939 0 0.31552056866096628 -0.14046660072871581 0 0.30701266551867318 -0.11795202584412939 0 0.29867666688697703 -0.1272849549211697 0 0.31552056866096628 -0.14046660072871581 0 0.29805932829815662 -0.18954203104115269 0 0.28309810934824442 -0.18139531770741171 0 0.30374566956112747 -0.172867968401477 0 0.28309810934824442 -0.18139531770741171 0 0.29083384063311041 -0.16291767632429169 0 0.30374566956112747 -0.172867968401477 0 0.27825348655266058 -0.16907893574793359 0 0.28309810934824442 -0.18139531770741171 0 0.29083384063311041 -0.16291767632429169 0 0.27746834422487981 -0.157383776805052 0 0.27825348655266058 -0.16907893574793359 0 0.29083384063311041 -0.16291767632429169 0 0.27746834422487981 -0.157383776805052 0 0.28543485155381138 -0.1532631785773593 0 0.29083384063311041 -0.16291767632429169 0 0.30903803874224028 -0.154944676915485 0 0.30374566956112747 -0.172867968401477 0 0.3240284718032595 -0.16298117561330211 0 0.30903803874224028 -0.154944676915485 0 0.29083384063311041 -0.16291767632429169 0 0.30374566956112747 -0.172867968401477 0 0.29805932829815662 -0.18954203104115269 0 0.30374566956112747 -0.172867968401477 0 0.31670590871501719 -0.18767809548444081 0 0.30374566956112747 -0.172867968401477 0 0.3240284718032595 -0.16298117561330211 0 0.31670590871501719 -0.18767809548444081 0 0.3240284718032595 -0.16298117561330211 0 0.33253637494555272 -0.18549575049788841 0 0.31670590871501719 -0.18767809548444081 0 0.3240284718032595 -0.16298117561330211 0 0.33799671017450289 -0.15427059616939481 0 0.34627497421775172 -0.16712500364912669 0 0.3240284718032595 -0.16298117561330211 0 0.33253637494555272 -0.18549575049788841 0 0.34627497421775172 -0.16712500364912669 0 0.34627497421775172 -0.16712500364912669 0 0.34011486294275067 -0.1930235804920396 0 0.33253637494555272 -0.18549575049788841 0 0.34627497421775172 -0.16712500364912669 0 0.34011486294275067 -0.1930235804920396 0 0.3240284718032595 -0.16298117561330211 0 0.33253637494555272 -0.18549575049788841 0 0.31552056866096628 -0.14046660072871581 0 0.32253171804754088 -0.12501427821952829 0 0.33350864076215958 -0.14068733778211151 0 0.30701266551867318 -0.11795202584412939 0 0.31552056866096628 -0.14046660072871581 0 0.32253171804754088 -0.12501427821952829 0 0.3240284718032595 -0.16298117561330211 0 0.31552056866096628 -0.14046660072871581 0 0.33350864076215958 -0.14068733778211151 0 0.3240284718032595 -0.16298117561330211 0 0.31552056866096628 -0.14046660072871581 0 0.30903803874224028 -0.154944676915485 0 0.3240284718032595 -0.16298117561330211 0 0.31552056866096628 -0.14046660072871581 0 0.3240284718032595 -0.16298117561330211 0 0.33799671017450289 -0.15427059616939481 0 0.33350864076215958 -0.14068733778211151 0 0.33799671017450289 -0.15427059616939481 0 0.33350864076215958 -0.14068733778211151 0 0.35233452294063261 -0.141202487244703 0 0.33350864076215958 -0.14068733778211151 0 0.34402529308911528 -0.13391297654823131 0 0.35233452294063261 -0.141202487244703 0 0.32253171804754088 -0.12501427821952829 0 0.33350864076215958 -0.14068733778211151 0 0.34004518790650529 -0.12527848050574 0 0.33350864076215958 -0.14068733778211151 0 0.34004518790650529 -0.12527848050574 0 0.34402529308911528 -0.13391297654823131 0 0.34004518790650529 -0.12527848050574 0 0.35606369033391522 -0.1259709067163762 0 0.34402529308911528 -0.13391297654823131 0 0.35606369033391522 -0.1259709067163762 0 0.34402529308911528 -0.13391297654823131 0 0.35233452294063261 -0.141202487244703 0 0.35606369033391522 -0.1259709067163762 0 0.35233452294063261 -0.141202487244703 0 0.33799671017450289 -0.15427059616939481 0 0.35233452294063261 -0.141202487244703 0 0.34627497421775172 -0.16712500364912669 0 0.35233452294063261 -0.141202487244703 0 0.34627497421775172 -0.16712500364912669 0 0.35233452294063261 -0.141202487244703 0 0.34627497421775172 -0.16712500364912669 0 0.36205375531824391 -0.1583193433668508 0 0.35233452294063261 -0.141202487244703 0 0.37378191529930621 -0.14944718128022591 0 0.37093785636814908 -0.13798691163813531 0 0.35233452294063261 -0.141202487244703 0 0.37378191529930621 -0.14944718128022591 0 0.36205375531824391 -0.1583193433668508 0 0.37378191529930621 -0.14944718128022591 0 0.36205375531824391 -0.1583193433668508 0 0.37308854109455708 -0.16093157526259191 0 0.35606369033391522 -0.1259709067163762 0 0.35233452294063261 -0.141202487244703 0 0.37093785636814908 -0.13798691163813531 0 0.35233452294063261 -0.141202487244703 0 0.37093785636814908 -0.13798691163813531 0 0.37980885755413418 -0.11928611433555709 0 0.36703358201424818 -0.1205643964158449 0 0.37093785636814908 -0.13798691163813531 0 0.36703358201424818 -0.1205643964158449 0 0.35606369033391522 -0.1259709067163762 0 0.37093785636814908 -0.13798691163813531 0 0.35440938842994413 -0.18403818521213361 0 0.34627497421775172 -0.16712500364912669 0 0.34011486294275067 -0.1930235804920396 0 0.35440938842994413 -0.18403818521213361 0 0.34627497421775172 -0.16712500364912669 0 0.36427806099096738 -0.1715772602872144 0 0.34627497421775172 -0.16712500364912669 0 0.36427806099096738 -0.1715772602872144 0 0.36205375531824391 -0.1583193433668508 0 0.36427806099096738 -0.1715772602872144 0 0.37308854109455708 -0.16093157526259191 0 0.38040919016197472 -0.17194589761299089 0 0.36427806099096738 -0.1715772602872144 0 0.36205375531824391 -0.1583193433668508 0 0.37308854109455708 -0.16093157526259191 0 0.36427806099096738 -0.1715772602872144 0 0.37230187155944527 -0.18410680502223259 0 0.38040919016197472 -0.17194589761299089 0 0.35440938842994413 -0.18403818521213361 0 0.36427806099096738 -0.1715772602872144 0 0.37230187155944527 -0.18410680502223259 0 0.37230187155944527 -0.18410680502223259 0 0.36943541324010287 -0.20186706000128449 0 0.35149154164174501 -0.20315574626222041 0 0.37230187155944527 -0.18410680502223259 0 0.36943541324010287 -0.20186706000128449 0 0.38044042972011022 -0.19453179374419641 0 0.37230187155944527 -0.18410680502223259 0 0.35149154164174501 -0.20315574626222041 0 0.35440938842994413 -0.18403818521213361 0 0.37230187155944527 -0.18410680502223259 0 0.35149154164174501 -0.20315574626222041 0 0.36366819524513028 -0.21031437113148671 0 0.35862104841248232 -0.2228308520016947 0 0.37925693361890289 -0.2120285714887051 0 0.36943541324010287 -0.20186706000128449 0 0.36366819524513028 -0.21031437113148671 0 0.35149154164174501 -0.20315574626222041 0 0.36943541324010287 -0.20186706000128449 0 0.36366819524513028 -0.21031437113148671 0 0.37925693361890289 -0.2120285714887051 0 0.35149154164174501 -0.20315574626222041 0 0.33068121172404469 -0.22220468750220829 0 0.35862104841248232 -0.2228308520016947 0 0.36366819524513028 -0.21031437113148671 0 0.35149154164174501 -0.20315574626222041 0 0.35862104841248232 -0.2228308520016947 0 0.35440938842994413 -0.18403818521213361 0 0.35149154164174501 -0.20315574626222041 0 0.34011486294275067 -0.1930235804920396 0 0.35149154164174501 -0.20315574626222041 0 0.34011486294275067 -0.1930235804920396 0 0.3308500388182079 -0.19477209315265531 0 0.35149154164174501 -0.20315574626222041 0 0.3308500388182079 -0.19477209315265531 0 0.32373992820587338 -0.20544181336631709 0 0.33253637494555272 -0.18549575049788841 0 0.34011486294275067 -0.1930235804920396 0 0.3308500388182079 -0.19477209315265531 0 0.35149154164174501 -0.20315574626222041 0 0.32373992820587338 -0.20544181336631709 0 0.33068121172404469 -0.22220468750220829 0 0.35149154164174501 -0.20315574626222041 0 0.33068121172404469 -0.22220468750220829 0 0.30379191605182437 -0.20471284840499179 0 0.31109634377457301 -0.22154997806035029 0 0.32373992820587338 -0.20544181336631709 0 0.31109634377457301 -0.22154997806035029 0 0.32373992820587338 -0.20544181336631709 0 0.33068121172404469 -0.22220468750220829 0 0.3308500388182079 -0.19477209315265531 0 0.32373992820587338 -0.20544181336631709 0 0.31670590871501719 -0.18767809548444081 0 0.33253637494555272 -0.18549575049788841 0 0.3308500388182079 -0.19477209315265531 0 0.31670590871501719 -0.18767809548444081 0 0.30379191605182437 -0.20471284840499179 0 0.32373992820587338 -0.20544181336631709 0 0.31670590871501719 -0.18767809548444081 0 0.30987088180634448 -0.24125362874219619 0 0.33627474799740559 -0.24529035195854479 0 0.32740146312166057 -0.2615598439342075 0 0.30987088180634448 -0.24125362874219619 0 0.33068121172404469 -0.22220468750220829 0 0.33627474799740559 -0.24529035195854479 0 0.31109634377457301 -0.22154997806035029 0 0.30987088180634448 -0.24125362874219619 0 0.33068121172404469 -0.22220468750220829 0 0.30987088180634448 -0.24125362874219619 0 0.33068121172404469 -0.22220468750220829 0 0.33068121172404469 -0.22220468750220829 0 0.33627474799740559 -0.24529035195854479 0 0.34620802689974478 -0.2341148902952345 0 0.33627474799740559 -0.24529035195854479 0 0.3592550994650468 -0.24613366971849041 0 0.34620802689974478 -0.2341148902952345 0 0.33068121172404469 -0.22220468750220829 0 0.34620802689974478 -0.2341148902952345 0 0.35862104841248232 -0.2228308520016947 0 0.3592550994650468 -0.24613366971849041 0 0.34620802689974478 -0.2341148902952345 0 0.35862104841248232 -0.2228308520016947 0 0.35862104841248232 -0.2228308520016947 0 0.37496953662933208 -0.22868277770556319 0 0.37925693361890289 -0.2120285714887051 0 0.3592550994650468 -0.24613366971849041 0 0.35862104841248232 -0.2228308520016947 0 0.37496953662933208 -0.22868277770556319 0 0.3592550994650468 -0.24613366971849041 0 0.37496953662933208 -0.22868277770556319 0 0.37997975350283419 -0.24239130628825581 0 0.3592550994650468 -0.24613366971849041 0 0.37997975350283419 -0.24239130628825581 0 0.37962897743813367 -0.25651992395937562 0 0.37997975350283419 -0.24239130628825581 0 0.39078422201957003 -0.24969070593678949 0 0.39374115574330237 -0.23275594279604889 0 0.37496953662933208 -0.22868277770556319 0 0.37997975350283419 -0.24239130628825581 0 0.39374115574330237 -0.23275594279604889 0 0.37997975350283419 -0.24239130628825581 0 0.39078422201957003 -0.24969070593678949 0 0.37962897743813367 -0.25651992395937562 0 0.39078422201957003 -0.24969070593678949 0 0.40271577749504128 -0.24808950568319249 0 0.39374115574330237 -0.23275594279604889 0 0.40271577749504128 -0.24808950568319249 0 0.39374115574330237 -0.23275594279604889 0 0.41071323046394659 -0.2405815597806012 0 0.39374115574330237 -0.23275594279604889 0 0.40098237452119001 -0.21274615241137729 0 0.41052741769560203 -0.22783696307390669 0 0.39374115574330237 -0.23275594279604889 0 0.41071323046394659 -0.2405815597806012 0 0.41052741769560203 -0.22783696307390669 0 0.39374115574330237 -0.23275594279604889 0 0.37925693361890289 -0.2120285714887051 0 0.40098237452119001 -0.21274615241137729 0 0.37496953662933208 -0.22868277770556319 0 0.39374115574330237 -0.23275594279604889 0 0.37925693361890289 -0.2120285714887051 0 0.36943541324010287 -0.20186706000128449 0 0.37925693361890289 -0.2120285714887051 0 0.38044042972011022 -0.19453179374419641 0 0.37925693361890289 -0.2120285714887051 0 0.38044042972011022 -0.19453179374419641 0 0.39584695818252569 -0.1933624959239181 0 0.38044042972011022 -0.19453179374419641 0 0.39584695818252569 -0.1933624959239181 0 0.3883302688968957 -0.18261969374673129 0 0.39584695818252569 -0.1933624959239181 0 0.40098237452119001 -0.21274615241137729 0 0.4098684358706004 -0.20142281071300391 0 0.39584695818252569 -0.1933624959239181 0 0.4098684358706004 -0.20142281071300391 0 0.41232050953237392 -0.17982343258281169 0 0.37925693361890289 -0.2120285714887051 0 0.39584695818252569 -0.1933624959239181 0 0.40098237452119001 -0.21274615241137729 0 0.41622029565463942 -0.21609362125780859 0 0.4098684358706004 -0.20142281071300391 0 0.4264315356173396 -0.20432849808395781 0 0.40098237452119001 -0.21274615241137729 0 0.41622029565463942 -0.21609362125780859 0 0.4098684358706004 -0.20142281071300391 0 0.4098684358706004 -0.20142281071300391 0 0.4264315356173396 -0.20432849808395781 0 0.41232050953237392 -0.17982343258281169 0 0.4264315356173396 -0.20432849808395781 0 0.41232050953237392 -0.17982343258281169 0 0.4264315356173396 -0.20432849808395781 0 0.43189275347364769 -0.18601108132065861 0 0.4422427041991972 -0.19293897445371649 0 0.4264315356173396 -0.20432849808395781 0 0.41232050953237392 -0.17982343258281169 0 0.43189275347364769 -0.18601108132065861 0 0.4264315356173396 -0.20432849808395781 0 0.44054256170230521 -0.22883356358510401 0 0.4264315356173396 -0.20432849808395781 0 0.42740075470870198 -0.2217522577010006 0 0.44054256170230521 -0.22883356358510401 0 0.41622029565463942 -0.21609362125780859 0 0.4264315356173396 -0.20432849808395781 0 0.42740075470870198 -0.2217522577010006 0 0.41622029565463942 -0.21609362125780859 0 0.42740075470870198 -0.2217522577010006 0 0.42211125551440248 -0.22847504556360529 0 0.42740075470870198 -0.2217522577010006 0 0.42211125551440248 -0.22847504556360529 0 0.43135414754850671 -0.23039238084196881 0 0.42211125551440248 -0.22847504556360529 0 0.42953670257014748 -0.23642300718324211 0 0.42008770906388448 -0.23759219001855961 0 0.42211125551440248 -0.22847504556360529 0 0.43135414754850671 -0.23039238084196881 0 0.42953670257014748 -0.23642300718324211 0 0.43135414754850671 -0.23039238084196881 0 0.43570292594701721 -0.2354153486954452 0 0.44054256170230521 -0.22883356358510401 0 0.42740075470870198 -0.2217522577010006 0 0.43135414754850671 -0.23039238084196881 0 0.44054256170230521 -0.22883356358510401 0 0.43135414754850671 -0.23039238084196881 0 0.43570292594701721 -0.2354153486954452 0 0.42953670257014748 -0.23642300718324211 0 0.43570292594701721 -0.2354153486954452 0 0.43468079386219632 -0.24191883787933049 0 0.44107348969050558 -0.240693309601615 0 0.43468079386219632 -0.24191883787933049 0 0.4271596561998503 -0.244205651647634 0 0.42953670257014748 -0.23642300718324211 0 0.43570292594701721 -0.2354153486954452 0 0.43468079386219632 -0.24191883787933049 0 0.42953670257014748 -0.23642300718324211 0 0.43292967301130941 -0.2488540036824014 0 0.43917511256413022 -0.2466480151322302 0 0.43871762778532231 -0.25212208882244802 0 0.43468079386219632 -0.24191883787933049 0 0.43292967301130941 -0.2488540036824014 0 0.43917511256413022 -0.2466480151322302 0 0.43468079386219632 -0.24191883787933049 0 0.43292967301130941 -0.2488540036824014 0 0.4271596561998503 -0.244205651647634 0 0.4271596561998503 -0.244205651647634 0 0.4190014546393992 -0.24696823138092139 0 0.42541254610488072 -0.25270056741268049 0 0.43292967301130941 -0.2488540036824014 0 0.4271596561998503 -0.244205651647634 0 0.42541254610488072 -0.25270056741268049 0 0.4271596561998503 -0.244205651647634 0 0.42008770906388448 -0.23759219001855961 0 0.4190014546393992 -0.24696823138092139 0 0.4271596561998503 -0.244205651647634 0 0.42953670257014748 -0.23642300718324211 0 0.42008770906388448 -0.23759219001855961 0 0.42008770906388448 -0.23759219001855961 0 0.4190014546393992 -0.24696823138092139 0 0.41071323046394659 -0.2405815597806012 0 0.4190014546393992 -0.24696823138092139 0 0.41071323046394659 -0.2405815597806012 0 0.41170531542548788 -0.25126417515390992 0 0.40271577749504128 -0.24808950568319249 0 0.41071323046394659 -0.2405815597806012 0 0.41170531542548788 -0.25126417515390992 0 0.42008770906388448 -0.23759219001855961 0 0.41071323046394659 -0.2405815597806012 0 0.41052741769560203 -0.22783696307390669 0 0.40098237452119001 -0.21274615241137729 0 0.41622029565463942 -0.21609362125780859 0 0.41052741769560203 -0.22783696307390669 0 0.41622029565463942 -0.21609362125780859 0 0.42211125551440248 -0.22847504556360529 0 0.41052741769560203 -0.22783696307390669 0 0.42211125551440248 -0.22847504556360529 0 0.42008770906388448 -0.23759219001855961 0 0.41052741769560203 -0.22783696307390669 0 0.38943037724261159 -0.1347904899183642 0 0.39869330261889507 -0.14602014112377221 0 0.41208161927757919 -0.13087523561031761 0 0.40724277249555002 -0.1192463337858536 0 0.38943037724261159 -0.1347904899183642 0 0.41208161927757919 -0.13087523561031761 0 0.38943037724261159 -0.1347904899183642 0 0.41208161927757919 -0.13087523561031761 0 0.37980885755413418 -0.11928611433555709 0 0.37093785636814908 -0.13798691163813531 0 0.38943037724261159 -0.1347904899183642 0 0.37093785636814908 -0.13798691163813531 0 0.38943037724261159 -0.1347904899183642 0 0.37378191529930621 -0.14944718128022591 0 0.38943037724261159 -0.1347904899183642 0 0.38491978370229318 -0.15336819376567751 0 0.38943037724261159 -0.1347904899183642 0 0.38491978370229318 -0.15336819376567751 0 0.37378191529930621 -0.14944718128022591 0 0.37093785636814908 -0.13798691163813531 0 0.38943037724261159 -0.1347904899183642 0 0.37378191529930621 -0.14944718128022591 0 0.37308854109455708 -0.16093157526259191 0 0.38491978370229318 -0.15336819376567751 0 0.39869330261889507 -0.14602014112377221 0 0.39311220147714548 -0.16505786378224471 0 0.41392253139484558 -0.14600892254225711 0 0.38491978370229318 -0.15336819376567751 0 0.39869330261889507 -0.14602014112377221 0 0.39311220147714548 -0.16505786378224471 0 0.38943037724261159 -0.1347904899183642 0 0.38491978370229318 -0.15336819376567751 0 0.39869330261889507 -0.14602014112377221 0 0.39311220147714548 -0.16505786378224471 0 0.41392253139484558 -0.14600892254225711 0 0.39311220147714548 -0.16505786378224471 0 0.41068030945659773 -0.16570921719709561 0 0.41392253139484558 -0.14600892254225711 0 0.39311220147714548 -0.16505786378224471 0 0.39994988354525202 -0.1760395102610646 0 0.41068030945659773 -0.16570921719709561 0 0.38491978370229318 -0.15336819376567751 0 0.39311220147714548 -0.16505786378224471 0 0.38040919016197472 -0.17194589761299089 0 0.37308854109455708 -0.16093157526259191 0 0.38491978370229318 -0.15336819376567751 0 0.38040919016197472 -0.17194589761299089 0 0.38491978370229318 -0.15336819376567751 0 0.38040919016197472 -0.17194589761299089 0 0.37230187155944527 -0.18410680502223259 0 0.39311220147714548 -0.16505786378224471 0 0.3883302688968957 -0.18261969374673129 0 0.37230187155944527 -0.18410680502223259 0 0.39311220147714548 -0.16505786378224471 0 0.38040919016197472 -0.17194589761299089 0 0.37230187155944527 -0.18410680502223259 0 0.38044042972011022 -0.19453179374419641 0 0.3883302688968957 -0.18261969374673129 0 0.37230187155944527 -0.18410680502223259 0 0.39311220147714548 -0.16505786378224471 0 0.39584695818252569 -0.1933624959239181 0 0.39994988354525202 -0.1760395102610646 0 0.41232050953237392 -0.17982343258281169 0 0.39584695818252569 -0.1933624959239181 0 0.3883302688968957 -0.18261969374673129 0 0.39994988354525202 -0.1760395102610646 0 0.39311220147714548 -0.16505786378224471 0 0.3883302688968957 -0.18261969374673129 0 0.39994988354525202 -0.1760395102610646 0 0.39994988354525202 -0.1760395102610646 0 0.41232050953237392 -0.17982343258281169 0 0.41068030945659773 -0.16570921719709561 0 0.41232050953237392 -0.17982343258281169 0 0.42257653670861861 -0.1716129151356913 0 0.41068030945659773 -0.16570921719709561 0 0.43189275347364769 -0.18601108132065861 0 0.42257653670861861 -0.1716129151356913 0 0.43412364138782639 -0.16920851808495629 0 0.43189275347364769 -0.18601108132065861 0 0.43412364138782639 -0.16920851808495629 0 0.44001273516831668 -0.1783764172762527 0 0.41232050953237392 -0.17982343258281169 0 0.43189275347364769 -0.18601108132065861 0 0.42257653670861861 -0.1716129151356913 0 0.43412364138782639 -0.16920851808495629 0 0.42386546969264721 -0.157312326492934 0 0.43988674428557012 -0.15629540566381109 0 0.42257653670861861 -0.1716129151356913 0 0.43412364138782639 -0.16920851808495629 0 0.42386546969264721 -0.157312326492934 0 0.42386546969264721 -0.157312326492934 0 0.41068030945659773 -0.16570921719709561 0 0.41392253139484558 -0.14600892254225711 0 0.42257653670861861 -0.1716129151356913 0 0.42386546969264721 -0.157312326492934 0 0.41068030945659773 -0.16570921719709561 0 0.39869330261889507 -0.14602014112377221 0 0.41392253139484558 -0.14600892254225711 0 0.41208161927757919 -0.13087523561031761 0 0.42386546969264721 -0.157312326492934 0 0.41392253139484558 -0.14600892254225711 0 0.43230421280140441 -0.1433416226119455 0 0.42386546969264721 -0.157312326492934 0 0.43230421280140441 -0.1433416226119455 0 0.43988674428557012 -0.15629540566381109 0 0.42661387223904329 -0.12098454377727109 0 0.43473286131254663 -0.1269599813022704 0 0.41208161927757919 -0.13087523561031761 0 0.41392253139484558 -0.14600892254225711 0 0.43230421280140441 -0.1433416226119455 0 0.43473286131254663 -0.1269599813022704 0 0.43230421280140441 -0.1433416226119455 0 0.43473286131254663 -0.1269599813022704 0 0.43648454183824659 -0.13175811878196239 0 0.41392253139484558 -0.14600892254225711 0 0.43473286131254663 -0.1269599813022704 0 0.43473286131254663 -0.1269599813022704 0 0.41208161927757919 -0.13087523561031761 0 0.43473286131254663 -0.1269599813022704 0 0.43652399803370612 -0.1266503843383173 0 0.43473286131254663 -0.1269599813022704 0 0.43652399803370612 -0.1266503843383173 0 0.43686479974981568 -0.1288436488615915 0 0.43473286131254663 -0.1269599813022704 0 0.43686479974981568 -0.1288436488615915 0 0.43648454183824659 -0.13175811878196239 0 0.41392253139484558 -0.14600892254225711 0 0.43473286131254663 -0.1269599813022704 0 0.41208161927757919 -0.13087523561031761 0 0.46233294642030121 -0.13029577410444981 0 0.4507048422038758 -0.1254569291466279 0 0.44969735458306581 -0.1318629992909984 0 0.46233294642030121 -0.13029577410444981 0 0.44969735458306581 -0.1318629992909984 0 0.44471813751157008 -0.14226443976851619 0 0.4507048422038758 -0.1254569291466279 0 0.44969735458306581 -0.1318629992909984 0 0.44103349219651622 -0.1294348541443999 0 0.43686479974981568 -0.1288436488615915 0 0.43648454183824659 -0.13175811878196239 0 0.44103349219651622 -0.1294348541443999 0 0.43652399803370612 -0.1266503843383173 0 0.43686479974981568 -0.1288436488615915 0 0.44103349219651622 -0.1294348541443999 0 0.44969735458306581 -0.1318629992909984 0 0.44103349219651622 -0.1294348541443999 0 0.44471813751157008 -0.14226443976851619 0 0.43648454183824659 -0.13175811878196239 0 0.44103349219651622 -0.1294348541443999 0 0.44471813751157008 -0.14226443976851619 0 0.43230421280140441 -0.1433416226119455 0 0.43648454183824659 -0.13175811878196239 0 0.44471813751157008 -0.14226443976851619 0 0.44471813751157008 -0.14226443976851619 0 0.45766723532789633 -0.15879666333412101 0 0.43988674428557012 -0.15629540566381109 0 0.43230421280140441 -0.1433416226119455 0 0.44471813751157008 -0.14226443976851619 0 0.43988674428557012 -0.15629540566381109 0 0.46233294642030121 -0.13029577410444981 0 0.45766723532789633 -0.15879666333412101 0 0.46233294642030121 -0.13029577410444981 0 0.45766723532789633 -0.15879666333412101 0 0.47903454186700689 -0.14491860817462909 0 0.46233294642030121 -0.13029577410444981 0 0.44471813751157008 -0.14226443976851619 0 0.45766723532789633 -0.15879666333412101 0 0.45766723532789633 -0.15879666333412101 0 0.43988674428557012 -0.15629540566381109 0 0.4458378175146181 -0.17411517349359901 0 0.43412364138782639 -0.16920851808495629 0 0.43988674428557012 -0.15629540566381109 0 0.4458378175146181 -0.17411517349359901 0 0.45766723532789633 -0.15879666333412101 0 0.4458378175146181 -0.17411517349359901 0 0.45300152423549178 -0.1872975525637923 0 0.43412364138782639 -0.16920851808495629 0 0.4458378175146181 -0.17411517349359901 0 0.44001273516831668 -0.1783764172762527 0 0.4458378175146181 -0.17411517349359901 0 0.44001273516831668 -0.1783764172762527 0 0.44489139372352893 -0.18154716366216431 0 0.43189275347364769 -0.18601108132065861 0 0.44001273516831668 -0.1783764172762527 0 0.4419738252115778 -0.1858134044909181 0 0.44001273516831668 -0.1783764172762527 0 0.44489139372352893 -0.18154716366216431 0 0.4419738252115778 -0.1858134044909181 0 0.4458378175146181 -0.17411517349359901 0 0.45051520093052061 -0.18628588467377419 0 0.45300152423549178 -0.1872975525637923 0 0.4458378175146181 -0.17411517349359901 0 0.44489139372352893 -0.18154716366216431 0 0.45051520093052061 -0.18628588467377419 0 0.44489139372352893 -0.18154716366216431 0 0.4419738252115778 -0.1858134044909181 0 0.45051520093052061 -0.18628588467377419 0 0.45051520093052061 -0.18628588467377419 0 0.45300152423549178 -0.1872975525637923 0 0.45766723532789633 -0.15879666333412101 0 0.45300152423549178 -0.1872975525637923 0 0.47602254605796679 -0.17263393053228049 0 0.45300152423549178 -0.1872975525637923 0 0.47602254605796679 -0.17263393053228049 0 0.47650076211774711 -0.19685923119094451 0 0.45766723532789633 -0.15879666333412101 0 0.45300152423549178 -0.1872975525637923 0 0.47602254605796679 -0.17263393053228049 0 0.5 -0.18210721193063359 0 0.47650076211774711 -0.19685923119094451 0 0.47602254605796679 -0.17263393053228049 0 0.5 -0.18210721193063359 0 0.5 -0.15779351404316869 0 0.47602254605796679 -0.17263393053228049 0 0.5 -0.15779351404316869 0 0.47903454186700689 -0.14491860817462909 0 0.45766723532789633 -0.15879666333412101 0 0.47602254605796679 -0.17263393053228049 0 0.47903454186700689 -0.14491860817462909 0 0.5 -0.15779351404316869 0 0.47903454186700689 -0.14491860817462909 0 0.5 -0.13347981615570359 0 0.47818452339587708 -0.1165119508780514 0 0.47903454186700689 -0.14491860817462909 0 0.5 -0.13347981615570359 0 0.47818452339587708 -0.1165119508780514 0 0.46233294642030121 -0.13029577410444981 0 0.47903454186700689 -0.14491860817462909 0 0.46031275976808328 -0.23316788994673901 0 0.45494703228505612 -0.22365309056703511 0 0.45215825402727128 -0.23076677405108431 0 0.46031275976808328 -0.23316788994673901 0 0.45530172715096351 -0.23784707953664069 0 0.45215825402727128 -0.23076677405108431 0 0.46031275976808328 -0.23316788994673901 0 0.45494703228505612 -0.22365309056703511 0 0.46412837801973811 -0.21929252942849389 0 0.46031275976808328 -0.23316788994673901 0 0.46412837801973811 -0.21929252942849389 0 0.47030631581894022 -0.23354799250188951 0 0.46031275976808328 -0.23316788994673901 0 0.46848515047489081 -0.24338241864882551 0 0.46066141885548939 -0.24148158248895141 0 0.46031275976808328 -0.23316788994673901 0 0.46848515047489081 -0.24338241864882551 0 0.47030631581894022 -0.23354799250188951 0 0.46848515047489081 -0.24338241864882551 0 0.47379426967759908 -0.2551161382871 0 0.45921282319897938 -0.25088534477896152 0 0.46848515047489081 -0.24338241864882551 0 0.46066141885548939 -0.24148158248895141 0 0.45921282319897938 -0.25088534477896152 0 0.46066141885548939 -0.24148158248895141 0 0.45530172715096351 -0.23784707953664069 0 0.45921282319897938 -0.25088534477896152 0 0.46031275976808328 -0.23316788994673901 0 0.46066141885548939 -0.24148158248895141 0 0.45530172715096351 -0.23784707953664069 0 0.44552755473851618 -0.24512414212957201 0 0.44054256170230521 -0.22883356358510401 0 0.45465358778727077 -0.25333862908624999 0 0.44416337990499422 -0.23293380641746719 0 0.45921282319897938 -0.25088534477896152 0 0.45465358778727077 -0.25333862908624999 0 0.45530172715096351 -0.23784707953664069 0 0.44416337990499422 -0.23293380641746719 0 0.45921282319897938 -0.25088534477896152 0 0.44054256170230521 -0.22883356358510401 0 0.44416337990499422 -0.23293380641746719 0 0.45465358778727077 -0.25333862908624999 0 0.44054256170230521 -0.22883356358510401 0 0.45465358778727077 -0.25333862908624999 0 0.44416337990499422 -0.23293380641746719 0 0.45921282319897938 -0.25088534477896152 0 0.44552755473851618 -0.24512414212957201 0 0.44107348969050558 -0.240693309601615 0 0.44054256170230521 -0.22883356358510401 0 0.44552755473851618 -0.24512414212957201 0 0.44412948591815982 -0.25166394159908168 0 0.44816248816364901 -0.25238097519102243 0 0.44247641072782801 -0.24603235211562469 0 0.43917511256413022 -0.2466480151322302 0 0.44412948591815982 -0.25166394159908168 0 0.44552755473851618 -0.24512414212957201 0 0.44247641072782801 -0.24603235211562469 0 0.44412948591815982 -0.25166394159908168 0 0.44552755473851618 -0.24512414212957201 0 0.44247641072782801 -0.24603235211562469 0 0.44107348969050558 -0.240693309601615 0 0.43468079386219632 -0.24191883787933049 0 0.43917511256413022 -0.2466480151322302 0 0.44107348969050558 -0.240693309601615 0 0.44247641072782801 -0.24603235211562469 0 0.43917511256413022 -0.2466480151322302 0 0.44107348969050558 -0.240693309601615 0 0.43570292594701721 -0.2354153486954452 0 0.44107348969050558 -0.240693309601615 0 0.44054256170230521 -0.22883356358510401 0 0.4264315356173396 -0.20432849808395781 0 0.44054256170230521 -0.22883356358510401 0 0.44673315619821857 -0.2255884067429007 0 0.44054256170230521 -0.22883356358510401 0 0.44416337990499422 -0.23293380641746719 0 0.44673315619821857 -0.2255884067429007 0 0.44416337990499422 -0.23293380641746719 0 0.45215825402727128 -0.23076677405108431 0 0.44673315619821857 -0.2255884067429007 0 0.45530172715096351 -0.23784707953664069 0 0.44416337990499422 -0.23293380641746719 0 0.45215825402727128 -0.23076677405108431 0 0.45494703228505612 -0.22365309056703511 0 0.45215825402727128 -0.23076677405108431 0 0.44673315619821857 -0.2255884067429007 0 0.4264315356173396 -0.20432849808395781 0 0.44673315619821857 -0.2255884067429007 0 0.44986734021685498 -0.20644297965334649 0 0.44673315619821857 -0.2255884067429007 0 0.44986734021685498 -0.20644297965334649 0 0.45494703228505612 -0.22365309056703511 0 0.44673315619821857 -0.2255884067429007 0 0.44986734021685498 -0.20644297965334649 0 0.45300152423549178 -0.1872975525637923 0 0.44986734021685498 -0.20644297965334649 0 0.4422427041991972 -0.19293897445371649 0 0.45300152423549178 -0.1872975525637923 0 0.44986734021685498 -0.20644297965334649 0 0.4264315356173396 -0.20432849808395781 0 0.44986734021685498 -0.20644297965334649 0 0.4422427041991972 -0.19293897445371649 0 0.43189275347364769 -0.18601108132065861 0 0.4419738252115778 -0.1858134044909181 0 0.4422427041991972 -0.19293897445371649 0 0.4419738252115778 -0.1858134044909181 0 0.45051520093052061 -0.18628588467377419 0 0.4422427041991972 -0.19293897445371649 0 0.45051520093052061 -0.18628588467377419 0 0.45300152423549178 -0.1872975525637923 0 0.4422427041991972 -0.19293897445371649 0 0.45300152423549178 -0.1872975525637923 0 0.47650076211774711 -0.19685923119094451 0 0.45300152423549178 -0.1872975525637923 0 0.44986734021685498 -0.20644297965334649 0 0.46374770476768601 -0.204378797979305 0 0.45300152423549178 -0.1872975525637923 0 0.46374770476768601 -0.204378797979305 0 0.47650076211774711 -0.19685923119094451 0 0.45494703228505612 -0.22365309056703511 0 0.46412837801973811 -0.21929252942849389 0 0.44986734021685498 -0.20644297965334649 0 0.46412837801973811 -0.21929252942849389 0 0.44986734021685498 -0.20644297965334649 0 0.46374770476768601 -0.204378797979305 0 0.46412837801973811 -0.21929252942849389 0 0.46374770476768601 -0.204378797979305 0 0.47707366821483449 -0.2120031562722216 0 0.46374770476768601 -0.204378797979305 0 0.47707366821483449 -0.2120031562722216 0 0.47650076211774711 -0.19685923119094451 0 0.47650076211774711 -0.19685923119094451 0 0.50000000000000155 -0.2064209098180986 0 0.5 -0.18210721193063359 0 0.47650076211774711 -0.19685923119094451 0 0.50000000000000155 -0.2064209098180986 0 0.50000000000000155 -0.2064209098180986 0 0.48970053883092229 -0.21844058073303951 0 0.5 -0.23051517486053599 0 0.47707366821483449 -0.2120031562722216 0 0.47650076211774711 -0.19685923119094451 0 0.50000000000000155 -0.2064209098180986 0 0.47707366821483449 -0.2120031562722216 0 0.50000000000000155 -0.2064209098180986 0 0.48970053883092229 -0.21844058073303951 0 0.48970053883092229 -0.21844058073303951 0 0.5 -0.23051517486053599 0 0.47892356359843868 -0.22663529354614381 0 0.5 -0.23051517486053599 0 0.47892356359843868 -0.22663529354614381 0 0.48037632353124621 -0.24431513348718631 0 0.47707366821483449 -0.2120031562722216 0 0.48970053883092229 -0.21844058073303951 0 0.47892356359843868 -0.22663529354614381 0 0.46412837801973811 -0.21929252942849389 0 0.47707366821483449 -0.2120031562722216 0 0.47892356359843868 -0.22663529354614381 0 0.46412837801973811 -0.21929252942849389 0 0.47892356359843868 -0.22663529354614381 0 0.47030631581894022 -0.23354799250188951 0 0.47892356359843868 -0.22663529354614381 0 0.47030631581894022 -0.23354799250188951 0 0.48037632353124621 -0.24431513348718631 0 0.46848515047489081 -0.24338241864882551 0 0.48037632353124621 -0.24431513348718631 0 0.47379426967759908 -0.2551161382871 0 0.46848515047489081 -0.24338241864882551 0 0.47030631581894022 -0.23354799250188951 0 0.48037632353124621 -0.24431513348718631 0 0.5 -0.23051517486053599 0 0.48037632353124621 -0.24431513348718631 0 0.5 -0.25460943990297341 0 0.48037632353124621 -0.24431513348718631 0 0.5 -0.25460943990297341 0 0.48801367558502928 -0.26571606475136661 0 0.50000000000000022 -0.27870370494541058 0 0.48801367558502928 -0.26571606475136661 0 0.48931170978694949 -0.28678842150195 0 0.5 -0.25460943990297341 0 0.50000000000000022 -0.27870370494541058 0 0.48801367558502928 -0.26571606475136661 0 0.47426226649296438 -0.26883688314045567 0 0.47311276962135179 -0.28508457281551508 0 0.48931170978694949 -0.28678842150195 0 0.48801367558502928 -0.26571606475136661 0 0.47426226649296438 -0.26883688314045567 0 0.48931170978694949 -0.28678842150195 0 0.47426226649296438 -0.26883688314045567 0 0.48931170978694949 -0.28678842150195 0 0.47426226649296438 -0.26883688314045567 0 0.47379426967759908 -0.2551161382871 0 0.45921282319897938 -0.25088534477896152 0 0.48037632353124621 -0.24431513348718631 0 0.48801367558502928 -0.26571606475136661 0 0.47379426967759908 -0.2551161382871 0 0.48801367558502928 -0.26571606475136661 0 0.47426226649296438 -0.26883688314045567 0 0.47379426967759908 -0.2551161382871 0 0.47426226649296438 -0.26883688314045567 0 0.45921282319897938 -0.25088534477896152 0 0.45867357026917482 -0.26750260605831883 0 0.45921282319897938 -0.25088534477896152 0 0.45465358778727077 -0.25333862908624999 0 0.45867357026917482 -0.26750260605831883 0 0.47426226649296438 -0.26883688314045567 0 0.45921282319897938 -0.25088534477896152 0 0.45465358778727077 -0.25333862908624999 0 0.45867357026917482 -0.26750260605831883 0 0.44833932421064931 -0.25939718794918609 0 0.47426226649296438 -0.26883688314045567 0 0.45867357026917482 -0.26750260605831883 0 0.47311276962135179 -0.28508457281551508 0 0.45867357026917482 -0.26750260605831883 0 0.45341190072698129 -0.28456089864454431 0 0.47311276962135179 -0.28508457281551508 0 0.45867357026917482 -0.26750260605831883 0 0.44699314029513348 -0.27052543302498011 0 0.44833932421064931 -0.25939718794918609 0 0.45867357026917482 -0.26750260605831883 0 0.44699314029513348 -0.27052543302498011 0 0.45341190072698129 -0.28456089864454431 0 0.44699314029513348 -0.27052543302498011 0 0.43919222284155002 -0.27830080619971909 0 0.45341190072698129 -0.28456089864454431 0 0.44699314029513348 -0.27052543302498011 0 0.4385944452063526 -0.26988256164274432 0 0.44171549930134968 -0.26335377754900008 0 0.44699314029513348 -0.27052543302498011 0 0.43919222284155002 -0.27830080619971909 0 0.4385944452063526 -0.26988256164274432 0 0.4385944452063526 -0.26988256164274432 0 0.44171549930134968 -0.26335377754900008 0 0.43505770238402619 -0.26461992241763038 0 0.44171549930134968 -0.26335377754900008 0 0.43505770238402619 -0.26461992241763038 0 0.43648606404966428 -0.25753784968455939 0 0.44171549930134968 -0.26335377754900008 0 0.4419947323052219 -0.25760620957214742 0 0.44833932421064931 -0.25939718794918609 0 0.44171549930134968 -0.26335377754900008 0 0.4419947323052219 -0.25760620957214742 0 0.43648606404966428 -0.25753784968455939 0 0.43871762778532231 -0.25212208882244802 0 0.4419947323052219 -0.25760620957214742 0 0.43648606404966428 -0.25753784968455939 0 0.43917511256413022 -0.2466480151322302 0 0.43871762778532231 -0.25212208882244802 0 0.44412948591815982 -0.25166394159908168 0 0.43871762778532231 -0.25212208882244802 0 0.44412948591815982 -0.25166394159908168 0 0.4419947323052219 -0.25760620957214742 0 0.44412948591815982 -0.25166394159908168 0 0.4419947323052219 -0.25760620957214742 0 0.44833932421064931 -0.25939718794918609 0 0.44552755473851618 -0.24512414212957201 0 0.45465358778727077 -0.25333862908624999 0 0.44816248816364901 -0.25238097519102243 0 0.44412948591815982 -0.25166394159908168 0 0.44816248816364901 -0.25238097519102243 0 0.44833932421064931 -0.25939718794918609 0 0.45465358778727077 -0.25333862908624999 0 0.44816248816364901 -0.25238097519102243 0 0.44833932421064931 -0.25939718794918609 0 0.44699314029513348 -0.27052543302498011 0 0.44171549930134968 -0.26335377754900008 0 0.44833932421064931 -0.25939718794918609 0 0.44647667656812801 -0.29965112561783208 0 0.45137615954030103 -0.31548320476916308 0 0.43444005925229529 -0.31032905382020182 0 0.44647667656812801 -0.29965112561783208 0 0.43234265414258233 -0.29853995875229639 0 0.43444005925229529 -0.31032905382020182 0 0.44647667656812801 -0.29965112561783208 0 0.43824437449043008 -0.28966145028223478 0 0.43234265414258233 -0.29853995875229639 0 0.43919222284155002 -0.27830080619971909 0 0.43824437449043008 -0.28966145028223478 0 0.45341190072698129 -0.28456089864454431 0 0.44647667656812801 -0.29965112561783208 0 0.43824437449043008 -0.28966145028223478 0 0.45341190072698129 -0.28456089864454431 0 0.45341190072698129 -0.28456089864454431 0 0.47034393466362562 -0.30113581313555698 0 0.47311276962135179 -0.28508457281551508 0 0.44647667656812801 -0.29965112561783208 0 0.45341190072698129 -0.28456089864454431 0 0.47034393466362562 -0.30113581313555698 0 0.44647667656812801 -0.29965112561783208 0 0.47034393466362562 -0.30113581313555698 0 0.45137615954030103 -0.31548320476916308 0 0.47034393466362562 -0.30113581313555698 0 0.45137615954030103 -0.31548320476916308 0 0.47034393466362562 -0.30113581313555698 0 0.48609801829406513 -0.30033747069297151 0 0.48569838996659448 -0.31355153071673758 0 0.47034393466362562 -0.30113581313555698 0 0.48931170978694949 -0.28678842150195 0 0.47034393466362562 -0.30113581313555698 0 0.48931170978694949 -0.28678842150195 0 0.48609801829406513 -0.30033747069297151 0 0.47034393466362562 -0.30113581313555698 0 0.47311276962135179 -0.28508457281551508 0 0.48931170978694949 -0.28678842150195 0 0.50000000000000022 -0.27870370494541058 0 0.48931170978694949 -0.28678842150195 0 0.50000000000000078 -0.29953781349142472 0 0.48931170978694949 -0.28678842150195 0 0.48609801829406513 -0.30033747069297151 0 0.50000000000000078 -0.29953781349142472 0 0.48931170978694949 -0.28678842150195 0 0.50000000000000078 -0.29953781349142472 0 0.50000000000000022 -0.27870370494541058 0 0.48931170978694949 -0.28678842150195 0 0.48609801829406513 -0.30033747069297151 0 0.50000000000000078 -0.29953781349142472 0 0.48569838996659448 -0.31355153071673758 0 0.50000000000000078 -0.29953781349142472 0 0.48569838996659448 -0.31355153071673758 0 0.5 -0.32898483254094879 0 0.48569838996659448 -0.31355153071673758 0 0.5 -0.32898483254094879 0 0.4688689480981888 -0.32767699473222389 0 0.5 -0.32898483254094879 0 0.4688689480981888 -0.32767699473222389 0 0.47786930722932619 -0.34789692042963721 0 0.47034393466362562 -0.30113581313555698 0 0.48569838996659448 -0.31355153071673758 0 0.4688689480981888 -0.32767699473222389 0 0.5 -0.35843185159047292 0 0.47350757658922271 -0.36952329647287657 0 0.48620898030354948 -0.37918006028240092 0 0.5 -0.32898483254094879 0 0.5 -0.35843185159047292 0 0.47786930722932619 -0.34789692042963721 0 0.47786930722932619 -0.34789692042963721 0 0.47350757658922271 -0.36952329647287657 0 0.4655023448943818 -0.35719392053603988 0 0.5 -0.35843185159047292 0 0.47786930722932619 -0.34789692042963721 0 0.47350757658922271 -0.36952329647287657 0 0.45861777817450511 -0.36868509019449441 0 0.46271268513135372 -0.37747780338012438 0 0.45189505467726382 -0.37680202485208381 0 0.45861777817450511 -0.36868509019449441 0 0.44976491938063418 -0.36654981963533051 0 0.45189505467726382 -0.37680202485208381 0 0.47350757658922271 -0.36952329647287657 0 0.45861777817450511 -0.36868509019449441 0 0.46271268513135372 -0.37747780338012438 0 0.47350757658922271 -0.36952329647287657 0 0.45861777817450511 -0.36868509019449441 0 0.4655023448943818 -0.35719392053603988 0 0.45861777817450511 -0.36868509019449441 0 0.45601593140111862 -0.35990106862703092 0 0.44976491938063418 -0.36654981963533051 0 0.45861777817450511 -0.36868509019449441 0 0.45601593140111862 -0.35990106862703092 0 0.4655023448943818 -0.35719392053603988 0 0.47786930722932619 -0.34789692042963721 0 0.4655023448943818 -0.35719392053603988 0 0.45483150576365328 -0.34688844598146529 0 0.45601593140111862 -0.35990106862703092 0 0.4655023448943818 -0.35719392053603988 0 0.45483150576365328 -0.34688844598146529 0 0.45483150576365328 -0.34688844598146529 0 0.44020278747438729 -0.34510251360014332 0 0.44674619010751909 -0.35809924702175239 0 0.44020278747438729 -0.34510251360014332 0 0.43833245073232718 -0.35667994920926999 0 0.44674619010751909 -0.35809924702175239 0 0.45601593140111862 -0.35990106862703092 0 0.45483150576365328 -0.34688844598146529 0 0.44674619010751909 -0.35809924702175239 0 0.44674619010751909 -0.35809924702175239 0 0.44976491938063418 -0.36654981963533051 0 0.4432564460600979 -0.36443112509465042 0 0.45601593140111862 -0.35990106862703092 0 0.44674619010751909 -0.35809924702175239 0 0.44976491938063418 -0.36654981963533051 0 0.43833245073232718 -0.35667994920926999 0 0.44674619010751909 -0.35809924702175239 0 0.4432564460600979 -0.36443112509465042 0 0.43833245073232718 -0.35667994920926999 0 0.4432564460600979 -0.36443112509465042 0 0.43792231759094602 -0.36891862507496959 0 0.44976491938063418 -0.36654981963533051 0 0.4432564460600979 -0.36443112509465042 0 0.44173316381622191 -0.37123334486501253 0 0.4432564460600979 -0.36443112509465042 0 0.43792231759094602 -0.36891862507496959 0 0.44173316381622191 -0.37123334486501253 0 0.44976491938063418 -0.36654981963533051 0 0.44173316381622191 -0.37123334486501253 0 0.45189505467726382 -0.37680202485208381 0 0.4688689480981888 -0.32767699473222389 0 0.44744827938524201 -0.33285238680196422 0 0.45137615954030103 -0.31548320476916308 0 0.47034393466362562 -0.30113581313555698 0 0.4688689480981888 -0.32767699473222389 0 0.45137615954030103 -0.31548320476916308 0 0.4688689480981888 -0.32767699473222389 0 0.45483150576365328 -0.34688844598146529 0 0.44744827938524201 -0.33285238680196422 0 0.4688689480981888 -0.32767699473222389 0 0.47786930722932619 -0.34789692042963721 0 0.45483150576365328 -0.34688844598146529 0 0.45483150576365328 -0.34688844598146529 0 0.44020278747438729 -0.34510251360014332 0 0.44744827938524201 -0.33285238680196422 0 0.44020278747438729 -0.34510251360014332 0 0.44744827938524201 -0.33285238680196422 0 0.43240838441697632 -0.3298305964027694 0 0.45137615954030103 -0.31548320476916308 0 0.43240838441697632 -0.3298305964027694 0 0.43444005925229529 -0.31032905382020182 0 0.44744827938524201 -0.33285238680196422 0 0.45137615954030103 -0.31548320476916308 0 0.43240838441697632 -0.3298305964027694 0 0.45137615954030103 -0.31548320476916308 0 0.43240838441697632 -0.3298305964027694 0 0.42213808355103849 -0.31598854483820238 0 0.43240838441697632 -0.3298305964027694 0 0.43444005925229529 -0.31032905382020182 0 0.42213808355103849 -0.31598854483820238 0 0.43240838441697632 -0.3298305964027694 0 0.42063894984562838 -0.32794228428963068 0 0.43240838441697632 -0.3298305964027694 0 0.42063894984562838 -0.32794228428963068 0 0.42353451242868528 -0.3468482352548341 0 0.44020278747438729 -0.34510251360014332 0 0.43240838441697632 -0.3298305964027694 0 0.42353451242868528 -0.3468482352548341 0 0.4091467072664246 -0.32477784543469868 0 0.42353451242868528 -0.3468482352548341 0 0.4091467072664246 -0.32477784543469868 0 0.42063894984562838 -0.32794228428963068 0 0.42353451242868528 -0.3468482352548341 0 0.41089111725139721 -0.34269856142925859 0 0.4091467072664246 -0.32477784543469868 0 0.42353451242868528 -0.3468482352548341 0 0.41089111725139721 -0.34269856142925859 0 0.4091467072664246 -0.32477784543469868 0 0.40425152475925441 -0.33267251048098129 0 0.4091467072664246 -0.32477784543469868 0 0.41500843607520332 -0.31765864762852652 0 0.40782856937156858 -0.30992265774813338 0 0.42213808355103849 -0.31598854483820238 0 0.41500843607520332 -0.31765864762852652 0 0.41528987034135628 -0.30966190583196729 0 0.4091467072664246 -0.32477784543469868 0 0.41500843607520332 -0.31765864762852652 0 0.42063894984562838 -0.32794228428963068 0 0.42213808355103849 -0.31598854483820238 0 0.41500843607520332 -0.31765864762852652 0 0.42063894984562838 -0.32794228428963068 0 0.43792231759094602 -0.36891862507496959 0 0.42718561209050382 -0.36319872422350041 0 0.42353451242868528 -0.3468482352548341 0 0.43792231759094602 -0.36891862507496959 0 0.44173316381622191 -0.37123334486501253 0 0.43018656974337233 -0.3834847830435818 0 0.43792231759094602 -0.36891862507496959 0 0.42661372489006832 -0.37330916830292271 0 0.42718561209050382 -0.36319872422350041 0 0.42661372489006832 -0.37330916830292271 0 0.42718561209050382 -0.36319872422350041 0 0.42067189345231581 -0.36371886826127509 0 0.43792231759094602 -0.36891862507496959 0 0.42353451242868528 -0.3468482352548341 0 0.42718561209050382 -0.36319872422350041 0 0.42353451242868528 -0.3468482352548341 0 0.42067189345231581 -0.36371886826127509 0 0.43833245073232718 -0.35667994920926999 0 0.43792231759094602 -0.36891862507496959 0 0.42353451242868528 -0.3468482352548341 0 0.44020278747438729 -0.34510251360014332 0 0.43833245073232718 -0.35667994920926999 0 0.42353451242868528 -0.3468482352548341 0 0.42353451242868528 -0.3468482352548341 0 0.41118608239640281 -0.35773278074769221 0 0.42067189345231581 -0.36371886826127509 0 0.41089111725139721 -0.34269856142925859 0 0.42353451242868528 -0.3468482352548341 0 0.41118608239640281 -0.35773278074769221 0 0.41089111725139721 -0.34269856142925859 0 0.41118608239640281 -0.35773278074769221 0 0.40345194384414051 -0.35159281539693271 0 0.42661372489006832 -0.37330916830292271 0 0.42067189345231581 -0.36371886826127509 0 0.40978735765452701 -0.3715350174533486 0 0.41118608239640281 -0.35773278074769221 0 0.42067189345231581 -0.36371886826127509 0 0.40978735765452701 -0.3715350174533486 0 0.39634156242657448 -0.36307978873527152 0 0.40109715774397792 -0.38275058451944882 0 0.38240798480570892 -0.37852010314408679 0 0.40978735765452701 -0.3715350174533486 0 0.39634156242657448 -0.36307978873527152 0 0.40109715774397792 -0.38275058451944882 0 0.41118608239640281 -0.35773278074769221 0 0.40978735765452701 -0.3715350174533486 0 0.39634156242657448 -0.36307978873527152 0 0.39634156242657448 -0.36307978873527152 0 0.40345194384414051 -0.35159281539693271 0 0.39209624447111568 -0.34275609473116092 0 0.41118608239640281 -0.35773278074769221 0 0.39634156242657448 -0.36307978873527152 0 0.40345194384414051 -0.35159281539693271 0 0.40345194384414051 -0.35159281539693271 0 0.40267270758147689 -0.34242999550958342 0 0.39209624447111568 -0.34275609473116092 0 0.41089111725139721 -0.34269856142925859 0 0.40345194384414051 -0.35159281539693271 0 0.40267270758147689 -0.34242999550958342 0 0.39634156242657448 -0.36307978873527152 0 0.37618485313497191 -0.35303141813195599 0 0.39209624447111568 -0.34275609473116092 0 0.39634156242657448 -0.36307978873527152 0 0.37618485313497191 -0.35303141813195599 0 0.38240798480570892 -0.37852010314408679 0 0.37618485313497191 -0.35303141813195599 0 0.38240798480570892 -0.37852010314408679 0 0.40425152475925441 -0.33267251048098129 0 0.39300241843570249 -0.3110378002903586 0 0.4091467072664246 -0.32477784543469868 0 0.39300241843570249 -0.3110378002903586 0 0.39475890210416392 -0.30270745561456308 0 0.4091467072664246 -0.32477784543469868 0 0.39475890210416392 -0.30270745561456308 0 0.4091467072664246 -0.32477784543469868 0 0.40425152475925441 -0.33267251048098129 0 0.39300241843570249 -0.3110378002903586 0 0.40425152475925441 -0.33267251048098129 0 0.38822804294015112 -0.3261114208869455 0 0.39300241843570249 -0.3110378002903586 0 0.40425152475925441 -0.33267251048098129 0 0.39209624447111568 -0.34275609473116092 0 0.38822804294015112 -0.3261114208869455 0 0.40425152475925441 -0.33267251048098129 0 0.40267270758147689 -0.34242999550958342 0 0.39209624447111568 -0.34275609473116092 0 0.41089111725139721 -0.34269856142925859 0 0.40425152475925441 -0.33267251048098129 0 0.40267270758147689 -0.34242999550958342 0 0.37618485313497191 -0.35303141813195599 0 0.39209624447111568 -0.34275609473116092 0 0.36996172146423478 -0.32754273311982529 0 0.39209624447111568 -0.34275609473116092 0 0.38822804294015112 -0.3261114208869455 0 0.36996172146423478 -0.32754273311982529 0 0.38822804294015112 -0.3261114208869455 0 0.38164260336710232 -0.31615744579396521 0 0.36996172146423478 -0.32754273311982529 0 0.38822804294015112 -0.3261114208869455 0 0.38164260336710232 -0.31615744579396521 0 0.39300241843570249 -0.3110378002903586 0 0.38177106400017391 -0.30862132669022929 0 0.38029466251644028 -0.29986647237510811 0 0.37214457168145071 -0.30742358830148531 0 0.39300241843570249 -0.3110378002903586 0 0.38175331211215058 -0.28940309009973592 0 0.38164260336710232 -0.31615744579396521 0 0.38177106400017391 -0.30862132669022929 0 0.37214457168145071 -0.30742358830148531 0 0.39300241843570249 -0.3110378002903586 0 0.39475890210416392 -0.30270745561456308 0 0.38175331211215058 -0.28940309009973592 0 0.38029466251644028 -0.29986647237510811 0 0.39300241843570249 -0.3110378002903586 0 0.38175331211215058 -0.28940309009973592 0 0.38164260336710232 -0.31615744579396521 0 0.38177106400017391 -0.30862132669022929 0 0.39300241843570249 -0.3110378002903586 0 0.38177106400017391 -0.30862132669022929 0 0.38029466251644028 -0.29986647237510811 0 0.39300241843570249 -0.3110378002903586 0 0.4091467072664246 -0.32477784543469868 0 0.39475890210416392 -0.30270745561456308 0 0.40782856937156858 -0.30992265774813338 0 0.39475890210416392 -0.30270745561456308 0 0.40429755200803852 -0.3015310211561289 0 0.40149673409666831 -0.29605944040816118 0 0.40429755200803852 -0.3015310211561289 0 0.40149673409666831 -0.29605944040816118 0 0.40808526015628949 -0.29523915444325732 0 0.39475890210416392 -0.30270745561456308 0 0.40429755200803852 -0.3015310211561289 0 0.40782856937156858 -0.30992265774813338 0 0.39475890210416392 -0.30270745561456308 0 0.39730188346755718 -0.29161135963752222 0 0.39142402894447709 -0.286435042888317 0 0.40304007274729231 -0.28920821118933449 0 0.39763996789025002 -0.28367275964584732 0 0.40506285170047662 -0.28083922749534462 0 0.40304007274729231 -0.28920821118933449 0 0.39730188346755718 -0.29161135963752222 0 0.39763996789025002 -0.28367275964584732 0 0.40304007274729231 -0.28920821118933449 0 0.40149673409666831 -0.29605944040816118 0 0.40808526015628949 -0.29523915444325732 0 0.40304007274729231 -0.28920821118933449 0 0.40149673409666831 -0.29605944040816118 0 0.39730188346755718 -0.29161135963752222 0 0.39475890210416392 -0.30270745561456308 0 0.40149673409666831 -0.29605944040816118 0 0.39730188346755718 -0.29161135963752222 0 0.39763996789025002 -0.28367275964584732 0 0.39142402894447709 -0.286435042888317 0 0.39195529533629442 -0.27806131115557092 0 0.39730188346755718 -0.29161135963752222 0 0.39763996789025002 -0.28367275964584732 0 0.39142402894447709 -0.286435042888317 0 0.39475890210416392 -0.30270745561456308 0 0.38037109694190308 -0.28063706579442749 0 0.39475890210416392 -0.30270745561456308 0 0.38175331211215058 -0.28940309009973592 0 0.38037109694190308 -0.28063706579442749 0 0.39142402894447709 -0.286435042888317 0 0.38037109694190308 -0.28063706579442749 0 0.38713910380081668 -0.27916368249890622 0 0.39475890210416392 -0.30270745561456308 0 0.39142402894447709 -0.286435042888317 0 0.38037109694190308 -0.28063706579442749 0 0.38029466251644028 -0.29986647237510811 0 0.38175331211215058 -0.28940309009973592 0 0.37093408616543422 -0.29499190654120538 0 0.38175331211215058 -0.28940309009973592 0 0.37050420578859872 -0.26776837990911312 0 0.38175331211215058 -0.28940309009973592 0 0.38037109694190308 -0.28063706579442749 0 0.37050420578859872 -0.26776837990911312 0 0.38037109694190308 -0.28063706579442749 0 0.38480599398059251 -0.27152131015730951 0 0.37050420578859872 -0.26776837990911312 0 0.38480599398059251 -0.27152131015730951 0 0.39244458987216091 -0.26161417174629581 0 0.39261010037049587 -0.27136451795379868 0 0.38037109694190308 -0.28063706579442749 0 0.38480599398059251 -0.27152131015730951 0 0.38713910380081668 -0.27916368249890622 0 0.38480599398059251 -0.27152131015730951 0 0.38713910380081668 -0.27916368249890622 0 0.39195529533629442 -0.27806131115557092 0 0.39142402894447709 -0.286435042888317 0 0.38713910380081668 -0.27916368249890622 0 0.39195529533629442 -0.27806131115557092 0 0.38480599398059251 -0.27152131015730951 0 0.39195529533629442 -0.27806131115557092 0 0.39261010037049587 -0.27136451795379868 0 0.38480599398059251 -0.27152131015730951 0 0.37962897743813367 -0.25651992395937562 0 0.37050420578859872 -0.26776837990911312 0 0.38480599398059251 -0.27152131015730951 0 0.37962897743813367 -0.25651992395937562 0 0.39244458987216091 -0.26161417174629581 0 0.39078422201957003 -0.24969070593678949 0 0.37962897743813367 -0.25651992395937562 0 0.39244458987216091 -0.26161417174629581 0 0.39078422201957003 -0.24969070593678949 0 0.39244458987216091 -0.26161417174629581 0 0.40410575785193181 -0.25828851936103481 0 0.39244458987216091 -0.26161417174629581 0 0.40410575785193181 -0.25828851936103481 0 0.39822211595326279 -0.26692182407365989 0 0.40410575785193181 -0.25828851936103481 0 0.39822211595326279 -0.26692182407365989 0 0.40492140044583741 -0.26790783212078467 0 0.40410575785193181 -0.25828851936103481 0 0.40492140044583741 -0.26790783212078467 0 0.40945290732670331 -0.26396052327947239 0 0.39078422201957003 -0.24969070593678949 0 0.40271577749504128 -0.24808950568319249 0 0.40410575785193181 -0.25828851936103481 0 0.40271577749504128 -0.24808950568319249 0 0.40410575785193181 -0.25828851936103481 0 0.41170531542548788 -0.25126417515390992 0 0.39763996789025002 -0.28367275964584732 0 0.39195529533629442 -0.27806131115557092 0 0.39894115351181969 -0.27424944313259708 0 0.39195529533629442 -0.27806131115557092 0 0.39261010037049587 -0.27136451795379868 0 0.39894115351181969 -0.27424944313259708 0 0.39244458987216091 -0.26161417174629581 0 0.39261010037049587 -0.27136451795379868 0 0.39822211595326279 -0.26692182407365989 0 0.39261010037049587 -0.27136451795379868 0 0.39822211595326279 -0.26692182407365989 0 0.39894115351181969 -0.27424944313259708 0 0.39822211595326279 -0.26692182407365989 0 0.40492140044583741 -0.26790783212078467 0 0.39894115351181969 -0.27424944313259708 0 0.40492140044583741 -0.26790783212078467 0 0.39894115351181969 -0.27424944313259708 0 0.40712920685057652 -0.27420612675110112 0 0.39763996789025002 -0.28367275964584732 0 0.39894115351181969 -0.27424944313259708 0 0.40506285170047662 -0.28083922749534462 0 0.39894115351181969 -0.27424944313259708 0 0.40506285170047662 -0.28083922749534462 0 0.40712920685057652 -0.27420612675110112 0 0.40506285170047662 -0.28083922749534462 0 0.41284697370079432 -0.2782971556212297 0 0.40712920685057652 -0.27420612675110112 0 0.41284697370079432 -0.2782971556212297 0 0.40712920685057652 -0.27420612675110112 0 0.41387365489395472 -0.26973697538554919 0 0.40492140044583741 -0.26790783212078467 0 0.41387365489395472 -0.26973697538554919 0 0.40945290732670331 -0.26396052327947239 0 0.40492140044583741 -0.26790783212078467 0 0.40712920685057652 -0.27420612675110112 0 0.41387365489395472 -0.26973697538554919 0 0.41387365489395472 -0.26973697538554919 0 0.42135307316749521 -0.27487684751024949 0 0.42100146315739412 -0.26552033609670711 0 0.41284697370079432 -0.2782971556212297 0 0.41387365489395472 -0.26973697538554919 0 0.42135307316749521 -0.27487684751024949 0 0.41284697370079432 -0.2782971556212297 0 0.42135307316749521 -0.27487684751024949 0 0.41975251852593748 -0.28445801958006911 0 0.40410575785193181 -0.25828851936103481 0 0.41170531542548788 -0.25126417515390992 0 0.41491081611508918 -0.25990876625052101 0 0.40410575785193181 -0.25828851936103481 0 0.40945290732670331 -0.26396052327947239 0 0.41491081611508918 -0.25990876625052101 0 0.41387365489395472 -0.26973697538554919 0 0.40945290732670331 -0.26396052327947239 0 0.41491081611508918 -0.25990876625052101 0 0.41387365489395472 -0.26973697538554919 0 0.42100146315739412 -0.26552033609670711 0 0.41491081611508918 -0.25990876625052101 0 0.42100146315739412 -0.26552033609670711 0 0.42163465399116667 -0.25872199059074641 0 0.41491081611508918 -0.25990876625052101 0 0.41170531542548788 -0.25126417515390992 0 0.41491081611508918 -0.25990876625052101 0 0.41853295725520467 -0.25391274615775578 0 0.42163465399116667 -0.25872199059074641 0 0.41491081611508918 -0.25990876625052101 0 0.41853295725520467 -0.25391274615775578 0 0.42163465399116667 -0.25872199059074641 0 0.41853295725520467 -0.25391274615775578 0 0.42541254610488072 -0.25270056741268049 0 0.4190014546393992 -0.24696823138092139 0 0.41853295725520467 -0.25391274615775578 0 0.42541254610488072 -0.25270056741268049 0 0.4190014546393992 -0.24696823138092139 0 0.41170531542548788 -0.25126417515390992 0 0.41853295725520467 -0.25391274615775578 0 0.42163465399116667 -0.25872199059074641 0 0.42541254610488072 -0.25270056741268049 0 0.42845093672784768 -0.26136295507116752 0 0.42541254610488072 -0.25270056741268049 0 0.42845093672784768 -0.26136295507116752 0 0.43126889086453951 -0.25455984543500237 0 0.42100146315739412 -0.26552033609670711 0 0.42163465399116667 -0.25872199059074641 0 0.42845093672784768 -0.26136295507116752 0 0.42845093672784768 -0.26136295507116752 0 0.43505770238402619 -0.26461992241763038 0 0.43648606404966428 -0.25753784968455939 0 0.42845093672784768 -0.26136295507116752 0 0.43505770238402619 -0.26461992241763038 0 0.43027170394141367 -0.27054512142908671 0 0.42845093672784768 -0.26136295507116752 0 0.43126889086453951 -0.25455984543500237 0 0.43648606404966428 -0.25753784968455939 0 0.43871762778532231 -0.25212208882244802 0 0.43126889086453951 -0.25455984543500237 0 0.43648606404966428 -0.25753784968455939 0 0.43292967301130941 -0.2488540036824014 0 0.43871762778532231 -0.25212208882244802 0 0.43126889086453951 -0.25455984543500237 0 0.43292967301130941 -0.2488540036824014 0 0.42541254610488072 -0.25270056741268049 0 0.43126889086453951 -0.25455984543500237 0 0.42135307316749521 -0.27487684751024949 0 0.42956799811030638 -0.28148515248710693 0 0.41975251852593748 -0.28445801958006911 0 0.42135307316749521 -0.27487684751024949 0 0.43027170394141367 -0.27054512142908671 0 0.42956799811030638 -0.28148515248710693 0 0.42135307316749521 -0.27487684751024949 0 0.42100146315739412 -0.26552033609670711 0 0.43027170394141367 -0.27054512142908671 0 0.42100146315739412 -0.26552033609670711 0 0.42845093672784768 -0.26136295507116752 0 0.43027170394141367 -0.27054512142908671 0 0.43919222284155002 -0.27830080619971909 0 0.4385944452063526 -0.26988256164274432 0 0.43027170394141367 -0.27054512142908671 0 0.4385944452063526 -0.26988256164274432 0 0.43505770238402619 -0.26461992241763038 0 0.43027170394141367 -0.27054512142908671 0 0.43919222284155002 -0.27830080619971909 0 0.43027170394141367 -0.27054512142908671 0 0.42956799811030638 -0.28148515248710693 0 0.43824437449043008 -0.28966145028223478 0 0.42956799811030638 -0.28148515248710693 0 0.42651213435721103 -0.29151489344350012 0 0.43919222284155002 -0.27830080619971909 0 0.43824437449043008 -0.28966145028223478 0 0.42956799811030638 -0.28148515248710693 0 0.42956799811030638 -0.28148515248710693 0 0.42651213435721103 -0.29151489344350012 0 0.41975251852593748 -0.28445801958006911 0 0.42651213435721103 -0.29151489344350012 0 0.42265725367426682 -0.30260234616053761 0 0.41710028749217543 -0.29373719746223742 0 0.43824437449043008 -0.28966145028223478 0 0.42651213435721103 -0.29151489344350012 0 0.43234265414258233 -0.29853995875229639 0 0.43234265414258233 -0.29853995875229639 0 0.43444005925229529 -0.31032905382020182 0 0.42265725367426682 -0.30260234616053761 0 0.42213808355103849 -0.31598854483820238 0 0.43444005925229529 -0.31032905382020182 0 0.42265725367426682 -0.30260234616053761 0 0.42651213435721103 -0.29151489344350012 0 0.43234265414258233 -0.29853995875229639 0 0.42265725367426682 -0.30260234616053761 0 0.42265725367426682 -0.30260234616053761 0 0.41237795257390419 -0.3022181237121867 0 0.41710028749217543 -0.29373719746223742 0 0.42213808355103849 -0.31598854483820238 0 0.42265725367426682 -0.30260234616053761 0 0.41528987034135628 -0.30966190583196729 0 0.42265725367426682 -0.30260234616053761 0 0.41528987034135628 -0.30966190583196729 0 0.41237795257390419 -0.3022181237121867 0 0.41500843607520332 -0.31765864762852652 0 0.41528987034135628 -0.30966190583196729 0 0.40782856937156858 -0.30992265774813338 0 0.41528987034135628 -0.30966190583196729 0 0.40782856937156858 -0.30992265774813338 0 0.41237795257390419 -0.3022181237121867 0 0.40429755200803852 -0.3015310211561289 0 0.41237795257390419 -0.3022181237121867 0 0.40808526015628949 -0.29523915444325732 0 0.41237795257390419 -0.3022181237121867 0 0.40808526015628949 -0.29523915444325732 0 0.41710028749217543 -0.29373719746223742 0 0.40429755200803852 -0.3015310211561289 0 0.40782856937156858 -0.30992265774813338 0 0.41237795257390419 -0.3022181237121867 0 0.40808526015628949 -0.29523915444325732 0 0.41113464432764291 -0.28683687095609128 0 0.41710028749217543 -0.29373719746223742 0 0.40304007274729231 -0.28920821118933449 0 0.40808526015628949 -0.29523915444325732 0 0.41113464432764291 -0.28683687095609128 0 0.40304007274729231 -0.28920821118933449 0 0.40506285170047662 -0.28083922749534462 0 0.41113464432764291 -0.28683687095609128 0 0.40506285170047662 -0.28083922749534462 0 0.41284697370079432 -0.2782971556212297 0 0.41113464432764291 -0.28683687095609128 0 0.41284697370079432 -0.2782971556212297 0 0.41113464432764291 -0.28683687095609128 0 0.41975251852593748 -0.28445801958006911 0 0.41113464432764291 -0.28683687095609128 0 0.41975251852593748 -0.28445801958006911 0 0.41710028749217543 -0.29373719746223742 0 0.42651213435721103 -0.29151489344350012 0 0.41975251852593748 -0.28445801958006911 0 0.41710028749217543 -0.29373719746223742 0 0.44904225237101492 -0.50000000000000033 0 0.45004401508161579 -0.4787570704506926 0 0.43421240961939139 -0.49999999999999972 0 0.44904225237101492 -0.50000000000000033 0 0.45004401508161579 -0.4787570704506926 0 0.45004401508161579 -0.4787570704506926 0 0.43065669488015018 -0.48070599894378141 0 0.43421240961939139 -0.49999999999999972 0 0.45004401508161579 -0.4787570704506926 0 0.43566071353235342 -0.46355264343579089 0 0.43065669488015018 -0.48070599894378141 0 0.45004401508161579 -0.4787570704506926 0 0.47115653038696198 -0.47458122981084161 0 0.46628057992027361 -0.46016057875321997 0 0.44904225237101492 -0.50000000000000033 0 0.45004401508161579 -0.4787570704506926 0 0.47115653038696198 -0.47458122981084161 0 0.5 -0.5 0 0.47115653038696198 -0.47458122981084161 0 0.5 -0.45186915055015731 0 0.44904225237101492 -0.50000000000000033 0 0.5 -0.5 0 0.47115653038696198 -0.47458122981084161 0 0.47115653038696198 -0.47458122981084161 0 0.48077102025797452 -0.45549611643706822 0 0.46628057992027361 -0.46016057875321997 0 0.47115653038696198 -0.47458122981084161 0 0.48077102025797452 -0.45549611643706822 0 0.47115653038696198 -0.47458122981084161 0 0.48077102025797452 -0.45549611643706822 0 0.5 -0.45186915055015731 0 0.48077102025797452 -0.45549611643706822 0 0.47047881694724669 -0.44903457528364688 0 0.46628057992027361 -0.46016057875321997 0 0.48077102025797452 -0.45549611643706822 0 0.49038551012898701 -0.43641100306329461 0 0.48077102025797452 -0.45549611643706822 0 0.5 -0.45186915055015731 0 0.49038551012898701 -0.43641100306329461 0 0.48077102025797452 -0.45549611643706822 0 0.47754833864438551 -0.44218946840133899 0 0.49038551012898701 -0.43641100306329461 0 0.48077102025797452 -0.45549611643706822 0 0.47754833864438551 -0.44218946840133899 0 0.47047881694724669 -0.44903457528364688 0 0.47754833864438551 -0.44218946840133899 0 0.47047881694724669 -0.44903457528364688 0 0.46852552080992549 -0.44048839695443598 0 0.45926862510367472 -0.44683831587217138 0 0.45104577779221661 -0.45751414090138481 0 0.45204754050281742 -0.43627121135207708 0 0.46852552080992549 -0.44048839695443598 0 0.45926862510367472 -0.44683831587217138 0 0.46246741514551631 -0.43660855176593799 0 0.45926862510367472 -0.44683831587217138 0 0.45204754050281742 -0.43627121135207708 0 0.46246741514551631 -0.43660855176593799 0 0.47047881694724669 -0.44903457528364688 0 0.46852552080992549 -0.44048839695443598 0 0.45926862510367472 -0.44683831587217138 0 0.47047881694724669 -0.44903457528364688 0 0.45926862510367472 -0.44683831587217138 0 0.46628057992027361 -0.46016057875321997 0 0.45004401508161579 -0.4787570704506926 0 0.46628057992027361 -0.46016057875321997 0 0.45104577779221661 -0.45751414090138481 0 0.45926862510367472 -0.44683831587217138 0 0.46628057992027361 -0.46016057875321997 0 0.45104577779221661 -0.45751414090138481 0 0.45004401508161579 -0.4787570704506926 0 0.45104577779221661 -0.45751414090138481 0 0.43566071353235342 -0.46355264343579089 0 0.45004401508161579 -0.4787570704506926 0 0.45104577779221661 -0.45751414090138481 0 0.45104577779221661 -0.45751414090138481 0 0.43823690162582152 -0.442656551615 0 0.43566071353235342 -0.46355264343579089 0 0.45104577779221661 -0.45751414090138481 0 0.45204754050281742 -0.43627121135207708 0 0.45104577779221661 -0.45751414090138481 0 0.43823690162582152 -0.442656551615 0 0.45204754050281742 -0.43627121135207708 0 0.45430136434918972 -0.42968477721519488 0 0.43040870373640522 -0.42960949699457918 0 0.4445886017928069 -0.41946726592624312 0 0.45430136434918972 -0.42968477721519488 0 0.43040870373640522 -0.42960949699457918 0 0.43823690162582152 -0.442656551615 0 0.45204754050281742 -0.43627121135207708 0 0.43040870373640522 -0.42960949699457918 0 0.45204754050281742 -0.43627121135207708 0 0.45430136434918972 -0.42968477721519488 0 0.43040870373640522 -0.42960949699457918 0 0.4445886017928069 -0.41946726592624312 0 0.45626400488001012 -0.41852232274223139 0 0.45430136434918972 -0.42968477721519488 0 0.4445886017928069 -0.41946726592624312 0 0.45030067759957459 -0.40920304056939583 0 0.43607093377631329 -0.40042142092979582 0 0.4445886017928069 -0.41946726592624312 0 0.45030067759957459 -0.40920304056939583 0 0.45626400488001012 -0.41852232274223139 0 0.45030067759957459 -0.40920304056939583 0 0.45626400488001012 -0.41852232274223139 0 0.46461227738567717 -0.40399461877989912 0 0.45626400488001012 -0.41852232274223139 0 0.46727733630446061 -0.4192115361233813 0 0.46461227738567717 -0.40399461877989912 0 0.45430136434918972 -0.42968477721519488 0 0.47819402496197411 -0.42976005743581058 0 0.46727733630446061 -0.4192115361233813 0 0.45430136434918972 -0.42968477721519488 0 0.47819402496197411 -0.42976005743581058 0 0.45430136434918972 -0.42968477721519488 0 0.46246741514551631 -0.43660855176593799 0 0.47819402496197411 -0.42976005743581058 0 0.45626400488001012 -0.41852232274223139 0 0.46727733630446061 -0.4192115361233813 0 0.45430136434918972 -0.42968477721519488 0 0.45204754050281742 -0.43627121135207708 0 0.45430136434918972 -0.42968477721519488 0 0.46246741514551631 -0.43660855176593799 0 0.5 -0.45186915055015731 0 0.49038551012898701 -0.43641100306329461 0 0.49999999999999978 -0.41732588968952122 0 0.47754833864438551 -0.44218946840133899 0 0.46852552080992549 -0.44048839695443598 0 0.47819402496197411 -0.42976005743581058 0 0.46852552080992549 -0.44048839695443598 0 0.46246741514551631 -0.43660855176593799 0 0.47819402496197411 -0.42976005743581058 0 0.47754833864438551 -0.44218946840133899 0 0.47819402496197411 -0.42976005743581058 0 0.49038551012898701 -0.43641100306329461 0 0.47819402496197411 -0.42976005743581058 0 0.49038551012898701 -0.43641100306329461 0 0.49999999999999978 -0.41732588968952122 0 0.49038551012898701 -0.43641100306329461 0 0.49999999999999978 -0.41732588968952122 0 0.49999999999999978 -0.41732588968952122 0 0.47803026485536992 -0.41388491951904732 0 0.48349128744616809 -0.3981477611786608 0 0.47819402496197411 -0.42976005743581058 0 0.49999999999999978 -0.41732588968952122 0 0.47803026485536992 -0.41388491951904732 0 0.46727733630446061 -0.4192115361233813 0 0.47819402496197411 -0.42976005743581058 0 0.47803026485536992 -0.41388491951904732 0 0.46727733630446061 -0.4192115361233813 0 0.47803026485536992 -0.41388491951904732 0 0.46461227738567717 -0.40399461877989912 0 0.47803026485536992 -0.41388491951904732 0 0.48349128744616809 -0.3981477611786608 0 0.46461227738567717 -0.40399461877989912 0 0.48349128744616809 -0.3981477611786608 0 0.47209620213241288 -0.38662220816109938 0 0.46461227738567717 -0.40399461877989912 0 0.49999999999999978 -0.41732588968952122 0 0.48349128744616809 -0.3981477611786608 0 0.5 -0.38787887063999699 0 0.48349128744616809 -0.3981477611786608 0 0.48620898030354948 -0.37918006028240092 0 0.5 -0.38787887063999699 0 0.5 -0.35843185159047292 0 0.48620898030354948 -0.37918006028240092 0 0.5 -0.38787887063999699 0 0.47350757658922271 -0.36952329647287657 0 0.47209620213241288 -0.38662220816109938 0 0.46271268513135372 -0.37747780338012438 0 0.48349128744616809 -0.3981477611786608 0 0.48620898030354948 -0.37918006028240092 0 0.47209620213241288 -0.38662220816109938 0 0.47350757658922271 -0.36952329647287657 0 0.48620898030354948 -0.37918006028240092 0 0.47209620213241288 -0.38662220816109938 0 0.46271268513135372 -0.37747780338012438 0 0.45744681408336407 -0.38575639722006821 0 0.45189505467726382 -0.37680202485208381 0 0.47209620213241288 -0.38662220816109938 0 0.46271268513135372 -0.37747780338012438 0 0.45744681408336407 -0.38575639722006821 0 0.47209620213241288 -0.38662220816109938 0 0.45744681408336407 -0.38575639722006821 0 0.46461227738567717 -0.40399461877989912 0 0.45744681408336407 -0.38575639722006821 0 0.46461227738567717 -0.40399461877989912 0 0.45184219469928433 -0.39789486874989249 0 0.45030067759957459 -0.40920304056939583 0 0.46461227738567717 -0.40399461877989912 0 0.45184219469928433 -0.39789486874989249 0 0.45030067759957459 -0.40920304056939583 0 0.45184219469928433 -0.39789486874989249 0 0.43607093377631329 -0.40042142092979582 0 0.45184219469928433 -0.39789486874989249 0 0.44708058619903079 -0.38729405048447457 0 0.43607093377631329 -0.40042142092979582 0 0.44173316381622191 -0.37123334486501253 0 0.45189505467726382 -0.37680202485208381 0 0.44708058619903079 -0.38729405048447457 0 0.44173316381622191 -0.37123334486501253 0 0.44708058619903079 -0.38729405048447457 0 0.43607093377631329 -0.40042142092979582 0 0.44173316381622191 -0.37123334486501253 0 0.43607093377631329 -0.40042142092979582 0 0.45744681408336407 -0.38575639722006821 0 0.45189505467726382 -0.37680202485208381 0 0.44708058619903079 -0.38729405048447457 0 0.45744681408336407 -0.38575639722006821 0 0.45184219469928433 -0.39789486874989249 0 0.44708058619903079 -0.38729405048447457 0 0.44173316381622191 -0.37123334486501253 0 0.43018656974337233 -0.3834847830435818 0 0.43607093377631329 -0.40042142092979582 0 0.42661372489006832 -0.37330916830292271 0 0.43018656974337233 -0.3834847830435818 0 0.41571052833623512 -0.38186572013688852 0 0.43792231759094602 -0.36891862507496959 0 0.42661372489006832 -0.37330916830292271 0 0.43018656974337233 -0.3834847830435818 0 0.43607093377631329 -0.40042142092979582 0 0.41370439676437609 -0.3974940894908795 0 0.41981869584763148 -0.41440516100429259 0 0.43018656974337233 -0.3834847830435818 0 0.43607093377631329 -0.40042142092979582 0 0.41370439676437609 -0.3974940894908795 0 0.43018656974337233 -0.3834847830435818 0 0.41370439676437609 -0.3974940894908795 0 0.41571052833623512 -0.38186572013688852 0 0.41370439676437609 -0.3974940894908795 0 0.41571052833623512 -0.38186572013688852 0 0.40109715774397792 -0.38275058451944882 0 0.42661372489006832 -0.37330916830292271 0 0.40978735765452701 -0.3715350174533486 0 0.41571052833623512 -0.38186572013688852 0 0.40978735765452701 -0.3715350174533486 0 0.41571052833623512 -0.38186572013688852 0 0.40109715774397792 -0.38275058451944882 0 0.40109715774397792 -0.38275058451944882 0 0.38240798480570892 -0.37852010314408679 0 0.38863111647644599 -0.40400878815621749 0 0.38240798480570892 -0.37852010314408679 0 0.38863111647644599 -0.40400878815621749 0 0.38863111647644599 -0.40400878815621749 0 0.37176003243497441 -0.40998872043702711 0 0.36795612070160122 -0.3943037227883871 0 0.38240798480570892 -0.37852010314408679 0 0.38863111647644599 -0.40400878815621749 0 0.36795612070160122 -0.3943037227883871 0 0.41370439676437609 -0.3974940894908795 0 0.38863111647644599 -0.40400878815621749 0 0.4062779690192711 -0.41494731252474337 0 0.41370439676437609 -0.3974940894908795 0 0.40109715774397792 -0.38275058451944882 0 0.38863111647644599 -0.40400878815621749 0 0.38863111647644599 -0.40400878815621749 0 0.39485424814717818 -0.42949747316834941 0 0.4062779690192711 -0.41494731252474337 0 0.38863111647644599 -0.40400878815621749 0 0.39485424814717818 -0.42949747316834941 0 0.38863111647644599 -0.40400878815621749 0 0.38208767645140901 -0.41911042656524472 0 0.37176003243497441 -0.40998872043702711 0 0.38863111647644599 -0.40400878815621749 0 0.38208767645140901 -0.41911042656524472 0 0.39485424814717818 -0.42949747316834941 0 0.39485424814717818 -0.42949747316834941 0 0.36925590453949608 -0.42941681873704168 0 0.37665443888321409 -0.43729346785436302 0 0.3856757983069049 -0.43577025519560952 0 0.36925590453949608 -0.42941681873704168 0 0.3856757983069049 -0.43577025519560952 0 0.39485424814717818 -0.42949747316834941 0 0.36925590453949608 -0.42941681873704168 0 0.38208767645140901 -0.41911042656524472 0 0.39485424814717818 -0.42949747316834941 0 0.36925590453949608 -0.42941681873704168 0 0.39485424814717818 -0.42949747316834941 0 0.41263147594179173 -0.42955348508146501 0 0.3970599418841867 -0.43853154730823468 0 0.39485424814717818 -0.42949747316834941 0 0.41263147594179173 -0.42955348508146501 0 0.39485424814717818 -0.42949747316834941 0 0.3970599418841867 -0.43853154730823468 0 0.3856757983069049 -0.43577025519560952 0 0.39485424814717818 -0.42949747316834941 0 0.3970599418841867 -0.43853154730823468 0 0.39485424814717818 -0.42949747316834941 0 0.41263147594179173 -0.42955348508146501 0 0.4062779690192711 -0.41494731252474337 0 0.41263147594179173 -0.42955348508146501 0 0.43040870373640522 -0.42960949699457918 0 0.41263147594179173 -0.42955348508146501 0 0.43040870373640522 -0.42960949699457918 0 0.4105733347589578 -0.4439764995731092 0 0.41263147594179173 -0.42955348508146501 0 0.4105733347589578 -0.4439764995731092 0 0.3970599418841867 -0.43853154730823468 0 0.41263147594179173 -0.42955348508146501 0 0.41981869584763148 -0.41440516100429259 0 0.43040870373640522 -0.42960949699457918 0 0.41370439676437609 -0.3974940894908795 0 0.4062779690192711 -0.41494731252474337 0 0.41981869584763148 -0.41440516100429259 0 0.41263147594179173 -0.42955348508146501 0 0.4062779690192711 -0.41494731252474337 0 0.41981869584763148 -0.41440516100429259 0 0.43607093377631329 -0.40042142092979582 0 0.41981869584763148 -0.41440516100429259 0 0.43040870373640522 -0.42960949699457918 0 0.4445886017928069 -0.41946726592624312 0 0.43607093377631329 -0.40042142092979582 0 0.43040870373640522 -0.42960949699457918 0 0.43607093377631329 -0.40042142092979582 0 0.43040870373640522 -0.42960949699457918 0 0.43040870373640522 -0.42960949699457918 0 0.42609808641601882 -0.45183018130920338 0 0.43823690162582152 -0.442656551615 0 0.43040870373640522 -0.42960949699457918 0 0.42609808641601882 -0.45183018130920338 0 0.43040870373640522 -0.42960949699457918 0 0.42609808641601882 -0.45183018130920338 0 0.4105733347589578 -0.4439764995731092 0 0.43823690162582152 -0.442656551615 0 0.42609808641601882 -0.45183018130920338 0 0.43566071353235342 -0.46355264343579089 0 0.42609808641601882 -0.45183018130920338 0 0.43566071353235342 -0.46355264343579089 0 0.41788280539829797 -0.46985191739468413 0 0.42609808641601882 -0.45183018130920338 0 0.40695414576950523 -0.45771744581404522 0 0.41788280539829797 -0.46985191739468413 0 0.42609808641601882 -0.45183018130920338 0 0.40695414576950523 -0.45771744581404522 0 0.4105733347589578 -0.4439764995731092 0 0.4105733347589578 -0.4439764995731092 0 0.39721761528731692 -0.45119552741579683 0 0.3970599418841867 -0.43853154730823468 0 0.40695414576950523 -0.45771744581404522 0 0.4105733347589578 -0.4439764995731092 0 0.39721761528731692 -0.45119552741579683 0 0.39721761528731692 -0.45119552741579683 0 0.3970599418841867 -0.43853154730823468 0 0.3848034700195111 -0.44451211479328562 0 0.3856757983069049 -0.43577025519560952 0 0.3970599418841867 -0.43853154730823468 0 0.3848034700195111 -0.44451211479328562 0 0.37665443888321409 -0.43729346785436302 0 0.3856757983069049 -0.43577025519560952 0 0.3848034700195111 -0.44451211479328562 0 0.3848034700195111 -0.44451211479328562 0 0.39015981315766812 -0.47191920641734841 0 0.36813351492680652 -0.4578788096260229 0 0.39015981315766812 -0.47191920641734841 0 0.36813351492680652 -0.4578788096260229 0 0.39721761528731692 -0.45119552741579683 0 0.3848034700195111 -0.44451211479328562 0 0.39015981315766812 -0.47191920641734841 0 0.40695414576950523 -0.45771744581404522 0 0.39721761528731692 -0.45119552741579683 0 0.39015981315766812 -0.47191920641734841 0 0.40695414576950523 -0.45771744581404522 0 0.39015981315766812 -0.47191920641734841 0 0.41788280539829797 -0.46985191739468413 0 0.39015981315766812 -0.47191920641734841 0 0.39617150827203812 -0.48844435240108153 0 0.41218611138852979 -0.48595960320867387 0 0.39015981315766812 -0.47191920641734841 0 0.41218611138852979 -0.48595960320867387 0 0.39015981315766812 -0.47191920641734841 0 0.37999710445162738 -0.5 0 0.36111942344273912 -0.48004186837267743 0 0.39015981315766812 -0.47191920641734841 0 0.37999710445162738 -0.5 0 0.39617150827203812 -0.48844435240108153 0 0.37999710445162738 -0.5 0 0.39617150827203812 -0.48844435240108153 0 0.40710475703550941 -0.5 0 0.39617150827203812 -0.48844435240108153 0 0.40710475703550941 -0.5 0 0.41218611138852979 -0.48595960320867387 0 0.40710475703550941 -0.5 0 0.41218611138852979 -0.48595960320867387 0 0.43421240961939139 -0.49999999999999972 0 0.41218611138852979 -0.48595960320867387 0 0.41788280539829797 -0.46985191739468413 0 0.43065669488015018 -0.48070599894378141 0 0.39015981315766812 -0.47191920641734841 0 0.41218611138852979 -0.48595960320867387 0 0.41788280539829797 -0.46985191739468413 0 0.43566071353235342 -0.46355264343579089 0 0.41788280539829797 -0.46985191739468413 0 0.43065669488015018 -0.48070599894378141 0 0.41218611138852979 -0.48595960320867387 0 0.43421240961939139 -0.49999999999999972 0 0.41218611138852979 -0.48595960320867387 0 0.43065669488015018 -0.48070599894378141 0 0.43421240961939139 -0.49999999999999972 0 0.32562102085959999 -0.49962517918909338 0 0.3188650930646052 -0.49384015059516778 0 0.30906313459206908 -0.49999999999999822 0 0.3188650930646052 -0.49384015059516778 0 0.31537357137569311 -0.47573542319158041 0 0.30906313459206908 -0.49999999999999822 0 0.32562102085959999 -0.49962517918909338 0 0.3188650930646052 -0.49384015059516778 0 0.31537357137569311 -0.47573542319158041 0 0.32562102085959999 -0.49962517918909338 0 0.31537357137569311 -0.47573542319158041 0 0.32562102085959999 -0.49962517918909338 0 0.32705189356582531 -0.47758756671950892 0 0.31537357137569311 -0.47573542319158041 0 0.32705189356582531 -0.47758756671950892 0 0.31537357137569311 -0.47573542319158041 0 0.32731070687432662 -0.45987691031431599 0 0.32705189356582531 -0.47758756671950892 0 0.33990227515368221 -0.47511275418304622 0 0.32731070687432662 -0.45987691031431599 0 0.32562102085959999 -0.49962517918909338 0 0.32705189356582531 -0.47758756671950892 0 0.33990227515368221 -0.47511275418304622 0 0.32562102085959999 -0.49962517918909338 0 0.33990227515368221 -0.47511275418304622 0 0.32562102085959999 -0.49962517918909338 0 0.33990227515368221 -0.47511275418304622 0 0.33937333261091801 -0.49122101923177458 0 0.32562102085959999 -0.49962517918909338 0 0.33937333261091801 -0.49122101923177458 0 0.35288945186774517 -0.5 0 0.33937333261091801 -0.49122101923177458 0 0.35288945186774517 -0.5 0 0.36111942344273912 -0.48004186837267743 0 0.37999710445162738 -0.5 0 0.35288945186774517 -0.5 0 0.36111942344273912 -0.48004186837267743 0 0.39015981315766812 -0.47191920641734841 0 0.36111942344273912 -0.48004186837267743 0 0.36813351492680652 -0.4578788096260229 0 0.33990227515368221 -0.47511275418304622 0 0.33937333261091801 -0.49122101923177458 0 0.36111942344273912 -0.48004186837267743 0 0.33990227515368221 -0.47511275418304622 0 0.36111942344273912 -0.48004186837267743 0 0.35583468574274812 -0.46590844033968648 0 0.33990227515368221 -0.47511275418304622 0 0.35418352944776488 -0.45060032917699938 0 0.33990227515368221 -0.47511275418304622 0 0.35418352944776488 -0.45060032917699938 0 0.340093026771697 -0.45737760876331679 0 0.33990227515368221 -0.47511275418304622 0 0.35583468574274812 -0.46590844033968648 0 0.35418352944776488 -0.45060032917699938 0 0.36111942344273912 -0.48004186837267743 0 0.35583468574274812 -0.46590844033968648 0 0.36813351492680652 -0.4578788096260229 0 0.35583468574274812 -0.46590844033968648 0 0.36813351492680652 -0.4578788096260229 0 0.35418352944776488 -0.45060032917699938 0 0.3848034700195111 -0.44451211479328562 0 0.36813351492680652 -0.4578788096260229 0 0.36188953281526259 -0.44421627808609571 0 0.3848034700195111 -0.44451211479328562 0 0.36188953281526259 -0.44421627808609571 0 0.37665443888321409 -0.43729346785436302 0 0.3848034700195111 -0.44451211479328562 0 0.36188953281526259 -0.44421627808609571 0 0.36813351492680652 -0.4578788096260229 0 0.36188953281526259 -0.44421627808609571 0 0.35418352944776488 -0.45060032917699938 0 0.36188953281526259 -0.44421627808609571 0 0.33897559561101431 -0.44392044137890579 0 0.34365756093181399 -0.42933616430573279 0 0.36188953281526259 -0.44421627808609571 0 0.33897559561101431 -0.44392044137890579 0 0.36188953281526259 -0.44421627808609571 0 0.35418352944776488 -0.45060032917699938 0 0.33897559561101431 -0.44392044137890579 0 0.35418352944776488 -0.45060032917699938 0 0.33897559561101431 -0.44392044137890579 0 0.340093026771697 -0.45737760876331679 0 0.33990227515368221 -0.47511275418304622 0 0.340093026771697 -0.45737760876331679 0 0.32731070687432662 -0.45987691031431599 0 0.33897559561101431 -0.44392044137890579 0 0.340093026771697 -0.45737760876331679 0 0.32731070687432662 -0.45987691031431599 0 0.31537357137569311 -0.47573542319158041 0 0.32731070687432662 -0.45987691031431599 0 0.31637589709399738 -0.45542627657340667 0 0.33897559561101431 -0.44392044137890579 0 0.31606165840676581 -0.44362460467171588 0 0.31637589709399738 -0.45542627657340667 0 0.31606165840676581 -0.44362460467171588 0 0.30512612189178517 -0.45184566719406782 0 0.33897559561101431 -0.44392044137890579 0 0.32731070687432662 -0.45987691031431599 0 0.31606165840676581 -0.44362460467171588 0 0.33897559561101431 -0.44392044137890579 0 0.31606165840676581 -0.44362460467171588 0 0.32817533568345891 -0.437405088827024 0 0.32731070687432662 -0.45987691031431599 0 0.31637589709399738 -0.45542627657340667 0 0.31606165840676581 -0.44362460467171588 0 0.31606165840676581 -0.44362460467171588 0 0.31805921732413212 -0.42925550987442379 0 0.32817533568345891 -0.437405088827024 0 0.31606165840676581 -0.44362460467171588 0 0.31805921732413212 -0.42925550987442379 0 0.30493236766246812 -0.436345934488445 0 0.31985940292529941 -0.41295447671329732 0 0.31075796009052831 -0.39572085063997808 0 0.30888278388740348 -0.41521004381282178 0 0.31805921732413212 -0.42925550987442379 0 0.31985940292529941 -0.41295447671329732 0 0.33113555781690102 -0.41904522338276579 0 0.31805921732413212 -0.42925550987442379 0 0.31985940292529941 -0.41295447671329732 0 0.30888278388740348 -0.41521004381282178 0 0.31985940292529941 -0.41295447671329732 0 0.33113555781690102 -0.41904522338276579 0 0.33046149550753229 -0.40554075585649679 0 0.33113555781690102 -0.41904522338276579 0 0.34241547994114269 -0.41362446478144221 0 0.34365756093181399 -0.42933616430573279 0 0.33113555781690102 -0.41904522338276579 0 0.34241547994114269 -0.41362446478144221 0 0.33046149550753229 -0.40554075585649679 0 0.31805921732413212 -0.42925550987442379 0 0.34365756093181399 -0.42933616430573279 0 0.32817533568345891 -0.437405088827024 0 0.31805921732413212 -0.42925550987442379 0 0.33113555781690102 -0.41904522338276579 0 0.34365756093181399 -0.42933616430573279 0 0.31805921732413212 -0.42925550987442379 0 0.34365756093181399 -0.42933616430573279 0 0.33897559561101431 -0.44392044137890579 0 0.34365756093181399 -0.42933616430573279 0 0.32817533568345891 -0.437405088827024 0 0.34365756093181399 -0.42933616430573279 0 0.36925590453949608 -0.42941681873704168 0 0.35674230937501078 -0.41217086121041902 0 0.34365756093181399 -0.42933616430573279 0 0.36925590453949608 -0.42941681873704168 0 0.36188953281526259 -0.44421627808609571 0 0.34365756093181399 -0.42933616430573279 0 0.36925590453949608 -0.42941681873704168 0 0.37665443888321409 -0.43729346785436302 0 0.36188953281526259 -0.44421627808609571 0 0.36925590453949608 -0.42941681873704168 0 0.38208767645140901 -0.41911042656524472 0 0.36925590453949608 -0.42941681873704168 0 0.37176003243497441 -0.40998872043702711 0 0.36925590453949608 -0.42941681873704168 0 0.37176003243497441 -0.40998872043702711 0 0.35674230937501078 -0.41217086121041902 0 0.34241547994114269 -0.41362446478144221 0 0.35674230937501078 -0.41217086121041902 0 0.34647936393220441 -0.39402114553103817 0 0.34241547994114269 -0.41362446478144221 0 0.34365756093181399 -0.42933616430573279 0 0.35674230937501078 -0.41217086121041902 0 0.35674230937501078 -0.41217086121041902 0 0.34647936393220441 -0.39402114553103817 0 0.36795612070160122 -0.3943037227883871 0 0.37176003243497441 -0.40998872043702711 0 0.35674230937501078 -0.41217086121041902 0 0.36795612070160122 -0.3943037227883871 0 0.38240798480570892 -0.37852010314408679 0 0.36795612070160122 -0.3943037227883871 0 0.3567457423339877 -0.37092962175819427 0 0.34647936393220441 -0.39402114553103817 0 0.33846966771265258 -0.37695460337982112 0 0.3567457423339877 -0.37092962175819427 0 0.34647936393220441 -0.39402114553103817 0 0.36795612070160122 -0.3943037227883871 0 0.3567457423339877 -0.37092962175819427 0 0.34647936393220441 -0.39402114553103817 0 0.33846966771265258 -0.37695460337982112 0 0.3263508617172054 -0.38750488125084709 0 0.34241547994114269 -0.41362446478144221 0 0.34647936393220441 -0.39402114553103817 0 0.33046149550753229 -0.40554075585649679 0 0.34647936393220441 -0.39402114553103817 0 0.33046149550753229 -0.40554075585649679 0 0.3263508617172054 -0.38750488125084709 0 0.33046149550753229 -0.40554075585649679 0 0.3263508617172054 -0.38750488125084709 0 0.31075796009052831 -0.39572085063997808 0 0.31985940292529941 -0.41295447671329732 0 0.33046149550753229 -0.40554075585649679 0 0.31075796009052831 -0.39572085063997808 0 0.3263508617172054 -0.38750488125084709 0 0.3096773386499212 -0.3813243078888065 0 0.31075796009052831 -0.39572085063997808 0 0.33846966771265258 -0.37695460337982112 0 0.3263508617172054 -0.38750488125084709 0 0.31915821050206972 -0.37043664262910392 0 0.3263508617172054 -0.38750488125084709 0 0.3096773386499212 -0.3813243078888065 0 0.31915821050206972 -0.37043664262910392 0 0.3096773386499212 -0.3813243078888065 0 0.29526372343335222 -0.38214642848390951 0 0.29938815419514908 -0.36235191135060729 0 0.3096773386499212 -0.3813243078888065 0 0.31075796009052831 -0.39572085063997808 0 0.29526372343335222 -0.38214642848390951 0 0.31075796009052831 -0.39572085063997808 0 0.29178274806564442 -0.41520067436951369 0 0.31075796009052831 -0.39572085063997808 0 0.29113929267155558 -0.40194094561721161 0 0.29526372343335222 -0.38214642848390951 0 0.31075796009052831 -0.39572085063997808 0 0.29113929267155558 -0.40194094561721161 0 0.29178274806564442 -0.41520067436951369 0 0.29113929267155558 -0.40194094561721161 0 0.29526372343335222 -0.38214642848390951 0 0.29096903481361719 -0.39843243044280019 0 0.28318981538834798 -0.39262896962206201 0 0.29526372343335222 -0.38214642848390951 0 0.29096903481361719 -0.39843243044280019 0 0.29113929267155558 -0.40194094561721161 0 0.29526372343335222 -0.38214642848390951 0 0.29096903481361719 -0.39843243044280019 0 0.29113929267155558 -0.40194094561721161 0 0.28502919674291388 -0.40062006331372729 0 0.27798512017272892 -0.40082089003652099 0 0.28264635626051132 -0.40952105626625152 0 0.29113929267155558 -0.40194094561721161 0 0.28502919674291388 -0.40062006331372729 0 0.28264635626051132 -0.40952105626625152 0 0.29096903481361719 -0.39843243044280019 0 0.29113929267155558 -0.40194094561721161 0 0.28502919674291388 -0.40062006331372729 0 0.28502919674291388 -0.40062006331372729 0 0.28318981538834798 -0.39262896962206201 0 0.27798512017272892 -0.40082089003652099 0 0.29096903481361719 -0.39843243044280019 0 0.28502919674291388 -0.40062006331372729 0 0.28318981538834798 -0.39262896962206201 0 0.28318981538834798 -0.39262896962206201 0 0.29526372343335222 -0.38214642848390951 0 0.27569670368188232 -0.38326726020642471 0 0.29526372343335222 -0.38214642848390951 0 0.27569670368188232 -0.38326726020642471 0 0.2822483272805178 -0.36575990941074382 0 0.28318981538834798 -0.39262896962206201 0 0.27569670368188232 -0.38326726020642471 0 0.27140133813572248 -0.39438652514112071 0 0.27569670368188232 -0.38326726020642471 0 0.26161541147981399 -0.38825456187999341 0 0.27140133813572248 -0.39438652514112071 0 0.27569670368188232 -0.38326726020642471 0 0.26161541147981399 -0.38825456187999341 0 0.26273855981799532 -0.37402085189451678 0 0.26161541147981399 -0.38825456187999341 0 0.26273855981799532 -0.37402085189451678 0 0.2462658744323834 -0.38197959250061342 0 0.26161541147981399 -0.38825456187999341 0 0.25113336278303172 -0.39639034007073559 0 0.2462658744323834 -0.38197959250061342 0 0.25113336278303172 -0.39639034007073559 0 0.25834465052961392 -0.41196496969487773 0 0.2415255849161019 -0.40609463635975013 0 0.25113336278303172 -0.39639034007073559 0 0.26281084462470111 -0.3998352336856334 0 0.25834465052961392 -0.41196496969487773 0 0.26161541147981399 -0.38825456187999341 0 0.25113336278303172 -0.39639034007073559 0 0.26281084462470111 -0.3998352336856334 0 0.26161541147981399 -0.38825456187999341 0 0.26281084462470111 -0.3998352336856334 0 0.27140133813572248 -0.39438652514112071 0 0.26281084462470111 -0.3998352336856334 0 0.27081663500811198 -0.40520008615658132 0 0.25834465052961392 -0.41196496969487773 0 0.27081663500811198 -0.40520008615658132 0 0.27140133813572248 -0.39438652514112071 0 0.27798512017272892 -0.40082089003652099 0 0.26281084462470111 -0.3998352336856334 0 0.27081663500811198 -0.40520008615658132 0 0.27140133813572248 -0.39438652514112071 0 0.28318981538834798 -0.39262896962206201 0 0.27140133813572248 -0.39438652514112071 0 0.27798512017272892 -0.40082089003652099 0 0.27081663500811198 -0.40520008615658132 0 0.27798512017272892 -0.40082089003652099 0 0.28264635626051132 -0.40952105626625152 0 0.27081663500811198 -0.40520008615658132 0 0.27206571492222681 -0.41502427433416672 0 0.28264635626051132 -0.40952105626625152 0 0.27844475086434628 -0.42008249968918893 0 0.27206571492222681 -0.41502427433416672 0 0.28264635626051132 -0.40952105626625152 0 0.26660164492473198 -0.42150218520744809 0 0.27206571492222681 -0.41502427433416672 0 0.25834465052961392 -0.41196496969487773 0 0.27844475086434628 -0.42008249968918893 0 0.26660164492473198 -0.42150218520744809 0 0.27206571492222681 -0.41502427433416672 0 0.27081663500811198 -0.40520008615658132 0 0.27206571492222681 -0.41502427433416672 0 0.25834465052961392 -0.41196496969487773 0 0.25834465052961392 -0.41196496969487773 0 0.25675938249820729 -0.42906236834179229 0 0.24471655788437549 -0.41836465708289111 0 0.26660164492473198 -0.42150218520744809 0 0.25834465052961392 -0.41196496969487773 0 0.25675938249820729 -0.42906236834179229 0 0.25675938249820729 -0.42906236834179229 0 0.26225826081895931 -0.43553163761717179 0 0.24937758952868769 -0.43582476186075059 0 0.25675938249820729 -0.42906236834179229 0 0.26225826081895931 -0.43553163761717179 0 0.26930167735914629 -0.4333880303452663 0 0.25675938249820729 -0.42906236834179229 0 0.27821428364315981 -0.42912996774889278 0 0.26930167735914629 -0.4333880303452663 0 0.27111210296809168 -0.43642101817110968 0 0.27821428364315981 -0.42912996774889278 0 0.25675938249820729 -0.42906236834179229 0 0.26930167735914629 -0.4333880303452663 0 0.27821428364315981 -0.42912996774889278 0 0.26660164492473198 -0.42150218520744809 0 0.25675938249820729 -0.42906236834179229 0 0.27821428364315981 -0.42912996774889278 0 0.26225826081895931 -0.43553163761717179 0 0.26930167735914629 -0.4333880303452663 0 0.27111210296809168 -0.43642101817110968 0 0.26930167735914629 -0.4333880303452663 0 0.27111210296809168 -0.43642101817110968 0 0.27844475086434628 -0.42008249968918893 0 0.26660164492473198 -0.42150218520744809 0 0.27821428364315981 -0.42912996774889278 0 0.27111210296809168 -0.43642101817110968 0 0.27821428364315981 -0.42912996774889278 0 0.27851784514164207 -0.43605140350369348 0 0.27111210296809168 -0.43642101817110968 0 0.27821428364315981 -0.42912996774889278 0 0.27821428364315981 -0.42912996774889278 0 0.27851784514164207 -0.43605140350369348 0 0.28546936300596981 -0.42915282681778749 0 0.28546936300596981 -0.42915282681778749 0 0.28269717206150108 -0.44245749461713091 0 0.27851784514164207 -0.43605140350369348 0 0.28546936300596981 -0.42915282681778749 0 0.28269717206150108 -0.44245749461713091 0 0.28844378249660962 -0.43602848621063972 0 0.28546936300596981 -0.42915282681778749 0 0.28269717206150108 -0.44245749461713091 0 0.28844378249660962 -0.43602848621063972 0 0.29246087371645019 -0.42917485544311462 0 0.28546936300596981 -0.42915282681778749 0 0.28844378249660962 -0.43602848621063972 0 0.29246087371645019 -0.42917485544311462 0 0.29314772120251731 -0.44332876796452603 0 0.29246087371645019 -0.42917485544311462 0 0.29314772120251731 -0.44332876796452603 0 0.29246087371645019 -0.42917485544311462 0 0.30493236766246812 -0.436345934488445 0 0.29314772120251731 -0.44332876796452603 0 0.29246087371645019 -0.42917485544311462 0 0.29178274806564442 -0.41520067436951369 0 0.29246087371645019 -0.42917485544311462 0 0.29178274806564442 -0.41520067436951369 0 0.30279640574840933 -0.42221027087496837 0 0.27821428364315981 -0.42912996774889278 0 0.28546936300596981 -0.42915282681778749 0 0.28744958810085658 -0.4196490669458563 0 0.28546936300596981 -0.42915282681778749 0 0.28744958810085658 -0.4196490669458563 0 0.29246087371645019 -0.42917485544311462 0 0.28546936300596981 -0.42915282681778749 0 0.28744958810085658 -0.4196490669458563 0 0.27821428364315981 -0.42912996774889278 0 0.28744958810085658 -0.4196490669458563 0 0.27844475086434628 -0.42008249968918893 0 0.27821428364315981 -0.42912996774889278 0 0.28744958810085658 -0.4196490669458563 0 0.29246087371645019 -0.42917485544311462 0 0.28546936300596981 -0.42915282681778749 0 0.27821428364315981 -0.42912996774889278 0 0.28546936300596981 -0.42915282681778749 0 0.29113929267155558 -0.40194094561721161 0 0.28744958810085658 -0.4196490669458563 0 0.28264635626051132 -0.40952105626625152 0 0.27844475086434628 -0.42008249968918893 0 0.28744958810085658 -0.4196490669458563 0 0.28264635626051132 -0.40952105626625152 0 0.29113929267155558 -0.40194094561721161 0 0.28744958810085658 -0.4196490669458563 0 0.29113929267155558 -0.40194094561721161 0 0.28744958810085658 -0.4196490669458563 0 0.29178274806564442 -0.41520067436951369 0 0.29113929267155558 -0.40194094561721161 0 0.29178274806564442 -0.41520067436951369 0 0.29246087371645019 -0.42917485544311462 0 0.28744958810085658 -0.4196490669458563 0 0.29178274806564442 -0.41520067436951369 0 0.28744958810085658 -0.4196490669458563 0 0.29178274806564442 -0.41520067436951369 0 0.29178274806564442 -0.41520067436951369 0 0.30888278388740348 -0.41521004381282178 0 0.30279640574840933 -0.42221027087496837 0 0.31075796009052831 -0.39572085063997808 0 0.29178274806564442 -0.41520067436951369 0 0.30888278388740348 -0.41521004381282178 0 0.31805921732413212 -0.42925550987442379 0 0.29246087371645019 -0.42917485544311462 0 0.31805921732413212 -0.42925550987442379 0 0.29246087371645019 -0.42917485544311462 0 0.30279640574840933 -0.42221027087496837 0 0.31805921732413212 -0.42925550987442379 0 0.29246087371645019 -0.42917485544311462 0 0.30493236766246812 -0.436345934488445 0 0.31805921732413212 -0.42925550987442379 0 0.30888278388740348 -0.41521004381282178 0 0.30279640574840933 -0.42221027087496837 0 0.31606165840676581 -0.44362460467171588 0 0.30512612189178517 -0.45184566719406782 0 0.29314772120251731 -0.44332876796452603 0 0.31606165840676581 -0.44362460467171588 0 0.30493236766246812 -0.436345934488445 0 0.29314772120251731 -0.44332876796452603 0 0.30512612189178517 -0.45184566719406782 0 0.29394025903575932 -0.45966064860657702 0 0.29314772120251731 -0.44332876796452603 0 0.31606165840676581 -0.44362460467171588 0 0.29314772120251731 -0.44332876796452603 0 0.31537357137569311 -0.47573542319158041 0 0.31637589709399738 -0.45542627657340667 0 0.30512612189178517 -0.45184566719406782 0 0.31537357137569311 -0.47573542319158041 0 0.30512612189178517 -0.45184566719406782 0 0.31537357137569311 -0.47573542319158041 0 0.30512612189178517 -0.45184566719406782 0 0.29394025903575932 -0.45966064860657702 0 0.29394025903575932 -0.45966064860657702 0 0.28491455044924457 -0.45954411970608688 0 0.29473279686900039 -0.47599252924862812 0 0.29394025903575932 -0.45966064860657702 0 0.29473279686900039 -0.47599252924862812 0 0.28491455044924457 -0.45954411970608688 0 0.29473279686900039 -0.47599252924862812 0 0.29394025903575932 -0.45966064860657702 0 0.28491455044924457 -0.45954411970608688 0 0.29314772120251731 -0.44332876796452603 0 0.29314772120251731 -0.44332876796452603 0 0.28269717206150108 -0.44245749461713091 0 0.27509630402948781 -0.44309571016354632 0 0.29314772120251731 -0.44332876796452603 0 0.27509630402948781 -0.44309571016354632 0 0.28491455044924457 -0.45954411970608688 0 0.29314772120251731 -0.44332876796452603 0 0.27509630402948781 -0.44309571016354632 0 0.29394025903575932 -0.45966064860657702 0 0.29314772120251731 -0.44332876796452603 0 0.28844378249660962 -0.43602848621063972 0 0.29314772120251731 -0.44332876796452603 0 0.28269717206150108 -0.44245749461713091 0 0.27851784514164207 -0.43605140350369348 0 0.28269717206150108 -0.44245749461713091 0 0.27509630402948781 -0.44309571016354632 0 0.28491455044924457 -0.45954411970608688 0 0.27509630402948781 -0.44309571016354632 0 0.27111210296809168 -0.43642101817110968 0 0.27851784514164207 -0.43605140350369348 0 0.27509630402948781 -0.44309571016354632 0 0.27509630402948781 -0.44309571016354632 0 0.2647405517406643 -0.44296200936694391 0 0.26894138168338477 -0.45835658674643581 0 0.27509630402948781 -0.44309571016354632 0 0.2647405517406643 -0.44296200936694391 0 0.27111210296809168 -0.43642101817110968 0 0.27509630402948781 -0.44309571016354632 0 0.2647405517406643 -0.44296200936694391 0 0.26225826081895931 -0.43553163761717179 0 0.27111210296809168 -0.43642101817110968 0 0.2647405517406643 -0.44296200936694391 0 0.27111210296809168 -0.43642101817110968 0 0.27509630402948781 -0.44309571016354632 0 0.27111210296809168 -0.43642101817110968 0 0.2647405517406643 -0.44296200936694391 0 0.2647405517406643 -0.44296200936694391 0 0.23528251899697711 -0.44258168330907049 0 0.26225826081895931 -0.43553163761717179 0 0.2647405517406643 -0.44296200936694391 0 0.24937758952868769 -0.43582476186075059 0 0.2647405517406643 -0.44296200936694391 0 0.24642569303344669 -0.46176391886762419 0 0.2647405517406643 -0.44296200936694391 0 0.26894138168338477 -0.45835658674643581 0 0.24642569303344669 -0.46176391886762419 0 0.26894138168338477 -0.45835658674643581 0 0.25460761733926612 -0.48077428153223201 0 0.24642569303344669 -0.46176391886762419 0 0.28491455044924457 -0.45954411970608688 0 0.26894138168338477 -0.45835658674643581 0 0.27481125637505999 -0.47672941046381351 0 0.28491455044924457 -0.45954411970608688 0 0.27509630402948781 -0.44309571016354632 0 0.26894138168338477 -0.45835658674643581 0 0.26894138168338477 -0.45835658674643581 0 0.27481125637505999 -0.47672941046381351 0 0.25460761733926612 -0.48077428153223201 0 0.25460761733926612 -0.48077428153223201 0 0.26992155257213829 -0.5 0 0.24394529676999099 -0.5 0 0.27481125637505999 -0.47672941046381351 0 0.25460761733926612 -0.48077428153223201 0 0.26992155257213829 -0.5 0 0.27481125637505999 -0.47672941046381351 0 0.26992155257213829 -0.5 0 0.28423504578222791 -0.48826781330302371 0 0.2958978083742857 -0.500000000000002 0 0.29473279686900039 -0.47599252924862812 0 0.28423504578222791 -0.48826781330302371 0 0.2958978083742857 -0.500000000000002 0 0.29473279686900039 -0.47599252924862812 0 0.26992155257213829 -0.5 0 0.28423504578222791 -0.48826781330302371 0 0.2958978083742857 -0.500000000000002 0 0.27481125637505999 -0.47672941046381351 0 0.28423504578222791 -0.48826781330302371 0 0.29473279686900039 -0.47599252924862812 0 0.28491455044924457 -0.45954411970608688 0 0.27481125637505999 -0.47672941046381351 0 0.29473279686900039 -0.47599252924862812 0 0.31537357137569311 -0.47573542319158041 0 0.29473279686900039 -0.47599252924862812 0 0.30906313459206908 -0.49999999999999822 0 0.31537357137569311 -0.47573542319158041 0 0.29394025903575932 -0.45966064860657702 0 0.29473279686900039 -0.47599252924862812 0 0.2958978083742857 -0.500000000000002 0 0.29473279686900039 -0.47599252924862812 0 0.30906313459206908 -0.49999999999999822 0 0.29473279686900039 -0.47599252924862812 0 0.30906313459206908 -0.49999999999999822 0 0.32957540708980337 -0.28233484169300721 0 0.33350720058453531 -0.3067582988720306 0 0.34777854009225467 -0.29092059718385621 0 0.33350720058453531 -0.3067582988720306 0 0.31940688812320073 -0.32114172553523779 0 0.31236919290445669 -0.30090688950199113 0 0.32957540708980337 -0.28233484169300721 0 0.33350720058453531 -0.3067582988720306 0 0.31236919290445669 -0.30090688950199113 0 0.32957540708980337 -0.28233484169300721 0 0.31236919290445669 -0.30090688950199113 0 0.31219288969015102 -0.27103532748113379 0 0.32957540708980337 -0.28233484169300721 0 0.32740146312166057 -0.2615598439342075 0 0.31219288969015102 -0.27103532748113379 0 0.30987088180634448 -0.24125362874219619 0 0.32740146312166057 -0.2615598439342075 0 0.31219288969015102 -0.27103532748113379 0 0.33627474799740559 -0.24529035195854479 0 0.32740146312166057 -0.2615598439342075 0 0.34280143854843398 -0.26651154424247869 0 0.32957540708980337 -0.28233484169300721 0 0.32740146312166057 -0.2615598439342075 0 0.34280143854843398 -0.26651154424247869 0 0.32957540708980337 -0.28233484169300721 0 0.34280143854843398 -0.26651154424247869 0 0.34777854009225467 -0.29092059718385621 0 0.34280143854843398 -0.26651154424247869 0 0.35666834061529479 -0.27123260863895199 0 0.34777854009225467 -0.29092059718385621 0 0.3592550994650468 -0.24613366971849041 0 0.34280143854843398 -0.26651154424247869 0 0.35666834061529479 -0.27123260863895199 0 0.33627474799740559 -0.24529035195854479 0 0.3592550994650468 -0.24613366971849041 0 0.34280143854843398 -0.26651154424247869 0 0.3592550994650468 -0.24613366971849041 0 0.37962897743813367 -0.25651992395937562 0 0.37050420578859872 -0.26776837990911312 0 0.3592550994650468 -0.24613366971849041 0 0.35666834061529479 -0.27123260863895199 0 0.37050420578859872 -0.26776837990911312 0 0.3592550994650468 -0.24613366971849041 0 0.37050420578859872 -0.26776837990911312 0 0.35666834061529479 -0.27123260863895199 0 0.37050420578859872 -0.26776837990911312 0 0.36300241918213971 -0.28482885214082171 0 0.37050420578859872 -0.26776837990911312 0 0.37154850581208082 -0.284248057172719 0 0.36300241918213971 -0.28482885214082171 0 0.38175331211215058 -0.28940309009973592 0 0.37050420578859872 -0.26776837990911312 0 0.37154850581208082 -0.284248057172719 0 0.37154850581208082 -0.284248057172719 0 0.37093408616543422 -0.29499190654120538 0 0.36300241918213971 -0.28482885214082171 0 0.38175331211215058 -0.28940309009973592 0 0.37154850581208082 -0.284248057172719 0 0.37093408616543422 -0.29499190654120538 0 0.37093408616543422 -0.29499190654120538 0 0.36300241918213971 -0.28482885214082171 0 0.36107539554114298 -0.29693991331551067 0 0.35666834061529479 -0.27123260863895199 0 0.36300241918213971 -0.28482885214082171 0 0.34777854009225467 -0.29092059718385621 0 0.36300241918213971 -0.28482885214082171 0 0.34777854009225467 -0.29092059718385621 0 0.36107539554114298 -0.29693991331551067 0 0.33350720058453531 -0.3067582988720306 0 0.35617419542099171 -0.30797258542327188 0 0.3434221482530771 -0.31898036386437462 0 0.33350720058453531 -0.3067582988720306 0 0.34777854009225467 -0.29092059718385621 0 0.35617419542099171 -0.30797258542327188 0 0.34777854009225467 -0.29092059718385621 0 0.35617419542099171 -0.30797258542327188 0 0.36107539554114298 -0.29693991331551067 0 0.35617419542099171 -0.30797258542327188 0 0.36107539554114298 -0.29693991331551067 0 0.37214457168145071 -0.30742358830148531 0 0.38029466251644028 -0.29986647237510811 0 0.37093408616543422 -0.29499190654120538 0 0.37214457168145071 -0.30742358830148531 0 0.37093408616543422 -0.29499190654120538 0 0.36107539554114298 -0.29693991331551067 0 0.37214457168145071 -0.30742358830148531 0 0.35617419542099171 -0.30797258542327188 0 0.37214457168145071 -0.30742358830148531 0 0.36996172146423478 -0.32754273311982529 0 0.35617419542099171 -0.30797258542327188 0 0.36996172146423478 -0.32754273311982529 0 0.35306648032504262 -0.33228776260873261 0 0.38164260336710232 -0.31615744579396521 0 0.37214457168145071 -0.30742358830148531 0 0.36996172146423478 -0.32754273311982529 0 0.36996172146423478 -0.32754273311982529 0 0.35306648032504262 -0.33228776260873261 0 0.35731430246447682 -0.34983201697113597 0 0.37618485313497191 -0.35303141813195599 0 0.36996172146423478 -0.32754273311982529 0 0.35731430246447682 -0.34983201697113597 0 0.37618485313497191 -0.35303141813195599 0 0.36996172146423478 -0.32754273311982529 0 0.35306648032504262 -0.33228776260873261 0 0.35731430246447682 -0.34983201697113597 0 0.34168414680625769 -0.34452156241349458 0 0.35617419542099171 -0.30797258542327188 0 0.35306648032504262 -0.33228776260873261 0 0.3434221482530771 -0.31898036386437462 0 0.37618485313497191 -0.35303141813195599 0 0.38240798480570892 -0.37852010314408679 0 0.3567457423339877 -0.37092962175819427 0 0.37618485313497191 -0.35303141813195599 0 0.35731430246447682 -0.34983201697113597 0 0.3567457423339877 -0.37092962175819427 0 0.35731430246447682 -0.34983201697113597 0 0.33741189226114721 -0.35981876257024509 0 0.34168414680625769 -0.34452156241349458 0 0.35731430246447682 -0.34983201697113597 0 0.3567457423339877 -0.37092962175819427 0 0.33741189226114721 -0.35981876257024509 0 0.33846966771265258 -0.37695460337982112 0 0.3567457423339877 -0.37092962175819427 0 0.33741189226114721 -0.35981876257024509 0 0.33846966771265258 -0.37695460337982112 0 0.33741189226114721 -0.35981876257024509 0 0.31915821050206972 -0.37043664262910392 0 0.33741189226114721 -0.35981876257024509 0 0.34168414680625769 -0.34452156241349458 0 0.32813074893442251 -0.34418371868588848 0 0.33741189226114721 -0.35981876257024509 0 0.32813074893442251 -0.34418371868588848 0 0.32201112636252999 -0.3528096981888329 0 0.32201112636252999 -0.3528096981888329 0 0.31915821050206972 -0.37043664262910392 0 0.30987318817222509 -0.34571298684785262 0 0.32813074893442251 -0.34418371868588848 0 0.32201112636252999 -0.3528096981888329 0 0.31771908807833588 -0.34170101098267841 0 0.32201112636252999 -0.3528096981888329 0 0.31771908807833588 -0.34170101098267841 0 0.30987318817222509 -0.34571298684785262 0 0.33741189226114721 -0.35981876257024509 0 0.32201112636252999 -0.3528096981888329 0 0.31915821050206972 -0.37043664262910392 0 0.35306648032504262 -0.33228776260873261 0 0.3434221482530771 -0.31898036386437462 0 0.33232496317177118 -0.32984298873849771 0 0.33350720058453531 -0.3067582988720306 0 0.3434221482530771 -0.31898036386437462 0 0.33232496317177118 -0.32984298873849771 0 0.33350720058453531 -0.3067582988720306 0 0.33232496317177118 -0.32984298873849771 0 0.31940688812320073 -0.32114172553523779 0 0.35306648032504262 -0.33228776260873261 0 0.34168414680625769 -0.34452156241349458 0 0.33232496317177118 -0.32984298873849771 0 0.34168414680625769 -0.34452156241349458 0 0.32813074893442251 -0.34418371868588848 0 0.33232496317177118 -0.32984298873849771 0 0.32813074893442251 -0.34418371868588848 0 0.33232496317177118 -0.32984298873849771 0 0.32267668596175481 -0.33341785867055518 0 0.33232496317177118 -0.32984298873849771 0 0.32267668596175481 -0.33341785867055518 0 0.31940688812320073 -0.32114172553523779 0 0.32813074893442251 -0.34418371868588848 0 0.32267668596175481 -0.33341785867055518 0 0.31771908807833588 -0.34170101098267841 0 0.32267668596175481 -0.33341785867055518 0 0.31771908807833588 -0.34170101098267841 0 0.31294298630122958 -0.33429540854302747 0 0.31771908807833588 -0.34170101098267841 0 0.31168118685013108 -0.34100175600761939 0 0.30987318817222509 -0.34571298684785262 0 0.31771908807833588 -0.34170101098267841 0 0.31294298630122958 -0.33429540854302747 0 0.31168118685013108 -0.34100175600761939 0 0.32267668596175481 -0.33341785867055518 0 0.31294298630122958 -0.33429540854302747 0 0.31940688812320073 -0.32114172553523779 0 0.31294298630122958 -0.33429540854302747 0 0.31940688812320073 -0.32114172553523779 0 0.30601167809918312 -0.32095610648709572 0 0.31940688812320073 -0.32114172553523779 0 0.30601167809918312 -0.32095610648709572 0 0.31236919290445669 -0.30090688950199113 0 0.30601167809918312 -0.32095610648709572 0 0.29267099061500118 -0.31767693215293968 0 0.29602111265001879 -0.30165816726207401 0 0.30601167809918312 -0.32095610648709572 0 0.30423517195087751 -0.34071154513897461 0 0.29267099061500118 -0.31767693215293968 0 0.31294298630122958 -0.33429540854302747 0 0.30601167809918312 -0.32095610648709572 0 0.30570887717953288 -0.34364700841230278 0 0.30423517195087751 -0.34071154513897461 0 0.29267099061500118 -0.31767693215293968 0 0.30601167809918312 -0.32095610648709572 0 0.30570887717953288 -0.34364700841230278 0 0.30423517195087751 -0.34071154513897461 0 0.31294298630122958 -0.33429540854302747 0 0.31168118685013108 -0.34100175600761939 0 0.30570887717953288 -0.34364700841230278 0 0.31168118685013108 -0.34100175600761939 0 0.30570887717953288 -0.34364700841230278 0 0.30987318817222509 -0.34571298684785262 0 0.30570887717953288 -0.34364700841230278 0 0.30423517195087751 -0.34071154513897461 0 0.30570887717953288 -0.34364700841230278 0 0.30351258495694688 -0.34255739421730541 0 0.30423517195087751 -0.34071154513897461 0 0.30570887717953288 -0.34364700841230278 0 0.30351258495694688 -0.34255739421730541 0 0.30351258495694688 -0.34255739421730541 0 0.30423517195087751 -0.34071154513897461 0 0.30423517195087751 -0.34071154513897461 0 0.29267099061500118 -0.31767693215293968 0 0.27697346549350221 -0.32939093076003212 0 0.30351258495694688 -0.34255739421730541 0 0.27697346549350221 -0.32939093076003212 0 0.30351258495694688 -0.34255739421730541 0 0.30423517195087751 -0.34071154513897461 0 0.27697346549350221 -0.32939093076003212 0 0.30351258495694688 -0.34255739421730541 0 0.28388279232808111 -0.34879423229863538 0 0.27697346549350221 -0.32939093076003212 0 0.3096773386499212 -0.3813243078888065 0 0.31915821050206972 -0.37043664262910392 0 0.29938815419514908 -0.36235191135060729 0 0.29526372343335222 -0.38214642848390951 0 0.29938815419514908 -0.36235191135060729 0 0.30570887717953288 -0.34364700841230278 0 0.30351258495694688 -0.34255739421730541 0 0.29938815419514908 -0.36235191135060729 0 0.31915821050206972 -0.37043664262910392 0 0.30570887717953288 -0.34364700841230278 0 0.30987318817222509 -0.34571298684785262 0 0.30351258495694688 -0.34255739421730541 0 0.29938815419514908 -0.36235191135060729 0 0.29225796469017368 -0.35486586181932289 0 0.31915821050206972 -0.37043664262910392 0 0.30570887717953288 -0.34364700841230278 0 0.29938815419514908 -0.36235191135060729 0 0.31915821050206972 -0.37043664262910392 0 0.30570887717953288 -0.34364700841230278 0 0.30351258495694688 -0.34255739421730541 0 0.29938815419514908 -0.36235191135060729 0 0.30570887717953288 -0.34364700841230278 0 0.30987318817222509 -0.34571298684785262 0 0.29225796469017368 -0.35486586181932289 0 0.28388279232808111 -0.34879423229863538 0 0.2822483272805178 -0.36575990941074382 0 0.30351258495694688 -0.34255739421730541 0 0.29225796469017368 -0.35486586181932289 0 0.28388279232808111 -0.34879423229863538 0 0.29526372343335222 -0.38214642848390951 0 0.29938815419514908 -0.36235191135060729 0 0.2822483272805178 -0.36575990941074382 0 0.29938815419514908 -0.36235191135060729 0 0.29225796469017368 -0.35486586181932289 0 0.2822483272805178 -0.36575990941074382 0 0.27569670368188232 -0.38326726020642471 0 0.2822483272805178 -0.36575990941074382 0 0.26273855981799532 -0.37402085189451678 0 0.2822483272805178 -0.36575990941074382 0 0.26391134377156378 -0.35745418407105078 0 0.26273855981799532 -0.37402085189451678 0 0.28388279232808111 -0.34879423229863538 0 0.2690396956517056 -0.34420120372419399 0 0.26391134377156378 -0.35745418407105078 0 0.28388279232808111 -0.34879423229863538 0 0.2822483272805178 -0.36575990941074382 0 0.26391134377156378 -0.35745418407105078 0 0.26391134377156378 -0.35745418407105078 0 0.25139118101367519 -0.34116546776705792 0 0.24725496166677341 -0.36469484034826838 0 0.2690396956517056 -0.34420120372419399 0 0.26391134377156378 -0.35745418407105078 0 0.25139118101367519 -0.34116546776705792 0 0.26391134377156378 -0.35745418407105078 0 0.26273855981799532 -0.37402085189451678 0 0.24725496166677341 -0.36469484034826838 0 0.26273855981799532 -0.37402085189451678 0 0.24725496166677341 -0.36469484034826838 0 0.2462658744323834 -0.38197959250061342 0 0.27697346549350221 -0.32939093076003212 0 0.2504343460300561 -0.31622446730276171 0 0.27399568940133018 -0.31084845435951231 0 0.29267099061500118 -0.31767693215293968 0 0.27697346549350221 -0.32939093076003212 0 0.27399568940133018 -0.31084845435951231 0 0.2690396956517056 -0.34420120372419399 0 0.27697346549350221 -0.32939093076003212 0 0.25139118101367519 -0.34116546776705792 0 0.28388279232808111 -0.34879423229863538 0 0.2690396956517056 -0.34420120372419399 0 0.27697346549350221 -0.32939093076003212 0 0.27697346549350221 -0.32939093076003212 0 0.25139118101367519 -0.34116546776705792 0 0.2504343460300561 -0.31622446730276171 0 0.27697346549350221 -0.32939093076003212 0 0.2504343460300561 -0.31622446730276171 0 0.2504343460300561 -0.31622446730276171 0 0.25790403393649142 -0.29221016043342007 0 0.26868825863076801 -0.29933442507853231 0 0.2504343460300561 -0.31622446730276171 0 0.27399568940133018 -0.31084845435951231 0 0.26868825863076801 -0.29933442507853231 0 0.25790403393649142 -0.29221016043342007 0 0.26247779924518422 -0.27455948017448001 0 0.23862998452346509 -0.28454510211497241 0 0.25790403393649142 -0.29221016043342007 0 0.27122533838754692 -0.28910882128364879 0 0.26247779924518422 -0.27455948017448001 0 0.27122533838754692 -0.28910882128364879 0 0.28742349607482037 -0.28773318483823551 0 0.26247779924518422 -0.27455948017448001 0 0.27122533838754692 -0.28910882128364879 0 0.27963310405047059 -0.29170685589357598 0 0.28742349607482037 -0.28773318483823551 0 0.25790403393649142 -0.29221016043342007 0 0.27122533838754692 -0.28910882128364879 0 0.26868825863076801 -0.29933442507853231 0 0.27122533838754692 -0.28910882128364879 0 0.27963310405047059 -0.29170685589357598 0 0.26868825863076801 -0.29933442507853231 0 0.27963310405047059 -0.29170685589357598 0 0.27399568940133018 -0.31084845435951231 0 0.26868825863076801 -0.29933442507853231 0 0.29267099061500118 -0.31767693215293968 0 0.27963310405047059 -0.29170685589357598 0 0.29267099061500118 -0.31767693215293968 0 0.27963310405047059 -0.29170685589357598 0 0.27399568940133018 -0.31084845435951231 0 0.29267099061500118 -0.31767693215293968 0 0.27963310405047059 -0.29170685589357598 0 0.29602111265001879 -0.30165816726207401 0 0.27963310405047059 -0.29170685589357598 0 0.29602111265001879 -0.30165816726207401 0 0.28742349607482037 -0.28773318483823551 0 0.28742349607482037 -0.28773318483823551 0 0.31236919290445669 -0.30090688950199113 0 0.29602111265001879 -0.30165816726207401 0 0.28742349607482037 -0.28773318483823551 0 0.31236919290445669 -0.30090688950199113 0 0.28742349607482037 -0.28773318483823551 0 0.31236919290445669 -0.30090688950199113 0 0.2973859747586714 -0.27579116796592118 0 0.31236919290445669 -0.30090688950199113 0 0.31219288969015102 -0.27103532748113379 0 0.2973859747586714 -0.27579116796592118 0 0.30601167809918312 -0.32095610648709572 0 0.29602111265001879 -0.30165816726207401 0 0.31236919290445669 -0.30090688950199113 0 0.30987088180634448 -0.24125362874219619 0 0.29250997527574701 -0.24677647679701359 0 0.31219288969015102 -0.27103532748113379 0 0.29250997527574701 -0.24677647679701359 0 0.31219288969015102 -0.27103532748113379 0 0.2896735531526361 -0.26412531454105981 0 0.31219288969015102 -0.27103532748113379 0 0.2973859747586714 -0.27579116796592118 0 0.2896735531526361 -0.26412531454105981 0 0.2973859747586714 -0.27579116796592118 0 0.28192096152604101 -0.27231994505035018 0 0.2896735531526361 -0.26412531454105981 0 0.28742349607482037 -0.28773318483823551 0 0.2973859747586714 -0.27579116796592118 0 0.28192096152604101 -0.27231994505035018 0 0.29250997527574701 -0.24677647679701359 0 0.2896735531526361 -0.26412531454105981 0 0.27534065318434953 -0.25880162201512719 0 0.28192096152604101 -0.27231994505035018 0 0.2896735531526361 -0.26412531454105981 0 0.27534065318434953 -0.25880162201512719 0 0.27462122614518292 -0.24127539045551061 0 0.27534065318434953 -0.25880162201512719 0 0.25726365536858148 -0.25362034743760148 0 0.28742349607482037 -0.28773318483823551 0 0.26247779924518422 -0.27455948017448001 0 0.28192096152604101 -0.27231994505035018 0 0.27534065318434953 -0.25880162201512719 0 0.26247779924518422 -0.27455948017448001 0 0.28742349607482037 -0.28773318483823551 0 0.28192096152604101 -0.27231994505035018 0 0.26247779924518422 -0.27455948017448001 0 0.26247779924518422 -0.27455948017448001 0 0.23753210241554801 -0.26138577551072451 0 0.26247779924518422 -0.27455948017448001 0 0.25726365536858148 -0.25362034743760148 0 0.23753210241554801 -0.26138577551072451 0 0.27534065318434953 -0.25880162201512719 0 0.26247779924518422 -0.27455948017448001 0 0.25726365536858148 -0.25362034743760148 0 0.23753210241554801 -0.26138577551072451 0 0.24146341680214309 -0.24448521489457861 0 0.2264227451730553 -0.24971222362376699 0 0.25726365536858148 -0.25362034743760148 0 0.23753210241554801 -0.26138577551072451 0 0.24146341680214309 -0.24448521489457861 0 0.26247779924518422 -0.27455948017448001 0 0.23753210241554801 -0.26138577551072451 0 0.23862998452346509 -0.28454510211497241 0 0.23753210241554801 -0.26138577551072451 0 0.2162589501465873 -0.27468266641732147 0 0.23862998452346509 -0.28454510211497241 0 0.23753210241554801 -0.26138577551072451 0 0.2162589501465873 -0.27468266641732147 0 0.2264227451730553 -0.24971222362376699 0 0.21040399342164171 -0.25176681621351038 0 0.2162589501465873 -0.27468266641732147 0 0.2264227451730553 -0.24971222362376699 0 0.21040399342164171 -0.25176681621351038 0 0.2162589501465873 -0.27468266641732147 0 0.1934777637386868 -0.26196852324515157 0 0.2162589501465873 -0.27468266641732147 0 0.1966688692062398 -0.27921476679881868 0 0.1934777637386868 -0.26196852324515157 0 0.1966688692062398 -0.27921476679881868 0 0.1934777637386868 -0.26196852324515157 0 0.177394147168592 -0.28445233252858981 0 0.21040399342164171 -0.25176681621351038 0 0.1934777637386868 -0.26196852324515157 0 0.19936230214102421 -0.2479946931896729 0 0.1934777637386868 -0.26196852324515157 0 0.18957958600208469 -0.24548130840959781 0 0.18140855909891221 -0.24875385404173869 0 0.1934777637386868 -0.26196852324515157 0 0.18957958600208469 -0.24548130840959781 0 0.19936230214102421 -0.2479946931896729 0 0.19954461577109309 -0.29575554500421197 0 0.1961972522999722 -0.32216937387389732 0 0.17947015261898311 -0.31043279954087621 0 0.1966688692062398 -0.27921476679881868 0 0.19954461577109309 -0.29575554500421197 0 0.177394147168592 -0.28445233252858981 0 0.2162589501465873 -0.27468266641732147 0 0.19954461577109309 -0.29575554500421197 0 0.22389522656661021 -0.30305800384549131 0 0.2162589501465873 -0.27468266641732147 0 0.1966688692062398 -0.27921476679881868 0 0.19954461577109309 -0.29575554500421197 0 0.19954461577109309 -0.29575554500421197 0 0.22389522656661021 -0.30305800384549131 0 0.1961972522999722 -0.32216937387389732 0 0.2504343460300561 -0.31622446730276171 0 0.25790403393649142 -0.29221016043342007 0 0.23862998452346509 -0.28454510211497241 0 0.2504343460300561 -0.31622446730276171 0 0.22389522656661021 -0.30305800384549131 0 0.23862998452346509 -0.28454510211497241 0 0.2162589501465873 -0.27468266641732147 0 0.22389522656661021 -0.30305800384549131 0 0.23862998452346509 -0.28454510211497241 0 0.2504343460300561 -0.31622446730276171 0 0.22389522656661021 -0.30305800384549131 0 0.22389522656661021 -0.30305800384549131 0 0.23204811719291779 -0.33532479601063409 0 0.2125404456115573 -0.3333426100015644 0 0.2504343460300561 -0.31622446730276171 0 0.22389522656661021 -0.30305800384549131 0 0.23204811719291779 -0.33532479601063409 0 0.25139118101367519 -0.34116546776705792 0 0.2504343460300561 -0.31622446730276171 0 0.23204811719291779 -0.33532479601063409 0 0.25139118101367519 -0.34116546776705792 0 0.23204811719291779 -0.33532479601063409 0 0.23339586826354061 -0.3539524211851004 0 0.23204811719291779 -0.33532479601063409 0 0.2148142246021956 -0.35440494078226209 0 0.2125404456115573 -0.3333426100015644 0 0.24725496166677341 -0.36469484034826838 0 0.23339586826354061 -0.3539524211851004 0 0.22607167799098421 -0.37270743793131111 0 0.24725496166677341 -0.36469484034826838 0 0.22607167799098421 -0.37270743793131111 0 0.2462658744323834 -0.38197959250061342 0 0.25139118101367519 -0.34116546776705792 0 0.24725496166677341 -0.36469484034826838 0 0.23339586826354061 -0.3539524211851004 0 0.23204811719291779 -0.33532479601063409 0 0.23339586826354061 -0.3539524211851004 0 0.2148142246021956 -0.35440494078226209 0 0.23339586826354061 -0.3539524211851004 0 0.22607167799098421 -0.37270743793131111 0 0.2148142246021956 -0.35440494078226209 0 0.22607167799098421 -0.37270743793131111 0 0.2148142246021956 -0.35440494078226209 0 0.20089624558916569 -0.37097766955135358 0 0.2148142246021956 -0.35440494078226209 0 0.196995760569282 -0.35087166092684791 0 0.2125404456115573 -0.3333426100015644 0 0.2148142246021956 -0.35440494078226209 0 0.196995760569282 -0.35087166092684791 0 0.20089624558916569 -0.37097766955135358 0 0.196995760569282 -0.35087166092684791 0 0.20089624558916569 -0.37097766955135358 0 0.1768321188753432 -0.36690628541415632 0 0.22389522656661021 -0.30305800384549131 0 0.2125404456115573 -0.3333426100015644 0 0.1961972522999722 -0.32216937387389732 0 0.196995760569282 -0.35087166092684791 0 0.2125404456115573 -0.3333426100015644 0 0.1961972522999722 -0.32216937387389732 0 0.196995760569282 -0.35087166092684791 0 0.1961972522999722 -0.32216937387389732 0 0.1815461580693743 -0.3364132665531625 0 0.1815461580693743 -0.3364132665531625 0 0.1643579081553766 -0.3243843153562348 0 0.17947015261898311 -0.31043279954087621 0 0.1815461580693743 -0.3364132665531625 0 0.17947015261898311 -0.31043279954087621 0 0.1961972522999722 -0.32216937387389732 0 0.1815461580693743 -0.3364132665531625 0 0.17947015261898311 -0.31043279954087621 0 0.1815461580693743 -0.3364132665531625 0 0.16209568629271459 -0.34050931120228572 0 0.17381591925058279 -0.35045305017024581 0 0.16209568629271459 -0.34050931120228572 0 0.1643579081553766 -0.3243843153562348 0 0.1490492594086629 -0.33054926329457512 0 0.1815461580693743 -0.3364132665531625 0 0.16209568629271459 -0.34050931120228572 0 0.1643579081553766 -0.3243843153562348 0 0.1643579081553766 -0.3243843153562348 0 0.14785798951182749 -0.31747381703923983 0 0.15879613053988581 -0.31078255386998788 0 0.1643579081553766 -0.3243843153562348 0 0.17947015261898311 -0.31043279954087621 0 0.15879613053988581 -0.31078255386998788 0 0.196995760569282 -0.35087166092684791 0 0.1815461580693743 -0.3364132665531625 0 0.17381591925058279 -0.35045305017024581 0 0.196995760569282 -0.35087166092684791 0 0.1768321188753432 -0.36690628541415632 0 0.196995760569282 -0.35087166092684791 0 0.1768321188753432 -0.36690628541415632 0 0.17381591925058279 -0.35045305017024581 0 0.16209568629271459 -0.34050931120228572 0 0.17381591925058279 -0.35045305017024581 0 0.15160987244619981 -0.35756472675477641 0 0.1768321188753432 -0.36690628541415632 0 0.17381591925058279 -0.35045305017024581 0 0.15160987244619981 -0.35756472675477641 0 0.1768321188753432 -0.36690628541415632 0 0.15160987244619981 -0.35756472675477641 0 0.15666847718140431 -0.38294090990146468 0 0.1768321188753432 -0.36690628541415632 0 0.15666847718140431 -0.38294090990146468 0 0.15160987244619981 -0.35756472675477641 0 0.13564640110034021 -0.35912784543918008 0 0.13554014667972011 -0.37371994475541209 0 0.15160987244619981 -0.35756472675477641 0 0.13554014667972011 -0.37371994475541209 0 0.15666847718140431 -0.38294090990146468 0 0.16209568629271459 -0.34050931120228572 0 0.15160987244619981 -0.35756472675477641 0 0.1475882597035684 -0.34306743954738478 0 0.15160987244619981 -0.35756472675477641 0 0.1343114121946197 -0.3455365503022883 0 0.1475882597035684 -0.34306743954738478 0 0.15160987244619981 -0.35756472675477641 0 0.1343114121946197 -0.3455365503022883 0 0.13564640110034021 -0.35912784543918008 0 0.1343114121946197 -0.3455365503022883 0 0.1218367566819203 -0.34066885685305681 0 0.1211241730808211 -0.35969015994424403 0 0.1343114121946197 -0.3455365503022883 0 0.13564640110034021 -0.35912784543918008 0 0.1211241730808211 -0.35969015994424403 0 0.13564640110034021 -0.35912784543918008 0 0.13554014667972011 -0.37371994475541209 0 0.1211241730808211 -0.35969015994424403 0 0.1643579081553766 -0.3243843153562348 0 0.14785798951182749 -0.31747381703923983 0 0.1490492594086629 -0.33054926329457512 0 0.14785798951182749 -0.31747381703923983 0 0.1490492594086629 -0.33054926329457512 0 0.13601489266483169 -0.3229904494785929 0 0.16209568629271459 -0.34050931120228572 0 0.1490492594086629 -0.33054926329457512 0 0.1475882597035684 -0.34306743954738478 0 0.1490492594086629 -0.33054926329457512 0 0.1475882597035684 -0.34306743954738478 0 0.1353950678134421 -0.33468762657073647 0 0.1490492594086629 -0.33054926329457512 0 0.1353950678134421 -0.33468762657073647 0 0.13601489266483169 -0.3229904494785929 0 0.1343114121946197 -0.3455365503022883 0 0.1475882597035684 -0.34306743954738478 0 0.1353950678134421 -0.33468762657073647 0 0.1343114121946197 -0.3455365503022883 0 0.1353950678134421 -0.33468762657073647 0 0.1218367566819203 -0.34066885685305681 0 0.1353950678134421 -0.33468762657073647 0 0.12646864396445259 -0.32771949481933838 0 0.13601489266483169 -0.3229904494785929 0 0.1353950678134421 -0.33468762657073647 0 0.12646864396445259 -0.32771949481933838 0 0.1218367566819203 -0.34066885685305681 0 0.12646864396445259 -0.32771949481933838 0 0.13601489266483169 -0.3229904494785929 0 0.1236403595102975 -0.31726182602291142 0 0.14785798951182749 -0.31747381703923983 0 0.13601489266483169 -0.3229904494785929 0 0.13602289492267541 -0.31130305695836602 0 0.13601489266483169 -0.3229904494785929 0 0.13602289492267541 -0.31130305695836602 0 0.1236403595102975 -0.31726182602291142 0 0.127428615210958 -0.30550107704066293 0 0.13602289492267541 -0.31130305695836602 0 0.1236403595102975 -0.31726182602291142 0 0.127428615210958 -0.30550107704066293 0 0.13551093200295419 -0.30168473438614679 0 0.1256525224322369 -0.29448257816376899 0 0.127428615210958 -0.30550107704066293 0 0.13551093200295419 -0.30168473438614679 0 0.13602289492267541 -0.31130305695836602 0 0.13551093200295419 -0.30168473438614679 0 0.13602289492267541 -0.31130305695836602 0 0.14563569558381231 -0.30495269920752849 0 0.14563569558381231 -0.30495269920752849 0 0.1436119925904093 -0.29293491915627751 0 0.1604468518829657 -0.29816604611383052 0 0.14785798951182749 -0.31747381703923983 0 0.13602289492267541 -0.31130305695836602 0 0.14563569558381231 -0.30495269920752849 0 0.13551093200295419 -0.30168473438614679 0 0.14563569558381231 -0.30495269920752849 0 0.1436119925904093 -0.29293491915627751 0 0.14563569558381231 -0.30495269920752849 0 0.15879613053988581 -0.31078255386998788 0 0.1604468518829657 -0.29816604611383052 0 0.14785798951182749 -0.31747381703923983 0 0.14563569558381231 -0.30495269920752849 0 0.15879613053988581 -0.31078255386998788 0 0.1436119925904093 -0.29293491915627751 0 0.1604468518829657 -0.29816604611383052 0 0.15777299279611159 -0.28544097237972332 0 0.1436119925904093 -0.29293491915627751 0 0.15114809845108379 -0.28013278059363872 0 0.15777299279611159 -0.28544097237972332 0 0.1436119925904093 -0.29293491915627751 0 0.1436168584679525 -0.2836209543501686 0 0.1357133019824012 -0.28986653681351437 0 0.1436119925904093 -0.29293491915627751 0 0.1436168584679525 -0.2836209543501686 0 0.15114809845108379 -0.28013278059363872 0 0.1436168584679525 -0.2836209543501686 0 0.12997183443900701 -0.2884276955838429 0 0.14612074404546729 -0.27464986070998659 0 0.1436168584679525 -0.2836209543501686 0 0.1357133019824012 -0.28986653681351437 0 0.12997183443900701 -0.2884276955838429 0 0.1436119925904093 -0.29293491915627751 0 0.1256525224322369 -0.29448257816376899 0 0.12997183443900701 -0.2884276955838429 0 0.14612074404546729 -0.27464986070998659 0 0.1436119925904093 -0.29293491915627751 0 0.1357133019824012 -0.28986653681351437 0 0.1256525224322369 -0.29448257816376899 0 0.13551093200295419 -0.30168473438614679 0 0.1436119925904093 -0.29293491915627751 0 0.1256525224322369 -0.29448257816376899 0 0.1357133019824012 -0.28986653681351437 0 0.1256525224322369 -0.29448257816376899 0 0.12997183443900701 -0.2884276955838429 0 0.1256525224322369 -0.29448257816376899 0 0.12997183443900701 -0.2884276955838429 0 0.1225628758501054 -0.2947488287446996 0 0.1256525224322369 -0.29448257816376899 0 0.12997183443900701 -0.2884276955838429 0 0.12997183443900701 -0.2884276955838429 0 0.1233634239504731 -0.2874855776093414 0 0.1225628758501054 -0.2947488287446996 0 0.12997183443900701 -0.2884276955838429 0 0.1225628758501054 -0.2947488287446996 0 0.12997183443900701 -0.2884276955838429 0 0.1275993617664036 -0.28112518425861122 0 0.1233634239504731 -0.2874855776093414 0 0.12997183443900701 -0.2884276955838429 0 0.1275993617664036 -0.28112518425861122 0 0.13485463758425459 -0.27391652201106309 0 0.1275993617664036 -0.28112518425861122 0 0.1280966355330338 -0.27434446718476552 0 0.12144198577599689 -0.28043819023602667 0 0.12997183443900701 -0.2884276955838429 0 0.14612074404546729 -0.27464986070998659 0 0.1420233446603141 -0.27153369043062148 0 0.12997183443900701 -0.2884276955838429 0 0.13485463758425459 -0.27391652201106309 0 0.1420233446603141 -0.27153369043062148 0 0.12997183443900701 -0.2884276955838429 0 0.1420233446603141 -0.27153369043062148 0 0.1275993617664036 -0.28112518425861122 0 0.1280966355330338 -0.27434446718476552 0 0.13485463758425459 -0.27391652201106309 0 0.1280966355330338 -0.27434446718476552 0 0.13485463758425459 -0.27391652201106309 0 0.13350735252106491 -0.26509119559065258 0 0.1280966355330338 -0.27434446718476552 0 0.13350735252106491 -0.26509119559065258 0 0.123327112510175 -0.26381005316279871 0 0.13811143923488059 -0.26777882680588339 0 0.13485463758425459 -0.27391652201106309 0 0.13350735252106491 -0.26509119559065258 0 0.13811143923488059 -0.26777882680588339 0 0.13485463758425459 -0.27391652201106309 0 0.1420233446603141 -0.27153369043062148 0 0.13350735252106491 -0.26509119559065258 0 0.1338120645475761 -0.25178135897747889 0 0.123327112510175 -0.26381005316279871 0 0.13350735252106491 -0.26509119559065258 0 0.1338120645475761 -0.25178135897747889 0 0.1420604221738889 -0.26057389919119672 0 0.13811143923488059 -0.26777882680588339 0 0.13350735252106491 -0.26509119559065258 0 0.1420604221738889 -0.26057389919119672 0 0.15407485488162029 -0.25463968527739939 0 0.1420233446603141 -0.27153369043062148 0 0.1338120645475761 -0.25178135897747889 0 0.15081333679343489 -0.24957271686280691 0 0.1504037114514421 -0.26476637401943331 0 0.15407485488162029 -0.25463968527739939 0 0.1420233446603141 -0.27153369043062148 0 0.1420604221738889 -0.26057389919119672 0 0.15407485488162029 -0.25463968527739939 0 0.1420233446603141 -0.27153369043062148 0 0.1338120645475761 -0.25178135897747889 0 0.14898820642875321 -0.25263106074458241 0 0.15081333679343489 -0.24957271686280691 0 0.1420604221738889 -0.26057389919119672 0 0.14898820642875321 -0.25263106074458241 0 0.15407485488162029 -0.25463968527739939 0 0.1338120645475761 -0.25178135897747889 0 0.14898820642875321 -0.25263106074458241 0 0.1338120645475761 -0.25178135897747889 0 0.1420604221738889 -0.26057389919119672 0 0.14898820642875321 -0.25263106074458241 0 0.1504037114514421 -0.26476637401943331 0 0.15407485488162029 -0.25463968527739939 0 0.15854298516514259 -0.2623064548534918 0 0.1504037114514421 -0.26476637401943331 0 0.15545765769127859 -0.26765705275147811 0 0.15854298516514259 -0.2623064548534918 0 0.14898820642875321 -0.25263106074458241 0 0.15407485488162029 -0.25463968527739939 0 0.16416434830993021 -0.25348076251168611 0 0.14898820642875321 -0.25263106074458241 0 0.16416434830993021 -0.25348076251168611 0 0.15081333679343489 -0.24957271686280691 0 0.1436168584679525 -0.2836209543501686 0 0.14612074404546729 -0.27464986070998659 0 0.15114809845108379 -0.28013278059363872 0 0.13811143923488059 -0.26777882680588339 0 0.1420604221738889 -0.26057389919119672 0 0.1420233446603141 -0.27153369043062148 0 0.1504037114514421 -0.26476637401943331 0 0.1420233446603141 -0.27153369043062148 0 0.14774651714261711 -0.27061417123897102 0 0.14612074404546729 -0.27464986070998659 0 0.1420233446603141 -0.27153369043062148 0 0.14774651714261711 -0.27061417123897102 0 0.15545765769127859 -0.26765705275147811 0 0.1524382684132447 -0.27150675979584271 0 0.16044566573528521 -0.27204862233714472 0 0.14612074404546729 -0.27464986070998659 0 0.14774651714261711 -0.27061417123897102 0 0.1524382684132447 -0.27150675979584271 0 0.1504037114514421 -0.26476637401943331 0 0.14774651714261711 -0.27061417123897102 0 0.1524382684132447 -0.27150675979584271 0 0.1504037114514421 -0.26476637401943331 0 0.15545765769127859 -0.26765705275147811 0 0.1524382684132447 -0.27150675979584271 0 0.1524382684132447 -0.27150675979584271 0 0.15114809845108379 -0.28013278059363872 0 0.16044566573528521 -0.27204862233714472 0 0.14612074404546729 -0.27464986070998659 0 0.1524382684132447 -0.27150675979584271 0 0.15114809845108379 -0.28013278059363872 0 0.16044566573528521 -0.27204862233714472 0 0.16717305761943019 -0.26615200754944318 0 0.177394147168592 -0.28445233252858981 0 0.16044566573528521 -0.27204862233714472 0 0.177394147168592 -0.28445233252858981 0 0.15777299279611159 -0.28544097237972332 0 0.15114809845108379 -0.28013278059363872 0 0.16044566573528521 -0.27204862233714472 0 0.15777299279611159 -0.28544097237972332 0 0.15545765769127859 -0.26765705275147811 0 0.16044566573528521 -0.27204862233714472 0 0.15854298516514259 -0.2623064548534918 0 0.16044566573528521 -0.27204862233714472 0 0.16717305761943019 -0.26615200754944318 0 0.15854298516514259 -0.2623064548534918 0 0.15407485488162029 -0.25463968527739939 0 0.15854298516514259 -0.2623064548534918 0 0.16416434830993021 -0.25348076251168611 0 0.14898820642875321 -0.25263106074458241 0 0.16416434830993021 -0.25348076251168611 0 0.16416434830993021 -0.25348076251168611 0 0.15746623258843939 -0.24717962177743169 0 0.15081333679343489 -0.24957271686280691 0 0.16717305761943019 -0.26615200754944318 0 0.15854298516514259 -0.2623064548534918 0 0.16416434830993021 -0.25348076251168611 0 0.16717305761943019 -0.26615200754944318 0 0.16416434830993021 -0.25348076251168611 0 0.17531814171820079 -0.25847186551630352 0 0.1934777637386868 -0.26196852324515157 0 0.17531814171820079 -0.25847186551630352 0 0.18140855909891221 -0.24875385404173869 0 0.16717305761943019 -0.26615200754944318 0 0.17531814171820079 -0.25847186551630352 0 0.177394147168592 -0.28445233252858981 0 0.1934777637386868 -0.26196852324515157 0 0.17531814171820079 -0.25847186551630352 0 0.177394147168592 -0.28445233252858981 0 0.17531814171820079 -0.25847186551630352 0 0.177394147168592 -0.28445233252858981 0 0.177394147168592 -0.28445233252858981 0 0.17947015261898311 -0.31043279954087621 0 0.1604468518829657 -0.29816604611383052 0 0.19954461577109309 -0.29575554500421197 0 0.177394147168592 -0.28445233252858981 0 0.17947015261898311 -0.31043279954087621 0 0.177394147168592 -0.28445233252858981 0 0.17947015261898311 -0.31043279954087621 0 0.17947015261898311 -0.31043279954087621 0 0.15879613053988581 -0.31078255386998788 0 0.1604468518829657 -0.29816604611383052 0 0.177394147168592 -0.28445233252858981 0 0.1604468518829657 -0.29816604611383052 0 0.15777299279611159 -0.28544097237972332 0 0.19199278516569629 -0.5 0 0.1900164382224285 -0.48271496941050879 0 0.20545646434069309 -0.4787017342280358 0 0.1900164382224285 -0.48271496941050879 0 0.20545646434069309 -0.4787017342280358 0 0.18613842771148381 -0.46787851807202258 0 0.20545646434069309 -0.4787017342280358 0 0.2281108343262262 -0.48056582836830158 0 0.21973600360042431 -0.45949417383294189 0 0.20545646434069309 -0.4787017342280358 0 0.21796904096784361 -0.5 0 0.2281108343262262 -0.48056582836830158 0 0.19199278516569629 -0.5 0 0.20545646434069309 -0.4787017342280358 0 0.21796904096784361 -0.5 0 0.21796904096784361 -0.5 0 0.24394529676999099 -0.5 0 0.2281108343262262 -0.48056582836830158 0 0.25460761733926612 -0.48077428153223201 0 0.24394529676999099 -0.5 0 0.2281108343262262 -0.48056582836830158 0 0.2281108343262262 -0.48056582836830158 0 0.24642569303344669 -0.46176391886762419 0 0.25460761733926612 -0.48077428153223201 0 0.2281108343262262 -0.48056582836830158 0 0.24642569303344669 -0.46176391886762419 0 0.2281108343262262 -0.48056582836830158 0 0.21973600360042431 -0.45949417383294189 0 0.2323887624892686 -0.4611014010944845 0 0.21973600360042431 -0.45949417383294189 0 0.2323887624892686 -0.4611014010944845 0 0.23528251899697711 -0.44258168330907049 0 0.2281108343262262 -0.48056582836830158 0 0.2323887624892686 -0.4611014010944845 0 0.24642569303344669 -0.46176391886762419 0 0.2323887624892686 -0.4611014010944845 0 0.24642569303344669 -0.46176391886762419 0 0.23528251899697711 -0.44258168330907049 0 0.2647405517406643 -0.44296200936694391 0 0.23528251899697711 -0.44258168330907049 0 0.24937758952868769 -0.43582476186075059 0 0.2647405517406643 -0.44296200936694391 0 0.24642569303344669 -0.46176391886762419 0 0.23528251899697711 -0.44258168330907049 0 0.21973600360042431 -0.45949417383294189 0 0.23528251899697711 -0.44258168330907049 0 0.20582448625328989 -0.44220135725120002 0 0.23528251899697711 -0.44258168330907049 0 0.20582448625328989 -0.44220135725120002 0 0.23528251899697711 -0.44258168330907049 0 0.20582448625328989 -0.44220135725120002 0 0.22256526670295609 -0.43567624475563838 0 0.20545646434069309 -0.4787017342280358 0 0.21973600360042431 -0.45949417383294189 0 0.202602484605724 -0.45942999972385479 0 0.21973600360042431 -0.45949417383294189 0 0.20582448625328989 -0.44220135725120002 0 0.202602484605724 -0.45942999972385479 0 0.202602484605724 -0.45942999972385479 0 0.19228485390892139 -0.44832807257495588 0 0.18613842771148381 -0.46787851807202258 0 0.20545646434069309 -0.4787017342280358 0 0.202602484605724 -0.45942999972385479 0 0.18613842771148381 -0.46787851807202258 0 0.20582448625328989 -0.44220135725120002 0 0.202602484605724 -0.45942999972385479 0 0.19228485390892139 -0.44832807257495588 0 0.20582448625328989 -0.44220135725120002 0 0.19228485390892139 -0.44832807257495588 0 0.1986877949313606 -0.42882383702638299 0 0.19228485390892139 -0.44832807257495588 0 0.1986877949313606 -0.42882383702638299 0 0.183200271073473 -0.43641073338783498 0 0.1986877949313606 -0.42882383702638299 0 0.1816281482625339 -0.41415137017959991 0 0.183200271073473 -0.43641073338783498 0 0.20582455939560251 -0.41258395769508027 0 0.1950935246886642 -0.40110820421824778 0 0.1816281482625339 -0.41415137017959991 0 0.1986877949313606 -0.42882383702638299 0 0.20582455939560251 -0.41258395769508027 0 0.1816281482625339 -0.41415137017959991 0 0.20582455939560251 -0.41258395769508027 0 0.21384958020830239 -0.42892716952759119 0 0.2218345854540221 -0.41854111548045619 0 0.20582455939560251 -0.41258395769508027 0 0.2218345854540221 -0.41854111548045619 0 0.2220903860499629 -0.40641314768071007 0 0.1986877949313606 -0.42882383702638299 0 0.20582455939560251 -0.41258395769508027 0 0.21384958020830239 -0.42892716952759119 0 0.20582448625328989 -0.44220135725120002 0 0.21384958020830239 -0.42892716952759119 0 0.22256526670295609 -0.43567624475563838 0 0.20582448625328989 -0.44220135725120002 0 0.1986877949313606 -0.42882383702638299 0 0.21384958020830239 -0.42892716952759119 0 0.21384958020830239 -0.42892716952759119 0 0.22256526670295609 -0.43567624475563838 0 0.23530448135325491 -0.42899476893469179 0 0.21384958020830239 -0.42892716952759119 0 0.23530448135325491 -0.42899476893469179 0 0.21384958020830239 -0.42892716952759119 0 0.23530448135325491 -0.42899476893469179 0 0.2218345854540221 -0.41854111548045619 0 0.23528251899697711 -0.44258168330907049 0 0.22256526670295609 -0.43567624475563838 0 0.23530448135325491 -0.42899476893469179 0 0.25675938249820729 -0.42906236834179229 0 0.23530448135325491 -0.42899476893469179 0 0.23528251899697711 -0.44258168330907049 0 0.23530448135325491 -0.42899476893469179 0 0.24937758952868769 -0.43582476186075059 0 0.25675938249820729 -0.42906236834179229 0 0.23530448135325491 -0.42899476893469179 0 0.24471655788437549 -0.41836465708289111 0 0.25675938249820729 -0.42906236834179229 0 0.23530448135325491 -0.42899476893469179 0 0.24937758952868769 -0.43582476186075059 0 0.25834465052961392 -0.41196496969487773 0 0.24471655788437549 -0.41836465708289111 0 0.2415255849161019 -0.40609463635975013 0 0.23530448135325491 -0.42899476893469179 0 0.24471655788437549 -0.41836465708289111 0 0.23210392026298771 -0.41578653356420769 0 0.24471655788437549 -0.41836465708289111 0 0.23210392026298771 -0.41578653356420769 0 0.2415255849161019 -0.40609463635975013 0 0.23210392026298771 -0.41578653356420769 0 0.2220903860499629 -0.40641314768071007 0 0.2415255849161019 -0.40609463635975013 0 0.23530448135325491 -0.42899476893469179 0 0.23210392026298771 -0.41578653356420769 0 0.2218345854540221 -0.41854111548045619 0 0.23210392026298771 -0.41578653356420769 0 0.2218345854540221 -0.41854111548045619 0 0.2220903860499629 -0.40641314768071007 0 0.2220903860499629 -0.40641314768071007 0 0.2325848323457651 -0.39226733923237422 0 0.2415255849161019 -0.40609463635975013 0 0.2220903860499629 -0.40641314768071007 0 0.2325848323457651 -0.39226733923237422 0 0.20793944219493879 -0.39039719718598698 0 0.25113336278303172 -0.39639034007073559 0 0.2325848323457651 -0.39226733923237422 0 0.2415255849161019 -0.40609463635975013 0 0.25113336278303172 -0.39639034007073559 0 0.2325848323457651 -0.39226733923237422 0 0.2462658744323834 -0.38197959250061342 0 0.22607167799098421 -0.37270743793131111 0 0.2325848323457651 -0.39226733923237422 0 0.2462658744323834 -0.38197959250061342 0 0.22607167799098421 -0.37270743793131111 0 0.2325848323457651 -0.39226733923237422 0 0.20793944219493879 -0.39039719718598698 0 0.22607167799098421 -0.37270743793131111 0 0.20089624558916569 -0.37097766955135358 0 0.20793944219493879 -0.39039719718598698 0 0.20582455939560251 -0.41258395769508027 0 0.2220903860499629 -0.40641314768071007 0 0.20793944219493879 -0.39039719718598698 0 0.20793944219493879 -0.39039719718598698 0 0.1950935246886642 -0.40110820421824778 0 0.18397260247544159 -0.38969422049886882 0 0.20582455939560251 -0.41258395769508027 0 0.20793944219493879 -0.39039719718598698 0 0.1950935246886642 -0.40110820421824778 0 0.20089624558916569 -0.37097766955135358 0 0.20793944219493879 -0.39039719718598698 0 0.18397260247544159 -0.38969422049886882 0 0.20089624558916569 -0.37097766955135358 0 0.1768321188753432 -0.36690628541415632 0 0.18397260247544159 -0.38969422049886882 0 0.1768321188753432 -0.36690628541415632 0 0.18397260247544159 -0.38969422049886882 0 0.15666847718140431 -0.38294090990146468 0 0.1950935246886642 -0.40110820421824778 0 0.18397260247544159 -0.38969422049886882 0 0.1816281482625339 -0.41415137017959991 0 0.18397260247544159 -0.38969422049886882 0 0.16282522567504601 -0.40076461101477862 0 0.1816281482625339 -0.41415137017959991 0 0.18397260247544159 -0.38969422049886882 0 0.16282522567504601 -0.40076461101477862 0 0.15666847718140431 -0.38294090990146468 0 0.13554014667972011 -0.37371994475541209 0 0.15666847718140431 -0.38294090990146468 0 0.13650483548746539 -0.39897553438877298 0 0.13554014667972011 -0.37371994475541209 0 0.13650483548746539 -0.39897553438877298 0 0.11257503074115451 -0.38498649823446041 0 0.16282522567504601 -0.40076461101477862 0 0.13650483548746539 -0.39897553438877298 0 0.15535206496838491 -0.41806102010518609 0 0.16282522567504601 -0.40076461101477862 0 0.15666847718140431 -0.38294090990146468 0 0.13650483548746539 -0.39897553438877298 0 0.15666847718140431 -0.38294090990146468 0 0.13650483548746539 -0.39897553438877298 0 0.13650483548746539 -0.39897553438877298 0 0.15535206496838491 -0.41806102010518609 0 0.13513029091253781 -0.42041342615249999 0 0.13650483548746539 -0.39897553438877298 0 0.1163411937935266 -0.41501015887608139 0 0.13650483548746539 -0.39897553438877298 0 0.13513029091253781 -0.42041342615249999 0 0.1163411937935266 -0.41501015887608139 0 0.13513029091253781 -0.42041342615249999 0 0.15032059054535499 -0.43467939270726969 0 0.13254635452133279 -0.44085243440563188 0 0.13513029091253781 -0.42041342615249999 0 0.13254635452133279 -0.44085243440563188 0 0.1143868512917591 -0.43285467588419202 0 0.15535206496838491 -0.41806102010518609 0 0.13513029091253781 -0.42041342615249999 0 0.15032059054535499 -0.43467939270726969 0 0.15535206496838491 -0.41806102010518609 0 0.15032059054535499 -0.43467939270726969 0 0.16908223299646141 -0.42841704329178959 0 0.15032059054535499 -0.43467939270726969 0 0.16908223299646141 -0.42841704329178959 0 0.16335318746445779 -0.4445252196366028 0 0.16282522567504601 -0.40076461101477862 0 0.15535206496838491 -0.41806102010518609 0 0.1816281482625339 -0.41415137017959991 0 0.15535206496838491 -0.41806102010518609 0 0.16908223299646141 -0.42841704329178959 0 0.1816281482625339 -0.41415137017959991 0 0.16908223299646141 -0.42841704329178959 0 0.183200271073473 -0.43641073338783498 0 0.16335318746445779 -0.4445252196366028 0 0.16908223299646141 -0.42841704329178959 0 0.1816281482625339 -0.41415137017959991 0 0.183200271073473 -0.43641073338783498 0 0.183200271073473 -0.43641073338783498 0 0.1772803827575771 -0.45352317498248768 0 0.16335318746445779 -0.4445252196366028 0 0.19228485390892139 -0.44832807257495588 0 0.183200271073473 -0.43641073338783498 0 0.1772803827575771 -0.45352317498248768 0 0.19228485390892139 -0.44832807257495588 0 0.1772803827575771 -0.45352317498248768 0 0.18613842771148381 -0.46787851807202258 0 0.1772803827575771 -0.45352317498248768 0 0.18613842771148381 -0.46787851807202258 0 0.16548752239589951 -0.46480458862744461 0 0.16548752239589951 -0.46480458862744461 0 0.16335318746445779 -0.4445252196366028 0 0.1464594124089553 -0.4558072126519076 0 0.1772803827575771 -0.45352317498248768 0 0.16548752239589951 -0.46480458862744461 0 0.16335318746445779 -0.4445252196366028 0 0.15032059054535499 -0.43467939270726969 0 0.16335318746445779 -0.4445252196366028 0 0.1464594124089553 -0.4558072126519076 0 0.15032059054535499 -0.43467939270726969 0 0.13254635452133279 -0.44085243440563188 0 0.1464594124089553 -0.4558072126519076 0 0.13254635452133279 -0.44085243440563188 0 0.1274715551183096 -0.46736641087901343 0 0.1464594124089553 -0.4558072126519076 0 0.16548752239589951 -0.46480458862744461 0 0.1464594124089553 -0.4558072126519076 0 0.1467440422409298 -0.48368320543950499 0 0.1274715551183096 -0.46736641087901343 0 0.1467440422409298 -0.48368320543950499 0 0.12445287299781339 -0.48580957524003149 0 0.1274715551183096 -0.46736641087901343 0 0.1464594124089553 -0.4558072126519076 0 0.1467440422409298 -0.48368320543950499 0 0.1274715551183096 -0.46736641087901343 0 0.1467440422409298 -0.48368320543950499 0 0.1467440422409298 -0.48368320543950499 0 0.13861342094189541 -0.5 0 0.12445287299781339 -0.48580957524003149 0 0.1467440422409298 -0.48368320543950499 0 0.13861342094189541 -0.5 0 0.16601652936354891 -0.49999999999999789 0 0.1467440422409298 -0.48368320543950499 0 0.16601652936354891 -0.49999999999999789 0 0.1742528725293658 -0.48296598532830509 0 0.1467440422409298 -0.48368320543950499 0 0.16601652936354891 -0.49999999999999789 0 0.16548752239589951 -0.46480458862744461 0 0.1467440422409298 -0.48368320543950499 0 0.1742528725293658 -0.48296598532830509 0 0.18613842771148381 -0.46787851807202258 0 0.16548752239589951 -0.46480458862744461 0 0.1742528725293658 -0.48296598532830509 0 0.1900164382224285 -0.48271496941050879 0 0.18613842771148381 -0.46787851807202258 0 0.1742528725293658 -0.48296598532830509 0 0.19199278516569629 -0.5 0 0.16601652936354891 -0.49999999999999789 0 0.1742528725293658 -0.48296598532830509 0 0.19199278516569629 -0.5 0 0.1900164382224285 -0.48271496941050879 0 0.1742528725293658 -0.48296598532830509 0 0.067672963152933252 -0.5 0 0.070479040632291823 -0.48264211959480191 0 0.053020152767299072 -0.48801933676575959 0 0.067672963152933252 -0.5 0 0.070479040632291823 -0.48264211959480191 0 0.080327064833409109 -0.49320164294834518 0 0.064630060102032719 -0.47456076603106118 0 0.075246676549625066 -0.47305272083988897 0 0.070479040632291823 -0.48264211959480191 0 0.064630060102032719 -0.47456076603106118 0 0.075246676549625066 -0.47305272083988897 0 0.061795930812101732 -0.46820781613902701 0 0.075246676549625066 -0.47305272083988897 0 0.092517011764567517 -0.47378197497117353 0 0.089959488850471461 -0.49094383163907668 0 0.075246676549625066 -0.47305272083988897 0 0.070479040632291823 -0.48264211959480191 0 0.089959488850471461 -0.49094383163907668 0 0.075246676549625066 -0.47305272083988897 0 0.092517011764567517 -0.47378197497117353 0 0.083633368414380696 -0.46621164320728742 0 0.075246676549625066 -0.47305272083988897 0 0.089959488850471461 -0.49094383163907668 0 0.067672963152933252 -0.5 0 0.080327064833409109 -0.49320164294834518 0 0.097406857924120502 -0.499999999999999 0 0.080327064833409109 -0.49320164294834518 0 0.089959488850471461 -0.49094383163907668 0 0.097406857924120502 -0.499999999999999 0 0.070479040632291823 -0.48264211959480191 0 0.080327064833409109 -0.49320164294834518 0 0.089959488850471461 -0.49094383163907668 0 0.070479040632291823 -0.48264211959480191 0 0.089959488850471461 -0.49094383163907668 0 0.089959488850471461 -0.49094383163907668 0 0.097406857924120502 -0.499999999999999 0 0.089959488850471461 -0.49094383163907668 0 0.097406857924120502 -0.499999999999999 0 0.1112103125202419 -0.50000000000000022 0 0.089959488850471461 -0.49094383163907668 0 0.1052052932537345 -0.48462989700511527 0 0.1112103125202419 -0.50000000000000022 0 0.089959488850471461 -0.49094383163907668 0 0.1112103125202419 -0.50000000000000022 0 0.1052052932537345 -0.48462989700511527 0 0.1112103125202419 -0.50000000000000022 0 0.12445287299781339 -0.48580957524003149 0 0.13861342094189541 -0.5 0 0.1112103125202419 -0.50000000000000022 0 0.12445287299781339 -0.48580957524003149 0 0.1052052932537345 -0.48462989700511527 0 0.12445287299781339 -0.48580957524003149 0 0.10908141417361709 -0.46883823252096812 0 0.1274715551183096 -0.46736641087901343 0 0.12445287299781339 -0.48580957524003149 0 0.10908141417361709 -0.46883823252096812 0 0.092517011764567517 -0.47378197497117353 0 0.089959488850471461 -0.49094383163907668 0 0.1052052932537345 -0.48462989700511527 0 0.092517011764567517 -0.47378197497117353 0 0.1052052932537345 -0.48462989700511527 0 0.10908141417361709 -0.46883823252096812 0 0.092517011764567517 -0.47378197497117353 0 0.10908141417361709 -0.46883823252096812 0 0.090724871429903375 -0.45809280890615561 0 0.10908141417361709 -0.46883823252096812 0 0.1081990679956894 -0.4510496163185217 0 0.090724871429903375 -0.45809280890615561 0 0.1274715551183096 -0.46736641087901343 0 0.10908141417361709 -0.46883823252096812 0 0.1081990679956894 -0.4510496163185217 0 0.1274715551183096 -0.46736641087901343 0 0.1081990679956894 -0.4510496163185217 0 0.13254635452133279 -0.44085243440563188 0 0.1274715551183096 -0.46736641087901343 0 0.1081990679956894 -0.4510496163185217 0 0.13254635452133279 -0.44085243440563188 0 0.1081990679956894 -0.4510496163185217 0 0.1143868512917591 -0.43285467588419202 0 0.1081990679956894 -0.4510496163185217 0 0.09424645164530171 -0.44210268425789312 0 0.090724871429903375 -0.45809280890615561 0 0.1081990679956894 -0.4510496163185217 0 0.09424645164530171 -0.44210268425789312 0 0.1143868512917591 -0.43285467588419202 0 0.09424645164530171 -0.44210268425789312 0 0.078924008128618786 -0.44927425917818692 0 0.090724871429903375 -0.45809280890615561 0 0.09424645164530171 -0.44210268425789312 0 0.078924008128618786 -0.44927425917818692 0 0.079815715379254276 -0.43713965414436617 0 0.092517011764567517 -0.47378197497117353 0 0.090724871429903375 -0.45809280890615561 0 0.083633368414380696 -0.46621164320728742 0 0.075246676549625066 -0.47305272083988897 0 0.083633368414380696 -0.46621164320728742 0 0.07604491391342684 -0.45991906811193117 0 0.090724871429903375 -0.45809280890615561 0 0.083633368414380696 -0.46621164320728742 0 0.07604491391342684 -0.45991906811193117 0 0.078924008128618786 -0.44927425917818692 0 0.090724871429903375 -0.45809280890615561 0 0.07604491391342684 -0.45991906811193117 0 0.075246676549625066 -0.47305272083988897 0 0.07604491391342684 -0.45991906811193117 0 0.060533864248779268 -0.45516161004070088 0 0.075246676549625066 -0.47305272083988897 0 0.060533864248779268 -0.45516161004070088 0 0.061795930812101732 -0.46820781613902701 0 0.078924008128618786 -0.44927425917818692 0 0.07604491391342684 -0.45991906811193117 0 0.066742638013750744 -0.45361708446569943 0 0.075246676549625066 -0.47305272083988897 0 0.060533864248779268 -0.45516161004070088 0 0.07604491391342684 -0.45991906811193117 0 0.066742638013750744 -0.45361708446569943 0 0.060533864248779268 -0.45516161004070088 0 0.066742638013750744 -0.45361708446569943 0 0.060533864248779268 -0.45516161004070088 0 0.066742638013750744 -0.45361708446569943 0 0.070851891070507364 -0.4429924727175758 0 0.060604784186928162 -0.44219524034701829 0 0.066742638013750744 -0.45361708446569943 0 0.060604784186928162 -0.44219524034701829 0 0.060533864248779268 -0.45516161004070088 0 0.070851891070507364 -0.4429924727175758 0 0.068700271916894928 -0.43290455926873739 0 0.060604784186928162 -0.44219524034701829 0 0.078924008128618786 -0.44927425917818692 0 0.070851891070507364 -0.4429924727175758 0 0.079815715379254276 -0.43713965414436617 0 0.070851891070507364 -0.4429924727175758 0 0.068700271916894928 -0.43290455926873739 0 0.079815715379254276 -0.43713965414436617 0 0.078924008128618786 -0.44927425917818692 0 0.066742638013750744 -0.45361708446569943 0 0.070851891070507364 -0.4429924727175758 0 0.068700271916894928 -0.43290455926873739 0 0.078113452497016317 -0.41994308157894578 0 0.079815715379254276 -0.43713965414436617 0 0.068700271916894928 -0.43290455926873739 0 0.078113452497016317 -0.41994308157894578 0 0.058719347470543831 -0.42372109043242612 0 0.068700271916894928 -0.43290455926873739 0 0.058719347470543831 -0.42372109043242612 0 0.060604784186928162 -0.44219524034701829 0 0.078113452497016317 -0.41994308157894578 0 0.070468827029821934 -0.40290810194725279 0 0.058719347470543831 -0.42372109043242612 0 0.078113452497016317 -0.41994308157894578 0 0.093810327587010828 -0.40408349715757252 0 0.070468827029821934 -0.40290810194725279 0 0.078113452497016317 -0.41994308157894578 0 0.096321857990668808 -0.42533267408736197 0 0.093810327587010828 -0.40408349715757252 0 0.078113452497016317 -0.41994308157894578 0 0.079815715379254276 -0.43713965414436617 0 0.096321857990668808 -0.42533267408736197 0 0.09424645164530171 -0.44210268425789312 0 0.079815715379254276 -0.43713965414436617 0 0.096321857990668808 -0.42533267408736197 0 0.09424645164530171 -0.44210268425789312 0 0.096321857990668808 -0.42533267408736197 0 0.1143868512917591 -0.43285467588419202 0 0.096321857990668808 -0.42533267408736197 0 0.1143868512917591 -0.43285467588419202 0 0.1163411937935266 -0.41501015887608139 0 0.13513029091253781 -0.42041342615249999 0 0.1143868512917591 -0.43285467588419202 0 0.1163411937935266 -0.41501015887608139 0 0.096321857990668808 -0.42533267408736197 0 0.1163411937935266 -0.41501015887608139 0 0.093810327587010828 -0.40408349715757252 0 0.1163411937935266 -0.41501015887608139 0 0.093810327587010828 -0.40408349715757252 0 0.11257503074115451 -0.38498649823446041 0 0.13650483548746539 -0.39897553438877298 0 0.1163411937935266 -0.41501015887608139 0 0.11257503074115451 -0.38498649823446041 0 0.11257503074115451 -0.38498649823446041 0 0.085185771917526548 -0.37977283474271561 0 0.10079201747098269 -0.36412242239479142 0 0.093810327587010828 -0.40408349715757252 0 0.11257503074115451 -0.38498649823446041 0 0.085185771917526548 -0.37977283474271561 0 0.093810327587010828 -0.40408349715757252 0 0.085185771917526548 -0.37977283474271561 0 0.070468827029821934 -0.40290810194725279 0 0.085185771917526548 -0.37977283474271561 0 0.070468827029821934 -0.40290810194725279 0 0.057841008155207027 -0.38245658693310142 0 0.070468827029821934 -0.40290810194725279 0 0.057841008155207027 -0.38245658693310142 0 0.049143054551627013 -0.40747152083875582 0 0.057841008155207027 -0.38245658693310142 0 0.043656632087297011 -0.39232656597616861 0 0.049143054551627013 -0.40747152083875582 0 0.043656632087297011 -0.39232656597616861 0 0.028999000949789959 -0.40147898970888801 0 0.049143054551627013 -0.40747152083875582 0 0.043656632087297011 -0.39232656597616861 0 0.028999000949789959 -0.40147898970888801 0 0.032111139506758431 -0.37191992684122582 0 0.057841008155207027 -0.38245658693310142 0 0.043656632087297011 -0.39232656597616861 0 0.032111139506758431 -0.37191992684122582 0 0.011472045166716269 -0.38952867199447438 0 0.032111139506758431 -0.37191992684122582 0 0.011472045166716269 -0.38952867199447438 0 0.028999000949789959 -0.40147898970888801 0 0.032111139506758431 -0.37191992684122582 0 0.011472045166716269 -0.38952867199447438 0 0.032111139506758431 -0.37191992684122582 0 0.0095024714850780283 -0.37458082262515818 0 -0.0042332821090469977 -0.36931681778231101 0 -0.0014384839491562609 -0.38294108750953337 0 0.0095024714850780283 -0.37458082262515818 0 -0.0014384839491562609 -0.38294108750953337 0 0.011472045166716269 -0.38952867199447438 0 0.0095024714850780283 -0.37458082262515818 0 -0.0091670491733258502 -0.407137417147723 0 0.011472045166716269 -0.38952867199447438 0 0.005108664055598287 -0.40528738143041459 0 0.011472045166716269 -0.38952867199447438 0 0.005108664055598287 -0.40528738143041459 0 0.01434864661312045 -0.40656634948070969 0 -0.0091670491733258502 -0.407137417147723 0 0.011472045166716269 -0.38952867199447438 0 0.011472045166716269 -0.38952867199447438 0 0.028999000949789959 -0.40147898970888801 0 0.01434864661312045 -0.40656634948070969 0 0.028999000949789959 -0.40147898970888801 0 0.01434864661312045 -0.40656634948070969 0 0.016816745003192791 -0.42357542462247538 0 0.028999000949789959 -0.40147898970888801 0 0.016816745003192791 -0.42357542462247538 0 0.038035624732997701 -0.42318917072202022 0 0.01434864661312045 -0.40656634948070969 0 0.0037810136158822729 -0.41791708709875131 0 0.016816745003192791 -0.42357542462247538 0 0.005108664055598287 -0.40528738143041459 0 0.01434864661312045 -0.40656634948070969 0 0.0037810136158822729 -0.41791708709875131 0 0.00079488181500260609 -0.42987501851034571 0 0.016816745003192791 -0.42357542462247538 0 0.0068165806591294316 -0.44348526320397952 0 0.0037810136158822729 -0.41791708709875131 0 0.00079488181500260609 -0.42987501851034571 0 0.016816745003192791 -0.42357542462247538 0 0.016816745003192791 -0.42357542462247538 0 0.038035624732997701 -0.42318917072202022 0 0.02666676983233552 -0.44312735458325581 0 0.016816745003192791 -0.42357542462247538 0 0.02666676983233552 -0.44312735458325581 0 0.0068165806591294316 -0.44348526320397952 0 0.038035624732997701 -0.42318917072202022 0 0.047868830590497097 -0.43976064414632088 0 0.02666676983233552 -0.44312735458325581 0 0.028999000949789959 -0.40147898970888801 0 0.038035624732997701 -0.42318917072202022 0 0.049143054551627013 -0.40747152083875582 0 0.070468827029821934 -0.40290810194725279 0 0.049143054551627013 -0.40747152083875582 0 0.058719347470543831 -0.42372109043242612 0 0.038035624732997701 -0.42318917072202022 0 0.049143054551627013 -0.40747152083875582 0 0.058719347470543831 -0.42372109043242612 0 0.058719347470543831 -0.42372109043242612 0 0.047868830590497097 -0.43976064414632088 0 0.060604784186928162 -0.44219524034701829 0 0.038035624732997701 -0.42318917072202022 0 0.058719347470543831 -0.42372109043242612 0 0.047868830590497097 -0.43976064414632088 0 0.047868830590497097 -0.43976064414632088 0 0.060533864248779268 -0.45516161004070088 0 0.03684497090434212 -0.46105457747661138 0 0.047868830590497097 -0.43976064414632088 0 0.060533864248779268 -0.45516161004070088 0 0.047868830590497097 -0.43976064414632088 0 0.060604784186928162 -0.44219524034701829 0 0.060533864248779268 -0.45516161004070088 0 0.060533864248779268 -0.45516161004070088 0 0.03684497090434212 -0.46105457747661138 0 0.060533864248779268 -0.45516161004070088 0 0.052543339594833843 -0.46469110280171649 0 0.03684497090434212 -0.46105457747661138 0 0.060533864248779268 -0.45516161004070088 0 0.061795930812101732 -0.46820781613902701 0 0.052543339594833843 -0.46469110280171649 0 0.052543339594833843 -0.46469110280171649 0 0.03684497090434212 -0.46105457747661138 0 0.050998592414112261 -0.47434040755052698 0 0.047868830590497097 -0.43976064414632088 0 0.03684497090434212 -0.46105457747661138 0 0.02666676983233552 -0.44312735458325581 0 0.02666676983233552 -0.44312735458325581 0 0.0068165806591294316 -0.44348526320397952 0 0.013156077559905371 -0.46694754491252372 0 -0.0057475739345891896 -0.4549207533069245 0 0.0068165806591294316 -0.44348526320397952 0 0.013156077559905371 -0.46694754491252372 0 0.03684497090434212 -0.46105457747661138 0 0.02666676983233552 -0.44312735458325581 0 0.013156077559905371 -0.46694754491252372 0 0.03684497090434212 -0.46105457747661138 0 0.013156077559905371 -0.46694754491252372 0 0.03684497090434212 -0.46105457747661138 0 0.013156077559905371 -0.46694754491252372 0 0.032323810821201983 -0.4810656019103603 0 0.013156077559905371 -0.46694754491252372 0 0.0082051736105589468 -0.5 0 0.032323810821201983 -0.4810656019103603 0 -0.01053281578453142 -0.47284051234843588 0 0.013156077559905371 -0.46694754491252372 0 0.0082051736105589468 -0.5 0 -0.01053281578453142 -0.47284051234843588 0 0.013156077559905371 -0.46694754491252372 0 0.0082051736105589468 -0.5 0 0.037939068381746099 -0.5 0 0.032323810821201983 -0.4810656019103603 0 0.037939068381746099 -0.5 0 0.032323810821201983 -0.4810656019103603 0 0.053020152767299072 -0.48801933676575959 0 0.032323810821201983 -0.4810656019103603 0 0.050998592414112261 -0.47434040755052698 0 0.053020152767299072 -0.48801933676575959 0 0.03684497090434212 -0.46105457747661138 0 0.032323810821201983 -0.4810656019103603 0 0.050998592414112261 -0.47434040755052698 0 0.070479040632291823 -0.48264211959480191 0 0.050998592414112261 -0.47434040755052698 0 0.064630060102032719 -0.47456076603106118 0 0.070479040632291823 -0.48264211959480191 0 0.050998592414112261 -0.47434040755052698 0 0.070479040632291823 -0.48264211959480191 0 0.050998592414112261 -0.47434040755052698 0 0.053020152767299072 -0.48801933676575959 0 0.064630060102032719 -0.47456076603106118 0 0.061795930812101732 -0.46820781613902701 0 0.050998592414112261 -0.47434040755052698 0 0.061795930812101732 -0.46820781613902701 0 0.052543339594833843 -0.46469110280171649 0 0.050998592414112261 -0.47434040755052698 0 0.067672963152933252 -0.5 0 0.037939068381746099 -0.5 0 0.053020152767299072 -0.48801933676575959 0 0.087473163936891085 -0.29777268792509082 0 0.081564451789839787 -0.2785545792295161 0 0.1018918429625556 -0.28221661660282987 0 0.087473163936891085 -0.29777268792509082 0 0.081564451789839787 -0.2785545792295161 0 0.087473163936891085 -0.29777268792509082 0 0.067853695646582016 -0.28620356249784679 0 0.081564451789839787 -0.2785545792295161 0 0.087473163936891085 -0.29777268792509082 0 0.071339674350402019 -0.30608447369461589 0 0.075597518235181557 -0.31257595346091949 0 0.087473163936891085 -0.29777268792509082 0 0.098187962191818287 -0.30489187491565878 0 0.094028422526884897 -0.31909369138147992 0 0.087473163936891085 -0.29777268792509082 0 0.094028422526884897 -0.31909369138147992 0 0.075597518235181557 -0.31257595346091949 0 0.087473163936891085 -0.29777268792509082 0 0.094028422526884897 -0.31909369138147992 0 0.087473163936891085 -0.29777268792509082 0 0.071339674350402019 -0.30608447369461589 0 0.060560524715249003 -0.30009188710746898 0 0.087473163936891085 -0.29777268792509082 0 0.060560524715249003 -0.30009188710746898 0 0.071339674350402019 -0.30608447369461589 0 0.075597518235181557 -0.31257595346091949 0 0.061727490514286158 -0.31389736628498438 0 0.071339674350402019 -0.30608447369461589 0 0.061727490514286158 -0.31389736628498438 0 0.060560524715249003 -0.30009188710746898 0 0.067853695646582016 -0.28620356249784679 0 0.059116804960237683 -0.29062940211096661 0 0.060560524715249003 -0.30009188710746898 0 0.087473163936891085 -0.29777268792509082 0 0.067853695646582016 -0.28620356249784679 0 0.060560524715249003 -0.30009188710746898 0 0.066214989649419603 -0.27316028682740479 0 0.075655739642787975 -0.2593364705339416 0 0.081564451789839787 -0.2785545792295161 0 0.067853695646582016 -0.28620356249784679 0 0.066214989649419603 -0.27316028682740479 0 0.081564451789839787 -0.2785545792295161 0 0.066214989649419603 -0.27316028682740479 0 0.075655739642787975 -0.2593364705339416 0 0.05341834128670471 -0.26222533989734959 0 0.075655739642787975 -0.2593364705339416 0 0.05341834128670471 -0.26222533989734959 0 0.071841433176306951 -0.24693042426755701 0 0.075655739642787975 -0.2593364705339416 0 0.05341834128670471 -0.26222533989734959 0 0.075655739642787975 -0.2593364705339416 0 0.071841433176306951 -0.24693042426755701 0 0.075655739642787975 -0.2593364705339416 0 0.097033033634931737 -0.25655933767435479 0 0.087503871482331325 -0.24918859503345439 0 0.075655739642787975 -0.2593364705339416 0 0.087704679779763817 -0.26614109232216421 0 0.097033033634931737 -0.25655933767435479 0 0.075655739642787975 -0.2593364705339416 0 0.071841433176306951 -0.24693042426755701 0 0.087503871482331325 -0.24918859503345439 0 0.075655739642787975 -0.2593364705339416 0 0.097033033634931737 -0.25655933767435479 0 0.075655739642787975 -0.2593364705339416 0 0.081564451789839787 -0.2785545792295161 0 0.081564451789839787 -0.2785545792295161 0 0.096565494051495782 -0.27011398185084429 0 0.1018918429625556 -0.28221661660282987 0 0.075655739642787975 -0.2593364705339416 0 0.081564451789839787 -0.2785545792295161 0 0.087704679779763817 -0.26614109232216421 0 0.081564451789839787 -0.2785545792295161 0 0.087704679779763817 -0.26614109232216421 0 0.096565494051495782 -0.27011398185084429 0 0.11343381581407461 -0.27807896693227868 0 0.1097056353048949 -0.26812745810770261 0 0.1018918429625556 -0.28221661660282987 0 0.096565494051495782 -0.27011398185084429 0 0.1097056353048949 -0.26812745810770261 0 0.1018918429625556 -0.28221661660282987 0 0.097033033634931737 -0.25655933767435479 0 0.11542254909125391 -0.25417034832591701 0 0.09726841460880753 -0.24973530510077291 0 0.097033033634931737 -0.25655933767435479 0 0.11542254909125391 -0.25417034832591701 0 0.1097056353048949 -0.26812745810770261 0 0.097033033634931737 -0.25655933767435479 0 0.11542254909125391 -0.25417034832591701 0 0.1155402395781918 -0.2507583320391269 0 0.09726841460880753 -0.24973530510077291 0 0.097033033634931737 -0.25655933767435479 0 0.087503871482331325 -0.24918859503345439 0 0.09726841460880753 -0.24973530510077291 0 0.097033033634931737 -0.25655933767435479 0 0.09726841460880753 -0.24973530510077291 0 0.096565494051495782 -0.27011398185084429 0 0.097033033634931737 -0.25655933767435479 0 0.087704679779763817 -0.26614109232216421 0 0.096565494051495782 -0.27011398185084429 0 0.097033033634931737 -0.25655933767435479 0 0.096565494051495782 -0.27011398185084429 0 0.097033033634931737 -0.25655933767435479 0 0.1097056353048949 -0.26812745810770261 0 0.1338120645475761 -0.25178135897747889 0 0.1155402395781918 -0.2507583320391269 0 0.11542254909125391 -0.25417034832591701 0 0.1155402395781918 -0.2507583320391269 0 0.11542254909125391 -0.25417034832591701 0 0.09726841460880753 -0.24973530510077291 0 0.1338120645475761 -0.25178135897747889 0 0.1155402395781918 -0.2507583320391269 0 0.1338120645475761 -0.25178135897747889 0 0.11542254909125391 -0.25417034832591701 0 0.123327112510175 -0.26381005316279871 0 0.1338120645475761 -0.25178135897747889 0 0.11542254909125391 -0.25417034832591701 0 0.11542254909125391 -0.25417034832591701 0 0.123327112510175 -0.26381005316279871 0 0.1097056353048949 -0.26812745810770261 0 0.11343381581407461 -0.27807896693227868 0 0.1097056353048949 -0.26812745810770261 0 0.119201036987635 -0.27295982712471439 0 0.1280966355330338 -0.27434446718476552 0 0.123327112510175 -0.26381005316279871 0 0.119201036987635 -0.27295982712471439 0 0.123327112510175 -0.26381005316279871 0 0.1097056353048949 -0.26812745810770261 0 0.119201036987635 -0.27295982712471439 0 0.11343381581407461 -0.27807896693227868 0 0.119201036987635 -0.27295982712471439 0 0.12144198577599689 -0.28043819023602667 0 0.1280966355330338 -0.27434446718476552 0 0.119201036987635 -0.27295982712471439 0 0.12144198577599689 -0.28043819023602667 0 0.1225628758501054 -0.2947488287446996 0 0.10501801989349829 -0.29626075833489562 0 0.12144198577599689 -0.28043819023602667 0 0.1233634239504731 -0.2874855776093414 0 0.1139532624844367 -0.28782333961704598 0 0.1275993617664036 -0.28112518425861122 0 0.12144198577599689 -0.28043819023602667 0 0.1233634239504731 -0.2874855776093414 0 0.1225628758501054 -0.2947488287446996 0 0.1139532624844367 -0.28782333961704598 0 0.10501801989349829 -0.29626075833489562 0 0.1233634239504731 -0.2874855776093414 0 0.1225628758501054 -0.2947488287446996 0 0.1139532624844367 -0.28782333961704598 0 0.1256525224322369 -0.29448257816376899 0 0.1225628758501054 -0.2947488287446996 0 0.11343381581407461 -0.27807896693227868 0 0.12144198577599689 -0.28043819023602667 0 0.1139532624844367 -0.28782333961704598 0 0.11343381581407461 -0.27807896693227868 0 0.1139532624844367 -0.28782333961704598 0 0.1018918429625556 -0.28221661660282987 0 0.1139532624844367 -0.28782333961704598 0 0.1018918429625556 -0.28221661660282987 0 0.10501801989349829 -0.29626075833489562 0 0.087473163936891085 -0.29777268792509082 0 0.1018918429625556 -0.28221661660282987 0 0.10501801989349829 -0.29626075833489562 0 0.087473163936891085 -0.29777268792509082 0 0.10501801989349829 -0.29626075833489562 0 0.087473163936891085 -0.29777268792509082 0 0.10501801989349829 -0.29626075833489562 0 0.098187962191818287 -0.30489187491565878 0 0.098187962191818287 -0.30489187491565878 0 0.10829564918849539 -0.30692126006309001 0 0.094028422526884897 -0.31909369138147992 0 0.10501801989349829 -0.29626075833489562 0 0.098187962191818287 -0.30489187491565878 0 0.10829564918849539 -0.30692126006309001 0 0.10829564918849539 -0.30692126006309001 0 0.11665503897845669 -0.30709539838653632 0 0.10765755552467721 -0.31970821860930398 0 0.1225628758501054 -0.2947488287446996 0 0.10501801989349829 -0.29626075833489562 0 0.10829564918849539 -0.30692126006309001 0 0.1225628758501054 -0.2947488287446996 0 0.10829564918849539 -0.30692126006309001 0 0.1225628758501054 -0.2947488287446996 0 0.10829564918849539 -0.30692126006309001 0 0.11665503897845669 -0.30709539838653632 0 0.127428615210958 -0.30550107704066293 0 0.1256525224322369 -0.29448257816376899 0 0.11665503897845669 -0.30709539838653632 0 0.1256525224322369 -0.29448257816376899 0 0.11665503897845669 -0.30709539838653632 0 0.1256525224322369 -0.29448257816376899 0 0.1225628758501054 -0.2947488287446996 0 0.11665503897845669 -0.30709539838653632 0 0.127428615210958 -0.30550107704066293 0 0.11665503897845669 -0.30709539838653632 0 0.1236403595102975 -0.31726182602291142 0 0.1236403595102975 -0.31726182602291142 0 0.1156667707943719 -0.32879233033577338 0 0.10765755552467721 -0.31970821860930398 0 0.11665503897845669 -0.30709539838653632 0 0.1236403595102975 -0.31726182602291142 0 0.10765755552467721 -0.31970821860930398 0 0.11665503897845669 -0.30709539838653632 0 0.10765755552467721 -0.31970821860930398 0 0.1156667707943719 -0.32879233033577338 0 0.1048460875680276 -0.32950050860128433 0 0.10765755552467721 -0.31970821860930398 0 0.12646864396445259 -0.32771949481933838 0 0.1236403595102975 -0.31726182602291142 0 0.1156667707943719 -0.32879233033577338 0 0.12646864396445259 -0.32771949481933838 0 0.1218367566819203 -0.34066885685305681 0 0.1156667707943719 -0.32879233033577338 0 0.1218367566819203 -0.34066885685305681 0 0.1156667707943719 -0.32879233033577338 0 0.1082494064665878 -0.33928340961487857 0 0.1156667707943719 -0.32879233033577338 0 0.1048460875680276 -0.32950050860128433 0 0.1082494064665878 -0.33928340961487857 0 0.1048460875680276 -0.32950050860128433 0 0.1082494064665878 -0.33928340961487857 0 0.097004582427965266 -0.33631516769786107 0 0.1082494064665878 -0.33928340961487857 0 0.097004582427965266 -0.33631516769786107 0 0.093814972832634291 -0.34820918954221819 0 0.1048460875680276 -0.32950050860128433 0 0.097004582427965266 -0.33631516769786107 0 0.096073069581201237 -0.32574391368982941 0 0.096073069581201237 -0.32574391368982941 0 0.094028422526884897 -0.31909369138147992 0 0.10765755552467721 -0.31970821860930398 0 0.096073069581201237 -0.32574391368982941 0 0.094028422526884897 -0.31909369138147992 0 0.10829564918849539 -0.30692126006309001 0 0.094028422526884897 -0.31909369138147992 0 0.10829564918849539 -0.30692126006309001 0 0.094028422526884897 -0.31909369138147992 0 0.10765755552467721 -0.31970821860930398 0 0.1048460875680276 -0.32950050860128433 0 0.096073069581201237 -0.32574391368982941 0 0.10765755552467721 -0.31970821860930398 0 0.13554014667972011 -0.37371994475541209 0 0.11257503074115451 -0.38498649823446041 0 0.1211241730808211 -0.35969015994424403 0 0.11257503074115451 -0.38498649823446041 0 0.1211241730808211 -0.35969015994424403 0 0.10079201747098269 -0.36412242239479142 0 0.1211241730808211 -0.35969015994424403 0 0.1091752126596531 -0.3513855426967849 0 0.10079201747098269 -0.36412242239479142 0 0.1218367566819203 -0.34066885685305681 0 0.1211241730808211 -0.35969015994424403 0 0.1091752126596531 -0.3513855426967849 0 0.1218367566819203 -0.34066885685305681 0 0.1082494064665878 -0.33928340961487857 0 0.1091752126596531 -0.3513855426967849 0 0.1091752126596531 -0.3513855426967849 0 0.093814972832634291 -0.34820918954221819 0 0.10079201747098269 -0.36412242239479142 0 0.1082494064665878 -0.33928340961487857 0 0.1091752126596531 -0.3513855426967849 0 0.093814972832634291 -0.34820918954221819 0 0.085185771917526548 -0.37977283474271561 0 0.10079201747098269 -0.36412242239479142 0 0.076425374258651049 -0.36036916924143869 0 0.093814972832634291 -0.34820918954221819 0 0.076425374258651049 -0.36036916924143869 0 0.073389328186842753 -0.33670243653472848 0 0.093814972832634291 -0.34820918954221819 0 0.10079201747098269 -0.36412242239479142 0 0.076425374258651049 -0.36036916924143869 0 0.076425374258651049 -0.36036916924143869 0 0.073389328186842753 -0.33670243653472848 0 0.052750233846800589 -0.35431118168797721 0 0.073389328186842753 -0.33670243653472848 0 0.052750233846800589 -0.35431118168797721 0 0.085185771917526548 -0.37977283474271561 0 0.057841008155207027 -0.38245658693310142 0 0.076425374258651049 -0.36036916924143869 0 0.094028422526884897 -0.31909369138147992 0 0.073389328186842753 -0.33670243653472848 0 0.096073069581201237 -0.32574391368982941 0 0.094028422526884897 -0.31909369138147992 0 0.073389328186842753 -0.33670243653472848 0 0.094028422526884897 -0.31909369138147992 0 0.073389328186842753 -0.33670243653472848 0 0.072651274237206992 -0.32234881883649769 0 0.094028422526884897 -0.31909369138147992 0 0.072651274237206992 -0.32234881883649769 0 0.075597518235181557 -0.31257595346091949 0 0.097004582427965266 -0.33631516769786107 0 0.096073069581201237 -0.32574391368982941 0 0.073389328186842753 -0.33670243653472848 0 0.097004582427965266 -0.33631516769786107 0 0.093814972832634291 -0.34820918954221819 0 0.073389328186842753 -0.33670243653472848 0 0.073389328186842753 -0.33670243653472848 0 0.072651274237206992 -0.32234881883649769 0 0.058513611722839573 -0.32947464652037622 0 0.072651274237206992 -0.32234881883649769 0 0.061727490514286158 -0.31389736628498438 0 0.058513611722839573 -0.32947464652037622 0 0.072651274237206992 -0.32234881883649769 0 0.075597518235181557 -0.31257595346091949 0 0.061727490514286158 -0.31389736628498438 0 0.061727490514286158 -0.31389736628498438 0 0.048871722081095123 -0.31851038162196682 0 0.053524671366835877 -0.30640407556079952 0 0.048871722081095123 -0.31851038162196682 0 0.058513611722839573 -0.32947464652037622 0 0.042608717461976538 -0.3312298768594002 0 0.061727490514286158 -0.31389736628498438 0 0.048871722081095123 -0.31851038162196682 0 0.058513611722839573 -0.32947464652037622 0 0.073389328186842753 -0.33670243653472848 0 0.058513611722839573 -0.32947464652037622 0 0.052750233846800589 -0.35431118168797721 0 0.058513611722839573 -0.32947464652037622 0 0.042608717461976538 -0.3312298768594002 0 0.052750233846800589 -0.35431118168797721 0 0.042608717461976538 -0.3312298768594002 0 0.032201100374313327 -0.3403185580786573 0 0.052750233846800589 -0.35431118168797721 0 0.042608717461976538 -0.3312298768594002 0 0.032201100374313327 -0.3403185580786573 0 0.02803274898307424 -0.32856413603580631 0 0.042608717461976538 -0.3312298768594002 0 0.035004108339948901 -0.31633090919971779 0 0.02803274898307424 -0.32856413603580631 0 0.048871722081095123 -0.31851038162196682 0 0.035004108339948901 -0.31633090919971779 0 0.042659306472636778 -0.3047174731171407 0 0.048871722081095123 -0.31851038162196682 0 0.042608717461976538 -0.3312298768594002 0 0.035004108339948901 -0.31633090919971779 0 0.057841008155207027 -0.38245658693310142 0 0.052750233846800589 -0.35431118168797721 0 0.032111139506758431 -0.37191992684122582 0 0.057841008155207027 -0.38245658693310142 0 0.076425374258651049 -0.36036916924143869 0 0.052750233846800589 -0.35431118168797721 0 0.032201100374313327 -0.3403185580786573 0 0.052750233846800589 -0.35431118168797721 0 0.023184557849655049 -0.35200766470484768 0 0.052750233846800589 -0.35431118168797721 0 0.032111139506758431 -0.37191992684122582 0 0.052750233846800589 -0.35431118168797721 0 0.032111139506758431 -0.37191992684122582 0 0.023184557849655049 -0.35200766470484768 0 0.032111139506758431 -0.37191992684122582 0 0.023184557849655049 -0.35200766470484768 0 0.010345294108568969 -0.36081801354288939 0 0.032111139506758431 -0.37191992684122582 0 0.010345294108568969 -0.36081801354288939 0 0.0095024714850780283 -0.37458082262515818 0 -0.0019921573348008 -0.35014241775074068 0 0.023184557849655049 -0.35200766470484768 0 0.014429243730060239 -0.33547993110525531 0 -0.0019921573348008 -0.35014241775074068 0 0.023184557849655049 -0.35200766470484768 0 0.010345294108568969 -0.36081801354288939 0 -0.0019921573348008 -0.35014241775074068 0 -0.0042332821090469977 -0.36931681778231101 0 0.010345294108568969 -0.36081801354288939 0 -0.0042332821090469977 -0.36931681778231101 0 0.010345294108568969 -0.36081801354288939 0 0.0095024714850780283 -0.37458082262515818 0 0.035004108339948901 -0.31633090919971779 0 0.02803274898307424 -0.32856413603580631 0 0.015526697491276621 -0.31392901685578528 0 0.02803274898307424 -0.32856413603580631 0 0.014429243730060239 -0.33547993110525531 0 0.015526697491276621 -0.31392901685578528 0 0.032201100374313327 -0.3403185580786573 0 0.023184557849655049 -0.35200766470484768 0 0.014429243730060239 -0.33547993110525531 0 0.032201100374313327 -0.3403185580786573 0 0.02803274898307424 -0.32856413603580631 0 0.014429243730060239 -0.33547993110525531 0 -0.008605873932596356 -0.33624452634938418 0 -0.0019921573348008 -0.35014241775074068 0 0.014429243730060239 -0.33547993110525531 0 -0.008605873932596356 -0.33624452634938418 0 0.014429243730060239 -0.33547993110525531 0 0.0035141492887302548 -0.32519051246028208 0 0.014429243730060239 -0.33547993110525531 0 0.0035141492887302548 -0.32519051246028208 0 0.015526697491276621 -0.31392901685578528 0 -0.0093546214437348063 -0.3154421594820554 0 0.0035141492887302548 -0.32519051246028208 0 0.015526697491276621 -0.31392901685578528 0 -0.0093546214437348063 -0.3154421594820554 0 0.015526697491276621 -0.31392901685578528 0 0.0025702240157044749 -0.30194718224499639 0 0.015526697491276621 -0.31392901685578528 0 0.0025702240157044749 -0.30194718224499639 0 0.018894421690538499 -0.29417828297256371 0 0.0025702240157044749 -0.30194718224499639 0 0.001953977901653102 -0.28749824366549498 0 0.018894421690538499 -0.29417828297256371 0 0.001953977901653102 -0.28749824366549498 0 0.018894421690538499 -0.29417828297256371 0 0.015670532879786751 -0.2762907948651831 0 0.018894421690538499 -0.29417828297256371 0 0.030268242974381541 -0.30296892509516138 0 0.036539995597899583 -0.28735292316580879 0 0.018894421690538499 -0.29417828297256371 0 0.036539995597899583 -0.28735292316580879 0 0.015670532879786751 -0.2762907948651831 0 0.015526697491276621 -0.31392901685578528 0 0.018894421690538499 -0.29417828297256371 0 0.030268242974381541 -0.30296892509516138 0 0.035004108339948901 -0.31633090919971779 0 0.015526697491276621 -0.31392901685578528 0 0.030268242974381541 -0.30296892509516138 0 0.030268242974381541 -0.30296892509516138 0 0.042659306472636778 -0.3047174731171407 0 0.036539995597899583 -0.28735292316580879 0 0.035004108339948901 -0.31633090919971779 0 0.030268242974381541 -0.30296892509516138 0 0.042659306472636778 -0.3047174731171407 0 0.042659306472636778 -0.3047174731171407 0 0.036539995597899583 -0.28735292316580879 0 0.051747098475659753 -0.29673762405939008 0 0.051747098475659753 -0.29673762405939008 0 0.052582719881183543 -0.27948148197836992 0 0.051747098475659753 -0.29673762405939008 0 0.059116804960237683 -0.29062940211096661 0 0.052582719881183543 -0.27948148197836992 0 0.036539995597899583 -0.28735292316580879 0 0.051747098475659753 -0.29673762405939008 0 0.052582719881183543 -0.27948148197836992 0 0.067853695646582016 -0.28620356249784679 0 0.059116804960237683 -0.29062940211096661 0 0.052582719881183543 -0.27948148197836992 0 0.051747098475659753 -0.29673762405939008 0 0.059116804960237683 -0.29062940211096661 0 0.060560524715249003 -0.30009188710746898 0 0.051747098475659753 -0.29673762405939008 0 0.060560524715249003 -0.30009188710746898 0 0.053524671366835877 -0.30640407556079952 0 0.061727490514286158 -0.31389736628498438 0 0.060560524715249003 -0.30009188710746898 0 0.053524671366835877 -0.30640407556079952 0 0.048871722081095123 -0.31851038162196682 0 0.042659306472636778 -0.3047174731171407 0 0.053524671366835877 -0.30640407556079952 0 0.042659306472636778 -0.3047174731171407 0 0.051747098475659753 -0.29673762405939008 0 0.053524671366835877 -0.30640407556079952 0 0.05341834128670471 -0.26222533989734959 0 0.054455146400998369 -0.2408146193913096 0 0.05341834128670471 -0.26222533989734959 0 0.041504830166615332 -0.24909079072316551 0 0.054455146400998369 -0.2408146193913096 0 0.05341834128670471 -0.26222533989734959 0 0.052582719881183543 -0.27948148197836992 0 0.066214989649419603 -0.27316028682740479 0 0.05341834128670471 -0.26222533989734959 0 0.052582719881183543 -0.27948148197836992 0 0.067853695646582016 -0.28620356249784679 0 0.066214989649419603 -0.27316028682740479 0 0.052582719881183543 -0.27948148197836992 0 0.05341834128670471 -0.26222533989734959 0 0.052582719881183543 -0.27948148197836992 0 0.028317708997288939 -0.2654861731325095 0 0.036539995597899583 -0.28735292316580879 0 0.052582719881183543 -0.27948148197836992 0 0.028317708997288939 -0.2654861731325095 0 0.028317708997288939 -0.2654861731325095 0 0.026822654761378281 -0.24010580347910071 0 0.041504830166615332 -0.24909079072316551 0 0.05341834128670471 -0.26222533989734959 0 0.028317708997288939 -0.2654861731325095 0 0.041504830166615332 -0.24909079072316551 0 0.05341834128670471 -0.26222533989734959 0 0.028317708997288939 -0.2654861731325095 0 0.028317708997288939 -0.2654861731325095 0 0.01150473642008854 -0.25100487296640661 0 0.026822654761378281 -0.24010580347910071 0 0.028317708997288939 -0.2654861731325095 0 0.015670532879786751 -0.2762907948651831 0 0.0049597396345670026 -0.26452376434945218 0 0.036539995597899583 -0.28735292316580879 0 0.028317708997288939 -0.2654861731325095 0 0.015670532879786751 -0.2762907948651831 0 -0.002131649244152236 -0.27375645946249172 0 0.015670532879786751 -0.2762907948651831 0 0.0049597396345670026 -0.26452376434945218 0 -0.002131649244152236 -0.27375645946249172 0 0.001953977901653102 -0.28749824366549498 0 0.015670532879786751 -0.2762907948651831 0 -0.0050603712554523096 -0.25502580822232418 0 0.01150473642008854 -0.25100487296640661 0 0.0049597396345670026 -0.26452376434945218 0 0.028317708997288939 -0.2654861731325095 0 0.01150473642008854 -0.25100487296640661 0 0.0049597396345670026 -0.26452376434945218 0 -0.0050603712554523096 -0.25502580822232418 0 -0.0012779613340340411 -0.24176494305706761 0 0.01150473642008854 -0.25100487296640661 0 -0.0012779613340340411 -0.24176494305706761 0 0.01150473642008854 -0.25100487296640661 0 0.01227448810303049 -0.23689425083746071 0 -0.0012779613340340411 -0.24176494305706761 0 -0.0016127085748020571 -0.22712480654777251 0 0.01227448810303049 -0.23689425083746071 0 -0.0016127085748020571 -0.22712480654777251 0 0.01227448810303049 -0.23689425083746071 0 0.01698840492239578 -0.2228903554452914 0 -0.0016127085748020571 -0.22712480654777251 0 0.01698840492239578 -0.2228903554452914 0 0.0064561243882930407 -0.21561537692257879 0 0.01227448810303049 -0.23689425083746071 0 0.01698840492239578 -0.2228903554452914 0 0.026822654761378281 -0.24010580347910071 0 0.01698840492239578 -0.2228903554452914 0 0.026822654761378281 -0.24010580347910071 0 0.034262553780134708 -0.21981152268886431 0 0.01150473642008854 -0.25100487296640661 0 0.01227448810303049 -0.23689425083746071 0 0.026822654761378281 -0.24010580347910071 0 -0.0048422933519348798 -0.20657909219758999 0 0.01498437965793468 -0.2009023489100171 0 0.0039750345954989988 -0.18651425943902311 0 0.01498437965793468 -0.2009023489100171 0 0.019555974831457788 -0.18489329081675979 0 0.0039750345954989988 -0.18651425943902311 0 -0.0048422933519348798 -0.20657909219758999 0 0.01498437965793468 -0.2009023489100171 0 0.0064561243882930407 -0.21561537692257879 0 0.01498437965793468 -0.2009023489100171 0 0.0064561243882930407 -0.21561537692257879 0 0.022166629418003729 -0.2118345471400416 0 0.01698840492239578 -0.2228903554452914 0 0.0064561243882930407 -0.21561537692257879 0 0.022166629418003729 -0.2118345471400416 0 -0.0016127085748020571 -0.22712480654777251 0 -0.0048422933519348798 -0.20657909219758999 0 0.0064561243882930407 -0.21561537692257879 0 0.01698840492239578 -0.2228903554452914 0 0.022166629418003729 -0.2118345471400416 0 0.034262553780134708 -0.21981152268886431 0 0.01498437965793468 -0.2009023489100171 0 0.022166629418003729 -0.2118345471400416 0 0.031897636722889637 -0.2043381853445167 0 0.022166629418003729 -0.2118345471400416 0 0.031897636722889637 -0.2043381853445167 0 0.034262553780134708 -0.21981152268886431 0 0.01498437965793468 -0.2009023489100171 0 0.027972004457906641 -0.19290593557317351 0 0.019555974831457788 -0.18489329081675979 0 0.01498437965793468 -0.2009023489100171 0 0.027972004457906641 -0.19290593557317351 0 0.031897636722889637 -0.2043381853445167 0 0.056528756629579638 -0.1979931783792292 0 0.033889281643562412 -0.17857272488157999 0 0.027972004457906641 -0.19290593557317351 0 0.03953274943368866 -0.19582312791299369 0 0.033889281643562412 -0.17857272488157999 0 0.03953274943368866 -0.19582312791299369 0 0.044202360045936313 -0.20737869318372881 0 0.056528756629579638 -0.1979931783792292 0 0.03953274943368866 -0.19582312791299369 0 0.056528756629579638 -0.1979931783792292 0 0.033889281643562412 -0.17857272488157999 0 0.027972004457906641 -0.19290593557317351 0 0.03953274943368866 -0.19582312791299369 0 0.031897636722889637 -0.2043381853445167 0 0.03953274943368866 -0.19582312791299369 0 0.044202360045936313 -0.20737869318372881 0 0.031897636722889637 -0.2043381853445167 0 0.044202360045936313 -0.20737869318372881 0 0.034262553780134708 -0.21981152268886431 0 0.055491951515289413 -0.2194038988852694 0 0.044202360045936313 -0.20737869318372881 0 0.031897636722889637 -0.2043381853445167 0 0.034262553780134708 -0.21981152268886431 0 0.058246448850680657 -0.19946663842738771 0 0.055491951515289413 -0.2194038988852694 0 0.066041136181110544 -0.21386160323267189 0 0.056528756629579638 -0.1979931783792292 0 0.055491951515289413 -0.2194038988852694 0 0.058246448850680657 -0.19946663842738771 0 0.056528756629579638 -0.1979931783792292 0 0.055491951515289413 -0.2194038988852694 0 0.044202360045936313 -0.20737869318372881 0 0.056528756629579638 -0.1979931783792292 0 0.055491951515289413 -0.2194038988852694 0 0.056528756629579638 -0.1979931783792292 0 0.057329549479635908 -0.18145626931170691 0 0.056528756629579638 -0.1979931783792292 0 0.065123946871468164 -0.19127238357693871 0 0.057329549479635908 -0.18145626931170691 0 0.058246448850680657 -0.19946663842738771 0 0.056528756629579638 -0.1979931783792292 0 0.065123946871468164 -0.19127238357693871 0 0.058246448850680657 -0.19946663842738771 0 0.056528756629579638 -0.1979931783792292 0 0.041504830166615332 -0.24909079072316551 0 0.041828765002810943 -0.233037808058844 0 0.054455146400998369 -0.2408146193913096 0 0.026822654761378281 -0.24010580347910071 0 0.041504830166615332 -0.24909079072316551 0 0.041828765002810943 -0.233037808058844 0 0.041828765002810943 -0.233037808058844 0 0.034262553780134708 -0.21981152268886431 0 0.055491951515289413 -0.2194038988852694 0 0.026822654761378281 -0.24010580347910071 0 0.041828765002810943 -0.233037808058844 0 0.034262553780134708 -0.21981152268886431 0 0.055491951515289413 -0.2194038988852694 0 0.054455146400998369 -0.2408146193913096 0 0.070056056729074334 -0.23044917593339351 0 0.055491951515289413 -0.2194038988852694 0 0.054455146400998369 -0.2408146193913096 0 0.041828765002810943 -0.233037808058844 0 0.055491951515289413 -0.2194038988852694 0 0.054455146400998369 -0.2408146193913096 0 0.05341834128670471 -0.26222533989734959 0 0.054455146400998369 -0.2408146193913096 0 0.071841433176306951 -0.24693042426755701 0 0.071841433176306951 -0.24693042426755701 0 0.078351655706027534 -0.24017870186704479 0 0.070056056729074334 -0.23044917593339351 0 0.054455146400998369 -0.2408146193913096 0 0.071841433176306951 -0.24693042426755701 0 0.070056056729074334 -0.23044917593339351 0 0.078351655706027534 -0.24017870186704479 0 0.084005261436397555 -0.23414661223377431 0 0.070056056729074334 -0.23044917593339351 0 0.071841433176306951 -0.24693042426755701 0 0.078351655706027534 -0.24017870186704479 0 0.087503871482331325 -0.24918859503345439 0 0.084005261436397555 -0.23414661223377431 0 0.09726841460880753 -0.24973530510077291 0 0.098224276789357245 -0.22202348732504129 0 0.078351655706027534 -0.24017870186704479 0 0.087503871482331325 -0.24918859503345439 0 0.084005261436397555 -0.23414661223377431 0 0.087503871482331325 -0.24918859503345439 0 0.084005261436397555 -0.23414661223377431 0 0.09726841460880753 -0.24973530510077291 0 0.087503871482331325 -0.24918859503345439 0 0.09726841460880753 -0.24973530510077291 0 0.084005261436397555 -0.23414661223377431 0 0.077944909524616218 -0.21644665818138251 0 0.098224276789357245 -0.22202348732504129 0 0.084005261436397555 -0.23414661223377431 0 0.070056056729074334 -0.23044917593339351 0 0.077944909524616218 -0.21644665818138251 0 0.070056056729074334 -0.23044917593339351 0 0.066041136181110544 -0.21386160323267189 0 0.077944909524616218 -0.21644665818138251 0 0.055491951515289413 -0.2194038988852694 0 0.070056056729074334 -0.23044917593339351 0 0.066041136181110544 -0.21386160323267189 0 0.058246448850680657 -0.19946663842738771 0 0.066041136181110544 -0.21386160323267189 0 0.071428190199665467 -0.20133585635874521 0 0.066041136181110544 -0.21386160323267189 0 0.077944909524616218 -0.21644665818138251 0 0.071428190199665467 -0.20133585635874521 0 0.058246448850680657 -0.19946663842738771 0 0.065123946871468164 -0.19127238357693871 0 0.071428190199665467 -0.20133585635874521 0 0.065123946871468164 -0.19127238357693871 0 0.071428190199665467 -0.20133585635874521 0 0.077775677467109644 -0.1894438906232867 0 0.077775677467109644 -0.1894438906232867 0 0.085264727641627694 -0.2009309552866074 0 0.087035172899110766 -0.18202416968187909 0 0.085264727641627694 -0.2009309552866074 0 0.099180138969906934 -0.19431166954930951 0 0.087035172899110766 -0.18202416968187909 0 0.071428190199665467 -0.20133585635874521 0 0.077775677467109644 -0.1894438906232867 0 0.085264727641627694 -0.2009309552866074 0 0.077944909524616218 -0.21644665818138251 0 0.085264727641627694 -0.2009309552866074 0 0.098224276789357245 -0.22202348732504129 0 0.077944909524616218 -0.21644665818138251 0 0.071428190199665467 -0.20133585635874521 0 0.085264727641627694 -0.2009309552866074 0 0.085264727641627694 -0.2009309552866074 0 0.099180138969906934 -0.19431166954930951 0 0.098224276789357245 -0.22202348732504129 0 0.099180138969906934 -0.19431166954930951 0 0.11354412200005309 -0.20878294345574169 0 0.098224276789357245 -0.22202348732504129 0 0.099180138969906934 -0.19431166954930951 0 0.098224276789357245 -0.22202348732504129 0 0.099180138969906934 -0.19431166954930951 0 0.1232396379011078 -0.1927549034493776 0 0.1116878195257827 -0.17967737761147759 0 0.099180138969906934 -0.19431166954930951 0 0.1232396379011078 -0.1927549034493776 0 0.11354412200005309 -0.20878294345574169 0 0.1232396379011078 -0.1927549034493776 0 0.11354412200005309 -0.20878294345574169 0 0.1296813367821156 -0.2112782106774091 0 0.11354412200005309 -0.20878294345574169 0 0.11925867152865099 -0.22395178641925401 0 0.1296813367821156 -0.2112782106774091 0 0.11354412200005309 -0.20878294345574169 0 0.11925867152865099 -0.22395178641925401 0 0.098224276789357245 -0.22202348732504129 0 0.11925867152865099 -0.22395178641925401 0 0.1115141746540584 -0.23685798868452451 0 0.098224276789357245 -0.22202348732504129 0 0.11925867152865099 -0.22395178641925401 0 0.1115141746540584 -0.23685798868452451 0 0.12727927076528461 -0.2378210325384271 0 0.1155402395781918 -0.2507583320391269 0 0.1115141746540584 -0.23685798868452451 0 0.12727927076528461 -0.2378210325384271 0 0.09726841460880753 -0.24973530510077291 0 0.098224276789357245 -0.22202348732504129 0 0.1115141746540584 -0.23685798868452451 0 0.09726841460880753 -0.24973530510077291 0 0.098224276789357245 -0.22202348732504129 0 0.1155402395781918 -0.2507583320391269 0 0.1115141746540584 -0.23685798868452451 0 0.09726841460880753 -0.24973530510077291 0 0.1006234008225292 -0.15246943509712671 0 0.1001360011504572 -0.16659985177357781 0 0.083956960864695562 -0.1482839632705675 0 0.093837558922739497 -0.14264619108299431 0 0.1006234008225292 -0.15246943509712671 0 0.1028307954559992 -0.13579239345953559 0 0.1006234008225292 -0.15246943509712671 0 0.1028307954559992 -0.13579239345953559 0 0.1133439292462652 -0.14669813101470161 0 0.1006234008225292 -0.15246943509712671 0 0.1133439292462652 -0.14669813101470161 0 0.1122920085546638 -0.16227381202107721 0 0.093837558922739497 -0.14264619108299431 0 0.1028307954559992 -0.13579239345953559 0 0.086025777066828416 -0.13071312073542821 0 0.1028307954559992 -0.13579239345953559 0 0.086025777066828416 -0.13071312073542821 0 0.1003755091591467 -0.120365047089626 0 0.1028307954559992 -0.13579239345953559 0 0.1110772144577262 -0.12607447494648069 0 0.1003755091591467 -0.120365047089626 0 0.1028307954559992 -0.13579239345953559 0 0.1110772144577262 -0.12607447494648069 0 0.1195920268695274 -0.13435801890873961 0 0.1028307954559992 -0.13579239345953559 0 0.1195920268695274 -0.13435801890873961 0 0.1133439292462652 -0.14669813101470161 0 0.1110772144577262 -0.12607447494648069 0 0.1195920268695274 -0.13435801890873961 0 0.125059882544757 -0.1243050716586782 0 0.1195920268695274 -0.13435801890873961 0 0.1133439292462652 -0.14669813101470161 0 0.12550759679471971 -0.14428239988351421 0 0.1133439292462652 -0.14669813101470161 0 0.1238726331408222 -0.15597973401630799 0 0.1122920085546638 -0.16227381202107721 0 0.1133439292462652 -0.14669813101470161 0 0.1238726331408222 -0.15597973401630799 0 0.12550759679471971 -0.14428239988351421 0 0.1122920085546638 -0.16227381202107721 0 0.1240882674421261 -0.17221834261327171 0 0.1116878195257827 -0.17967737761147759 0 0.1238726331408222 -0.15597973401630799 0 0.1122920085546638 -0.16227381202107721 0 0.1240882674421261 -0.17221834261327171 0 0.1232396379011078 -0.1927549034493776 0 0.1240882674421261 -0.17221834261327171 0 0.1116878195257827 -0.17967737761147759 0 0.1232396379011078 -0.1927549034493776 0 0.1116878195257827 -0.17967737761147759 0 0.099180138969906934 -0.19431166954930951 0 0.1116878195257827 -0.17967737761147759 0 0.1001360011504572 -0.16659985177357781 0 0.099180138969906934 -0.19431166954930951 0 0.1001360011504572 -0.16659985177357781 0 0.099180138969906934 -0.19431166954930951 0 0.1001360011504572 -0.16659985177357781 0 0.087035172899110766 -0.18202416968187909 0 0.1116878195257827 -0.17967737761147759 0 0.1001360011504572 -0.16659985177357781 0 0.1122920085546638 -0.16227381202107721 0 0.1116878195257827 -0.17967737761147759 0 0.1001360011504572 -0.16659985177357781 0 0.1006234008225292 -0.15246943509712671 0 0.1122920085546638 -0.16227381202107721 0 0.1001360011504572 -0.16659985177357781 0 0.1006234008225292 -0.15246943509712671 0 0.1001360011504572 -0.16659985177357781 0 0.1001360011504572 -0.16659985177357781 0 0.083956960864695562 -0.1482839632705675 0 0.1001360011504572 -0.16659985177357781 0 0.079225084705666013 -0.1675683830972868 0 0.083956960864695562 -0.1482839632705675 0 0.077775677467109644 -0.1894438906232867 0 0.087035172899110766 -0.18202416968187909 0 0.070769962292113645 -0.17944740942254711 0 0.079225084705666013 -0.1675683830972868 0 0.087035172899110766 -0.18202416968187909 0 0.070769962292113645 -0.17944740942254711 0 0.1001360011504572 -0.16659985177357781 0 0.079225084705666013 -0.1675683830972868 0 0.087035172899110766 -0.18202416968187909 0 0.065123946871468164 -0.19127238357693871 0 0.077775677467109644 -0.1894438906232867 0 0.070769962292113645 -0.17944740942254711 0 0.065123946871468164 -0.19127238357693871 0 0.070769962292113645 -0.17944740942254711 0 0.057329549479635908 -0.18145626931170691 0 0.079225084705666013 -0.1675683830972868 0 0.069844290743162202 -0.15572535069481899 0 0.058130342329691373 -0.1649193602441846 0 0.079225084705666013 -0.1675683830972868 0 0.069844290743162202 -0.15572535069481899 0 0.083956960864695562 -0.1482839632705675 0 0.079225084705666013 -0.1675683830972868 0 0.070769962292113645 -0.17944740942254711 0 0.058130342329691373 -0.1649193602441846 0 0.069844290743162202 -0.15572535069481899 0 0.065690713085214791 -0.1421362209973312 0 0.083956960864695562 -0.1482839632705675 0 0.069844290743162202 -0.15572535069481899 0 0.065690713085214791 -0.1421362209973312 0 0.055338914955394031 -0.1557955185274518 0 0.093837558922739497 -0.14264619108299431 0 0.1006234008225292 -0.15246943509712671 0 0.083956960864695562 -0.1482839632705675 0 0.083956960864695562 -0.1482839632705675 0 0.086025777066828416 -0.13071312073542821 0 0.067777920578933518 -0.1299680747675574 0 0.093837558922739497 -0.14264619108299431 0 0.083956960864695562 -0.1482839632705675 0 0.086025777066828416 -0.13071312073542821 0 0.083956960864695562 -0.1482839632705675 0 0.067777920578933518 -0.1299680747675574 0 0.065690713085214791 -0.1421362209973312 0 0.083956960864695562 -0.1482839632705675 0 0.067777920578933518 -0.1299680747675574 0 0.086025777066828416 -0.13071312073542821 0 0.067777920578933518 -0.1299680747675574 0 0.076734835755005087 -0.11970758577673089 0 0.067777920578933518 -0.1299680747675574 0 0.053441304474890289 -0.13464385441717969 0 0.05399936433302991 -0.12122894057442581 0 0.053441304474890289 -0.13464385441717969 0 0.041268264505893618 -0.12924178955595211 0 0.05399936433302991 -0.12122894057442581 0 0.065690713085214791 -0.1421362209973312 0 0.067777920578933518 -0.1299680747675574 0 0.053441304474890289 -0.13464385441717969 0 0.065690713085214791 -0.1421362209973312 0 0.055338914955394031 -0.1557955185274518 0 0.0384702598713796 -0.15064424619063199 0 0.065690713085214791 -0.1421362209973312 0 0.0384702598713796 -0.15064424619063199 0 0.065690713085214791 -0.1421362209973312 0 0.053441304474890289 -0.13464385441717969 0 0.0384702598713796 -0.15064424619063199 0 0.053441304474890289 -0.13464385441717969 0 0.0384702598713796 -0.15064424619063199 0 0.041268264505893618 -0.12924178955595211 0 0.0384702598713796 -0.15064424619063199 0 0.041268264505893618 -0.12924178955595211 0 0.015842377588640461 -0.12995768139491151 0 0.057329549479635908 -0.18145626931170691 0 0.058130342329691373 -0.1649193602441846 0 0.056528756629579638 -0.1979931783792292 0 0.057329549479635908 -0.18145626931170691 0 0.033889281643562412 -0.17857272488157999 0 0.070769962292113645 -0.17944740942254711 0 0.057329549479635908 -0.18145626931170691 0 0.058130342329691373 -0.1649193602441846 0 0.057329549479635908 -0.18145626931170691 0 0.058130342329691373 -0.1649193602441846 0 0.04455896874752216 -0.16555241451029229 0 0.069844290743162202 -0.15572535069481899 0 0.055338914955394031 -0.1557955185274518 0 0.058130342329691373 -0.1649193602441846 0 0.055338914955394031 -0.1557955185274518 0 0.058130342329691373 -0.1649193602441846 0 0.04455896874752216 -0.16555241451029229 0 0.055338914955394031 -0.1557955185274518 0 0.0384702598713796 -0.15064424619063199 0 0.04455896874752216 -0.16555241451029229 0 0.0384702598713796 -0.15064424619063199 0 0.031574010555557599 -0.1635538019881777 0 0.04455896874752216 -0.16555241451029229 0 0.031574010555557599 -0.1635538019881777 0 0.04455896874752216 -0.16555241451029229 0 0.033889281643562412 -0.17857272488157999 0 0.057329549479635908 -0.18145626931170691 0 0.04455896874752216 -0.16555241451029229 0 0.033889281643562412 -0.17857272488157999 0 0.033889281643562412 -0.17857272488157999 0 0.019555974831457788 -0.18489329081675979 0 0.017860935761059481 -0.17540941327727391 0 0.033889281643562412 -0.17857272488157999 0 0.017860935761059481 -0.17540941327727391 0 0.018922444694438611 -0.16573396598117041 0 0.027972004457906641 -0.19290593557317351 0 0.033889281643562412 -0.17857272488157999 0 0.019555974831457788 -0.18489329081675979 0 0.033889281643562412 -0.17857272488157999 0 0.018922444694438611 -0.16573396598117041 0 0.0384702598713796 -0.15064424619063199 0 0.031574010555557599 -0.1635538019881777 0 0.011249806657544249 -0.1591522713839319 0 0.031574010555557599 -0.1635538019881777 0 0.018922444694438611 -0.16573396598117041 0 0.011249806657544249 -0.1591522713839319 0 0.031574010555557599 -0.1635538019881777 0 0.033889281643562412 -0.17857272488157999 0 0.018922444694438611 -0.16573396598117041 0 0.018922444694438611 -0.16573396598117041 0 0.011249806657544249 -0.1591522713839319 0 0.0051361497124387812 -0.16106315607433669 0 0.018922444694438611 -0.16573396598117041 0 0.0051361497124387812 -0.16106315607433669 0 0.018922444694438611 -0.16573396598117041 0 0.011249806657544249 -0.1591522713839319 0 0.011249806657544249 -0.1591522713839319 0 0.0051361497124387812 -0.16106315607433669 0 0.011249806657544249 -0.1591522713839319 0 0.0051361497124387812 -0.16106315607433669 0 0.00014451492137988051 -0.1496259991592768 0 -0.001198061652550745 -0.17280609881212911 0 0.0051361497124387812 -0.16106315607433669 0 0.0083362452288298274 -0.17396118646513589 0 0.018922444694438611 -0.16573396598117041 0 0.0051361497124387812 -0.16106315607433669 0 0.0083362452288298274 -0.17396118646513589 0 0.017860935761059481 -0.17540941327727391 0 0.018922444694438611 -0.16573396598117041 0 0.0083362452288298274 -0.17396118646513589 0 0.019555974831457788 -0.18489329081675979 0 0.017860935761059481 -0.17540941327727391 0 0.0083362452288298274 -0.17396118646513589 0 -0.001198061652550745 -0.17280609881212911 0 0.0083362452288298274 -0.17396118646513589 0 0.0039750345954989988 -0.18651425943902311 0 0.019555974831457788 -0.18489329081675979 0 0.0083362452288298274 -0.17396118646513589 0 0.0039750345954989988 -0.18651425943902311 0 0.041268264505893618 -0.12924178955595211 0 0.015842377588640461 -0.12995768139491151 0 0.0384702598713796 -0.15064424619063199 0 0.015842377588640461 -0.12995768139491151 0 0.011224689942066299 -0.1440107542725246 0 0.0384702598713796 -0.15064424619063199 0 0.011249806657544249 -0.1591522713839319 0 0.011224689942066299 -0.1440107542725246 0 0.0384702598713796 -0.15064424619063199 0 0.011249806657544249 -0.1591522713839319 0 -0.0095835093286126792 -0.13067357323387099 0 0.011224689942066299 -0.1440107542725246 0 0.00014451492137988051 -0.1496259991592768 0 0.011249806657544249 -0.1591522713839319 0 0.00014451492137988051 -0.1496259991592768 0 0.011249806657544249 -0.1591522713839319 0 0.011224689942066299 -0.1440107542725246 0 0.00014451492137988051 -0.1496259991592768 0 -0.0095835093286126792 -0.13067357323387099 0 0.015842377588640461 -0.12995768139491151 0 -0.0095835093286126792 -0.13067357323387099 0 0.015842377588640461 -0.12995768139491151 0 0.011224689942066299 -0.1440107542725246 0 -0.004447001458793981 -0.1103644265276268 0 -0.0095835093286126792 -0.13067357323387099 0 0.015842377588640461 -0.12995768139491151 0 -0.004447001458793981 -0.1103644265276268 0 0.015842377588640461 -0.12995768139491151 0 0.019064047731892519 -0.1027428983621612 0 0.015842377588640461 -0.12995768139491151 0 0.019064047731892519 -0.1027428983621612 0 0.037106240101941267 -0.1127949235512794 0 0.019064047731892519 -0.1027428983621612 0 0.037234516137291472 -0.08975442686183864 0 0.037106240101941267 -0.1127949235512794 0 -0.004447001458793981 -0.1103644265276268 0 0.019064047731892519 -0.1027428983621612 0 -0.0041979068999104599 -0.092692987180200151 0 -0.004447001458793981 -0.1103644265276268 0 0.019064047731892519 -0.1027428983621612 0 -0.0041979068999104599 -0.092692987180200151 0 0.003886405537072308 -0.074985287574065307 0 0.019828086476746741 -0.084468472620665633 0 -0.0041979068999104599 -0.092692987180200151 0 0.019064047731892519 -0.1027428983621612 0 0.019828086476746741 -0.084468472620665633 0 0.003886405537072308 -0.074985287574065307 0 0.028295076817156449 -0.069568801619081161 0 0.019828086476746741 -0.084468472620665633 0 0.003886405537072308 -0.074985287574065307 0 0.028295076817156449 -0.069568801619081161 0 0.01833358543460277 -0.05641701057889667 0 0.019064047731892519 -0.1027428983621612 0 0.019828086476746741 -0.084468472620665633 0 0.037234516137291472 -0.08975442686183864 0 0.028295076817156449 -0.069568801619081161 0 0.019828086476746741 -0.084468472620665633 0 0.037234516137291472 -0.08975442686183864 0 0.028295076817156449 -0.069568801619081161 0 0.037234516137291472 -0.08975442686183864 0 0.056852127489792813 -0.07490730178705754 0 0.028295076817156449 -0.069568801619081161 0 0.056852127489792813 -0.07490730178705754 0 0.043412112850471737 -0.054930671915401803 0 0.056852127489792813 -0.07490730178705754 0 0.043412112850471737 -0.054930671915401803 0 0.062505798999464707 -0.060826586793076412 0 0.056852127489792813 -0.07490730178705754 0 0.055228870314899682 -0.103843804558387 0 0.070281085843191191 -0.093817275438188408 0 0.037234516137291472 -0.08975442686183864 0 0.056852127489792813 -0.07490730178705754 0 0.055228870314899682 -0.103843804558387 0 0.055228870314899682 -0.103843804558387 0 0.05399936433302991 -0.12122894057442581 0 0.037106240101941267 -0.1127949235512794 0 0.055228870314899682 -0.103843804558387 0 0.05399936433302991 -0.12122894057442581 0 0.065906963652981487 -0.1182248878619804 0 0.041268264505893618 -0.12924178955595211 0 0.05399936433302991 -0.12122894057442581 0 0.037106240101941267 -0.1127949235512794 0 0.041268264505893618 -0.12924178955595211 0 0.015842377588640461 -0.12995768139491151 0 0.037106240101941267 -0.1127949235512794 0 0.037234516137291472 -0.08975442686183864 0 0.055228870314899682 -0.103843804558387 0 0.037106240101941267 -0.1127949235512794 0 0.030110906951190688 -0.01173386609504996 0 0.0045774522161646097 -0.0093144947699853528 0 0.019230231732056138 -0.023667566818530359 0 0.018044735406519189 -0.0027914786915071068 0 0.030110906951190688 -0.01173386609504996 0 0.0045774522161646097 -0.0093144947699853528 0 0.035622497167505339 0.0063925700628825917 0 0.018044735406519189 -0.0027914786915071068 0 0.030110906951190688 -0.01173386609504996 0 0.030110906951190688 -0.01173386609504996 0 0.0045774522161646097 -0.0093144947699853528 0 0.018044735406519189 -0.0027914786915071068 0 0.002394805847480138 -0.0071764921779012506 0 0.0045774522161646097 -0.0093144947699853528 0 0.0006213327713558641 -0.0089396406014967747 0 0.0045774522161646097 -0.0093144947699853528 0 0.0014199230119024339 -0.021574900853890581 0 0.002394805847480138 -0.0071764921779012506 0 0.0006213327713558641 -0.0089396406014967747 0 0.0045774522161646097 -0.0093144947699853528 0 0.0006213327713558641 -0.0089396406014967747 0 0.0045774522161646097 -0.0093144947699853528 0 -0.001488115343110989 -0.0087397640735148233 0 0.002394805847480138 -0.0071764921779012506 0 0.0006213327713558641 -0.0089396406014967747 0 0.002394805847480138 -0.0071764921779012506 0 0.0006213327713558641 -0.0089396406014967747 0 0.002394805847480138 -0.0071764921779012506 0 0.0045774522161646097 -0.0093144947699853528 0 0.0045774522161646097 -0.0093144947699853528 0 0.019230231732056138 -0.023667566818530359 0 0.0045774522161646097 -0.0093144947699853528 0 0.0014199230119024339 -0.021574900853890581 0 0.019230231732056138 -0.023667566818530359 0 0.0014199230119024339 -0.021574900853890581 0 0.0083973707027768379 -0.030855929703784798 0 0.019230231732056138 -0.023667566818530359 0 -0.003476286599935095 -0.036271506326322138 0 0.0014199230119024339 -0.021574900853890581 0 0.0083973707027768379 -0.030855929703784798 0 0.030110906951190688 -0.01173386609504996 0 0.019230231732056138 -0.023667566818530359 0 0.031518170358815163 -0.024102367719011381 0 0.019230231732056138 -0.023667566818530359 0 0.033883011247947889 -0.038020638867075192 0 0.031518170358815163 -0.024102367719011381 0 0.019230231732056138 -0.023667566818530359 0 0.033883011247947889 -0.038020638867075192 0 0.01494251690265052 -0.041372340822573933 0 0.01833358543460277 -0.05641701057889667 0 0.033883011247947889 -0.038020638867075192 0 0.019230231732056138 -0.023667566818530359 0 0.01494251690265052 -0.041372340822573933 0 0.033883011247947889 -0.038020638867075192 0 -0.003476286599935095 -0.036271506326322138 0 -0.00022463716734756899 -0.054496453091326037 0 0.01494251690265052 -0.041372340822573933 0 -0.003476286599935095 -0.036271506326322138 0 0.0083973707027768379 -0.030855929703784798 0 0.01494251690265052 -0.041372340822573933 0 0.0083973707027768379 -0.030855929703784798 0 0.019230231732056138 -0.023667566818530359 0 0.01494251690265052 -0.041372340822573933 0 -0.00022463716734756899 -0.054496453091326037 0 0.003886405537072308 -0.074985287574065307 0 0.01833358543460277 -0.05641701057889667 0 -0.00022463716734756899 -0.054496453091326037 0 0.01494251690265052 -0.041372340822573933 0 0.01833358543460277 -0.05641701057889667 0 0.028295076817156449 -0.069568801619081161 0 0.01833358543460277 -0.05641701057889667 0 0.043412112850471737 -0.054930671915401803 0 0.01833358543460277 -0.05641701057889667 0 0.043412112850471737 -0.054930671915401803 0 0.033883011247947889 -0.038020638867075192 0 0.043412112850471737 -0.054930671915401803 0 0.059769218069649313 -0.045902054602901338 0 0.062505798999464707 -0.060826586793076412 0 0.043412112850471737 -0.054930671915401803 0 0.059769218069649313 -0.045902054602901338 0 0.051344651808144813 -0.03456126235542302 0 0.051344651808144813 -0.03456126235542302 0 0.056061594203691133 -0.025076371103657479 0 0.065665228365204262 -0.034364577790676212 0 0.059769218069649313 -0.045902054602901338 0 0.051344651808144813 -0.03456126235542302 0 0.065665228365204262 -0.034364577790676212 0 0.043412112850471737 -0.054930671915401803 0 0.051344651808144813 -0.03456126235542302 0 0.033883011247947889 -0.038020638867075192 0 0.051344651808144813 -0.03456126235542302 0 0.033883011247947889 -0.038020638867075192 0 0.042848531504065902 -0.022987399095390042 0 0.030110906951190688 -0.01173386609504996 0 0.042848531504065902 -0.022987399095390042 0 0.055644361686216767 -0.014153237420114781 0 0.033883011247947889 -0.038020638867075192 0 0.031518170358815163 -0.024102367719011381 0 0.042848531504065902 -0.022987399095390042 0 0.030110906951190688 -0.01173386609504996 0 0.031518170358815163 -0.024102367719011381 0 0.042848531504065902 -0.022987399095390042 0 0.051344651808144813 -0.03456126235542302 0 0.042848531504065902 -0.022987399095390042 0 0.056061594203691133 -0.025076371103657479 0 0.056061594203691133 -0.025076371103657479 0 0.064805197654823885 -0.019315378856683371 0 0.065665228365204262 -0.034364577790676212 0 0.056061594203691133 -0.025076371103657479 0 0.055644361686216767 -0.014153237420114781 0 0.064805197654823885 -0.019315378856683371 0 0.042848531504065902 -0.022987399095390042 0 0.056061594203691133 -0.025076371103657479 0 0.055644361686216767 -0.014153237420114781 0 0.055644361686216767 -0.014153237420114781 0 0.058196269712748661 -0.0010094984802769141 0 0.069352637037845374 -0.0058266927155855106 0 0.055644361686216767 -0.014153237420114781 0 0.058196269712748661 -0.0010094984802769141 0 0.045210290485040869 -0.0034719151203993228 0 0.030110906951190688 -0.01173386609504996 0 0.055644361686216767 -0.014153237420114781 0 0.045210290485040869 -0.0034719151203993228 0 0.035622497167505339 0.0063925700628825917 0 0.030110906951190688 -0.01173386609504996 0 0.045210290485040869 -0.0034719151203993228 0 0.030110906951190688 -0.01173386609504996 0 0.055644361686216767 -0.014153237420114781 0 0.096167504599054904 0.0042442054759202954 0 0.081717153665888317 -0.0025063239881197622 0 0.095472413630543998 -0.0072730453323191883 0 0.081717153665888317 -0.0025063239881197622 0 0.081177816421242804 -0.016572608745179591 0 0.095472413630543998 -0.0072730453323191883 0 0.055644361686216767 -0.014153237420114781 0 0.081177816421242804 -0.016572608745179591 0 0.055644361686216767 -0.014153237420114781 0 0.069352637037845374 -0.0058266927155855106 0 0.081177816421242804 -0.016572608745179591 0 0.070381517258247442 0.0054324954822656396 0 0.081717153665888317 -0.0025063239881197622 0 0.069352637037845374 -0.0058266927155855106 0 0.070381517258247442 0.0054324954822656396 0 0.058196269712748661 -0.0010094984802769141 0 0.069352637037845374 -0.0058266927155855106 0 0.081717153665888317 -0.0025063239881197622 0 0.069352637037845374 -0.0058266927155855106 0 0.081177816421242804 -0.016572608745179591 0 0.064805197654823885 -0.019315378856683371 0 0.085712771491518958 -0.038211511484016539 0 0.065665228365204262 -0.034364577790676212 0 0.064805197654823885 -0.019315378856683371 0 0.076287907678157074 -0.023986159701047009 0 0.081177816421242804 -0.016572608745179591 0 0.055644361686216767 -0.014153237420114781 0 0.064805197654823885 -0.019315378856683371 0 0.081177816421242804 -0.016572608745179591 0 0.064805197654823885 -0.019315378856683371 0 0.076287907678157074 -0.023986159701047009 0 0.085712771491518958 -0.038211511484016539 0 0.064805197654823885 -0.019315378856683371 0 0.085712771491518958 -0.038211511484016539 0 0.076287907678157074 -0.023986159701047009 0 0.090532384742726735 -0.027505059676875141 0 0.085712771491518958 -0.038211511484016539 0 0.076287907678157074 -0.023986159701047009 0 0.085712771491518958 -0.038211511484016539 0 0.081177816421242804 -0.016572608745179591 0 0.090532384742726735 -0.027505059676875141 0 0.1067112711562688 -0.01899198007024441 0 0.076287907678157074 -0.023986159701047009 0 0.081177816421242804 -0.016572608745179591 0 0.090532384742726735 -0.027505059676875141 0 0.090532384742726735 -0.027505059676875141 0 0.085712771491518958 -0.038211511484016539 0 0.102772156966446 -0.039763038383888151 0 0.085712771491518958 -0.038211511484016539 0 0.07267749436203183 -0.048188407729665747 0 0.085132366133298415 -0.052458296335176707 0 0.085712771491518958 -0.038211511484016539 0 0.065665228365204262 -0.034364577790676212 0 0.07267749436203183 -0.048188407729665747 0 0.059769218069649313 -0.045902054602901338 0 0.065665228365204262 -0.034364577790676212 0 0.07267749436203183 -0.048188407729665747 0 0.059769218069649313 -0.045902054602901338 0 0.07267749436203183 -0.048188407729665747 0 0.062505798999464707 -0.060826586793076412 0 0.07267749436203183 -0.048188407729665747 0 0.062505798999464707 -0.060826586793076412 0 0.07727958311305537 -0.057367419372147309 0 0.085712771491518958 -0.038211511484016539 0 0.098207536939253007 -0.057070397666300149 0 0.07727958311305537 -0.057367419372147309 0 0.085132366133298415 -0.052458296335176707 0 0.088807886296056321 -0.06442462200908719 0 0.085712771491518958 -0.038211511484016539 0 0.085132366133298415 -0.052458296335176707 0 0.098207536939253007 -0.057070397666300149 0 0.07267749436203183 -0.048188407729665747 0 0.07727958311305537 -0.057367419372147309 0 0.085132366133298415 -0.052458296335176707 0 0.085132366133298415 -0.052458296335176707 0 0.098207536939253007 -0.057070397666300149 0 0.088807886296056321 -0.06442462200908719 0 0.085712771491518958 -0.038211511484016539 0 0.1060355466537841 -0.056579106778484822 0 0.085712771491518958 -0.038211511484016539 0 0.098207536939253007 -0.057070397666300149 0 0.1060355466537841 -0.056579106778484822 0 0.098207536939253007 -0.057070397666300149 0 0.1060355466537841 -0.056579106778484822 0 0.1035330678577871 -0.060408744014543561 0 0.1060355466537841 -0.056579106778484822 0 0.1035330678577871 -0.060408744014543561 0 0.1060355466537841 -0.056579106778484822 0 0.12407046944405239 -0.056682210957894767 0 0.1194833752947594 -0.035999389823432593 0 0.1060355466537841 -0.056579106778484822 0 0.1194833752947594 -0.035999389823432593 0 0.102772156966446 -0.039763038383888151 0 0.1060355466537841 -0.056579106778484822 0 0.1194833752947594 -0.035999389823432593 0 0.1194833752947594 -0.035999389823432593 0 0.102772156966446 -0.039763038383888151 0 0.1067112711562688 -0.01899198007024441 0 0.085712771491518958 -0.038211511484016539 0 0.1060355466537841 -0.056579106778484822 0 0.102772156966446 -0.039763038383888151 0 0.090532384742726735 -0.027505059676875141 0 0.102772156966446 -0.039763038383888151 0 0.1067112711562688 -0.01899198007024441 0 0.081177816421242804 -0.016572608745179591 0 0.1067112711562688 -0.01899198007024441 0 0.1194833752947594 -0.035999389823432593 0 0.119688443476294 -0.020419382492060888 0 0.13293120393573529 -0.01541967286838083 0 0.1194833752947594 -0.035999389823432593 0 0.1067112711562688 -0.01899198007024441 0 0.119688443476294 -0.020419382492060888 0 0.119688443476294 -0.020419382492060888 0 0.1196279235184127 -0.011266487206185741 0 0.13293120393573529 -0.01541967286838083 0 0.1067112711562688 -0.01899198007024441 0 0.119688443476294 -0.020419382492060888 0 0.1196279235184127 -0.011266487206185741 0 0.1067112711562688 -0.01899198007024441 0 0.1196279235184127 -0.011266487206185741 0 0.11158832231026521 -0.002538519333972472 0 0.12681727907172599 0.0028609529651058472 0 0.1196279235184127 -0.011266487206185741 0 0.11158832231026521 -0.002538519333972472 0 0.081177816421242804 -0.016572608745179591 0 0.1067112711562688 -0.01899198007024441 0 0.095472413630543998 -0.0072730453323191883 0 0.1067112711562688 -0.01899198007024441 0 0.11158832231026521 -0.002538519333972472 0 0.095472413630543998 -0.0072730453323191883 0 0.096167504599054904 0.0042442054759202954 0 0.11158832231026521 -0.002538519333972472 0 0.095472413630543998 -0.0072730453323191883 0 0.088205186756687592 -0.098499163401079406 0 0.088306584707542421 -0.11364295246223539 0 0.1041297467101449 -0.10443009357677931 0 0.088205186756687592 -0.098499163401079406 0 0.088306584707542421 -0.11364295246223539 0 0.074368452797441906 -0.1081427041937684 0 0.086025777066828416 -0.13071312073542821 0 0.088306584707542421 -0.11364295246223539 0 0.1003755091591467 -0.120365047089626 0 0.086025777066828416 -0.13071312073542821 0 0.088306584707542421 -0.11364295246223539 0 0.076734835755005087 -0.11970758577673089 0 0.088306584707542421 -0.11364295246223539 0 0.076734835755005087 -0.11970758577673089 0 0.074368452797441906 -0.1081427041937684 0 0.076734835755005087 -0.11970758577673089 0 0.065906963652981487 -0.1182248878619804 0 0.074368452797441906 -0.1081427041937684 0 0.055228870314899682 -0.103843804558387 0 0.065906963652981487 -0.1182248878619804 0 0.074368452797441906 -0.1081427041937684 0 0.067777920578933518 -0.1299680747675574 0 0.076734835755005087 -0.11970758577673089 0 0.065906963652981487 -0.1182248878619804 0 0.067777920578933518 -0.1299680747675574 0 0.05399936433302991 -0.12122894057442581 0 0.065906963652981487 -0.1182248878619804 0 0.088205186756687592 -0.098499163401079406 0 0.070281085843191191 -0.093817275438188408 0 0.074368452797441906 -0.1081427041937684 0 0.055228870314899682 -0.103843804558387 0 0.070281085843191191 -0.093817275438188408 0 0.074368452797441906 -0.1081427041937684 0 0.056852127489792813 -0.07490730178705754 0 0.078967107604769243 -0.081534257868326937 0 0.056852127489792813 -0.07490730178705754 0 0.070281085843191191 -0.093817275438188408 0 0.078967107604769243 -0.081534257868326937 0 0.062505798999464707 -0.060826586793076412 0 0.07727958311305537 -0.057367419372147309 0 0.078967107604769243 -0.081534257868326937 0 0.056852127489792813 -0.07490730178705754 0 0.062505798999464707 -0.060826586793076412 0 0.078967107604769243 -0.081534257868326937 0 0.07727958311305537 -0.057367419372147309 0 0.088807886296056321 -0.06442462200908719 0 0.078967107604769243 -0.081534257868326937 0 0.088807886296056321 -0.06442462200908719 0 0.078967107604769243 -0.081534257868326937 0 0.094886380824945021 -0.074739832907536372 0 0.088205186756687592 -0.098499163401079406 0 0.078967107604769243 -0.081534257868326937 0 0.10108208771974569 -0.088161213949596334 0 0.078967107604769243 -0.081534257868326937 0 0.10108208771974569 -0.088161213949596334 0 0.088205186756687592 -0.098499163401079406 0 0.070281085843191191 -0.093817275438188408 0 0.078967107604769243 -0.081534257868326937 0 0.078967107604769243 -0.081534257868326937 0 0.10108208771974569 -0.088161213949596334 0 0.094886380824945021 -0.074739832907536372 0 0.10108208771974569 -0.088161213949596334 0 0.094886380824945021 -0.074739832907536372 0 0.1107023023869871 -0.07592928384858362 0 0.1060355466537841 -0.056579106778484822 0 0.1035330678577871 -0.060408744014543561 0 0.1107023023869871 -0.07592928384858362 0 0.098151026611810355 -0.068041034107876819 0 0.094886380824945021 -0.074739832907536372 0 0.1107023023869871 -0.07592928384858362 0 0.098207536939253007 -0.057070397666300149 0 0.1107023023869871 -0.07592928384858362 0 0.098207536939253007 -0.057070397666300149 0 0.098151026611810355 -0.068041034107876819 0 0.1107023023869871 -0.07592928384858362 0 0.098207536939253007 -0.057070397666300149 0 0.1035330678577871 -0.060408744014543561 0 0.1107023023869871 -0.07592928384858362 0 0.088807886296056321 -0.06442462200908719 0 0.098151026611810355 -0.068041034107876819 0 0.094886380824945021 -0.074739832907536372 0 0.098207536939253007 -0.057070397666300149 0 0.088807886296056321 -0.06442462200908719 0 0.098151026611810355 -0.068041034107876819 0 0.1060355466537841 -0.056579106778484822 0 0.1107023023869871 -0.07592928384858362 0 0.12599115970317629 -0.074614863284063901 0 0.1060355466537841 -0.056579106778484822 0 0.12599115970317629 -0.074614863284063901 0 0.1060355466537841 -0.056579106778484822 0 0.12407046944405239 -0.056682210957894767 0 0.12599115970317629 -0.074614863284063901 0 0.1107023023869871 -0.07592928384858362 0 0.1231970678347219 -0.094788170030866675 0 0.10108208771974569 -0.088161213949596334 0 0.1231970678347219 -0.094788170030866675 0 0.10108208771974569 -0.088161213949596334 0 0.1107023023869871 -0.07592928384858362 0 0.1231970678347219 -0.094788170030866675 0 0.1107023023869871 -0.07592928384858362 0 0.1231970678347219 -0.094788170030866675 0 0.12599115970317629 -0.074614863284063901 0 0.1231970678347219 -0.094788170030866675 0 0.1041297467101449 -0.10443009357677931 0 0.1165495357793246 -0.11537146045311671 0 0.10108208771974569 -0.088161213949596334 0 0.1231970678347219 -0.094788170030866675 0 0.1041297467101449 -0.10443009357677931 0 0.088205186756687592 -0.098499163401079406 0 0.10108208771974569 -0.088161213949596334 0 0.1041297467101449 -0.10443009357677931 0 0.1110772144577262 -0.12607447494648069 0 0.1003755091591467 -0.120365047089626 0 0.1165495357793246 -0.11537146045311671 0 0.088306584707542421 -0.11364295246223539 0 0.1041297467101449 -0.10443009357677931 0 0.1003755091591467 -0.120365047089626 0 0.1041297467101449 -0.10443009357677931 0 0.1003755091591467 -0.120365047089626 0 0.1165495357793246 -0.11537146045311671 0 0.1110772144577262 -0.12607447494648069 0 0.1165495357793246 -0.11537146045311671 0 0.125059882544757 -0.1243050716586782 0 0.1165495357793246 -0.11537146045311671 0 0.125059882544757 -0.1243050716586782 0 0.13570225296767791 -0.1136627830916173 0 0.125059882544757 -0.1243050716586782 0 0.13570225296767791 -0.1136627830916173 0 0.13351042007077771 -0.13535464583232679 0 0.13570225296767791 -0.1136627830916173 0 0.14916210969568239 -0.1144869233999513 0 0.14820743810063461 -0.13253739615236759 0 0.13570225296767791 -0.1136627830916173 0 0.14820743810063461 -0.13253739615236759 0 0.14916210969568239 -0.1144869233999513 0 0.1659023858019596 -0.11068637629522381 0 0.14820743810063461 -0.13253739615236759 0 0.13570225296767791 -0.1136627830916173 0 0.14916210969568239 -0.1144869233999513 0 0.1438387705826743 -0.1009736450727655 0 0.14916210969568239 -0.1144869233999513 0 0.1438387705826743 -0.1009736450727655 0 0.1659023858019596 -0.11068637629522381 0 0.1438387705826743 -0.1009736450727655 0 0.14594677275256851 -0.092650619789643215 0 0.1659023858019596 -0.11068637629522381 0 0.14594677275256851 -0.092650619789643215 0 0.1659023858019596 -0.11068637629522381 0 0.1231970678347219 -0.094788170030866675 0 0.1438387705826743 -0.1009736450727655 0 0.14594677275256851 -0.092650619789643215 0 0.1231970678347219 -0.094788170030866675 0 0.1438387705826743 -0.1009736450727655 0 0.1231970678347219 -0.094788170030866675 0 0.13570225296767791 -0.1136627830916173 0 0.1231970678347219 -0.094788170030866675 0 0.13570225296767791 -0.1136627830916173 0 0.1438387705826743 -0.1009736450727655 0 0.1231970678347219 -0.094788170030866675 0 0.1165495357793246 -0.11537146045311671 0 0.13570225296767791 -0.1136627830916173 0 0.12599115970317629 -0.074614863284063901 0 0.14324551520284479 -0.074303388514748908 0 0.14594677275256851 -0.092650619789643215 0 0.12599115970317629 -0.074614863284063901 0 0.14594677275256851 -0.092650619789643215 0 0.1231970678347219 -0.094788170030866675 0 0.12599115970317629 -0.074614863284063901 0 0.14594677275256851 -0.092650619789643215 0 0.13274812921261911 -0.06482196831319062 0 0.14324551520284479 -0.074303388514748908 0 0.14208920836164879 -0.057453001683217583 0 0.12407046944405239 -0.056682210957894767 0 0.13274812921261911 -0.06482196831319062 0 0.12599115970317629 -0.074614863284063901 0 0.13274812921261911 -0.06482196831319062 0 0.12599115970317629 -0.074614863284063901 0 0.14324551520284479 -0.074303388514748908 0 0.14324551520284479 -0.074303388514748908 0 0.1577676676713505 -0.070958881179004327 0 0.14208920836164879 -0.057453001683217583 0 0.14324551520284479 -0.074303388514748908 0 0.15552700132703259 -0.084480842179265062 0 0.1577676676713505 -0.070958881179004327 0 0.14594677275256851 -0.092650619789643215 0 0.15552700132703259 -0.084480842179265062 0 0.16270751108717671 -0.093919671838121624 0 0.14324551520284479 -0.074303388514748908 0 0.14594677275256851 -0.092650619789643215 0 0.15552700132703259 -0.084480842179265062 0 0.15552700132703259 -0.084480842179265062 0 0.1577676676713505 -0.070958881179004327 0 0.17317205283599571 -0.083245500938658068 0 0.15552700132703259 -0.084480842179265062 0 0.17317205283599571 -0.083245500938658068 0 0.16270751108717671 -0.093919671838121624 0 0.17317205283599571 -0.083245500938658068 0 0.1732436498299591 -0.098484742462365965 0 0.16270751108717671 -0.093919671838121624 0 0.1577676676713505 -0.070958881179004327 0 0.17329006297225849 -0.067144545014819187 0 0.17317205283599571 -0.083245500938658068 0 0.1577676676713505 -0.070958881179004327 0 0.17329006297225849 -0.067144545014819187 0 0.16114266970546481 -0.055348584155622209 0 0.17329006297225849 -0.067144545014819187 0 0.18660459660722059 -0.07121356670435669 0 0.17317205283599571 -0.083245500938658068 0 0.17329006297225849 -0.067144545014819187 0 0.18660459660722059 -0.07121356670435669 0 0.18383722960737159 -0.053734604093409272 0 0.18660459660722059 -0.07121356670435669 0 0.17317205283599571 -0.083245500938658068 0 0.19163234817905089 -0.084272585639399919 0 0.17317205283599571 -0.083245500938658068 0 0.18448732685510821 -0.096160788283265797 0 0.19163234817905089 -0.084272585639399919 0 0.17317205283599571 -0.083245500938658068 0 0.18448732685510821 -0.096160788283265797 0 0.1732436498299591 -0.098484742462365965 0 0.18448732685510821 -0.096160788283265797 0 0.1732436498299591 -0.098484742462365965 0 0.1799489725695555 -0.1084113749565605 0 0.1732436498299591 -0.098484742462365965 0 0.1799489725695555 -0.1084113749565605 0 0.1659023858019596 -0.11068637629522381 0 0.18448732685510821 -0.096160788283265797 0 0.1799489725695555 -0.1084113749565605 0 0.19189947738255089 -0.11079770296415201 0 0.1799489725695555 -0.1084113749565605 0 0.1659023858019596 -0.11068637629522381 0 0.18392927920566929 -0.12697896821793581 0 0.1659023858019596 -0.11068637629522381 0 0.18392927920566929 -0.12697896821793581 0 0.1799489725695555 -0.1084113749565605 0 0.19189947738255089 -0.11079770296415201 0 0.18392927920566929 -0.12697896821793581 0 0.1659023858019596 -0.11068637629522381 0 0.17135699408012309 -0.1393121638749876 0 0.1732436498299591 -0.098484742462365965 0 0.1659023858019596 -0.11068637629522381 0 0.16270751108717671 -0.093919671838121624 0 0.14594677275256851 -0.092650619789643215 0 0.1659023858019596 -0.11068637629522381 0 0.16270751108717671 -0.093919671838121624 0 0.1659023858019596 -0.11068637629522381 0 0.16270751108717671 -0.093919671838121624 0 0.1463790325767105 0.0051600440866713393 0 0.13293120393573529 -0.01541967286838083 0 0.14494909117168939 -0.01571097116995826 0 0.1463790325767105 0.0051600440866713393 0 0.15462421245165581 -0.0058893527151400796 0 0.14494909117168939 -0.01571097116995826 0 0.1463790325767105 0.0051600440866713393 0 0.14494909117168939 -0.01571097116995826 0 0.15462421245165581 -0.0058893527151400796 0 0.14494909117168939 -0.01571097116995826 0 0.1598580582920249 -0.020425916519869049 0 0.1463790325767105 0.0051600440866713393 0 0.12681727907172599 0.0028609529651058472 0 0.13293120393573529 -0.01541967286838083 0 0.1463790325767105 0.0051600440866713393 0 0.13293120393573529 -0.01541967286838083 0 0.12681727907172599 0.0028609529651058472 0 0.1196279235184127 -0.011266487206185741 0 0.13293120393573529 -0.01541967286838083 0 0.13293120393573529 -0.01541967286838083 0 0.14494909117168939 -0.01571097116995826 0 0.1435191497666691 -0.036581986426587887 0 0.1194833752947594 -0.035999389823432593 0 0.13293120393573529 -0.01541967286838083 0 0.1435191497666691 -0.036581986426587887 0 0.1194833752947594 -0.035999389823432593 0 0.13293120393573529 -0.01541967286838083 0 0.14494909117168939 -0.01571097116995826 0 0.1435191497666691 -0.036581986426587887 0 0.14494909117168939 -0.01571097116995826 0 0.1435191497666691 -0.036581986426587887 0 0.1598580582920249 -0.020425916519869049 0 0.1194833752947594 -0.035999389823432593 0 0.1435191497666691 -0.036581986426587887 0 0.13229055071678239 -0.046679147222783213 0 0.12407046944405239 -0.056682210957894767 0 0.1194833752947594 -0.035999389823432593 0 0.13229055071678239 -0.046679147222783213 0 0.1435191497666691 -0.036581986426587887 0 0.13229055071678239 -0.046679147222783213 0 0.14208920836164879 -0.057453001683217583 0 0.12407046944405239 -0.056682210957894767 0 0.13229055071678239 -0.046679147222783213 0 0.14208920836164879 -0.057453001683217583 0 0.12407046944405239 -0.056682210957894767 0 0.13274812921261911 -0.06482196831319062 0 0.14208920836164879 -0.057453001683217583 0 0.1577676676713505 -0.070958881179004327 0 0.14208920836164879 -0.057453001683217583 0 0.16114266970546481 -0.055348584155622209 0 0.1435191497666691 -0.036581986426587887 0 0.14208920836164879 -0.057453001683217583 0 0.1435191497666691 -0.036581986426587887 0 0.14208920836164879 -0.057453001683217583 0 0.16114266970546481 -0.055348584155622209 0 0.16114266970546481 -0.055348584155622209 0 0.18383722960737159 -0.053734604093409272 0 0.16867226584066319 -0.036111154955617203 0 0.17329006297225849 -0.067144545014819187 0 0.16114266970546481 -0.055348584155622209 0 0.18383722960737159 -0.053734604093409272 0 0.18383722960737159 -0.053734604093409272 0 0.16867226584066319 -0.036111154955617203 0 0.1895671539671433 -0.037285104408639982 0 0.1435191497666691 -0.036581986426587887 0 0.16114266970546481 -0.055348584155622209 0 0.16867226584066319 -0.036111154955617203 0 0.1435191497666691 -0.036581986426587887 0 0.16867226584066319 -0.036111154955617203 0 0.1598580582920249 -0.020425916519869049 0 0.16867226584066319 -0.036111154955617203 0 0.1598580582920249 -0.020425916519869049 0 0.17626464034529979 -0.01218273843611789 0 0.16867226584066319 -0.036111154955617203 0 0.17626464034529979 -0.01218273843611789 0 0.19288185645158881 -0.018686415508600542 0 0.16867226584066319 -0.036111154955617203 0 0.19288185645158881 -0.018686415508600542 0 0.16867226584066319 -0.036111154955617203 0 0.19288185645158881 -0.018686415508600542 0 0.1895671539671433 -0.037285104408639982 0 0.1913914811785945 0.0015479160267864781 0 0.177795833794237 0.0058736288592868176 0 0.17626464034529979 -0.01218273843611789 0 0.177795833794237 0.0058736288592868176 0 0.17626464034529979 -0.01218273843611789 0 0.16638725000284621 -0.0041024332455818144 0 0.1913914811785945 0.0015479160267864781 0 0.17626464034529979 -0.01218273843611789 0 0.19288185645158881 -0.018686415508600542 0 0.15462421245165581 -0.0058893527151400796 0 0.1598580582920249 -0.020425916519869049 0 0.16638725000284621 -0.0041024332455818144 0 0.1598580582920249 -0.020425916519869049 0 0.17626464034529979 -0.01218273843611789 0 0.16638725000284621 -0.0041024332455818144 0 0.15628357420278671 0.003810722324721363 0 0.15462421245165581 -0.0058893527151400796 0 0.16638725000284621 -0.0041024332455818144 0 0.21709144706251299 -0.0012616760615819459 0 0.19288185645158881 -0.018686415508600542 0 0.21709144706251299 -0.0012616760615819459 0 0.19288185645158881 -0.018686415508600542 0 0.21106230177929311 -0.016930390785221641 0 0.21709144706251299 -0.0012616760615819459 0 0.21106230177929311 -0.016930390785221641 0 0.21880732635032871 -0.001449260780306197 0 0.21106230177929311 -0.016930390785221641 0 0.22385231661827831 -0.017244899007901549 0 0.21880732635032871 -0.001449260780306197 0 0.21991949691130641 0.00077379957079282309 0 0.21709144706251299 -0.0012616760615819459 0 0.21991949691130641 0.00077379957079282309 0 0.21709144706251299 -0.0012616760615819459 0 0.21880732635032871 -0.001449260780306197 0 0.21709144706251299 -0.0012616760615819459 0 0.21880732635032871 -0.001449260780306197 0 0.21106230177929311 -0.016930390785221641 0 0.21880732635032871 -0.001449260780306197 0 0.1913914811785945 0.0015479160267864781 0 0.21709144706251299 -0.0012616760615819459 0 0.19288185645158881 -0.018686415508600542 0 0.19288185645158881 -0.018686415508600542 0 0.21106230177929311 -0.016930390785221641 0 0.2033172772082579 -0.032411520790137288 0 0.19288185645158881 -0.018686415508600542 0 0.2033172772082579 -0.032411520790137288 0 0.1895671539671433 -0.037285104408639982 0 0.21106230177929311 -0.016930390785221641 0 0.2033172772082579 -0.032411520790137288 0 0.21106230177929311 -0.016930390785221641 0 0.21701755041282189 -0.032304719396535099 0 0.2033172772082579 -0.032411520790137288 0 0.21106230177929311 -0.016930390785221641 0 0.21701755041282189 -0.032304719396535099 0 0.22385231661827831 -0.017244899007901549 0 0.21701755041282189 -0.032304719396535099 0 0.21047104707744299 -0.044055030933792823 0 0.21970932447173591 -0.041885045690610363 0 0.21047104707744299 -0.044055030933792823 0 0.2163169812201669 -0.048151654183774213 0 0.21970932447173591 -0.041885045690610363 0 0.21047104707744299 -0.044055030933792823 0 0.2033172772082579 -0.032411520790137288 0 0.19912714072783499 -0.045481826695435601 0 0.21701755041282189 -0.032304719396535099 0 0.21047104707744299 -0.044055030933792823 0 0.2033172772082579 -0.032411520790137288 0 0.2033172772082579 -0.032411520790137288 0 0.1895671539671433 -0.037285104408639982 0 0.19912714072783499 -0.045481826695435601 0 0.18383722960737159 -0.053734604093409272 0 0.1895671539671433 -0.037285104408639982 0 0.19912714072783499 -0.045481826695435601 0 0.18383722960737159 -0.053734604093409272 0 0.19912714072783499 -0.045481826695435601 0 0.20031667673944939 -0.057421141152823332 0 0.18383722960737159 -0.053734604093409272 0 0.20031667673944939 -0.057421141152823332 0 0.19584992287481651 -0.066326971565447423 0 0.19912714072783499 -0.045481826695435601 0 0.20031667673944939 -0.057421141152823332 0 0.20701231567461709 -0.051722697756719387 0 0.20031667673944939 -0.057421141152823332 0 0.21110366793748389 -0.058962871247726333 0 0.20754781500579161 -0.067167929918243774 0 0.20031667673944939 -0.057421141152823332 0 0.20701231567461709 -0.051722697756719387 0 0.21110366793748389 -0.058962871247726333 0 0.21047104707744299 -0.044055030933792823 0 0.19912714072783499 -0.045481826695435601 0 0.20701231567461709 -0.051722697756719387 0 0.21047104707744299 -0.044055030933792823 0 0.20701231567461709 -0.051722697756719387 0 0.21404304589087411 -0.052692618753818851 0 0.20701231567461709 -0.051722697756719387 0 0.21404304589087411 -0.052692618753818851 0 0.21110366793748389 -0.058962871247726333 0 0.21047104707744299 -0.044055030933792823 0 0.21404304589087411 -0.052692618753818851 0 0.2163169812201669 -0.048151654183774213 0 0.21404304589087411 -0.052692618753818851 0 0.2163169812201669 -0.048151654183774213 0 0.22104450744061471 -0.053973921356874788 0 0.21404304589087411 -0.052692618753818851 0 0.21720125996139161 -0.057407354338342383 0 0.22104450744061471 -0.053973921356874788 0 0.21720125996139161 -0.057407354338342383 0 0.21110366793748389 -0.058962871247726333 0 0.2190710203991128 -0.066761103999133015 0 0.21404304589087411 -0.052692618753818851 0 0.21720125996139161 -0.057407354338342383 0 0.21110366793748389 -0.058962871247726333 0 0.22259109842381891 -0.056331752972584533 0 0.24466000719816181 -0.052572806154117767 0 0.23359814963938669 -0.073112384460560717 0 0.22259109842381891 -0.056331752972584533 0 0.2190710203991128 -0.066761103999133015 0 0.21720125996139161 -0.057407354338342383 0 0.22259109842381891 -0.056331752972584533 0 0.2190710203991128 -0.066761103999133015 0 0.21720125996139161 -0.057407354338342383 0 0.22259109842381891 -0.056331752972584533 0 0.22104450744061471 -0.053973921356874788 0 0.22259109842381891 -0.056331752972584533 0 0.22104450744061471 -0.053973921356874788 0 0.2163169812201669 -0.048151654183774213 0 0.22104450744061471 -0.053973921356874788 0 0.21970932447173591 -0.041885045690610363 0 0.25572186475693609 -0.032033227847674262 0 0.24466000719816181 -0.052572806154117767 0 0.2314560627619717 -0.030066475819188941 0 0.22259109842381891 -0.056331752972584533 0 0.24466000719816181 -0.052572806154117767 0 0.2314560627619717 -0.030066475819188941 0 0.22259109842381891 -0.056331752972584533 0 0.2314560627619717 -0.030066475819188941 0 0.22259109842381891 -0.056331752972584533 0 0.22104450744061471 -0.053973921356874788 0 0.2314560627619717 -0.030066475819188941 0 0.22104450744061471 -0.053973921356874788 0 0.21970932447173591 -0.041885045690610363 0 0.2314560627619717 -0.030066475819188941 0 0.21701755041282189 -0.032304719396535099 0 0.21970932447173591 -0.041885045690610363 0 0.2314560627619717 -0.030066475819188941 0 0.22385231661827831 -0.017244899007901549 0 0.2314560627619717 -0.030066475819188941 0 0.2403210271001277 -0.0038011986657945939 0 0.21701755041282189 -0.032304719396535099 0 0.22385231661827831 -0.017244899007901549 0 0.2314560627619717 -0.030066475819188941 0 0.25159771702699008 -0.014371615300676641 0 0.2314560627619717 -0.030066475819188941 0 0.2403210271001277 -0.0038011986657945939 0 0.25572186475693609 -0.032033227847674262 0 0.25159771702699008 -0.014371615300676641 0 0.2314560627619717 -0.030066475819188941 0 0.2314560627619717 -0.030066475819188941 0 0.2403210271001277 -0.0038011986657945939 0 0.2403210271001277 -0.0038011986657945939 0 0.21880732635032871 -0.001449260780306197 0 0.21991949691130641 0.00077379957079282309 0 0.2403210271001277 -0.0038011986657945939 0 0.21880732635032871 -0.001449260780306197 0 0.22385231661827831 -0.017244899007901549 0 0.2403210271001277 -0.0038011986657945939 0 0.21880732635032871 -0.001449260780306197 0 0.21991949691130641 0.00077379957079282309 0 0.21880732635032871 -0.001449260780306197 0 0.20659325823048899 -0.099029874252906047 0 0.21655448612892231 -0.108466948295262 0 0.2034485844213379 -0.1104083252764293 0 0.20659325823048899 -0.099029874252906047 0 0.21858698215692479 -0.095058636804357027 0 0.21655448612892231 -0.108466948295262 0 0.20659325823048899 -0.099029874252906047 0 0.21858698215692479 -0.095058636804357027 0 0.21076223576946701 -0.091385441013354662 0 0.21237619803781799 -0.123978557377612 0 0.2034485844213379 -0.1104083252764293 0 0.19857579603009881 -0.123745354966356 0 0.21655448612892231 -0.108466948295262 0 0.21237619803781799 -0.123978557377612 0 0.2034485844213379 -0.1104083252764293 0 0.19857579603009881 -0.123745354966356 0 0.19189947738255089 -0.11079770296415201 0 0.18392927920566929 -0.12697896821793581 0 0.2034485844213379 -0.1104083252764293 0 0.19857579603009881 -0.123745354966356 0 0.19189947738255089 -0.11079770296415201 0 0.18448732685510821 -0.096160788283265797 0 0.19189947738255089 -0.11079770296415201 0 0.19704440529688971 -0.097808096169463843 0 0.2034485844213379 -0.1104083252764293 0 0.19189947738255089 -0.11079770296415201 0 0.19704440529688971 -0.097808096169463843 0 0.20659325823048899 -0.099029874252906047 0 0.2034485844213379 -0.1104083252764293 0 0.19704440529688971 -0.097808096169463843 0 0.20659325823048899 -0.099029874252906047 0 0.19704440529688971 -0.097808096169463843 0 0.20377507451519661 -0.086639367611932153 0 0.18448732685510821 -0.096160788283265797 0 0.19704440529688971 -0.097808096169463843 0 0.19163234817905089 -0.084272585639399919 0 0.19163234817905089 -0.084272585639399919 0 0.20020732292815921 -0.075382335334988601 0 0.20377507451519661 -0.086639367611932153 0 0.19704440529688971 -0.097808096169463843 0 0.19163234817905089 -0.084272585639399919 0 0.20377507451519661 -0.086639367611932153 0 0.18660459660722059 -0.07121356670435669 0 0.18383722960737159 -0.053734604093409272 0 0.19584992287481651 -0.066326971565447423 0 0.18660459660722059 -0.07121356670435669 0 0.20020732292815921 -0.075382335334988601 0 0.19584992287481651 -0.066326971565447423 0 0.18660459660722059 -0.07121356670435669 0 0.19163234817905089 -0.084272585639399919 0 0.20020732292815921 -0.075382335334988601 0 0.20031667673944939 -0.057421141152823332 0 0.19584992287481651 -0.066326971565447423 0 0.20754781500579161 -0.067167929918243774 0 0.20020732292815921 -0.075382335334988601 0 0.19584992287481651 -0.066326971565447423 0 0.20754781500579161 -0.067167929918243774 0 0.20020732292815921 -0.075382335334988601 0 0.20754781500579161 -0.067167929918243774 0 0.21182278070176411 -0.07642901816315241 0 0.21182278070176411 -0.07642901816315241 0 0.2190710203991128 -0.066761103999133015 0 0.22185546860341471 -0.076890537193463129 0 0.21110366793748389 -0.058962871247726333 0 0.20754781500579161 -0.067167929918243774 0 0.2190710203991128 -0.066761103999133015 0 0.20754781500579161 -0.067167929918243774 0 0.21182278070176411 -0.07642901816315241 0 0.2190710203991128 -0.066761103999133015 0 0.20377507451519661 -0.086639367611932153 0 0.21076223576946701 -0.091385441013354662 0 0.2156201083762905 -0.085211377739258853 0 0.20659325823048899 -0.099029874252906047 0 0.20377507451519661 -0.086639367611932153 0 0.21076223576946701 -0.091385441013354662 0 0.21182278070176411 -0.07642901816315241 0 0.20377507451519661 -0.086639367611932153 0 0.2156201083762905 -0.085211377739258853 0 0.20020732292815921 -0.075382335334988601 0 0.21182278070176411 -0.07642901816315241 0 0.20377507451519661 -0.086639367611932153 0 0.21182278070176411 -0.07642901816315241 0 0.2156201083762905 -0.085211377739258853 0 0.22185546860341471 -0.076890537193463129 0 0.21858698215692479 -0.095058636804357027 0 0.21076223576946701 -0.091385441013354662 0 0.2156201083762905 -0.085211377739258853 0 0.21858698215692479 -0.095058636804357027 0 0.22254221780738029 -0.08612048538839856 0 0.22945301150852729 -0.089618177888440453 0 0.21858698215692479 -0.095058636804357027 0 0.2156201083762905 -0.085211377739258853 0 0.22254221780738029 -0.08612048538839856 0 0.22254221780738029 -0.08612048538839856 0 0.22667762447946821 -0.081336379644961862 0 0.22945301150852729 -0.089618177888440453 0 0.2156201083762905 -0.085211377739258853 0 0.22254221780738029 -0.08612048538839856 0 0.22185546860341471 -0.076890537193463129 0 0.22254221780738029 -0.08612048538839856 0 0.22667762447946821 -0.081336379644961862 0 0.22185546860341471 -0.076890537193463129 0 0.22667762447946821 -0.081336379644961862 0 0.22945301150852729 -0.089618177888440453 0 0.232130230341555 -0.075838006554786702 0 0.22259109842381891 -0.056331752972584533 0 0.23359814963938669 -0.073112384460560717 0 0.22259109842381891 -0.056331752972584533 0 0.22559767577824291 -0.070341033318702742 0 0.23359814963938669 -0.073112384460560717 0 0.22259109842381891 -0.056331752972584533 0 0.2190710203991128 -0.066761103999133015 0 0.22559767577824291 -0.070341033318702742 0 0.2190710203991128 -0.066761103999133015 0 0.22559767577824291 -0.070341033318702742 0 0.22185546860341471 -0.076890537193463129 0 0.22559767577824291 -0.070341033318702742 0 0.22185546860341471 -0.076890537193463129 0 0.226513327956856 -0.076031742247647013 0 0.22667762447946821 -0.081336379644961862 0 0.22185546860341471 -0.076890537193463129 0 0.226513327956856 -0.076031742247647013 0 0.22559767577824291 -0.070341033318702742 0 0.232130230341555 -0.075838006554786702 0 0.23359814963938669 -0.073112384460560717 0 0.22667762447946821 -0.081336379644961862 0 0.226513327956856 -0.076031742247647013 0 0.232130230341555 -0.075838006554786702 0 0.232130230341555 -0.075838006554786702 0 0.23359814963938669 -0.073112384460560717 0 0.22559767577824291 -0.070341033318702742 0 0.226513327956856 -0.076031742247647013 0 0.232130230341555 -0.075838006554786702 0 0.25578894406637898 -0.071814983055159112 0 0.24466000719816181 -0.052572806154117767 0 0.23359814963938669 -0.073112384460560717 0 0.24466000719816181 -0.052572806154117767 0 0.23359814963938669 -0.073112384460560717 0 0.232130230341555 -0.075838006554786702 0 0.23359814963938669 -0.073112384460560717 0 0.248052431344363 -0.095148438437639593 0 0.25578894406637898 -0.071814983055159112 0 0.23359814963938669 -0.073112384460560717 0 0.248052431344363 -0.095148438437639593 0 0.23359814963938669 -0.073112384460560717 0 0.248052431344363 -0.095148438437639593 0 0.22945301150852729 -0.089618177888440453 0 0.232130230341555 -0.075838006554786702 0 0.248052431344363 -0.095148438437639593 0 0.22945301150852729 -0.089618177888440453 0 0.248052431344363 -0.095148438437639593 0 0.23028066412444251 -0.1035134914659659 0 0.248052431344363 -0.095148438437639593 0 0.23028066412444251 -0.1035134914659659 0 0.24260121657943401 -0.11258968035378961 0 0.21858698215692479 -0.095058636804357027 0 0.21655448612892231 -0.108466948295262 0 0.23028066412444251 -0.1035134914659659 0 0.21858698215692479 -0.095058636804357027 0 0.22945301150852729 -0.089618177888440453 0 0.23028066412444251 -0.1035134914659659 0 0.21655448612892231 -0.108466948295262 0 0.21237619803781799 -0.123978557377612 0 0.22804122980252159 -0.1188128045943018 0 0.21655448612892231 -0.108466948295262 0 0.23028066412444251 -0.1035134914659659 0 0.22804122980252159 -0.1188128045943018 0 0.23028066412444251 -0.1035134914659659 0 0.22804122980252159 -0.1188128045943018 0 0.24260121657943401 -0.11258968035378961 0 0.26250671304934198 -0.1171844924147165 0 0.24260121657943401 -0.11258968035378961 0 0.2441250445765018 -0.1282891748563233 0 0.22804122980252159 -0.1188128045943018 0 0.24260121657943401 -0.11258968035378961 0 0.2441250445765018 -0.1282891748563233 0 0.2441250445765018 -0.1282891748563233 0 0.23903729808979979 -0.1497956366535709 0 0.2244889389359962 -0.13749465980780429 0 0.26140577643439422 -0.14332992145424359 0 0.2441250445765018 -0.1282891748563233 0 0.23903729808979979 -0.1497956366535709 0 0.26140577643439422 -0.14332992145424359 0 0.23903729808979979 -0.1497956366535709 0 0.24727016264961249 -0.1692414738038848 0 0.23903729808979979 -0.1497956366535709 0 0.2244889389359962 -0.13749465980780429 0 0.2199830660130864 -0.1595641520633625 0 0.22804122980252159 -0.1188128045943018 0 0.2441250445765018 -0.1282891748563233 0 0.2244889389359962 -0.13749465980780429 0 0.21237619803781799 -0.123978557377612 0 0.22804122980252159 -0.1188128045943018 0 0.2244889389359962 -0.13749465980780429 0 0.21237619803781799 -0.123978557377612 0 0.2244889389359962 -0.13749465980780429 0 0.2019561726093779 -0.14327156014064921 0 0.21237619803781799 -0.123978557377612 0 0.19857579603009881 -0.123745354966356 0 0.2019561726093779 -0.14327156014064921 0 0.2244889389359962 -0.13749465980780429 0 0.2019561726093779 -0.14327156014064921 0 0.2199830660130864 -0.1595641520633625 0 0.2019561726093779 -0.14327156014064921 0 0.2199830660130864 -0.1595641520633625 0 0.2019561726093779 -0.14327156014064921 0 0.2047419039749544 -0.16383627848553101 0 0.2199830660130864 -0.1595641520633625 0 0.2019561726093779 -0.14327156014064921 0 0.1858442134446858 -0.1403981851473228 0 0.18613440788357311 -0.15203004835571851 0 0.2019561726093779 -0.14327156014064921 0 0.2047419039749544 -0.16383627848553101 0 0.18613440788357311 -0.15203004835571851 0 0.19857579603009881 -0.123745354966356 0 0.2019561726093779 -0.14327156014064921 0 0.18392927920566929 -0.12697896821793581 0 0.2019561726093779 -0.14327156014064921 0 0.18392927920566929 -0.12697896821793581 0 0.2019561726093779 -0.14327156014064921 0 0.1858442134446858 -0.1403981851473228 0 0.18392927920566929 -0.12697896821793581 0 0.20143056513873611 -0.17998665641699849 0 0.18945430304214239 -0.18113699365130109 0 0.1956775580667883 -0.19315745649050381 0 0.20143056513873611 -0.17998665641699849 0 0.18945430304214239 -0.18113699365130109 0 0.19108557901044451 -0.16803916485973749 0 0.19108557901044451 -0.16803916485973749 0 0.2047419039749544 -0.16383627848553101 0 0.18613440788357311 -0.15203004835571851 0 0.20143056513873611 -0.17998665641699849 0 0.19108557901044451 -0.16803916485973749 0 0.2047419039749544 -0.16383627848553101 0 0.2047419039749544 -0.16383627848553101 0 0.21987806867346529 -0.181539582491408 0 0.2199830660130864 -0.1595641520633625 0 0.20143056513873611 -0.17998665641699849 0 0.2047419039749544 -0.16383627848553101 0 0.21987806867346529 -0.181539582491408 0 0.20143056513873611 -0.17998665641699849 0 0.21987806867346529 -0.181539582491408 0 0.21026993533039931 -0.19452922539566581 0 0.21987806867346529 -0.181539582491408 0 0.2199830660130864 -0.1595641520633625 0 0.23800995941679501 -0.17585674398607579 0 0.21987806867346529 -0.181539582491408 0 0.23800995941679501 -0.17585674398607579 0 0.2331345488648309 -0.19515302615352589 0 0.2199830660130864 -0.1595641520633625 0 0.23800995941679501 -0.17585674398607579 0 0.23903729808979979 -0.1497956366535709 0 0.2199830660130864 -0.1595641520633625 0 0.23506515458377289 -0.16194558534122611 0 0.2199830660130864 -0.1595641520633625 0 0.23506515458377289 -0.16194558534122611 0 0.23800995941679501 -0.17585674398607579 0 0.23903729808979979 -0.1497956366535709 0 0.23506515458377289 -0.16194558534122611 0 0.24727016264961249 -0.1692414738038848 0 0.23506515458377289 -0.16194558534122611 0 0.24727016264961249 -0.1692414738038848 0 0.23800995941679501 -0.17585674398607579 0 0.24727016264961249 -0.1692414738038848 0 0.2331345488648309 -0.19515302615352589 0 0.24727016264961249 -0.1692414738038848 0 0.23800995941679501 -0.17585674398607579 0 0.2331345488648309 -0.19515302615352589 0 0.25115080808597218 -0.18349252771031549 0 0.24727016264961249 -0.1692414738038848 0 0.2331345488648309 -0.19515302615352589 0 0.25294493867930001 -0.1971512634910503 0 0.25115080808597218 -0.18349252771031549 0 0.2331345488648309 -0.19515302615352589 0 0.25294493867930001 -0.1971512634910503 0 0.23924146656863479 -0.21600942233651971 0 0.2331345488648309 -0.19515302615352589 0 0.25948399805722178 -0.21095426616987389 0 0.23924146656863479 -0.21600942233651971 0 0.23924146656863479 -0.21600942233651971 0 0.218998935080048 -0.22106457850316641 0 0.21946760776481619 -0.20450875509018021 0 0.2331345488648309 -0.19515302615352589 0 0.218998935080048 -0.22106457850316641 0 0.2331345488648309 -0.19515302615352589 0 0.218998935080048 -0.22106457850316641 0 0.23924146656863479 -0.21600942233651971 0 0.2331345488648309 -0.19515302615352589 0 0.218998935080048 -0.22106457850316641 0 0.21946760776481619 -0.20450875509018021 0 0.22068754015837791 -0.19393264728269499 0 0.2331345488648309 -0.19515302615352589 0 0.21987806867346529 -0.181539582491408 0 0.22068754015837791 -0.19393264728269499 0 0.2331345488648309 -0.19515302615352589 0 0.25406429941061343 -0.23112732810889039 0 0.24146341680214309 -0.24448521489457861 0 0.23197262628044979 -0.22995906340082059 0 0.25406429941061343 -0.23112732810889039 0 0.23924146656863479 -0.21600942233651971 0 0.23197262628044979 -0.22995906340082059 0 0.23924146656863479 -0.21600942233651971 0 0.218998935080048 -0.22106457850316641 0 0.23197262628044979 -0.22995906340082059 0 0.218998935080048 -0.22106457850316641 0 0.23197262628044979 -0.22995906340082059 0 0.2174712270181591 -0.22386497246011361 0 0.23197262628044979 -0.22995906340082059 0 0.22090538197196211 -0.23599380530564679 0 0.2174712270181591 -0.22386497246011361 0 0.23197262628044979 -0.22995906340082059 0 0.2264227451730553 -0.24971222362376699 0 0.22090538197196211 -0.23599380530564679 0 0.24146341680214309 -0.24448521489457861 0 0.23197262628044979 -0.22995906340082059 0 0.2264227451730553 -0.24971222362376699 0 0.21040399342164171 -0.25176681621351038 0 0.2264227451730553 -0.24971222362376699 0 0.22090538197196211 -0.23599380530564679 0 0.21040399342164171 -0.25176681621351038 0 0.22090538197196211 -0.23599380530564679 0 0.20830595876386901 -0.23638945826593061 0 0.21040399342164171 -0.25176681621351038 0 0.20830595876386901 -0.23638945826593061 0 0.19936230214102421 -0.2479946931896729 0 0.22090538197196211 -0.23599380530564679 0 0.20830595876386901 -0.23638945826593061 0 0.2144511399868903 -0.2312706685566866 0 0.218998935080048 -0.22106457850316641 0 0.19612053567392879 -0.2267779885035914 0 0.218998935080048 -0.22106457850316641 0 0.19612053567392879 -0.2267779885035914 0 0.2105383011147646 -0.21819048542197941 0 0.218998935080048 -0.22106457850316641 0 0.20576090592389351 -0.2270860010417686 0 0.19612053567392879 -0.2267779885035914 0 0.20830595876386901 -0.23638945826593061 0 0.20576090592389351 -0.2270860010417686 0 0.20182830522270101 -0.2319599292687276 0 0.20830595876386901 -0.23638945826593061 0 0.20576090592389351 -0.2270860010417686 0 0.2144511399868903 -0.2312706685566866 0 0.22090538197196211 -0.23599380530564679 0 0.2144511399868903 -0.2312706685566866 0 0.2174712270181591 -0.22386497246011361 0 0.20576090592389351 -0.2270860010417686 0 0.2144511399868903 -0.2312706685566866 0 0.21346905720863779 -0.2258257771414271 0 0.2144511399868903 -0.2312706685566866 0 0.21346905720863779 -0.2258257771414271 0 0.2174712270181591 -0.22386497246011361 0 0.218998935080048 -0.22106457850316641 0 0.20576090592389351 -0.2270860010417686 0 0.21346905720863779 -0.2258257771414271 0 0.218998935080048 -0.22106457850316641 0 0.21346905720863779 -0.2258257771414271 0 0.2174712270181591 -0.22386497246011361 0 0.218998935080048 -0.22106457850316641 0 0.2174712270181591 -0.22386497246011361 0 0.19612053567392879 -0.2267779885035914 0 0.2105383011147646 -0.21819048542197941 0 0.20425053182178279 -0.21841625855527369 0 0.19777000223886329 -0.21875233346220549 0 0.19612053567392879 -0.2267779885035914 0 0.20425053182178279 -0.21841625855527369 0 0.19777000223886329 -0.21875233346220549 0 0.19393270034329779 -0.22126915535208849 0 0.19612053567392879 -0.2267779885035914 0 0.19393270034329779 -0.22126915535208849 0 0.18772081891462031 -0.22518952661427791 0 0.19612053567392879 -0.2267779885035914 0 0.19393270034329779 -0.22126915535208849 0 0.18772081891462031 -0.22518952661427791 0 0.19411944454577909 -0.214356772828279 0 0.19612053567392879 -0.2267779885035914 0 0.19712582052911259 -0.23758626926361981 0 0.1871717184338115 -0.23640941086597769 0 0.19612053567392879 -0.2267779885035914 0 0.20182830522270101 -0.2319599292687276 0 0.19712582052911259 -0.23758626926361981 0 0.20576090592389351 -0.2270860010417686 0 0.19612053567392879 -0.2267779885035914 0 0.20182830522270101 -0.2319599292687276 0 0.20830595876386901 -0.23638945826593061 0 0.19712582052911259 -0.23758626926361981 0 0.19936230214102421 -0.2479946931896729 0 0.20830595876386901 -0.23638945826593061 0 0.20182830522270101 -0.2319599292687276 0 0.19712582052911259 -0.23758626926361981 0 0.19712582052911259 -0.23758626926361981 0 0.18957958600208469 -0.24548130840959781 0 0.1871717184338115 -0.23640941086597769 0 0.19712582052911259 -0.23758626926361981 0 0.18957958600208469 -0.24548130840959781 0 0.19936230214102421 -0.2479946931896729 0 0.21026993533039931 -0.19452922539566581 0 0.2106024981415649 -0.2056222994823437 0 0.20186537415214451 -0.20478020160934601 0 0.21987806867346529 -0.181539582491408 0 0.22068754015837791 -0.19393264728269499 0 0.21026993533039931 -0.19452922539566581 0 0.21946760776481619 -0.20450875509018021 0 0.22068754015837791 -0.19393264728269499 0 0.21026993533039931 -0.19452922539566581 0 0.21946760776481619 -0.20450875509018021 0 0.21026993533039931 -0.19452922539566581 0 0.2106024981415649 -0.2056222994823437 0 0.21946760776481619 -0.20450875509018021 0 0.218998935080048 -0.22106457850316641 0 0.21566385185952111 -0.2138241496878262 0 0.21946760776481619 -0.20450875509018021 0 0.21566385185952111 -0.2138241496878262 0 0.21365056347845579 -0.2115327797359787 0 0.21946760776481619 -0.20450875509018021 0 0.21365056347845579 -0.2115327797359787 0 0.2106024981415649 -0.2056222994823437 0 0.218998935080048 -0.22106457850316641 0 0.21566385185952111 -0.2138241496878262 0 0.2105383011147646 -0.21819048542197941 0 0.21566385185952111 -0.2138241496878262 0 0.21365056347845579 -0.2115327797359787 0 0.2105383011147646 -0.21819048542197941 0 0.2105383011147646 -0.21819048542197941 0 0.20775900998200869 -0.21276053558054769 0 0.20425053182178279 -0.21841625855527369 0 0.21365056347845579 -0.2115327797359787 0 0.2105383011147646 -0.21819048542197941 0 0.20775900998200869 -0.21276053558054769 0 0.20775900998200869 -0.21276053558054769 0 0.20425053182178279 -0.21841625855527369 0 0.20156851284219721 -0.21282904574896491 0 0.20775900998200869 -0.21276053558054769 0 0.20186537415214451 -0.20478020160934601 0 0.20156851284219721 -0.21282904574896491 0 0.20775900998200869 -0.21276053558054769 0 0.2106024981415649 -0.2056222994823437 0 0.20186537415214451 -0.20478020160934601 0 0.21365056347845579 -0.2115327797359787 0 0.20775900998200869 -0.21276053558054769 0 0.2106024981415649 -0.2056222994823437 0 0.20186537415214451 -0.20478020160934601 0 0.19411944454577909 -0.214356772828279 0 0.19348214685029161 -0.20221454249066079 0 0.18772081891462031 -0.22518952661427791 0 0.19411944454577909 -0.214356772828279 0 0.18226621063645451 -0.19656373903451449 0 0.20186537415214451 -0.20478020160934601 0 0.20156851284219721 -0.21282904574896491 0 0.19411944454577909 -0.214356772828279 0 0.19411944454577909 -0.214356772828279 0 0.19348214685029161 -0.20221454249066079 0 0.18226621063645451 -0.19656373903451449 0 0.19777000223886329 -0.21875233346220549 0 0.20425053182178279 -0.21841625855527369 0 0.20156851284219721 -0.21282904574896491 0 0.19777000223886329 -0.21875233346220549 0 0.20156851284219721 -0.21282904574896491 0 0.19411944454577909 -0.214356772828279 0 0.19777000223886329 -0.21875233346220549 0 0.19393270034329779 -0.22126915535208849 0 0.19411944454577909 -0.214356772828279 0 0.19348214685029161 -0.20221454249066079 0 0.1956775580667883 -0.19315745649050381 0 0.18226621063645451 -0.19656373903451449 0 0.20186537415214451 -0.20478020160934601 0 0.19348214685029161 -0.20221454249066079 0 0.1956775580667883 -0.19315745649050381 0 0.21026993533039931 -0.19452922539566581 0 0.20186537415214451 -0.20478020160934601 0 0.1956775580667883 -0.19315745649050381 0 0.20143056513873611 -0.17998665641699849 0 0.21026993533039931 -0.19452922539566581 0 0.1956775580667883 -0.19315745649050381 0 0.18945430304214239 -0.18113699365130109 0 0.1956775580667883 -0.19315745649050381 0 0.18226621063645451 -0.19656373903451449 0 0.18226621063645451 -0.19656373903451449 0 0.1715432114556068 -0.21122996104898861 0 0.16984428664340401 -0.18996852359395999 0 0.18772081891462031 -0.22518952661427791 0 0.18226621063645451 -0.19656373903451449 0 0.1715432114556068 -0.21122996104898861 0 0.18772081891462031 -0.22518952661427791 0 0.18226621063645451 -0.19656373903451449 0 0.1715432114556068 -0.21122996104898861 0 0.1573322870795833 -0.20789039819694149 0 0.1623168744573055 -0.22287573648660611 0 0.1573322870795833 -0.20789039819694149 0 0.1623168744573055 -0.22287573648660611 0 0.1522967848894444 -0.22083493224417339 0 0.1715432114556068 -0.21122996104898861 0 0.1573322870795833 -0.20789039819694149 0 0.16984428664340401 -0.18996852359395999 0 0.1573322870795833 -0.20789039819694149 0 0.16984428664340401 -0.18996852359395999 0 0.15597410852767299 -0.19239463322910441 0 0.1715432114556068 -0.21122996104898861 0 0.16984428664340401 -0.18996852359395999 0 0.16984428664340401 -0.18996852359395999 0 0.15597410852767299 -0.19239463322910441 0 0.1614518955362341 -0.18261220584938501 0 0.17531814171820079 -0.25847186551630352 0 0.18140855909891221 -0.24875385404173869 0 0.17324213626780979 -0.23249139850401729 0 0.17531814171820079 -0.25847186551630352 0 0.17324213626780979 -0.23249139850401729 0 0.18140855909891221 -0.24875385404173869 0 0.182482909248532 -0.24101033857802051 0 0.17324213626780979 -0.23249139850401729 0 0.18957958600208469 -0.24548130840959781 0 0.18140855909891221 -0.24875385404173869 0 0.182482909248532 -0.24101033857802051 0 0.18957958600208469 -0.24548130840959781 0 0.182482909248532 -0.24101033857802051 0 0.1871717184338115 -0.23640941086597769 0 0.182482909248532 -0.24101033857802051 0 0.1871717184338115 -0.23640941086597769 0 0.17324213626780979 -0.23249139850401729 0 0.18772081891462031 -0.22518952661427791 0 0.19612053567392879 -0.2267779885035914 0 0.17324213626780979 -0.23249139850401729 0 0.19612053567392879 -0.2267779885035914 0 0.1871717184338115 -0.23640941086597769 0 0.17324213626780979 -0.23249139850401729 0 0.1715432114556068 -0.21122996104898861 0 0.17324213626780979 -0.23249139850401729 0 0.19612053567392879 -0.2267779885035914 0 0.17324213626780979 -0.23249139850401729 0 0.18772081891462031 -0.22518952661427791 0 0.1715432114556068 -0.21122996104898861 0 0.17324213626780979 -0.23249139850401729 0 0.1715432114556068 -0.21122996104898861 0 0.17324213626780979 -0.23249139850401729 0 0.1623168744573055 -0.22287573648660611 0 0.1623168744573055 -0.22287573648660611 0 0.15535209141549861 -0.22942801887575409 0 0.1522967848894444 -0.22083493224417339 0 0.1623168744573055 -0.22287573648660611 0 0.16254320702155209 -0.2351632361734422 0 0.15535209141549861 -0.22942801887575409 0 0.17324213626780979 -0.23249139850401729 0 0.16254320702155209 -0.2351632361734422 0 0.17324213626780979 -0.23249139850401729 0 0.1623168744573055 -0.22287573648660611 0 0.16254320702155209 -0.2351632361734422 0 0.16416434830993021 -0.25348076251168611 0 0.17531814171820079 -0.25847186551630352 0 0.17324213626780979 -0.23249139850401729 0 0.16416434830993021 -0.25348076251168611 0 0.17324213626780979 -0.23249139850401729 0 0.16097870724125449 -0.24292032119762011 0 0.17324213626780979 -0.23249139850401729 0 0.16254320702155209 -0.2351632361734422 0 0.16097870724125449 -0.24292032119762011 0 0.16254320702155209 -0.2351632361734422 0 0.16097870724125449 -0.24292032119762011 0 0.15390853800913809 -0.24274468653761391 0 0.16416434830993021 -0.25348076251168611 0 0.16097870724125449 -0.24292032119762011 0 0.15746623258843939 -0.24717962177743169 0 0.16097870724125449 -0.24292032119762011 0 0.15746623258843939 -0.24717962177743169 0 0.15390853800913809 -0.24274468653761391 0 0.1338120645475761 -0.25178135897747889 0 0.14143480209138451 -0.24391931440815429 0 0.15081333679343489 -0.24957271686280691 0 0.14143480209138451 -0.24391931440815429 0 0.14954523601732381 -0.23656141158161401 0 0.13965007243053049 -0.2272862619181428 0 0.14143480209138451 -0.24391931440815429 0 0.15081333679343489 -0.24957271686280691 0 0.14892547822782029 -0.24319953234754729 0 0.15746623258843939 -0.24717962177743169 0 0.15081333679343489 -0.24957271686280691 0 0.15390853800913809 -0.24274468653761391 0 0.15081333679343489 -0.24957271686280691 0 0.15390853800913809 -0.24274468653761391 0 0.14892547822782029 -0.24319953234754729 0 0.16254320702155209 -0.2351632361734422 0 0.15390853800913809 -0.24274468653761391 0 0.14954523601732381 -0.23656141158161401 0 0.15390853800913809 -0.24274468653761391 0 0.14892547822782029 -0.24319953234754729 0 0.14954523601732381 -0.23656141158161401 0 0.14143480209138451 -0.24391931440815429 0 0.14892547822782029 -0.24319953234754729 0 0.14954523601732381 -0.23656141158161401 0 0.14954523601732381 -0.23656141158161401 0 0.15535209141549861 -0.22942801887575409 0 0.13965007243053049 -0.2272862619181428 0 0.15535209141549861 -0.22942801887575409 0 0.1522967848894444 -0.22083493224417339 0 0.13965007243053049 -0.2272862619181428 0 0.16254320702155209 -0.2351632361734422 0 0.14954523601732381 -0.23656141158161401 0 0.15535209141549861 -0.22942801887575409 0 0.1522967848894444 -0.22083493224417339 0 0.13965007243053049 -0.2272862619181428 0 0.14214428324753289 -0.2154529738929884 0 0.11925867152865099 -0.22395178641925401 0 0.13965007243053049 -0.2272862619181428 0 0.12727927076528461 -0.2378210325384271 0 0.11925867152865099 -0.22395178641925401 0 0.13965007243053049 -0.2272862619181428 0 0.1296813367821156 -0.2112782106774091 0 0.14143480209138451 -0.24391931440815429 0 0.13965007243053049 -0.2272862619181428 0 0.12727927076528461 -0.2378210325384271 0 0.1338120645475761 -0.25178135897747889 0 0.1155402395781918 -0.2507583320391269 0 0.12727927076528461 -0.2378210325384271 0 0.1338120645475761 -0.25178135897747889 0 0.14143480209138451 -0.24391931440815429 0 0.12727927076528461 -0.2378210325384271 0 0.1472064603361167 -0.20247602688276969 0 0.14541013119376039 -0.19094925991957609 0 0.13560729147637779 -0.19666813964102769 0 0.1472064603361167 -0.20247602688276969 0 0.14541013119376039 -0.19094925991957609 0 0.15597410852767299 -0.19239463322910441 0 0.14541013119376039 -0.19094925991957609 0 0.15597410852767299 -0.19239463322910441 0 0.15149562072024261 -0.18002206604153331 0 0.1573322870795833 -0.20789039819694149 0 0.1472064603361167 -0.20247602688276969 0 0.15597410852767299 -0.19239463322910441 0 0.1573322870795833 -0.20789039819694149 0 0.1472064603361167 -0.20247602688276969 0 0.14214428324753289 -0.2154529738929884 0 0.1573322870795833 -0.20789039819694149 0 0.1522967848894444 -0.22083493224417339 0 0.14214428324753289 -0.2154529738929884 0 0.1472064603361167 -0.20247602688276969 0 0.14214428324753289 -0.2154529738929884 0 0.1296813367821156 -0.2112782106774091 0 0.1472064603361167 -0.20247602688276969 0 0.1296813367821156 -0.2112782106774091 0 0.13560729147637779 -0.19666813964102769 0 0.13965007243053049 -0.2272862619181428 0 0.14214428324753289 -0.2154529738929884 0 0.1296813367821156 -0.2112782106774091 0 0.1232396379011078 -0.1927549034493776 0 0.1296813367821156 -0.2112782106774091 0 0.13560729147637779 -0.19666813964102769 0 0.14541013119376039 -0.19094925991957609 0 0.13560729147637779 -0.19666813964102769 0 0.1367671749083921 -0.18318543380344571 0 0.1232396379011078 -0.1927549034493776 0 0.13560729147637779 -0.19666813964102769 0 0.1367671749083921 -0.18318543380344571 0 0.1232396379011078 -0.1927549034493776 0 0.1240882674421261 -0.17221834261327171 0 0.1367671749083921 -0.18318543380344571 0 0.1240882674421261 -0.17221834261327171 0 0.1367671749083921 -0.18318543380344571 0 0.13968624526684381 -0.1663096509244866 0 0.14541013119376039 -0.19094925991957609 0 0.1367671749083921 -0.18318543380344571 0 0.15149562072024261 -0.18002206604153331 0 0.1367671749083921 -0.18318543380344571 0 0.15149562072024261 -0.18002206604153331 0 0.13968624526684381 -0.1663096509244866 0 0.15149562072024261 -0.18002206604153331 0 0.15438358984087761 -0.16681526513507461 0 0.15901421514929279 -0.17490695601163531 0 0.13968624526684381 -0.1663096509244866 0 0.137218974646206 -0.14902146964549531 0 0.15110583492258711 -0.15411329859263981 0 0.15438358984087761 -0.16681526513507461 0 0.15110583492258711 -0.15411329859263981 0 0.16298457853711951 -0.16119870976526179 0 0.15149562072024261 -0.18002206604153331 0 0.15438358984087761 -0.16681526513507461 0 0.13968624526684381 -0.1663096509244866 0 0.15438358984087761 -0.16681526513507461 0 0.13968624526684381 -0.1663096509244866 0 0.15110583492258711 -0.15411329859263981 0 0.1238726331408222 -0.15597973401630799 0 0.13968624526684381 -0.1663096509244866 0 0.137218974646206 -0.14902146964549531 0 0.1238726331408222 -0.15597973401630799 0 0.1240882674421261 -0.17221834261327171 0 0.13968624526684381 -0.1663096509244866 0 0.1238726331408222 -0.15597973401630799 0 0.12550759679471971 -0.14428239988351421 0 0.137218974646206 -0.14902146964549531 0 0.12550759679471971 -0.14428239988351421 0 0.137218974646206 -0.14902146964549531 0 0.13351042007077771 -0.13535464583232679 0 0.13570225296767791 -0.1136627830916173 0 0.13351042007077771 -0.13535464583232679 0 0.14820743810063461 -0.13253739615236759 0 0.137218974646206 -0.14902146964549531 0 0.13351042007077771 -0.13535464583232679 0 0.14820743810063461 -0.13253739615236759 0 0.1195920268695274 -0.13435801890873961 0 0.125059882544757 -0.1243050716586782 0 0.13351042007077771 -0.13535464583232679 0 0.1195920268695274 -0.13435801890873961 0 0.12550759679471971 -0.14428239988351421 0 0.13351042007077771 -0.13535464583232679 0 0.14820743810063461 -0.13253739615236759 0 0.15110583492258711 -0.15411329859263981 0 0.1632605781546366 -0.14974645590444771 0 0.137218974646206 -0.14902146964549531 0 0.14820743810063461 -0.13253739615236759 0 0.15110583492258711 -0.15411329859263981 0 0.1632605781546366 -0.14974645590444771 0 0.17135699408012309 -0.1393121638749876 0 0.1768116023582888 -0.16793795145475099 0 0.15110583492258711 -0.15411329859263981 0 0.1632605781546366 -0.14974645590444771 0 0.16298457853711951 -0.16119870976526179 0 0.14820743810063461 -0.13253739615236759 0 0.1632605781546366 -0.14974645590444771 0 0.17135699408012309 -0.1393121638749876 0 0.1659023858019596 -0.11068637629522381 0 0.14820743810063461 -0.13253739615236759 0 0.17135699408012309 -0.1393121638749876 0 0.1659023858019596 -0.11068637629522381 0 0.17135699408012309 -0.1393121638749876 0 0.18392927920566929 -0.12697896821793581 0 0.17135699408012309 -0.1393121638749876 0 0.1858442134446858 -0.1403981851473228 0 0.18392927920566929 -0.12697896821793581 0 0.17135699408012309 -0.1393121638749876 0 0.1768116023582888 -0.16793795145475099 0 0.17135699408012309 -0.1393121638749876 0 0.18613440788357311 -0.15203004835571851 0 0.1768116023582888 -0.16793795145475099 0 0.17135699408012309 -0.1393121638749876 0 0.1858442134446858 -0.1403981851473228 0 0.18613440788357311 -0.15203004835571851 0 0.19108557901044451 -0.16803916485973749 0 0.18613440788357311 -0.15203004835571851 0 0.1768116023582888 -0.16793795145475099 0 0.18226621063645451 -0.19656373903451449 0 0.16984428664340401 -0.18996852359395999 0 0.1768116023582888 -0.16793795145475099 0 0.18945430304214239 -0.18113699365130109 0 0.19108557901044451 -0.16803916485973749 0 0.1768116023582888 -0.16793795145475099 0 0.18226621063645451 -0.19656373903451449 0 0.1768116023582888 -0.16793795145475099 0 0.18945430304214239 -0.18113699365130109 0 0.18226621063645451 -0.19656373903451449 0 0.1768116023582888 -0.16793795145475099 0 0.16984428664340401 -0.18996852359395999 0 0.1681453618312011 -0.16870708613893129 0 0.16984428664340401 -0.18996852359395999 0 0.1768116023582888 -0.16793795145475099 0 0.1681453618312011 -0.16870708613893129 0 0.16984428664340401 -0.18996852359395999 0 0.1614518955362341 -0.18261220584938501 0 0.1681453618312011 -0.16870708613893129 0 0.15597410852767299 -0.19239463322910441 0 0.15149562072024261 -0.18002206604153331 0 0.1614518955362341 -0.18261220584938501 0 0.1614518955362341 -0.18261220584938501 0 0.15901421514929279 -0.17490695601163531 0 0.1681453618312011 -0.16870708613893129 0 0.15149562072024261 -0.18002206604153331 0 0.1614518955362341 -0.18261220584938501 0 0.15901421514929279 -0.17490695601163531 0 0.15438358984087761 -0.16681526513507461 0 0.16298457853711951 -0.16119870976526179 0 0.1681453618312011 -0.16870708613893129 0 0.15438358984087761 -0.16681526513507461 0 0.15901421514929279 -0.17490695601163531 0 0.1681453618312011 -0.16870708613893129 0 0.1632605781546366 -0.14974645590444771 0 0.1768116023582888 -0.16793795145475099 0 0.16298457853711951 -0.16119870976526179 0 0.1768116023582888 -0.16793795145475099 0 0.16298457853711951 -0.16119870976526179 0 0.1681453618312011 -0.16870708613893129 0 
</DataArray>
</Points>
<Cells>
<DataArray type="UInt32" Name="connectivity" format="ascii">
0 1 2 3 4 5 6 7 8 9 10 11 12 13 14 15 16 17 18 19 20 21 22 23 24 25 26 27 28 29 30 31 32 33 34 35 36 37 38 39 40 41 42 43 44 45 46 47 48 49 50 51 52 53 54 55 56 57 58 59 60 61 62 63 64 65 66 67 68 69 70 71 72 73 74 75 76 77 78 79 80 81 82 83 84 85 86 87 88 89 90 91 92 93 94 95 96 97 98 99 100 101 102 103 104 105 106 107 108 109 110 111 112 113 114 115 116 117 118 119 120 121 122 123 124 125 126 127 128 129 130 131 132 133 134 135 136 137 138 139 140 141 142 143 144 145 146 147 148 149 150 151 152 153 154 155 156 157 158 159 160 161 162 163 164 165 166 167 168 169 170 171 172 173 174 175 176 177 178 179 180 181 182 183 184 185 186 187 188 189 190 191 192 193 194 195 196 197 198 199 200 201 202 203 204 205 206 207 208 209 210 211 212 213 214 215 216 217 218 219 220 221 222 223 224 225 226 227 228 229 230 231 232 233 234 235 236 237 238 239 240 241 242 243 244 245 246 247 248 249 250 251 252 253 254 255 256 257 258 259 260 261 262 263 264 265 266 267 268 269 270 271 272 273 274 275 276 277 278 279 280 281 282 283 284 285 286 287 288 289 290 291 292 293 294 295 296 297 298 299 300 301 302 303 304 305 306 307 308 309 310 311 312 313 314 315 316 317 318 319 320 321 322 323 324 325 326 327 328 329 330 331 332 333 334 335 336 337 338 339 340 341 342 343 344 345 346 347 348 349 350 351 352 353 354 355 356 357 358 359 360 361 362 363 364 365 366 367 368 369 370 371 372 373 374 375 376 377 378 379 380 381 382 383 384 385 386 387 388 389 390 391 392 393 394 395 396 397 398 399 400 401 402 403 404 405 406 407 408 409 410 411 412 413 414 415 416 417 418 419 420 421 422 423 424 425 426 427 428 429 430 431 432 433 434 435 436 437 438 439 440 441 442 443 444 445 446 447 448 449 450 451 452 453 454 455 456 457 458 459 460 461 462 463 464 465 466 467 468 469 470 471 472 473 474 475 476 477 478 479 480 481 482 483 484 485 486 487 488 489 490 491 492 493 494 495 496 497 498 499 500 501 502 503 504 505 506 507 508 509 510 511 512 513 514 515 516 517 518 519 520 521 522 523 524 525 526 527 528 529 530 531 532 533 534 535 536 537 538 539 540 541 542 543 544 545 546 547 548 549 550 551 552 553 554 555 556 557 558 559 560 561 562 563 564 565 566 567 568 569 570 571 572 573 574 575 576 577 578 579 580 581 582 583 584 585 586 587 588 589 590 591 592 593 594 595 596 597 598 599 600 601 602 603 604 605 606 607 608 609 610 611 612 613 614 615 616 617 618 619 620 621 622 623 624 625 626 627 628 629 630 631 632 633 634 635 636 637 638 639 640 641 642 643 644 645 646 647 648 649 650 651 652 653 654 655 656 657 658 659 660 661 662 663 664 665 666 667 668 669 670 671 672 673 674 675 676 677 678 679 680 681 682 683 684 685 686 687 688 689 690 691 692 693 694 695 696 697 698 699 700 701 702 703 704 705 706 707 708 709 710 711 712 713 714 715 716 717 718 719 720 721 722 723 724 725 726 727 728 729 730 731 732 733 734 735 736 737 738 739 740 741 742 743 744 745 746 747 748 749 750 751 752 753 754 755 756 757 758 759 760 761 762 763 764 765 766 767 768 769 770 771 772 773 774 775 776 777 778 779 780 781 782 783 784 785 786 787 788 789 790 791 792 793 794 795 796 797 798 799 800 801 802 803 804 805 806 807 808 809 810 811 812 813 814 815 816 817 818 819 820 821 822 823 824 825 826 827 828 829 830 831 832 833 834 835 836 837 838 839 840 841 842 843 844 845 846 847 848 849 850 851 852 853 854 855 856 857 858 859 860 861 862 863 864 865 866 867 868 869 870 871 872 873 874 875 876 877 878 879 880 881 882 883 884 885 886 887 888 889 890 891 892 893 894 895 896 897 898 899 900 901 902 903 904 905 906 907 908 909 910 911 912 913 914 915 916 917 918 919 920 921 922 923 924 925 926 927 928 929 930 931 932 933 934 935 936 937 938 939 940 941 942 943 944 945 946 947 948 949 950 951 952 953 954 955 956 957 958 959 960 961 962 963 964 965 966 967 968 969 970 971 972 973 974 975 976 977 978 979 980 981 982 983 984 985 986 987 988 989 990 991 992 993 994 995 996 997 998 999 1000 1001 1002 1003 1004 1005 1006 1007 1008 1009 1010 1011 1012 1013 1014 1015 1016 1017 1018 1019 1020 1021 1022 1023 1024 1025 1026 1027 1028 1029 1030 1031 1032 1033 1034 1035 1036 1037 1038 1039 1040 1041 1042 1043 1044 1045 1046 1047 1048 1049 1050 1051 1052 1053 1054 1055 1056 1057 1058 1059 1060 1061 1062 1063 1064 1065 1066 1067 1068 1069 1070 1071 1072 1073 1074 1075 1076 1077 1078 1079 1080 1081 1082 1083 1084 1085 1086 1087 1088 1089 1090 1091 1092 1093 1094 1095 1096 1097 1098 1099 1100 1101 1102 1103 1104 1105 1106 1107 1108 1109 1110 1111 1112 1113 1114 1115 1116 1117 1118 1119 1120 1121 1122 1123 1124 1125 1126 1127 1128 1129 1130 1131 1132 1133 1134 1135 1136 1137 1138 1139 1140 1141 1142 1143 1144 1145 1146 1147 1148 1149 1150 1151 1152 1153 1154 1155 1156 1157 1158 1159 1160 1161 1162 1163 1164 1165 1166 1167 1168 1169 1170 1171 1172 1173 1174 1175 1176 1177 1178 1179 1180 1181 1182 1183 1184 1185 1186 1187 1188 1189 1190 1191 1192 1193 1194 1195 1196 1197 1198 1199 1200 1201 1202 1203 1204 1205 1206 1207 1208 1209 1210 1211 1212 1213 1214 1215 1216 1217 1218 1219 1220 1221 1222 1223 1224 1225 1226 1227 1228 1229 1230 1231 1232 1233 1234 1235 1236 1237 1238 1239 1240 1241 1242 1243 1244 1245 1246 1247 1248 1249 1250 1251 1252 1253 1254 1255 1256 1257 1258 1259 1260 1261 1262 1263 1264 1265 1266 1267 1268 1269 1270 1271 1272 1273 1274 1275 1276 1277 1278 1279 1280 1281 1282 1283 1284 1285 1286 1287 1288 1289 1290 1291 1292 1293 1294 1295 1296 1297 1298 1299 1300 1301 1302 1303 1304 1305 1306 1307 1308 1309 1310 1311 1312 1313 1314 1315 1316 1317 1318 1319 1320 1321 1322 1323 1324 1325 1326 1327 1328 1329 1330 1331 1332 1333 1334 1335 1336 1337 1338 1339 1340 1341 1342 1343 1344 1345 1346 1347 1348 1349 1350 1351 1352 1353 1354 1355 1356 1357 1358 1359 1360 1361 1362 1363 1364 1365 1366 1367 1368 1369 1370 1371 1372 1373 1374 1375 1376 1377 1378 1379 1380 1381 1382 1383 1384 1385 1386 1387 1388 1389 1390 1391 1392 1393 1394 1395 1396 1397 1398 1399 1400 1401 1402 1403 1404 1405 1406 1407 1408 1409 1410 1411 1412 1413 1414 1415 1416 1417 1418 1419 1420 1421 1422 1423 1424 1425 1426 1427 1428 1429 1430 1431 1432 1433 1434 1435 1436 1437 1438 1439 1440 1441 1442 1443 1444 1445 1446 1447 1448 1449 1450 1451 1452 1453 1454 1455 1456 1457 1458 1459 1460 1461 1462 1463 1464 1465 1466 1467 1468 1469 1470 1471 1472 1473 1474 1475 1476 1477 1478 1479 1480 1481 1482 1483 1484 1485 1486 1487 1488 1489 1490 1491 1492 1493 1494 1495 1496 1497 1498 1499 1500 1501 1502 1503 1504 1505 1506 1507 1508 1509 1510 1511 1512 1513 1514 1515 1516 1517 1518 1519 1520 1521 1522 1523 1524 1525 1526 1527 1528 1529 1530 1531 1532 1533 1534 1535 1536 1537 1538 1539 1540 1541 1542 1543 1544 1545 1546 1547 1548 1549 1550 1551 1552 1553 1554 1555 1556 1557 1558 1559 1560 1561 1562 1563 1564 1565 1566 1567 1568 1569 1570 1571 1572 1573 1574 1575 1576 1577 1578 1579 1580 1581 1582 1583 1584 1585 1586 1587 1588 1589 1590 1591 1592 1593 1594 1595 1596 1597 1598 1599 1600 1601 1602 1603 1604 1605 1606 1607 1608 1609 1610 1611 1612 1613 1614 1615 1616 1617 1618 1619 1620 1621 1622 1623 1624 1625 1626 1627 1628 1629 1630 1631 1632 1633 1634 1635 1636 1637 1638 1639 1640 1641 1642 1643 1644 1645 1646 1647 1648 1649 1650 1651 1652 1653 1654 1655 1656 1657 1658 1659 1660 1661 1662 1663 1664 1665 1666 1667 1668 1669 1670 1671 1672 1673 1674 1675 1676 1677 1678 1679 1680 1681 1682 1683 1684 1685 1686 1687 1688 1689 1690 1691 1692 1693 1694 1695 1696 1697 1698 1699 1700 1701 1702 1703 1704 1705 1706 1707 1708 1709 1710 1711 1712 1713 1714 1715 1716 1717 1718 1719 1720 1721 1722 1723 1724 1725 1726 1727 1728 1729 1730 1731 1732 1733 1734 1735 1736 1737 1738 1739 1740 1741 1742 1743 1744 1745 1746 1747 1748 1749 1750 1751 1752 1753 1754 1755 1756 1757 1758 1759 1760 1761 1762 1763 1764 1765 1766 1767 1768 1769 1770 1771 1772 1773 1774 1775 1776 1777 1778 1779 1780 1781 1782 1783 1784 1785 1786 1787 1788 1789 1790 1791 1792 1793 1794 1795 1796 1797 1798 1799 1800 1801 1802 1803 1804 1805 1806 1807 1808 1809 1810 1811 1812 1813 1814 1815 1816 1817 1818 1819 1820 1821 1822 1823 1824 1825 1826 1827 1828 1829 1830 1831 1832 1833 1834 1835 1836 1837 1838 1839 1840 1841 1842 1843 1844 1845 1846 1847 1848 1849 1850 1851 1852 1853 1854 1855 1856 1857 1858 1859 1860 1861 1862 1863 1864 1865 1866 1867 1868 1869 1870 1871 1872 1873 1874 1875 1876 1877 1878 1879 1880 1881 1882 1883 1884 1885 1886 1887 1888 1889 1890 1891 1892 1893 1894 1895 1896 1897 1898 1899 1900 1901 1902 1903 1904 1905 1906 1907 1908 1909 1910 1911 1912 1913 1914 1915 1916 1917 1918 1919 1920 1921 1922 1923 1924 1925 1926 1927 1928 1929 1930 1931 1932 1933 1934 1935 1936 1937 1938 1939 1940 1941 1942 1943 1944 1945 1946 1947 1948 1949 1950 1951 1952 1953 1954 1955 1956 1957 1958 1959 1960 1961 1962 1963 1964 1965 1966 1967 1968 1969 1970 1971 1972 1973 1974 1975 1976 1977 1978 1979 1980 1981 1982 1983 1984 1985 1986 1987 1988 1989 1990 1991 1992 1993 1994 1995 1996 1997 1998 1999 2000 2001 2002 2003 2004 2005 2006 2007 2008 2009 2010 2011 2012 2013 2014 2015 2016 2017 2018 2019 2020 2021 2022 2023 2024 2025 2026 2027 2028 2029 2030 2031 2032 2033 2034 2035 2036 2037 2038 2039 2040 2041 2042 2043 2044 2045 2046 2047 2048 2049 2050 2051 2052 2053 2054 2055 2056 2057 2058 2059 2060 2061 2062 2063 2064 2065 2066 2067 2068 2069 2070 2071 2072 2073 2074 2075 2076 2077 2078 2079 2080 2081 2082 2083 2084 2085 2086 2087 2088 2089 2090 2091 2092 2093 2094 2095 2096 2097 2098 2099 2100 2101 2102 2103 2104 2105 2106 2107 2108 2109 2110 2111 2112 2113 2114 2115 2116 2117 2118 2119 2120 2121 2122 2123 2124 2125 2126 2127 2128 2129 2130 2131 2132 2133 2134 2135 2136 2137 2138 2139 2140 2141 2142 2143 2144 2145 2146 2147 2148 2149 2150 2151 2152 2153 2154 2155 2156 2157 2158 2159 2160 2161 2162 2163 2164 2165 2166 2167 2168 2169 2170 2171 2172 2173 2174 2175 2176 2177 2178 2179 2180 2181 2182 2183 2184 2185 2186 2187 2188 2189 2190 2191 2192 2193 2194 2195 2196 2197 2198 2199 2200 2201 2202 2203 2204 2205 2206 2207 2208 2209 2210 2211 2212 2213 2214 2215 2216 2217 2218 2219 2220 2221 2222 2223 2224 2225 2226 2227 2228 2229 2230 2231 2232 2233 2234 2235 2236 2237 2238 2239 2240 2241 2242 2243 2244 2245 2246 2247 2248 2249 2250 2251 2252 2253 2254 2255 2256 2257 2258 2259 2260 2261 2262 2263 2264 2265 2266 2267 2268 2269 2270 2271 2272 2273 2274 2275 2276 2277 2278 2279 2280 2281 2282 2283 2284 2285 2286 2287 2288 2289 2290 2291 2292 2293 2294 2295 2296 2297 2298 2299 2300 2301 2302 2303 2304 2305 2306 2307 2308 2309 2310 2311 2312 2313 2314 2315 2316 2317 2318 2319 2320 2321 2322 2323 2324 2325 2326 2327 2328 2329 2330 2331 2332 2333 2334 2335 2336 2337 2338 2339 2340 2341 2342 2343 2344 2345 2346 2347 2348 2349 2350 2351 2352 2353 2354 2355 2356 2357 2358 2359 2360 2361 2362 2363 2364 2365 2366 2367 2368 2369 2370 2371 2372 2373 2374 2375 2376 2377 2378 2379 2380 2381 2382 2383 2384 2385 2386 2387 2388 2389 2390 2391 2392 2393 2394 2395 2396 2397 2398 2399 2400 2401 2402 2403 2404 2405 2406 2407 2408 2409 2410 2411 2412 2413 2414 2415 2416 2417 2418 2419 2420 2421 2422 2423 2424 2425 2426 2427 2428 2429 2430 2431 2432 2433 2434 2435 2436 2437 2438 2439 2440 2441 2442 2443 2444 2445 2446 2447 2448 2449 2450 2451 2452 2453 2454 2455 2456 2457 2458 2459 2460 2461 2462 2463 2464 2465 2466 2467 2468 2469 2470 2471 2472 2473 2474 2475 2476 2477 2478 2479 2480 2481 2482 2483 2484 2485 2486 2487 2488 2489 2490 2491 2492 2493 2494 2495 2496 2497 2498 2499 2500 2501 2502 2503 2504 2505 2506 2507 2508 2509 2510 2511 2512 2513 2514 2515 2516 2517 2518 2519 2520 2521 2522 2523 2524 2525 2526 2527 2528 2529 2530 2531 2532 2533 2534 2535 2536 2537 2538 2539 2540 2541 2542 2543 2544 2545 2546 2547 2548 2549 2550 2551 2552 2553 2554 2555 2556 2557 2558 2559 2560 2561 2562 2563 2564 2565 2566 2567 2568 2569 2570 2571 2572 2573 2574 2575 2576 2577 2578 2579 2580 2581 2582 2583 2584 2585 2586 2587 2588 2589 2590 2591 2592 2593 2594 2595 2596 2597 2598 2599 2600 2601 2602 2603 2604 2605 2606 2607 2608 2609 2610 2611 2612 2613 2614 2615 2616 2617 2618 2619 2620 2621 2622 2623 2624 2625 2626 2627 2628 2629 2630 2631 2632 2633 2634 2635 2636 2637 2638 2639 2640 2641 2642 2643 2644 2645 2646 2647 2648 2649 2650 2651 2652 2653 2654 2655 2656 2657 2658 2659 2660 2661 2662 2663 2664 2665 2666 2667 2668 2669 2670 2671 2672 2673 2674 2675 2676 2677 2678 2679 2680 2681 2682 2683 2684 2685 2686 2687 2688 2689 2690 2691 2692 2693 2694 2695 2696 2697 2698 2699 2700 2701 2702 2703 2704 2705 2706 2707 2708 2709 2710 2711 2712 2713 2714 2715 2716 2717 2718 2719 2720 2721 2722 2723 2724 2725 2726 2727 2728 2729 2730 2731 2732 2733 2734 2735 2736 2737 2738 2739 2740 2741 2742 2743 2744 2745 2746 2747 2748 2749 2750 2751 2752 2753 2754 2755 2756 2757 2758 2759 2760 2761 2762 2763 2764 2765 2766 2767 2768 2769 2770 2771 2772 2773 2774 2775 2776 2777 2778 2779 2780 2781 2782 2783 2784 2785 2786 2787 2788 2789 2790 2791 2792 2793 2794 2795 2796 2797 2798 2799 2800 2801 2802 2803 2804 2805 2806 2807 2808 2809 2810 2811 2812 2813 2814 2815 2816 2817 2818 2819 2820 2821 2822 2823 2824 2825 2826 2827 2828 2829 2830 2831 2832 2833 2834 2835 2836 2837 2838 2839 2840 2841 2842 2843 2844 2845 2846 2847 2848 2849 2850 2851 2852 2853 2854 2855 2856 2857 2858 2859 2860 2861 2862 2863 2864 2865 2866 2867 2868 2869 2870 2871 2872 2873 2874 2875 2876 2877 2878 2879 2880 2881 2882 2883 2884 2885 2886 2887 2888 2889 2890 2891 2892 2893 2894 2895 2896 2897 2898 2899 2900 2901 2902 2903 2904 2905 2906 2907 2908 2909 2910 2911 2912 2913 2914 2915 2916 2917 2918 2919 2920 2921 2922 2923 2924 2925 2926 2927 2928 2929 2930 2931 2932 2933 2934 2935 2936 2937 2938 2939 2940 2941 2942 2943 2944 2945 2946 2947 2948 2949 2950 2951 2952 2953 2954 2955 2956 2957 2958 2959 2960 2961 2962 2963 2964 2965 2966 2967 2968 2969 2970 2971 2972 2973 2974 2975 2976 2977 2978 2979 2980 2981 2982 2983 2984 2985 2986 2987 2988 2989 2990 2991 2992 2993 2994 2995 2996 2997 2998 2999 3000 3001 3002 3003 3004 3005 3006 3007 3008 3009 3010 3011 3012 3013 3014 3015 3016 3017 3018 3019 3020 3021 3022 3023 3024 3025 3026 3027 3028 3029 3030 3031 3032 3033 3034 3035 3036 3037 3038 3039 3040 3041 3042 3043 3044 3045 3046 3047 3048 3049 3050 3051 3052 3053 3054 3055 3056 3057 3058 3059 3060 3061 3062 3063 3064 3065 3066 3067 3068 3069 3070 3071 3072 3073 3074 3075 3076 3077 3078 3079 3080 3081 3082 3083 3084 3085 3086 3087 3088 3089 3090 3091 3092 3093 3094 3095 3096 3097 3098 3099 3100 3101 3102 3103 3104 3105 3106 3107 3108 3109 3110 3111 3112 3113 3114 3115 3116 3117 3118 3119 3120 3121 3122 3123 3124 3125 3126 3127 3128 3129 3130 3131 3132 3133 3134 3135 3136 3137 3138 3139 3140 3141 3142 3143 3144 3145 3146 3147 3148 3149 3150 3151 3152 3153 3154 3155 3156 3157 3158 3159 3160 3161 3162 3163 3164 3165 3166 3167 3168 3169 3170 3171 3172 3173 3174 3175 3176 3177 3178 3179 3180 3181 3182 3183 3184 3185 3186 3187 3188 3189 3190 3191 3192 3193 3194 3195 3196 3197 3198 3199 3200 3201 3202 3203 3204 3205 3206 3207 3208 3209 3210 3211 3212 3213 3214 3215 3216 3217 3218 3219 3220 3221 3222 3223 3224 3225 3226 3227 3228 3229 3230 3231 3232 3233 3234 3235 3236 3237 3238 3239 3240 3241 3242 3243 3244 3245 3246 3247 3248 3249 3250 3251 3252 3253 3254 3255 3256 3257 3258 3259 3260 3261 3262 3263 3264 3265 3266 3267 3268 3269 3270 3271 3272 3273 3274 3275 3276 3277 3278 3279 3280 3281 3282 3283 3284 3285 3286 3287 3288 3289 3290 3291 3292 3293 3294 3295 3296 3297 3298 3299 3300 3301 3302 3303 3304 3305 3306 3307 3308 3309 3310 3311 3312 3313 3314 3315 3316 3317 3318 3319 3320 3321 3322 3323 3324 3325 3326 3327 3328 3329 3330 3331 3332 3333 3334 3335 3336 3337 3338 3339 3340 3341 3342 3343 3344 3345 3346 3347 3348 3349 3350 3351 3352 3353 3354 3355 3356 3357 3358 3359 3360 3361 3362 3363 3364 3365 3366 3367 3368 3369 3370 3371 3372 3373 3374 3375 3376 3377 3378 3379 3380 3381 3382 3383 3384 3385 3386 3387 3388 3389 3390 3391 3392 3393 3394 3395 3396 3397 3398 3399 3400 3401 3402 3403 3404 3405 3406 3407 3408 3409 3410 3411 3412 3413 3414 3415 3416 3417 3418 3419 3420 3421 3422 3423 3424 3425 3426 3427 3428 3429 3430 3431 3432 3433 3434 3435 3436 3437 3438 3439 3440 3441 3442 3443 3444 3445 3446 3447 3448 3449 3450 3451 3452 3453 3454 3455 3456 3457 3458 3459 3460 3461 3462 3463 3464 3465 3466 3467 3468 3469 3470 3471 3472 3473 3474 3475 3476 3477 3478 3479 3480 3481 3482 3483 3484 3485 3486 3487 3488 3489 3490 3491 3492 3493 3494 3495 3496 3497 3498 3499 3500 3501 3502 3503 3504 3505 3506 3507 3508 3509 3510 3511 3512 3513 3514 3515 3516 3517 3518 3519 3520 3521 3522 3523 3524 3525 3526 3527 3528 3529 3530 3531 3532 3533 3534 3535 3536 3537 3538 3539 3540 3541 3542 3543 3544 3545 3546 3547 3548 3549 3550 3551 3552 3553 3554 3555 3556 3557 3558 3559 3560 3561 3562 3563 3564 3565 3566 3567 3568 3569 3570 3571 3572 3573 3574 3575 3576 3577 3578 3579 3580 3581 3582 3583 3584 3585 3586 3587 3588 3589 3590 3591 3592 3593 3594 3595 3596 3597 3598 3599 3600 3601 3602 3603 3604 3605 3606 3607 3608 3609 3610 3611 3612 3613 3614 3615 3616 3617 3618 3619 3620 3621 3622 3623 3624 3625 3626 3627 3628 3629 3630 3631 3632 3633 3634 3635 3636 3637 3638 3639 3640 3641 3642 3643 3644 3645 3646 3647 3648 3649 3650 3651 3652 3653 3654 3655 3656 3657 3658 3659 3660 3661 3662 3663 3664 3665 3666 3667 3668 3669 3670 3671 3672 3673 3674 3675 3676 3677 3678 3679 3680 3681 3682 3683 3684 3685 3686 3687 3688 3689 3690 3691 3692 3693 3694 3695 3696 3697 3698 3699 3700 3701 3702 3703 3704 3705 3706 3707 3708 3709 3710 3711 3712 3713 3714 3715 3716 3717 3718 3719 3720 3721 3722 3723 3724 3725 3726 3727 3728 3729 3730 3731 3732 3733 3734 3735 3736 3737 3738 3739 3740 3741 3742 3743 3744 3745 3746 3747 3748 3749 3750 3751 3752 3753 3754 3755 3756 3757 3758 3759 3760 3761 3762 3763 3764 3765 3766 3767 3768 3769 3770 3771 3772 3773 3774 3775 3776 3777 3778 3779 3780 3781 3782 3783 3784 3785 3786 3787 3788 3789 3790 3791 3792 3793 3794 3795 3796 3797 3798 3799 3800 3801 3802 3803 3804 3805 3806 3807 3808 3809 3810 3811 3812 3813 3814 3815 3816 3817 3818 3819 3820 3821 3822 3823 3824 3825 3826 3827 3828 3829 3830 3831 3832 3833 3834 3835 3836 3837 3838 3839 3840 3841 3842 3843 3844 3845 3846 3847 3848 3849 3850 3851 3852 3853 3854 3855 3856 3857 3858 3859 3860 3861 3862 3863 3864 3865 3866 3867 3868 3869 3870 3871 3872 3873 3874 3875 3876 3877 3878 3879 3880 3881 3882 3883 3884 3885 3886 3887 3888 3889 3890 3891 3892 3893 3894 3895 3896 3897 3898 3899 3900 3901 3902 3903 3904 3905 3906 3907 3908 3909 3910 3911 3912 3913 3914 3915 3916 3917 3918 3919 3920 3921 3922 3923 3924 3925 3926 3927 3928 3929 3930 3931 3932 3933 3934 3935 3936 3937 3938 3939 3940 3941 3942 3943 3944 3945 3946 3947 3948 3949 3950 3951 3952 3953 3954 3955 3956 3957 3958 3959 3960 3961 3962 3963 3964 3965 3966 3967 3968 3969 3970 3971 3972 3973 3974 3975 3976 3977 3978 3979 3980 3981 3982 3983 3984 3985 3986 3987 3988 3989 3990 3991 3992 3993 3994 3995 3996 3997 3998 3999 4000 4001 4002 4003 4004 4005 4006 4007 4008 4009 4010 4011 4012 4013 4014 4015 4016 4017 4018 4019 4020 4021 4022 4023 4024 4025 4026 4027 4028 4029 4030 4031 4032 4033 4034 4035 4036 4037 4038 4039 4040 4041 4042 4043 4044 4045 4046 4047 4048 4049 4050 4051 4052 4053 4054 4055 4056 4057 4058 4059 4060 4061 4062 4063 4064 4065 4066 4067 4068 4069 4070 4071 4072 4073 4074 4075 4076 4077 4078 4079 4080 4081 4082 4083 4084 4085 4086 4087 4088 4089 4090 4091 4092 4093 4094 4095 4096 4097 4098 4099 4100 4101 4102 4103 4104 4105 4106 4107 4108 4109 4110 4111 4112 4113 4114 4115 4116 4117 4118 4119 4120 4121 4122 4123 4124 4125 4126 4127 4128 4129 4130 4131 4132 4133 4134 4135 4136 4137 4138 4139 4140 4141 4142 4143 4144 4145 4146 4147 4148 4149 4150 4151 4152 4153 4154 4155 4156 4157 4158 4159 4160 4161 4162 4163 4164 4165 4166 4167 4168 4169 4170 4171 4172 4173 4174 4175 4176 4177 4178 4179 4180 4181 4182 4183 4184 4185 4186 4187 4188 4189 4190 4191 4192 4193 4194 4195 4196 4197 4198 4199 4200 4201 4202 4203 4204 4205 4206 4207 4208 4209 4210 4211 4212 4213 4214 4215 4216 4217 4218 4219 4220 4221 4222 4223 4224 4225 4226 4227 4228 4229 4230 4231 4232 4233 4234 4235 4236 4237 4238 4239 4240 4241 4242 4243 4244 4245 4246 4247 4248 4249 4250 4251 4252 4253 4254 4255 4256 4257 4258 4259 4260 4261 4262 4263 4264 4265 4266 4267 4268 4269 4270 4271 4272 4273 4274 4275 4276 4277 4278 4279 4280 4281 4282 4283 4284 4285 4286 4287 4288 4289 4290 4291 4292 4293 4294 4295 4296 4297 4298 4299 4300 4301 4302 4303 4304 4305 4306 4307 4308 4309 4310 4311 4312 4313 4314 4315 4316 4317 4318 4319 4320 4321 4322 4323 4324 4325 4326 4327 4328 4329 4330 4331 4332 4333 4334 4335 4336 4337 4338 4339 4340 4341 4342 4343 4344 4345 4346 4347 4348 4349 4350 4351 4352 4353 4354 4355 4356 4357 4358 4359 4360 4361 4362 4363 4364 4365 4366 4367 4368 4369 4370 4371 4372 4373 4374 4375 4376 4377 4378 4379 4380 4381 4382 4383 4384 4385 4386 4387 4388 4389 4390 4391 4392 4393 4394 4395 4396 4397 4398 4399 4400 4401 4402 4403 4404 4405 4406 4407 4408 4409 4410 4411 4412 4413 4414 4415 4416 4417 4418 4419 4420 4421 4422 4423 4424 4425 4426 4427 4428 4429 4430 4431 4432 4433 4434 4435 4436 4437 4438 4439 4440 4441 4442 4443 4444 4445 4446 4447 4448 4449 4450 4451 4452 4453 4454 4455 4456 4457 4458 4459 4460 4461 4462 4463 4464 4465 4466 4467 4468 4469 4470 4471 4472 4473 4474 4475 4476 4477 4478 4479 4480 4481 4482 4483 4484 4485 4486 4487 4488 4489 4490 4491 4492 4493 4494 4495 4496 4497 4498 4499 4500 4501 4502 4503 4504 4505 4506 4507 4508 4509 4510 4511 4512 4513 4514 4515 4516 4517 4518 4519 4520 4521 4522 4523 4524 4525 4526 4527 4528 4529 4530 4531 4532 4533 4534 4535 4536 4537 4538 4539 4540 4541 4542 4543 4544 4545 4546 4547 4548 4549 4550 4551 4552 4553 4554 4555 4556 4557 4558 4559 4560 4561 4562 4563 4564 4565 4566 4567 4568 4569 4570 4571 4572 4573 4574 4575 4576 4577 4578 4579 4580 4581 4582 4583 4584 4585 4586 4587 4588 4589 4590 4591 4592 4593 4594 4595 4596 4597 4598 4599 4600 4601 4602 4603 4604 4605 4606 4607 4608 4609 4610 4611 4612 4613 4614 4615 4616 4617 4618 4619 4620 4621 4622 4623 4624 4625 4626 4627 4628 4629 4630 4631 4632 4633 4634 4635 4636 4637 4638 4639 4640 4641 4642 4643 4644 4645 4646 4647 4648 4649 4650 4651 4652 4653 4654 4655 4656 4657 4658 4659 4660 4661 4662 4663 4664 4665 4666 4667 4668 4669 4670 4671 4672 4673 4674 4675 4676 4677 4678 4679 4680 4681 4682 4683 4684 4685 4686 4687 4688 4689 4690 4691 4692 4693 4694 4695 4696 4697 4698 4699 4700 4701 4702 4703 4704 4705 4706 4707 4708 4709 4710 4711 4712 4713 4714 4715 4716 4717 4718 4719 4720 4721 4722 4723 4724 4725 4726 4727 4728 4729 4730 4731 4732 4733 4734 4735 4736 4737 4738 4739 4740 4741 4742 4743 4744 4745 4746 4747 4748 4749 4750 4751 4752 4753 4754 4755 4756 4757 4758 4759 4760 4761 4762 4763 4764 4765 4766 4767 4768 4769 4770 4771 4772 4773 4774 4775 4776 4777 4778 4779 4780 4781 4782 4783 4784 4785 4786 4787 4788 4789 4790 4791 4792 4793 4794 4795 4796 4797 4798 4799 4800 4801 4802 4803 4804 4805 4806 4807 4808 4809 4810 4811 4812 4813 4814 4815 4816 4817 4818 4819 4820 4821 4822 4823 4824 4825 4826 4827 4828 4829 4830 4831 4832 4833 4834 4835 4836 4837 4838 4839 4840 4841 4842 4843 4844 4845 4846 4847 4848 4849 4850 4851 4852 4853 4854 4855 4856 4857 4858 4859 4860 4861 4862 4863 4864 4865 4866 4867 4868 4869 4870 4871 4872 4873 4874 4875 4876 4877 4878 4879 4880 4881 4882 4883 4884 4885 4886 4887 4888 4889 4890 4891 4892 4893 4894 4895 4896 4897 4898 4899 4900 4901 4902 4903 4904 4905 4906 4907 4908 4909 4910 4911 4912 4913 4914 4915 4916 4917 4918 4919 4920 4921 4922 4923 4924 4925 4926 4927 4928 4929 4930 4931 4932 4933 4934 4935 4936 4937 4938 4939 4940 4941 4942 4943 4944 4945 4946 4947 4948 4949 4950 4951 4952 4953 4954 4955 4956 4957 4958 4959 4960 4961 4962 4963 4964 4965 4966 4967 4968 4969 4970 4971 4972 4973 4974 4975 4976 4977 4978 4979 4980 4981 4982 4983 4984 4985 4986 4987 4988 4989 4990 4991 4992 4993 4994 4995 4996 4997 4998 4999 5000 5001 5002 5003 5004 5005 5006 5007 5008 5009 5010 5011 5012 5013 5014 5015 5016 5017 5018 5019 5020 5021 5022 5023 5024 5025 5026 5027 5028 5029 5030 5031 5032 5033 5034 5035 5036 5037 5038 5039 5040 5041 5042 5043 5044 5045 5046 5047 5048 5049 5050 5051 5052 5053 5054 5055 5056 5057 5058 5059 5060 5061 5062 5063 5064 5065 5066 5067 5068 5069 5070 5071 5072 5073 5074 5075 5076 5077 5078 5079 5080 5081 5082 5083 5084 5085 5086 5087 5088 5089 5090 5091 5092 5093 5094 5095 5096 5097 5098 5099 5100 5101 5102 5103 5104 5105 5106 5107 5108 5109 5110 5111 5112 5113 5114 5115 5116 5117 5118 5119 5120 5121 5122 5123 5124 5125 5126 5127 5128 5129 5130 5131 5132 5133 5134 5135 5136 5137 5138 5139 5140 5141 5142 5143 5144 5145 5146 5147 5148 5149 5150 5151 5152 5153 5154 5155 5156 5157 5158 5159 5160 5161 5162 5163 5164 5165 5166 5167 5168 5169 5170 5171 5172 5173 5174 5175 5176 5177 5178 5179 5180 5181 5182 5183 5184 5185 5186 5187 5188 5189 5190 5191 5192 5193 5194 5195 5196 5197 5198 5199 5200 5201 5202 5203 5204 5205 5206 5207 5208 5209 5210 5211 5212 5213 5214 5215 5216 5217 5218 5219 5220 5221 5222 5223 5224 5225 5226 5227 5228 5229 5230 5231 5232 5233 5234 5235 5236 5237 5238 5239 5240 5241 5242 5243 5244 5245 5246 5247 5248 5249 5250 5251 5252 5253 5254 5255 5256 5257 5258 5259 5260 5261 5262 5263 5264 5265 5266 5267 5268 5269 5270 5271 5272 5273 5274 5275 5276 5277 5278 5279 5280 5281 5282 5283 5284 5285 5286 5287 5288 5289 5290 5291 5292 5293 5294 5295 5296 5297 5298 5299 5300 5301 5302 5303 5304 5305 5306 5307 5308 5309 5310 5311 5312 5313 5314 5315 5316 5317 5318 5319 5320 5321 5322 5323 5324 5325 5326 5327 5328 5329 5330 5331 5332 5333 5334 5335 5336 5337 5338 5339 5340 5341 5342 5343 5344 5345 5346 5347 5348 5349 5350 5351 5352 5353 5354 5355 5356 5357 5358 5359 5360 5361 5362 5363 5364 5365 5366 5367 5368 5369 5370 5371 5372 5373 5374 5375 5376 5377 5378 5379 5380 5381 5382 5383 5384 5385 5386 5387 5388 5389 5390 5391 5392 5393 5394 5395 5396 5397 5398 5399 5400 5401 5402 5403 5404 5405 5406 5407 5408 5409 5410 5411 5412 5413 5414 5415 5416 5417 5418 5419 5420 5421 5422 5423 5424 5425 5426 5427 5428 5429 5430 5431 5432 5433 5434 5435 5436 5437 5438 5439 5440 5441 5442 5443 5444 5445 5446 5447 5448 5449 5450 5451 5452 5453 5454 5455 5456 5457 5458 5459 5460 5461 5462 5463 5464 5465 5466 5467 5468 5469 5470 5471 5472 5473 5474 5475 5476 5477 5478 5479 5480 5481 5482 5483 5484 5485 5486 5487 5488 5489 5490 5491 5492 5493 5494 5495 5496 5497 5498 5499 5500 5501 5502 5503 5504 5505 5506 5507 5508 5509 5510 5511 5512 5513 5514 5515 5516 5517 5518 5519 5520 5521 5522 5523 5524 5525 5526 5527 5528 5529 5530 5531 5532 5533 5534 5535 5536 5537 5538 5539 5540 5541 5542 5543 5544 5545 5546 5547 5548 5549 5550 5551 5552 5553 5554 5555 5556 5557 5558 5559 5560 5561 5562 5563 5564 5565 5566 5567 5568 5569 5570 5571 5572 5573 5574 5575 5576 5577 5578 5579 5580 5581 5582 5583 5584 5585 5586 5587 5588 5589 5590 5591 5592 5593 5594 5595 5596 5597 5598 5599 5600 5601 5602 5603 5604 5605 5606 5607 5608 5609 5610 5611 5612 5613 5614 5615 5616 5617 5618 5619 5620 5621 5622 5623 5624 5625 5626 5627 5628 5629 5630 5631 5632 5633 5634 5635 5636 5637 5638 5639 5640 5641 5642 5643 5644 5645 5646 5647 5648 5649 5650 5651 5652 5653 5654 5655 5656 5657 5658 5659 5660 5661 5662 5663 5664 5665 5666 5667 5668 5669 5670 5671 5672 5673 5674 5675 5676 5677 5678 5679 5680 5681 5682 5683 5684 5685 5686 5687 5688 5689 5690 5691 5692 5693 5694 5695 5696 5697 5698 5699 5700 5701 5702 5703 5704 5705 5706 5707 5708 5709 5710 5711 5712 5713 5714 5715 5716 5717 5718 5719 5720 5721 5722 5723 5724 5725 5726 5727 5728 5729 5730 5731 5732 5733 5734 5735 5736 5737 5738 5739 5740 5741 5742 5743 5744 5745 5746 5747 5748 5749 5750 5751 5752 5753 5754 5755 5756 5757 5758 5759 5760 5761 5762 5763 5764 5765 5766 5767 5768 5769 5770 5771 5772 5773 5774 5775 5776 5777 5778 5779 5780 5781 5782 5783 5784 5785 5786 5787 5788 5789 5790 5791 5792 5793 5794 5795 5796 5797 5798 5799 5800 5801 5802 5803 5804 5805 5806 5807 5808 5809 5810 5811 5812 5813 5814 5815 5816 5817 5818 5819 5820 5821 5822 5823 5824 5825 5826 5827 5828 5829 5830 5831 5832 5833 5834 5835 5836 5837 5838 5839 5840 5841 5842 5843 5844 5845 5846 5847 5848 5849 5850 5851 5852 5853 5854 5855 5856 5857 5858 5859 5860 5861 5862 5863 5864 5865 5866 5867 5868 5869 5870 5871 5872 5873 5874 5875 5876 5877 5878 5879 5880 5881 5882 5883 5884 5885 5886 5887 5888 5889 5890 5891 5892 5893 5894 5895 5896 5897 5898 5899 5900 5901 5902 5903 5904 5905 5906 5907 5908 5909 5910 5911 5912 5913 5914 5915 5916 5917 5918 5919 5920 5921 5922 5923 5924 5925 5926 5927 5928 5929 5930 5931 5932 5933 5934 5935 5936 5937 5938 5939 5940 5941 5942 5943 5944 5945 5946 5947 5948 5949 5950 5951 5952 5953 5954 5955 5956 5957 5958 5959 5960 5961 5962 5963 5964 5965 5966 5967 5968 5969 5970 5971 5972 5973 5974 5975 5976 5977 5978 5979 5980 5981 5982 5983 5984 5985 5986 5987 5988 5989 5990 5991 5992 5993 5994 5995 5996 5997 5998 5999 6000 6001 6002 6003 6004 6005 6006 6007 6008 6009 6010 6011 6012 6013 6014 6015 6016 6017 6018 6019 6020 6021 6022 6023 6024 6025 6026 6027 6028 6029 6030 6031 6032 6033 6034 6035 6036 6037 6038 6039 6040 6041 6042 6043 6044 6045 6046 6047 6048 6049 6050 6051 6052 6053 6054 6055 6056 6057 6058 6059 6060 6061 6062 6063 6064 6065 6066 6067 6068 6069 6070 6071 6072 6073 6074 6075 6076 6077 6078 6079 6080 6081 6082 6083 6084 6085 6086 6087 6088 6089 6090 6091 6092 6093 6094 6095 6096 6097 6098 6099 6100 6101 6102 6103 6104 6105 6106 6107 6108 6109 6110 6111 6112 6113 6114 6115 6116 6117 6118 6119 6120 6121 6122 6123 6124 6125 6126 6127 6128 6129 6130 6131 6132 6133 6134 6135 6136 6137 6138 6139 6140 6141 6142 6143 6144 6145 6146 6147 6148 6149 6150 6151 6152 6153 6154 6155 6156 6157 6158 6159 6160 6161 6162 6163 6164 6165 6166 6167 6168 6169 6170 6171 6172 6173 6174 6175 6176 6177 6178 6179 6180 6181 6182 6183 6184 6185 6186 6187 6188 6189 6190 6191 6192 6193 6194 6195 6196 6197 6198 6199 6200 6201 6202 6203 6204 6205 6206 6207 6208 6209 6210 6211 6212 6213 6214 6215 6216 6217 6218 6219 6220 6221 6222 6223 6224 6225 6226 6227 6228 6229 6230 6231 6232 6233 6234 6235 6236 6237 6238 6239 6240 6241 6242 6243 6244 6245 6246 6247 6248 6249 6250 6251 6252 6253 6254 6255 6256 6257 6258 6259 6260 6261 6262 6263 6264 6265 6266 6267 6268 6269 6270 6271 6272 6273 6274 6275 6276 6277 6278 6279 6280 6281 6282 6283 6284 6285 6286 6287 6288 6289 6290 6291 6292 6293 6294 6295 6296 6297 6298 6299 6300 6301 6302 6303 6304 6305 6306 6307 6308 6309 6310 6311 6312 6313 6314 6315 6316 6317 6318 6319 6320 6321 6322 6323 6324 6325 6326 6327 6328 6329 6330 6331 6332 6333 6334 6335 6336 6337 6338 6339 6340 6341 6342 6343 6344 6345 6346 6347 6348 6349 6350 6351 6352 6353 6354 6355 6356 6357 6358 6359 6360 6361 6362 6363 6364 6365 6366 6367 6368 6369 6370 6371 6372 6373 6374 6375 6376 6377 6378 6379 6380 6381 6382 6383 6384 6385 6386 6387 6388 6389 6390 6391 6392 6393 6394 6395 6396 6397 6398 6399 6400 6401 6402 6403 6404 6405 6406 6407 6408 6409 6410 6411 6412 6413 6414 6415 6416 6417 6418 6419 6420 6421 6422 6423 6424 6425 6426 6427 6428 6429 6430 6431 6432 6433 6434 6435 6436 6437 6438 6439 6440 6441 6442 6443 6444 6445 6446 6447 6448 6449 6450 6451 6452 6453 6454 6455 6456 6457 6458 6459 6460 6461 6462 6463 6464 6465 6466 6467 6468 6469 6470 6471 6472 6473 6474 6475 6476 6477 6478 6479 6480 6481 6482 6483 6484 6485 6486 6487 6488 6489 6490 6491 6492 6493 6494 6495 6496 6497 6498 6499 6500 6501 6502 6503 6504 6505 6506 6507 6508 6509 6510 6511 6512 6513 6514 6515 6516 6517 6518 6519 6520 6521 6522 6523 6524 6525 6526 6527 6528 6529 6530 6531 6532 6533 6534 6535 6536 6537 6538 6539 6540 6541 6542 6543 6544 6545 6546 6547 6548 6549 6550 6551 6552 6553 6554 6555 6556 6557 6558 6559 6560 6561 6562 6563 6564 6565 6566 6567 6568 6569 6570 6571 6572 6573 6574 6575 6576 6577 6578 6579 6580 6581 6582 6583 6584 6585 6586 6587 6588 6589 6590 6591 6592 6593 6594 6595 6596 6597 6598 6599 6600 6601 6602 6603 6604 6605 6606 6607 6608 6609 6610 6611 6612 6613 6614 6615 6616 6617 6618 6619 6620 6621 6622 6623 6624 6625 6626 6627 6628 6629 6630 6631 6632 6633 6634 6635 6636 6637 6638 6639 6640 6641 6642 6643 6644 6645 6646 6647 6648 6649 6650 6651 6652 6653 6654 6655 6656 6657 6658 6659 6660 6661 6662 6663 6664 6665 6666 6667 6668 6669 6670 6671 6672 6673 6674 6675 6676 6677 6678 6679 6680 6681 6682 6683 6684 6685 6686 6687 6688 6689 6690 6691 6692 6693 6694 6695 6696 6697 6698 6699 6700 6701 6702 6703 6704 6705 6706 6707 6708 6709 6710 6711 6712 6713 6714 6715 6716 6717 6718 6719 6720 6721 6722 6723 6724 6725 6726 6727 6728 6729 6730 6731 6732 6733 6734 6735 6736 6737 6738 6739 6740 6741 6742 6743 6744 6745 6746 6747 6748 6749 6750 6751 6752 6753 6754 6755 6756 6757 6758 6759 6760 6761 6762 6763 6764 6765 6766 6767 6768 6769 6770 6771 6772 6773 6774 6775 6776 6777 6778 6779 6780 6781 6782 6783 6784 6785 6786 6787 6788 6789 6790 6791 6792 6793 6794 6795 6796 6797 6798 6799 6800 6801 6802 6803 6804 6805 6806 6807 6808 6809 6810 6811 6812 6813 6814 6815 6816 6817 6818 6819 6820 6821 6822 6823 6824 6825 6826 6827 6828 6829 6830 6831 6832 6833 6834 6835 6836 6837 6838 6839 6840 6841 6842 6843 6844 6845 6846 6847 6848 6849 6850 6851 6852 6853 6854 6855 6856 6857 6858 6859 6860 6861 6862 6863 6864 6865 6866 6867 6868 6869 6870 6871 6872 6873 6874 6875 6876 6877 6878 6879 6880 6881 6882 6883 6884 6885 6886 6887 6888 6889 6890 6891 6892 6893 6894 6895 6896 6897 6898 6899 6900 6901 6902 6903 6904 6905 6906 6907 6908 6909 6910 6911 6912 6913 6914 6915 6916 6917 6918 6919 6920 6921 6922 6923 6924 6925 6926 6927 6928 6929 6930 6931 6932 6933 6934 6935 6936 6937 6938 6939 6940 6941 6942 6943 6944 6945 6946 6947 6948 6949 6950 6951 6952 6953 6954 6955 6956 6957 6958 6959 6960 6961 6962 6963 6964 6965 6966 6967 6968 6969 6970 6971 6972 6973 6974 6975 6976 6977 6978 6979 6980 6981 6982 6983 6984 6985 6986 6987 6988 6989 6990 6991 6992 6993 6994 6995 6996 6997 6998 6999 7000 7001 7002 7003 7004 7005 7006 7007 7008 7009 7010 7011 7012 7013 7014 7015 7016 7017 7018 7019 7020 7021 7022 7023 7024 7025 7026 7027 7028 7029 7030 7031 7032 7033 7034 7035 7036 7037 7038 7039 7040 7041 7042 7043 7044 7045 7046 7047 7048 7049 7050 7051 7052 7053 7054 7055 7056 7057 7058 7059 7060 7061 7062 7063 7064 7065 7066 7067 7068 7069 7070 7071 7072 7073 7074 7075 7076 7077 7078 7079 7080 7081 7082 7083 7084 7085 7086 7087 7088 7089 7090 7091 7092 7093 7094 7095 7096 7097 7098 7099 7100 7101 7102 7103 7104 7105 7106 7107 7108 7109 7110 7111 7112 7113 7114 7115 7116 7117 7118 7119 7120 7121 7122 7123 7124 7125 7126 7127 7128 7129 7130 7131 7132 7133 7134 7135 7136 7137 7138 7139 7140 7141 7142 7143 7144 7145 7146 7147 7148 7149 7150 7151 7152 7153 7154 7155 7156 7157 7158 7159 7160 7161 7162 7163 7164 7165 7166 7167 7168 7169 7170 7171 7172 7173 7174 7175 7176 7177 7178 7179 7180 7181 7182 7183 7184 7185 7186 7187 7188 7189 7190 7191 7192 7193 7194 7195 7196 7197 7198 7199 7200 7201 7202 7203 7204 7205 7206 7207 7208 7209 7210 7211 7212 7213 7214 7215 7216 7217 7218 7219 7220 7221 7222 7223 7224 7225 7226 7227 7228 7229 7230 7231 7232 7233 7234 7235 7236 7237 7238 7239 7240 7241 7242 7243 7244 7245 7246 7247 7248 7249 7250 7251 7252 7253 7254 7255 7256 7257 7258 7259 7260 7261 7262 7263 7264 7265 7266 7267 7268 7269 7270 7271 7272 7273 7274 7275 7276 7277 7278 7279 7280 7281 7282 7283 7284 7285 7286 7287 7288 7289 7290 7291 7292 7293 7294 7295 7296 7297 7298 7299 7300 7301 7302 7303 7304 7305 7306 7307 7308 7309 7310 7311 7312 7313 7314 7315 7316 7317 7318 7319 7320 7321 7322 7323 7324 7325 7326 7327 7328 7329 7330 7331 7332 7333 7334 7335 7336 7337 7338 7339 7340 7341 7342 7343 7344 7345 7346 7347 7348 7349 7350 7351 7352 7353 7354 7355 7356 7357 7358 7359 7360 7361 7362 7363 7364 7365 7366 7367 7368 7369 7370 7371 7372 7373 7374 7375 7376 7377 7378 7379 7380 7381 7382 7383 7384 7385 7386 7387 7388 7389 7390 7391 7392 7393 7394 7395 7396 7397 7398 7399 7400 7401 7402 7403 7404 7405 7406 7407 7408 7409 7410 7411 7412 7413 7414 7415 7416 7417 7418 7419 7420 7421 7422 7423 7424 7425 7426 7427 7428 7429 7430 7431 7432 7433 7434 7435 7436 7437 7438 7439 7440 7441 7442 7443 7444 7445 7446 7447 7448 7449 7450 7451 7452 7453 7454 7455 7456 7457 7458 7459 7460 7461 7462 7463 7464 7465 7466 7467 7468 7469 7470 7471 7472 7473 7474 7475 7476 7477 7478 7479 7480 7481 7482 7483 7484 7485 7486 7487 7488 7489 7490 7491 7492 7493 7494 7495 7496 7497 7498 7499 7500 7501 7502 7503 7504 7505 7506 7507 7508 7509 7510 7511 7512 7513 7514 7515 7516 7517 7518 7519 7520 7521 7522 7523 7524 7525 7526 7527 7528 7529 7530 7531 7532 7533 7534 7535 7536 7537 7538 7539 7540 7541 7542 7543 7544 7545 7546 7547 7548 7549 7550 7551 7552 7553 7554 7555 7556 7557 7558 7559 7560 7561 7562 7563 7564 7565 7566 7567 7568 7569 7570 7571 7572 7573 7574 7575 7576 7577 7578 7579 7580 7581 7582 7583 7584 7585 7586 7587 7588 7589 7590 7591 7592 7593 7594 7595 7596 7597 7598 7599 7600 7601 7602 7603 7604 7605 7606 7607 7608 7609 7610 7611 7612 7613 7614 7615 7616 7617 7618 7619 7620 7621 7622 7623 7624 7625 7626 7627 7628 7629 7630 7631 7632 7633 7634 7635 7636 7637 7638 7639 7640 7641 7642 7643 7644 7645 7646 7647 7648 7649 7650 7651 7652 7653 7654 7655 7656 7657 7658 7659 7660 7661 7662 7663 7664 7665 7666 7667 7668 7669 7670 7671 7672 7673 7674 7675 7676 7677 7678 7679 7680 7681 7682 7683 7684 7685 7686 7687 7688 7689 7690 7691 7692 7693 7694 7695 7696 7697 7698 7699 7700 7701 7702 7703 7704 7705 7706 7707 7708 7709 7710 7711 7712 7713 7714 7715 7716 7717 7718 7719 7720 7721 7722 7723 7724 7725 7726 7727 7728 7729 7730 7731 7732 7733 7734 7735 7736 7737 7738 7739 7740 7741 7742 7743 7744 7745 7746 7747 7748 7749 7750 7751 7752 7753 7754 7755 7756 7757 7758 7759 7760 7761 7762 7763 7764 7765 7766 7767 7768 7769 7770 7771 7772 7773 7774 7775 7776 7777 7778 7779 7780 7781 7782 7783 7784 7785 7786 7787 7788 7789 7790 7791 7792 7793 7794 7795 7796 7797 7798 7799 7800 7801 7802 7803 7804 7805 7806 7807 7808 7809 7810 7811 7812 7813 7814 7815 7816 7817 7818 7819 7820 7821 7822 7823 7824 7825 7826 7827 7828 7829 7830 7831 7832 7833 7834 7835 7836 7837 7838 7839 7840 7841 7842 7843 7844 7845 7846 7847 7848 7849 7850 7851 7852 7853 7854 7855 7856 7857 7858 7859 7860 7861 7862 7863 7864 7865 7866 7867 7868 7869 7870 7871 7872 7873 7874 7875 7876 7877 7878 7879 7880 7881 7882 7883 7884 7885 7886 7887 7888 7889 7890 7891 7892 7893 7894 7895 7896 7897 7898 7899 7900 7901 7902 7903 7904 7905 7906 7907 7908 7909 7910 7911 7912 7913 7914 7915 7916 7917 7918 7919 7920 7921 7922 7923 7924 7925 7926 7927 7928 7929 7930 7931 7932 7933 7934 7935 7936 7937 7938 7939 7940 7941 7942 7943 7944 7945 7946 7947 7948 7949 7950 7951 7952 7953 7954 7955 7956 7957 7958 7959 7960 7961 7962 7963 7964 7965 7966 7967 7968 7969 7970 7971 7972 7973 7974 7975 7976 7977 7978 7979 7980 7981 7982 7983 7984 7985 7986 7987 7988 7989 7990 7991 7992 7993 7994 7995 7996 7997 7998 7999 8000 8001 8002 8003 8004 8005 8006 8007 8008 8009 8010 8011 8012 8013 8014 8015 8016 8017 8018 8019 8020 8021 8022 8023 8024 8025 8026 8027 8028 8029 8030 8031 8032 8033 8034 8035 8036 8037 8038 8039 8040 8041 8042 8043 8044 8045 8046 8047 8048 8049 8050 8051 8052 8053 8054 8055 8056 8057 8058 8059 8060 8061 8062 8063 8064 8065 8066 8067 8068 8069 8070 8071 8072 8073 8074 8075 8076 8077 8078 8079 8080 8081 8082 8083 8084 8085 8086 8087 8088 8089 8090 8091 8092 8093 8094 8095 8096 8097 8098 8099 8100 8101 8102 8103 8104 8105 8106 8107 8108 8109 8110 8111 8112 8113 8114 8115 8116 8117 8118 8119 8120 8121 8122 8123 8124 8125 8126 8127 8128 8129 8130 8131 8132 8133 8134 8135 8136 8137 8138 8139 8140 8141 8142 8143 8144 8145 8146 8147 8148 8149 8150 8151 8152 8153 8154 8155 8156 8157 8158 8159 8160 8161 8162 8163 8164 8165 8166 8167 8168 8169 8170 8171 8172 8173 8174 8175 8176 8177 8178 8179 8180 8181 8182 8183 8184 8185 8186 8187 8188 8189 8190 8191 8192 8193 8194 8195 8196 8197 8198 8199 8200 8201 8202 8203 8204 8205 8206 8207 8208 8209 8210 8211 8212 8213 8214 8215 8216 8217 8218 8219 8220 8221 8222 8223 8224 8225 8226 8227 8228 8229 8230 8231 8232 8233 8234 8235 8236 8237 8238 8239 8240 8241 8242 8243 8244 8245 8246 8247 8248 8249 8250 8251 8252 8253 8254 8255 8256 8257 8258 8259 8260 8261 8262 8263 8264 8265 8266 8267 8268 8269 8270 8271 8272 8273 8274 8275 8276 8277 8278 8279 8280 8281 8282 8283 8284 8285 8286 8287 8288 8289 8290 8291 8292 8293 8294 8295 8296 8297 8298 8299 8300 8301 8302 8303 8304 8305 8306 8307 8308 8309 8310 8311 8312 8313 8314 8315 8316 8317 8318 8319 8320 8321 8322 8323 8324 8325 8326 8327 8328 8329 8330 8331 8332 8333 8334 8335 8336 8337 8338 8339 8340 8341 8342 8343 8344 8345 8346 8347 8348 8349 8350 8351 8352 8353 8354 8355 8356 8357 8358 8359 8360 8361 8362 8363 8364 8365 8366 8367 8368 8369 8370 8371 8372 8373 8374 8375 8376 8377 8378 8379 8380 8381 8382 8383 8384 8385 8386 8387 8388 8389 8390 8391 8392 8393 8394 8395 8396 8397 8398 8399 8400 8401 8402 8403 8404 8405 8406 8407 8408 8409 8410 8411 8412 8413 8414 8415 8416 8417 8418 8419 8420 8421 8422 8423 8424 8425 8426 8427 8428 8429 8430 8431 8432 8433 8434 8435 8436 8437 8438 8439 8440 8441 8442 8443 8444 8445 8446 8447 8448 8449 8450 8451 8452 8453 8454 8455 8456 8457 8458 8459 8460 8461 8462 8463 8464 8465 8466 8467 8468 8469 8470 8471 8472 8473 8474 8475 8476 8477 8478 8479 8480 8481 8482 8483 8484 8485 8486 8487 8488 8489 8490 8491 8492 8493 8494 8495 8496 8497 8498 8499 8500 8501 8502 8503 8504 8505 8506 8507 8508 8509 8510 8511 8512 8513 8514 8515 8516 8517 8518 8519 8520 8521 8522 8523 8524 8525 8526 8527 8528 8529 8530 8531 8532 8533 8534 8535 8536 8537 8538 8539 8540 8541 8542 8543 8544 8545 8546 8547 8548 8549 8550 8551 8552 8553 8554 8555 8556 8557 8558 8559 8560 8561 8562 8563 8564 8565 8566 8567 8568 8569 8570 8571 8572 8573 8574 8575 8576 8577 8578 8579 8580 8581 8582 8583 8584 8585 8586 8587 8588 8589 8590 8591 8592 8593 8594 8595 8596 8597 8598 8599 8600 8601 8602 8603 8604 8605 8606 8607 8608 8609 8610 8611 8612 8613 8614 8615 8616 8617 8618 8619 8620 8621 8622 8623 8624 8625 8626 8627 8628 8629 8630 8631 8632 8633 8634 8635 8636 8637 8638 8639 8640 8641 8642 8643 8644 8645 8646 8647 8648 8649 8650 8651 8652 8653 8654 8655 8656 8657 8658 8659 8660 8661 8662 8663 8664 8665 8666 8667 8668 8669 8670 8671 8672 8673 8674 8675 8676 8677 8678 8679 8680 8681 8682 8683 8684 8685 8686 8687 8688 8689 8690 8691 8692 8693 8694 8695 8696 8697 8698 8699 8700 8701 8702 8703 8704 8705 8706 8707 8708 8709 8710 8711 8712 8713 8714 8715 8716 8717 8718 8719 8720 8721 8722 8723 8724 8725 8726 8727 8728 8729 8730 8731 8732 8733 8734 8735 8736 8737 8738 8739 8740 8741 8742 8743 8744 8745 8746 8747 8748 8749 8750 8751 8752 8753 8754 8755 8756 8757 8758 8759 8760 8761 8762 8763 8764 8765 8766 8767 8768 8769 8770 8771 8772 8773 8774 8775 8776 8777 8778 8779 8780 8781 8782 8783 8784 8785 8786 8787 8788 8789 8790 8791 8792 8793 8794 8795 8796 8797 8798 8799 8800 8801 8802 8803 8804 8805 8806 8807 8808 8809 8810 8811 8812 8813 8814 8815 8816 8817 8818 8819 8820 8821 8822 8823 8824 8825 8826 8827 8828 8829 8830 8831 8832 8833 8834 8835 8836 8837 8838 8839 8840 8841 8842 8843 8844 8845 8846 8847 8848 8849 8850 8851 8852 8853 8854 8855 8856 8857 8858 8859 8860 8861 8862 8863 8864 8865 8866 8867 8868 8869 8870 8871 8872 8873 8874 8875 8876 8877 8878 8879 8880 8881 8882 8883 8884 8885 8886 8887 8888 8889 8890 8891 8892 8893 8894 8895 8896 8897 8898 8899 8900 8901 8902 8903 8904 8905 8906 8907 8908 8909 8910 8911 8912 8913 8914 8915 8916 8917 8918 8919 8920 8921 8922 8923 8924 8925 8926 8927 8928 8929 8930 8931 8932 8933 8934 8935 8936 8937 8938 8939 8940 8941 8942 8943 8944 8945 8946 8947 8948 8949 8950 8951 8952 8953 8954 8955 8956 8957 8958 8959 8960 8961 8962 8963 8964 8965 8966 8967 8968 8969 8970 8971 8972 8973 8974 8975 8976 8977 8978 8979 8980 8981 8982 8983 8984 8985 8986 8987 8988 8989 8990 8991 8992 8993 8994 8995 8996 8997 8998 8999 9000 9001 9002 9003 9004 9005 9006 9007 9008 9009 9010 9011 9012 9013 9014 9015 9016 9017 9018 9019 9020 9021 9022 9023 9024 9025 9026 9027 9028 9029 9030 9031 9032 9033 9034 9035 9036 9037 9038 9039 9040 9041 9042 9043 9044 9045 9046 9047 9048 9049 9050 9051 9052 9053 9054 9055 9056 9057 9058 9059 9060 9061 9062 9063 9064 9065 9066 9067 9068 9069 9070 9071 9072 9073 9074 9075 9076 9077 9078 9079 9080 9081 9082 9083 9084 9085 9086 9087 9088 9089 9090 9091 9092 9093 9094 9095 9096 9097 9098 9099 9100 9101 9102 9103 9104 9105 9106 9107 9108 9109 9110 9111 9112 9113 9114 9115 9116 9117 9118 9119 9120 9121 9122 9123 9124 9125 9126 9127 9128 9129 9130 9131 9132 9133 9134 9135 9136 9137 9138 9139 9140 9141 9142 9143 9144 9145 9146 9147 9148 9149 9150 9151 9152 9153 9154 9155 9156 9157 9158 9159 9160 9161 9162 9163 9164 9165 9166 9167 9168 9169 9170 9171 9172 9173 9174 9175 9176 9177 9178 9179 9180 9181 9182 9183 9184 9185 9186 9187 9188 9189 9190 9191 9192 9193 9194 9195 9196 9197 9198 9199 9200 9201 9202 9203 9204 9205 9206 9207 9208 9209 9210 9211 9212 9213 9214 9215 9216 9217 9218 9219 9220 9221 9222 9223 9224 9225 9226 9227 9228 9229 9230 9231 9232 9233 9234 9235 9236 9237 9238 9239 9240 9241 9242 9243 9244 9245 9246 9247 9248 9249 9250 9251 9252 9253 9254 9255 9256 9257 9258 9259 9260 9261 9262 9263 9264 9265 9266 9267 9268 9269 9270 9271 9272 9273 9274 9275 9276 9277 9278 9279 9280 9281 9282 9283 9284 9285 9286 9287 9288 9289 9290 9291 9292 9293 9294 9295 9296 9297 9298 9299 9300 9301 9302 9303 9304 9305 9306 9307 9308 9309 9310 9311 9312 9313 9314 9315 9316 9317 9318 9319 9320 9321 9322 9323 9324 9325 9326 9327 9328 9329 9330 9331 9332 9333 9334 9335 9336 9337 9338 9339 9340 9341 9342 9343 9344 9345 9346 9347 9348 9349 9350 9351 9352 9353 9354 9355 9356 9357 9358 9359 9360 9361 9362 9363 9364 9365 9366 9367 9368 9369 9370 9371 9372 9373 9374 9375 9376 9377 9378 9379 9380 9381 9382 9383 9384 9385 9386 9387 9388 9389 9390 9391 9392 9393 9394 9395 9396 9397 9398 9399 9400 9401 9402 9403 9404 9405 9406 9407 9408 9409 9410 9411 9412 9413 9414 9415 9416 9417 9418 9419 9420 9421 9422 9423 9424 9425 9426 9427 9428 9429 9430 9431 9432 9433 9434 9435 9436 9437 9438 9439 9440 9441 9442 9443 9444 9445 9446 9447 9448 9449 9450 9451 9452 9453 9454 9455 9456 9457 9458 9459 9460 9461 9462 9463 9464 9465 9466 9467 9468 9469 9470 9471 9472 9473 9474 9475 9476 9477 9478 9479 9480 9481 9482 9483 9484 9485 9486 9487 9488 9489 9490 9491 9492 9493 9494 9495 9496 9497 9498 9499 9500 9501 9502 9503 9504 9505 9506 9507 9508 9509 9510 9511 9512 9513 9514 9515 9516 9517 9518 9519 9520 9521 9522 9523 9524 9525 9526 9527 9528 9529 9530 9531 9532 9533 9534 9535 9536 9537 9538 9539 9540 9541 9542 9543 9544 9545 9546 9547 9548 9549 9550 9551 9552 9553 9554 9555 9556 9557 9558 9559 9560 9561 9562 9563 9564 9565 9566 9567 9568 9569 9570 9571 9572 9573 9574 9575 9576 9577 9578 9579 9580 9581 9582 9583 9584 9585 9586 9587 9588 9589 9590 9591 9592 9593 9594 9595 9596 9597 9598 9599 9600 9601 9602 9603 9604 9605 9606 9607 9608 9609 9610 9611 9612 9613 9614 9615 9616 9617 9618 9619 9620 9621 9622 9623 9624 9625 9626 9627 9628 9629 9630 9631 9632 9633 9634 9635 9636 9637 9638 9639 9640 9641 9642 9643 9644 9645 9646 9647 9648 9649 9650 9651 9652 9653 9654 9655 9656 9657 9658 9659 9660 9661 9662 9663 9664 9665 9666 9667 9668 9669 9670 9671 9672 9673 9674 9675 9676 9677 9678 9679 9680 9681 9682 9683 9684 9685 9686 9687 9688 9689 9690 9691 9692 9693 9694 9695 9696 9697 9698 9699 9700 9701 9702 9703 9704 9705 9706 9707 9708 9709 9710 9711 9712 9713 9714 9715 9716 9717 9718 9719 9720 9721 9722 9723 9724 9725 9726 9727 9728 9729 9730 9731 9732 9733 9734 9735 9736 9737 9738 9739 9740 9741 9742 9743 9744 9745 9746 9747 9748 9749 9750 9751 9752 9753 9754 9755 9756 9757 9758 9759 9760 9761 9762 9763 9764 9765 9766 9767 9768 9769 9770 9771 9772 9773 9774 9775 9776 9777 9778 9779 9780 9781 9782 9783 9784 9785 9786 9787 9788 9789 9790 9791 9792 9793 9794 9795 9796 9797 9798 9799 9800 9801 9802 9803 9804 9805 9806 9807 9808 9809 9810 9811 9812 9813 9814 9815 9816 9817 9818 9819 9820 9821 9822 9823 9824 9825 9826 9827 9828 9829 9830 9831 9832 9833 9834 9835 9836 9837 9838 9839 9840 9841 9842 9843 9844 9845 9846 9847 9848 9849 9850 9851 9852 9853 9854 9855 9856 9857 9858 9859 9860 9861 9862 9863 9864 9865 9866 9867 9868 9869 9870 9871 9872 9873 9874 9875 9876 9877 9878 9879 9880 9881 9882 9883 9884 9885 9886 9887 9888 9889 9890 9891 9892 9893 9894 9895 9896 9897 9898 9899 9900 9901 9902 9903 9904 9905 9906 9907 9908 9909 9910 9911 9912 9913 9914 9915 9916 9917 9918 9919 9920 9921 9922 9923 9924 9925 9926 9927 9928 9929 9930 9931 9932 9933 9934 9935 9936 9937 9938 9939 9940 9941 9942 9943 9944 9945 9946 9947 9948 9949 9950 9951 9952 9953 9954 9955 9956 9957 9958 9959 9960 9961 9962 9963 9964 9965 9966 9967 9968 9969 9970 9971 9972 9973 9974 9975 9976 9977 9978 9979 9980 9981 9982 9983 9984 9985 9986 9987 9988 9989 9990 9991 9992 9993 9994 9995 9996 9997 9998 9999 10000 10001 10002 10003 10004 10005 10006 10007 10008 10009 10010 10011 10012 10013 10014 10015 10016 10017 10018 10019 10020 10021 10022 10023 10024 10025 10026 10027 10028 10029 10030 10031 10032 10033 10034 10035 10036 10037 10038 10039 10040 10041 10042 10043 10044 10045 10046 10047 10048 10049 10050 10051 10052 10053 10054 10055 10056 10057 10058 10059 10060 10061 10062 10063 10064 10065 10066 10067 10068 10069 10070 10071 10072 10073 10074 10075 10076 10077 10078 10079 10080 10081 10082 10083 10084 10085 10086 10087 10088 10089 10090 10091 10092 10093 10094 10095 10096 10097 10098 10099 10100 10101 10102 10103 10104 10105 10106 10107 10108 10109 10110 10111 10112 10113 10114 10115 10116 10117 10118 10119 10120 10121 10122 10123 10124 10125 10126 10127 10128 10129 10130 10131 10132 10133 10134 10135 10136 10137 10138 10139 10140 10141 10142 10143 10144 10145 10146 10147 10148 10149 10150 10151 10152 10153 10154 10155 10156 10157 10158 10159 10160 10161 10162 10163 10164 10165 10166 10167 10168 10169 10170 10171 10172 10173 10174 10175 10176 10177 10178 10179 10180 10181 10182 10183 10184 10185 10186 10187 10188 10189 10190 10191 10192 10193 10194 10195 10196 10197 10198 10199 10200 10201 10202 10203 10204 10205 10206 10207 10208 10209 10210 10211 10212 10213 10214 10215 10216 10217 10218 10219 10220 10221 10222 10223 10224 10225 10226 10227 10228 10229 10230 10231 10232 10233 10234 10235 10236 10237 10238 10239 10240 10241 10242 10243 10244 10245 10246 10247 10248 10249 10250 10251 10252 10253 10254 10255 10256 10257 10258 10259 10260 10261 10262 10263 10264 10265 10266 10267 10268 10269 10270 10271 10272 10273 10274 10275 10276 10277 10278 10279 10280 10281 10282 10283 10284 10285 10286 10287 10288 10289 10290 10291 10292 10293 10294 10295 10296 10297 10298 10299 10300 10301 10302 10303 10304 10305 10306 10307 10308 10309 10310 10311 10312 10313 10314 10315 10316 10317 10318 10319 10320 10321 10322 10323 10324 10325 10326 10327 10328 10329 10330 10331 10332 10333 10334 10335 10336 10337 10338 10339 10340 10341 10342 10343 10344 10345 10346 10347 10348 10349 10350 10351 10352 10353 10354 10355 10356 10357 10358 10359 10360 10361 10362 10363 10364 10365 10366 10367 10368 10369 10370 10371 10372 10373 10374 10375 10376 10377 10378 10379 10380 10381 10382 10383 10384 10385 10386 10387 10388 10389 10390 10391 10392 10393 10394 10395 10396 10397 10398 10399 10400 10401 10402 10403 10404 10405 10406 10407 10408 10409 10410 10411 10412 10413 10414 10415 10416 10417 10418 10419 10420 10421 10422 10423 10424 10425 10426 10427 10428 10429 10430 10431 10432 10433 10434 10435 10436 10437 10438 10439 10440 10441 10442 10443 10444 10445 10446 10447 10448 10449 10450 10451 10452 10453 10454 10455 10456 10457 10458 10459 10460 10461 10462 10463 10464 10465 10466 10467 10468 10469 10470 10471 10472 10473 10474 10475 10476 10477 10478 10479 10480 10481 10482 10483 10484 10485 10486 10487 10488 10489 10490 10491 10492 10493 10494 10495 10496 10497 10498 10499 10500 10501 10502 10503 10504 10505 10506 10507 10508 10509 10510 10511 10512 10513 10514 10515 10516 10517 10518 10519 10520 10521 10522 10523 10524 10525 10526 10527 10528 10529 10530 10531 10532 10533 10534 10535 10536 10537 10538 10539 10540 10541 10542 10543 10544 10545 10546 10547 10548 10549 10550 10551 10552 10553 10554 10555 10556 10557 10558 10559 10560 10561 10562 10563 10564 10565 10566 10567 10568 10569 10570 10571 10572 10573 10574 10575 10576 10577 10578 10579 10580 10581 10582 10583 10584 10585 10586 10587 10588 10589 10590 10591 10592 10593 10594 10595 10596 10597 10598 10599 10600 10601 10602 10603 10604 10605 10606 10607 10608 10609 10610 10611 10612 10613 10614 10615 10616 10617 10618 10619 10620 10621 10622 10623 10624 10625 10626 10627 10628 10629 10630 10631 10632 10633 10634 10635 10636 10637 10638 10639 10640 10641 10642 10643 10644 10645 10646 10647 10648 10649 10650 10651 10652 10653 10654 10655 10656 10657 10658 10659 10660 10661 10662 10663 10664 10665 10666 10667 10668 10669 10670 10671 10672 10673 10674 10675 10676 10677 10678 10679 10680 10681 10682 10683 10684 10685 10686 10687 10688 10689 10690 10691 10692 10693 10694 10695 10696 10697 10698 10699 10700 10701 10702 10703 10704 10705 10706 10707 10708 10709 10710 10711 10712 10713 10714 10715 10716 10717 10718 10719 10720 10721 10722 10723 10724 10725 10726 10727 10728 10729 10730 10731 10732 10733 10734 10735 10736 10737 10738 10739 10740 10741 10742 10743 10744 10745 10746 10747 10748 10749 10750 10751 10752 10753 10754 10755 10756 10757 10758 10759 10760 10761 10762 10763 10764 10765 10766 10767 10768 10769 10770 10771 10772 10773 10774 10775 10776 10777 10778 10779 10780 10781 10782 10783 10784 10785 10786 10787 10788 10789 10790 10791 10792 10793 10794 10795 10796 10797 10798 10799 10800 10801 10802 10803 10804 10805 10806 10807 10808 10809 10810 10811 10812 10813 10814 10815 10816 10817 10818 10819 10820 10821 10822 10823 10824 10825 10826 10827 10828 10829 10830 10831 10832 10833 10834 10835 10836 10837 10838 10839 10840 10841 10842 10843 10844 10845 10846 10847 10848 10849 10850 10851 10852 10853 10854 10855 10856 10857 10858 10859 10860 10861 10862 10863 10864 10865 10866 10867 10868 10869 10870 10871 10872 10873 10874 10875 10876 10877 10878 10879 10880 10881 10882 10883 10884 10885 10886 10887 10888 10889 10890 10891 10892 10893 10894 10895 10896 10897 10898 10899 10900 10901 10902 10903 10904 10905 10906 10907 10908 10909 10910 10911 10912 10913 10914 10915 10916 10917 10918 10919 10920 10921 10922 10923 10924 10925 10926 10927 10928 10929 10930 10931 10932 10933 10934 10935 10936 10937 10938 10939 10940 10941 10942 10943 10944 10945 10946 10947 10948 10949 10950 10951 10952 10953 10954 10955 10956 10957 10958 10959 10960 10961 10962 10963 10964 10965 10966 10967 10968 10969 10970 10971 10972 10973 10974 10975 10976 10977 10978 10979 10980 10981 10982 10983 10984 10985 10986 10987 10988 10989 10990 10991 10992 10993 10994 10995 10996 10997 10998 10999 11000 11001 11002 11003 11004 11005 11006 11007 11008 11009 11010 11011 11012 11013 11014 11015 11016 11017 11018 11019 11020 11021 11022 11023 11024 11025 11026 11027 11028 11029 11030 11031 11032 11033 11034 11035 11036 11037 11038 11039 11040 11041 11042 11043 11044 11045 11046 11047 11048 11049 11050 11051 11052 11053 11054 11055 11056 11057 11058 11059 11060 11061 11062 11063 11064 11065 11066 11067 11068 11069 11070 11071 11072 11073 11074 11075 11076 11077 11078 11079 11080 11081 11082 11083 11084 11085 11086 11087 11088 11089 11090 11091 11092 11093 11094 11095 11096 11097 11098 11099 11100 11101 11102 11103 11104 11105 11106 11107 11108 11109 11110 11111 11112 11113 11114 11115 11116 11117 11118 11119 11120 11121 11122 11123 11124 11125 11126 11127 11128 11129 11130 11131 11132 11133 11134 11135 11136 11137 11138 11139 11140 11141 11142 11143 11144 11145 11146 11147 11148 11149 11150 11151 11152 11153 11154 11155 11156 11157 11158 11159 11160 11161 11162 11163 11164 11165 11166 11167 11168 11169 11170 11171 11172 11173 11174 11175 11176 11177 11178 11179 11180 11181 11182 11183 11184 11185 11186 11187 11188 11189 11190 11191 11192 11193 11194 11195 11196 11197 11198 11199 11200 11201 11202 11203 11204 11205 11206 11207 11208 11209 11210 11211 11212 11213 11214 11215 11216 11217 11218 11219 11220 11221 11222 11223 11224 11225 11226 11227 11228 11229 11230 11231 11232 11233 11234 11235 11236 11237 11238 11239 11240 11241 11242 11243 11244 11245 11246 11247 11248 11249 11250 11251 11252 11253 11254 11255 11256 11257 11258 11259 11260 11261 11262 11263 11264 11265 11266 11267 11268 11269 11270 11271 11272 11273 11274 11275 11276 11277 11278 11279 11280 11281 11282 11283 11284 11285 11286 11287 11288 11289 11290 11291 11292 11293 11294 11295 11296 11297 11298 11299 11300 11301 11302 11303 11304 11305 11306 11307 11308 11309 11310 11311 11312 11313 11314 11315 11316 11317 11318 11319 11320 11321 11322 11323 11324 11325 11326 11327 11328 11329 11330 11331 11332 11333 11334 11335 11336 11337 11338 11339 11340 11341 11342 11343 11344 11345 11346 11347 11348 11349 11350 11351 11352 11353 11354 11355 11356 11357 11358 11359 11360 11361 11362 11363 11364 11365 11366 11367 11368 11369 11370 11371 11372 11373 11374 11375 11376 11377 11378 11379 11380 11381 11382 11383 11384 11385 11386 11387 11388 11389 11390 11391 11392 11393 11394 11395 11396 11397 11398 11399 11400 11401 11402 11403 11404 11405 11406 11407 11408 11409 11410 11411 11412 11413 11414 11415 11416 11417 11418 11419 11420 11421 11422 11423 11424 11425 11426 11427 11428 11429 11430 11431 11432 11433 11434 11435 11436 11437 11438 11439 11440 11441 11442 11443 11444 11445 11446 11447 11448 11449 11450 11451 11452 11453 11454 11455 11456 11457 11458 11459 11460 11461 11462 11463 11464 11465 11466 11467 11468 11469 11470 11471 11472 11473 11474 11475 11476 11477 11478 11479 11480 11481 11482 11483 11484 11485 11486 11487 11488 11489 11490 11491 11492 11493 11494 11495 11496 11497 11498 11499 11500 11501 11502 11503 11504 11505 11506 11507 11508 11509 11510 11511 11512 11513 11514 11515 11516 11517 11518 11519 11520 11521 11522 11523 11524 11525 11526 11527 11528 11529 11530 11531 11532 11533 11534 11535 11536 11537 11538 11539 11540 11541 11542 11543 11544 11545 11546 11547 11548 11549 11550 11551 11552 11553 11554 11555 11556 11557 11558 11559 11560 11561 11562 11563 11564 11565 11566 11567 11568 11569 11570 11571 11572 11573 11574 11575 11576 11577 11578 11579 11580 11581 11582 11583 11584 11585 11586 11587 11588 11589 11590 11591 11592 11593 11594 11595 11596 11597 11598 11599 11600 11601 11602 11603 11604 11605 11606 11607 11608 11609 11610 11611 11612 11613 11614 11615 11616 11617 11618 11619 11620 11621 11622 11623 11624 11625 11626 11627 11628 11629 11630 11631 11632 11633 11634 11635 11636 11637 11638 11639 11640 11641 11642 11643 11644 11645 11646 11647 11648 11649 11650 11651 11652 11653 11654 11655 11656 11657 11658 11659 11660 11661 11662 11663 11664 11665 11666 11667 11668 11669 11670 11671 11672 11673 11674 11675 11676 11677 11678 11679 11680 11681 11682 11683 11684 11685 11686 11687 11688 11689 11690 11691 11692 11693 11694 11695 11696 11697 11698 11699 11700 11701 11702 11703 11704 11705 11706 11707 11708 11709 11710 11711 11712 11713 11714 11715 11716 11717 11718 11719 11720 11721 11722 11723 11724 11725 11726 11727 11728 11729 11730 11731 11732 11733 11734 11735 11736 11737 11738 11739 11740 11741 11742 11743 11744 11745 11746 11747 11748 11749 11750 11751 11752 11753 11754 11755 11756 11757 11758 11759 11760 11761 11762 11763 11764 11765 11766 11767 11768 11769 11770 11771 11772 11773 11774 11775 11776 11777 11778 11779 11780 11781 11782 11783 11784 11785 11786 11787 11788 11789 11790 11791 11792 11793 11794 11795 11796 11797 11798 11799 11800 11801 11802 11803 11804 11805 11806 11807 11808 11809 11810 11811 11812 11813 11814 11815 11816 11817 11818 11819 11820 11821 11822 11823 11824 11825 11826 11827 11828 11829 11830 11831 11832 11833 11834 11835 11836 11837 11838 11839 11840 11841 11842 11843 11844 11845 11846 11847 11848 11849 11850 11851 11852 11853 11854 11855 11856 11857 11858 11859 11860 11861 11862 11863 11864 11865 11866 11867 11868 11869 11870 11871 11872 11873 11874 11875 11876 11877 11878 11879 11880 11881 11882 11883 11884 11885 11886 11887 11888 11889 11890 11891 11892 11893 11894 11895 11896 11897 11898 11899 11900 11901 11902 11903 11904 11905 11906 11907 11908 11909 11910 11911 11912 11913 11914 11915 11916 11917 11918 11919 11920 11921 11922 11923 11924 11925 11926 11927 11928 11929 11930 11931 11932 11933 11934 11935 11936 11937 11938 11939 11940 11941 11942 11943 11944 11945 11946 11947 11948 11949 11950 11951 11952 11953 11954 11955 11956 11957 11958 11959 11960 11961 11962 11963 11964 11965 11966 11967 11968 11969 11970 11971 11972 11973 11974 11975 11976 11977 11978 11979 11980 11981 11982 11983 11984 11985 11986 11987 11988 11989 11990 11991 11992 11993 11994 11995 11996 11997 11998 11999 12000 12001 12002 12003 12004 12005 12006 12007 12008 12009 12010 12011 12012 12013 12014 12015 12016 12017 12018 12019 12020 12021 12022 12023 12024 12025 12026 12027 12028 12029 12030 12031 12032 12033 12034 12035 12036 12037 12038 12039 12040 12041 12042 12043 12044 12045 12046 12047 12048 12049 12050 12051 12052 12053 12054 12055 12056 12057 12058 12059 12060 12061 12062 12063 12064 12065 12066 12067 12068 12069 12070 12071 12072 12073 12074 12075 12076 12077 12078 12079 12080 12081 12082 12083 12084 12085 12086 12087 12088 12089 12090 12091 12092 12093 12094 12095 12096 12097 12098 12099 12100 12101 12102 12103 12104 12105 12106 12107 12108 12109 12110 12111 12112 12113 12114 12115 12116 12117 12118 12119 12120 12121 12122 12123 12124 12125 12126 12127 12128 12129 12130 12131 12132 12133 12134 12135 12136 12137 12138 12139 12140 12141 12142 12143 12144 12145 12146 12147 12148 12149 12150 12151 12152 12153 12154 12155 12156 12157 12158 12159 12160 12161 12162 12163 12164 12165 12166 12167 12168 12169 12170 12171 12172 12173 12174 12175 12176 12177 12178 12179 12180 12181 12182 12183 12184 12185 12186 12187 12188 12189 12190 12191 12192 12193 12194 12195 12196 12197 12198 12199 12200 12201 12202 12203 12204 12205 12206 12207 12208 12209 12210 12211 12212 12213 12214 12215 12216 12217 12218 12219 12220 12221 12222 12223 12224 12225 12226 12227 12228 12229 12230 12231 12232 12233 12234 12235 12236 12237 12238 12239 12240 12241 12242 12243 12244 12245 12246 12247 12248 12249 12250 12251 12252 12253 12254 12255 12256 12257 12258 12259 12260 12261 12262 12263 12264 12265 12266 12267 12268 12269 12270 12271 12272 12273 12274 12275 12276 12277 12278 12279 12280 12281 12282 12283 12284 12285 12286 12287 12288 12289 12290 12291 12292 12293 12294 12295 12296 12297 12298 12299 12300 12301 12302 12303 12304 12305 12306 12307 12308 12309 12310 12311 12312 12313 12314 12315 12316 12317 12318 12319 12320 12321 12322 12323 12324 12325 12326 12327 12328 12329 12330 12331 12332 12333 12334 12335 12336 12337 12338 12339 12340 12341 12342 12343 12344 12345 12346 12347 12348 12349 12350 12351 12352 12353 12354 12355 12356 12357 12358 12359 12360 12361 12362 12363 12364 12365 12366 12367 12368 12369 12370 12371 12372 12373 12374 12375 12376 12377 12378 12379 12380 12381 12382 12383 12384 12385 12386 12387 12388 12389 12390 12391 12392 12393 12394 12395 12396 12397 12398 12399 12400 12401 12402 12403 12404 12405 12406 12407 12408 12409 12410 12411 12412 12413 12414 12415 12416 12417 12418 12419 12420 12421 12422 12423 12424 12425 12426 12427 12428 12429 12430 12431 12432 12433 12434 12435 12436 12437 12438 12439 12440 12441 12442 12443 12444 12445 12446 12447 12448 12449 12450 12451 12452 12453 12454 12455 12456 12457 12458 12459 12460 12461 12462 12463 12464 12465 12466 12467 12468 12469 12470 12471 12472 12473 12474 12475 12476 12477 12478 12479 12480 12481 12482 12483 12484 12485 12486 12487 12488 12489 12490 12491 12492 12493 12494 12495 12496 12497 12498 12499 12500 12501 12502 12503 12504 12505 12506 12507 12508 12509 12510 12511 12512 12513 12514 12515 12516 12517 12518 12519 12520 12521 12522 12523 12524 12525 12526 12527 12528 12529 12530 12531 12532 12533 12534 12535 12536 12537 12538 12539 12540 12541 12542 12543 12544 12545 12546 12547 12548 12549 12550 12551 12552 12553 12554 12555 12556 12557 12558 12559 12560 12561 12562 12563 12564 12565 12566 12567 12568 12569 12570 12571 12572 12573 12574 12575 12576 12577 12578 12579 12580 12581 12582 12583 12584 12585 12586 12587 12588 12589 12590 12591 12592 12593 12594 12595 12596 12597 12598 12599 12600 12601 12602 12603 12604 12605 12606 12607 12608 12609 12610 12611 12612 12613 12614 12615 12616 12617 12618 12619 12620 12621 12622 12623 12624 12625 12626 12627 12628 12629 12630 12631 12632 12633 12634 12635 12636 12637 12638 12639 12640 12641 12642 12643 12644 12645 12646 12647 12648 12649 12650 12651 12652 12653 12654 12655 12656 12657 12658 12659 12660 12661 12662 12663 12664 12665 12666 12667 12668 12669 12670 12671 12672 12673 12674 12675 12676 12677 12678 12679 12680 12681 12682 12683 12684 12685 12686 12687 12688 12689 12690 12691 12692 12693 12694 12695 12696 12697 12698 12699 12700 12701 12702 12703 12704 12705 12706 12707 12708 12709 12710 12711 12712 12713 12714 12715 12716 12717 12718 12719 12720 12721 12722 12723 12724 12725 12726 12727 12728 12729 12730 12731 12732 12733 12734 12735 12736 12737 12738 12739 12740 12741 12742 12743 12744 12745 12746 12747 12748 12749 12750 12751 12752 12753 12754 12755 12756 12757 12758 12759 12760 12761 12762 12763 12764 12765 12766 12767 12768 12769 12770 12771 12772 12773 12774 12775 12776 12777 12778 12779 12780 12781 12782 12783 12784 12785 12786 12787 12788 12789 12790 12791 12792 12793 12794 12795 12796 12797 12798 12799 12800 12801 12802 12803 12804 12805 12806 12807 12808 12809 12810 12811 12812 12813 12814 12815 12816 12817 12818 12819 12820 12821 12822 12823 12824 12825 12826 12827 12828 12829 12830 12831 12832 12833 12834 12835 12836 12837 12838 12839 12840 12841 12842 12843 12844 12845 12846 12847 12848 12849 12850 12851 12852 12853 12854 12855 12856 12857 12858 12859 12860 12861 12862 12863 12864 12865 12866 12867 12868 12869 12870 12871 12872 12873 12874 12875 12876 12877 12878 12879 12880 12881 12882 12883 12884 12885 12886 12887 12888 12889 12890 12891 12892 12893 12894 12895 12896 12897 12898 12899 12900 12901 12902 12903 12904 12905 12906 12907 12908 12909 12910 12911 12912 12913 12914 12915 12916 12917 12918 12919 12920 12921 12922 12923 12924 12925 12926 12927 12928 12929 12930 12931 12932 12933 12934 12935 12936 12937 12938 12939 12940 12941 12942 12943 12944 12945 12946 12947 12948 12949 12950 12951 12952 12953 12954 12955 12956 12957 12958 12959 12960 12961 12962 12963 12964 12965 12966 12967 12968 12969 12970 12971 12972 12973 12974 12975 12976 12977 12978 12979 12980 12981 12982 12983 12984 12985 12986 12987 12988 12989 12990 12991 12992 12993 12994 12995 12996 12997 12998 12999 13000 13001 13002 13003 13004 13005 13006 13007 13008 13009 13010 13011 13012 13013 13014 13015 13016 13017 13018 13019 13020 13021 13022 13023 13024 13025 13026 13027 13028 13029 13030 13031 13032 13033 13034 13035 13036 13037 13038 13039 13040 13041 13042 13043 13044 13045 13046 13047 13048 13049 13050 13051 13052 13053 13054 13055 13056 13057 13058 13059 13060 13061 13062 13063 13064 13065 13066 13067 13068 13069 13070 13071 13072 13073 13074 13075 13076 13077 13078 13079 13080 13081 13082 13083 13084 13085 13086 13087 13088 13089 13090 13091 13092 13093 13094 13095 13096 13097 13098 13099 13100 13101 13102 13103 13104 13105 13106 13107 13108 13109 13110 13111 13112 13113 13114 13115 13116 13117 13118 13119 13120 13121 13122 13123 13124 13125 13126 13127 13128 13129 13130 13131 13132 13133 13134 13135 13136 13137 13138 13139 13140 13141 13142 13143 13144 13145 13146 13147 13148 13149 13150 13151 13152 13153 13154 13155 13156 13157 13158 13159 13160 13161 13162 13163 13164 13165 13166 13167 13168 13169 13170 13171 13172 13173 13174 13175 13176 13177 13178 13179 13180 13181 13182 13183 13184 13185 13186 13187 13188 13189 13190 13191 13192 13193 13194 13195 13196 13197 13198 13199 13200 13201 13202 13203 13204 13205 13206 13207 13208 13209 13210 13211 13212 13213 13214 13215 13216 13217 13218 13219 13220 13221 13222 13223 13224 13225 13226 13227 13228 13229 13230 13231 13232 13233 13234 13235 13236 13237 13238 13239 13240 13241 13242 13243 13244 13245 13246 13247 13248 13249 13250 13251 13252 13253 13254 13255 13256 13257 13258 13259 13260 13261 13262 13263 13264 13265 13266 13267 13268 13269 13270 13271 13272 13273 13274 13275 13276 13277 13278 13279 13280 13281 13282 13283 13284 13285 13286 13287 13288 13289 13290 13291 13292 13293 13294 13295 13296 13297 13298 13299 13300 13301 13302 13303 13304 13305 13306 13307 13308 13309 13310 13311 13312 13313 13314 13315 13316 13317 13318 13319 13320 13321 13322 13323 13324 13325 13326 13327 13328 13329 13330 13331 13332 13333 13334 13335 13336 13337 13338 13339 13340 13341 13342 13343 13344 13345 13346 13347 13348 13349 13350 13351 13352 13353 13354 13355 13356 13357 13358 13359 13360 13361 13362 13363 13364 13365 13366 13367 13368 13369 13370 13371 13372 13373 13374 13375 13376 13377 13378 13379 13380 13381 13382 13383 13384 13385 13386 13387 13388 13389 13390 13391 13392 13393 13394 13395 13396 13397 13398 13399 13400 13401 13402 13403 13404 13405 13406 13407 13408 13409 13410 13411 13412 13413 13414 13415 13416 13417 13418 13419 13420 13421 13422 13423 13424 13425 13426 13427 13428 13429 13430 13431 13432 13433 13434 13435 13436 13437 13438 13439 13440 13441 13442 13443 13444 13445 13446 13447 13448 13449 13450 13451 13452 13453 13454 13455 13456 13457 13458 13459 13460 13461 13462 13463 13464 13465 13466 13467 13468 13469 13470 13471 13472 13473 13474 13475 13476 13477 13478 13479 13480 13481 13482 13483 13484 13485 13486 13487 13488 13489 13490 13491 13492 13493 13494 13495 13496 13497 13498 13499 13500 13501 13502 13503 13504 13505 13506 13507 13508 13509 13510 13511 13512 13513 13514 13515 13516 13517 13518 13519 13520 13521 13522 13523 13524 13525 13526 13527 13528 13529 13530 13531 13532 13533 13534 13535 13536 13537 13538 13539 13540 13541 13542 13543 13544 13545 13546 13547 13548 13549 13550 13551 13552 13553 13554 13555 13556 13557 13558 13559 13560 13561 13562 13563 13564 13565 13566 13567 13568 13569 13570 13571 13572 13573 13574 13575 13576 13577 13578 13579 13580 13581 13582 13583 13584 13585 13586 13587 13588 13589 13590 13591 13592 13593 13594 13595 13596 13597 13598 13599 13600 13601 13602 13603 13604 13605 13606 13607 13608 13609 13610 13611 13612 13613 13614 13615 13616 13617 13618 13619 13620 13621 13622 13623 13624 13625 13626 13627 13628 13629 13630 13631 13632 13633 13634 13635 13636 13637 13638 13639 13640 13641 13642 13643 13644 13645 13646 13647 13648 13649 13650 13651 13652 13653 13654 13655 13656 13657 13658 13659 13660 13661 13662 13663 13664 13665 13666 13667 13668 13669 13670 13671 13672 13673 13674 13675 13676 13677 13678 13679 13680 13681 13682 13683 13684 13685 13686 13687 13688 13689 13690 13691 13692 13693 13694 13695 13696 13697 13698 13699 13700 13701 13702 13703 13704 13705 13706 13707 13708 13709 13710 13711 13712 13713 13714 13715 13716 13717 13718 13719 13720 13721 13722 13723 13724 13725 13726 13727 13728 13729 13730 13731 13732 13733 13734 13735 13736 13737 13738 13739 13740 13741 13742 13743 13744 13745 13746 13747 13748 13749 13750 13751 13752 13753 13754 13755 13756 13757 13758 13759 13760 13761 13762 13763 13764 13765 13766 13767 13768 13769 13770 13771 13772 13773 13774 13775 13776 13777 13778 13779 13780 13781 13782 13783 13784 13785 13786 13787 13788 13789 13790 13791 13792 13793 13794 13795 13796 13797 13798 13799 13800 13801 13802 13803 13804 13805 13806 13807 13808 13809 13810 13811 13812 13813 13814 13815 13816 13817 13818 13819 13820 13821 13822 13823 13824 13825 13826 13827 13828 13829 13830 13831 13832 13833 13834 13835 13836 13837 13838 13839 13840 13841 13842 13843 13844 13845 13846 13847 13848 13849 13850 13851 13852 13853 13854 13855 13856 13857 13858 13859 13860 13861 13862 13863 13864 13865 13866 13867 13868 13869 13870 13871 13872 13873 13874 13875 13876 13877 13878 13879 13880 13881 13882 13883 13884 13885 13886 13887 13888 13889 13890 13891 13892 13893 13894 13895 13896 13897 13898 13899 13900 13901 13902 13903 13904 13905 13906 13907 13908 13909 13910 13911 13912 13913 13914 13915 13916 13917 13918 13919 13920 13921 13922 13923 13924 13925 13926 13927 13928 13929 13930 13931 13932 13933 13934 13935 13936 13937 13938 13939 13940 13941 13942 13943 13944 13945 13946 13947 13948 13949 13950 13951 13952 13953 13954 13955 13956 13957 13958 13959 13960 13961 13962 13963 13964 13965 13966 13967 13968 13969 13970 13971 13972 13973 13974 13975 13976 13977 13978 13979 13980 13981 13982 13983 13984 13985 13986 13987 13988 13989 13990 13991 13992 13993 13994 13995 13996 13997 13998 13999 14000 14001 14002 14003 14004 14005 14006 14007 14008 14009 14010 14011 14012 14013 14014 14015 14016 14017 14018 14019 14020 14021 14022 14023 14024 14025 14026 14027 14028 14029 14030 14031 14032 14033 14034 14035 14036 14037 14038 14039 14040 14041 14042 14043 14044 14045 14046 14047 14048 14049 14050 14051 14052 14053 14054 14055 14056 14057 14058 14059 14060 14061 14062 14063 14064 14065 14066 14067 14068 14069 14070 14071 14072 14073 14074 14075 14076 14077 14078 14079 14080 14081 14082 14083 14084 14085 14086 14087 14088 14089 14090 14091 14092 14093 14094 14095 14096 14097 14098 14099 14100 14101 14102 14103 14104 14105 14106 14107 14108 14109 14110 14111 14112 14113 14114 14115 14116 14117 14118 14119 14120 14121 14122 14123 14124 14125 14126 14127 14128 14129 14130 14131 14132 14133 14134 14135 14136 14137 14138 14139 14140 14141 14142 14143 14144 14145 14146 14147 14148 14149 14150 14151 14152 14153 14154 14155 14156 14157 14158 14159 14160 14161 14162 14163 14164 14165 14166 14167 14168 14169 14170 14171 14172 14173 14174 14175 14176 14177 14178 14179 14180 14181 14182 14183 14184 14185 14186 14187 14188 14189 14190 14191 14192 14193 14194 14195 14196 14197 14198 14199 14200 14201 14202 14203 14204 14205 14206 14207 14208 14209 14210 14211 14212 14213 14214 14215 14216 14217 14218 14219 14220 14221 14222 14223 14224 14225 14226 14227 14228 14229 14230 14231 14232 14233 14234 14235 14236 14237 14238 14239 14240 14241 14242 14243 14244 14245 14246 14247 14248 14249 14250 14251 14252 14253 14254 14255 14256 14257 14258 14259 14260 14261 14262 14263 14264 14265 14266 14267 14268 14269 14270 14271 14272 14273 14274 14275 14276 14277 14278 14279 14280 14281 14282 14283 14284 14285 14286 14287 14288 14289 14290 14291 14292 14293 14294 14295 14296 14297 14298 14299 14300 14301 14302 14303 14304 14305 14306 14307 14308 14309 14310 14311 14312 14313 14314 14315 14316 14317 14318 14319 14320 14321 14322 14323 14324 14325 14326 14327 14328 14329 14330 14331 14332 14333 14334 14335 14336 14337 14338 14339 14340 14341 14342 14343 14344 14345 14346 14347 14348 14349 14350 14351 14352 14353 14354 14355 14356 14357 14358 14359 14360 14361 14362 14363 14364 14365 14366 14367 14368 14369 14370 14371 14372 14373 14374 14375 14376 14377 14378 14379 14380 14381 14382 14383 14384 14385 14386 14387 14388 14389 14390 14391 14392 14393 14394 14395 14396 14397 14398 14399 14400 14401 14402 14403 14404 14405 14406 14407 14408 14409 14410 14411 14412 14413 14414 14415 14416 14417 14418 14419 14420 14421 14422 14423 14424 14425 14426 14427 14428 14429 14430 14431 14432 14433 14434 14435 14436 14437 14438 14439 14440 14441 14442 14443 14444 14445 14446 14447 14448 14449 14450 14451 14452 14453 14454 14455 14456 14457 14458 14459 14460 14461 14462 14463 14464 14465 14466 14467 14468 14469 14470 14471 14472 14473 14474 14475 14476 14477 14478 14479 14480 14481 14482 14483 14484 14485 14486 14487 14488 14489 14490 14491 14492 14493 14494 14495 14496 14497 14498 14499 14500 14501 14502 14503 14504 14505 14506 14507 14508 14509 14510 14511 14512 14513 14514 14515 14516 14517 14518 14519 14520 14521 14522 14523 14524 14525 14526 14527 14528 14529 14530 14531 14532 14533 14534 14535 14536 14537 14538 14539 14540 14541 14542 14543 14544 14545 14546 14547 14548 14549 14550 14551 14552 14553 14554 14555 14556 14557 14558 14559 14560 14561 14562 14563 14564 14565 14566 14567 14568 14569 14570 14571 14572 14573 14574 14575 14576 14577 14578 14579 14580 14581 14582 14583 14584 14585 14586 14587 14588 14589 14590 14591 14592 14593 14594 14595 14596 14597 14598 14599 14600 14601 14602 14603 14604 14605 14606 14607 14608 14609 14610 14611 14612 14613 14614 14615 14616 14617 14618 14619 14620 14621 14622 14623 14624 14625 14626 14627 14628 14629 14630 14631 14632 14633 14634 14635 14636 14637 14638 14639 14640 14641 14642 14643 14644 14645 14646 14647 14648 14649 14650 14651 14652 14653 14654 14655 14656 14657 14658 14659 14660 14661 14662 14663 14664 14665 14666 14667 14668 14669 14670 14671 14672 14673 14674 14675 14676 14677 14678 14679 14680 14681 14682 14683 14684 14685 14686 14687 14688 14689 14690 14691 14692 14693 14694 14695 14696 14697 14698 14699 14700 14701 14702 14703 14704 14705 14706 14707 14708 14709 14710 14711 14712 14713 14714 14715 14716 14717 14718 14719 14720 14721 14722 14723 14724 14725 14726 14727 14728 14729 14730 14731 14732 14733 14734 14735 14736 14737 14738 14739 14740 14741 14742 14743 14744 14745 14746 14747 14748 14749 14750 14751 14752 14753 14754 14755 14756 14757 14758 14759 14760 14761 14762 14763 14764 14765 14766 14767 14768 14769 14770 14771 14772 14773 14774 14775 14776 14777 14778 14779 14780 14781 14782 14783 14784 14785 14786 14787 14788 14789 14790 14791 14792 14793 14794 14795 14796 14797 14798 14799 14800 14801 14802 14803 14804 14805 14806 14807 14808 14809 14810 14811 14812 14813 14814 14815 14816 14817 14818 14819 14820 14821 14822 14823 14824 14825 14826 14827 14828 14829 14830 14831 14832 14833 14834 14835 14836 14837 14838 14839 14840 14841 14842 14843 14844 14845 14846 14847 14848 14849 14850 14851 14852 14853 14854 14855 14856 14857 14858 14859 14860 14861 14862 14863 14864 14865 14866 14867 14868 14869 14870 14871 14872 14873 14874 14875 14876 14877 14878 14879 14880 14881 14882 14883 14884 14885 14886 14887 14888 14889 14890 14891 14892 14893 14894 14895 14896 14897 14898 14899 14900 14901 14902 14903 14904 14905 14906 14907 14908 14909 14910 14911 14912 14913 14914 14915 14916 14917 14918 14919 14920 14921 14922 14923 14924 14925 14926 14927 14928 14929 14930 14931 14932 14933 14934 14935 14936 14937 14938 14939 14940 14941 14942 14943 14944 14945 14946 14947 14948 14949 14950 14951 14952 14953 14954 14955 14956 14957 14958 14959 14960 14961 14962 14963 14964 14965 14966 14967 14968 14969 14970 14971 14972 14973 14974 14975 14976 14977 14978 14979 14980 14981 14982 14983 14984 14985 14986 14987 14988 14989 14990 14991 14992 14993 14994 14995 14996 14997 14998 14999 15000 15001 15002 15003 15004 15005 15006 15007 15008 15009 15010 15011 15012 15013 15014 15015 15016 15017 15018 15019 15020 15021 15022 15023 15024 15025 15026 15027 15028 15029 15030 15031 15032 15033 15034 15035 15036 15037 15038 15039 15040 15041 15042 15043 15044 15045 15046 15047 15048 15049 15050 15051 15052 15053 15054 15055 15056 15057 15058 15059 15060 15061 15062 15063 15064 15065 15066 15067 15068 15069 15070 15071 15072 15073 15074 15075 15076 15077 15078 15079 15080 15081 15082 15083 15084 15085 15086 15087 15088 15089 15090 15091 15092 15093 15094 15095 15096 15097 15098 15099 15100 15101 15102 15103 15104 15105 15106 15107 15108 15109 15110 15111 15112 15113 15114 15115 15116 15117 15118 15119 15120 15121 15122 15123 15124 15125 15126 15127 15128 15129 15130 15131 15132 15133 15134 15135 15136 15137 15138 15139 15140 15141 15142 15143 15144 15145 15146 15147 15148 15149 15150 15151 15152 15153 15154 15155 15156 15157 15158 15159 15160 15161 15162 15163 15164 15165 15166 15167 15168 15169 15170 15171 15172 15173 15174 15175 15176 15177 15178 15179 15180 15181 15182 15183 15184 15185 15186 15187 15188 15189 15190 15191 15192 15193 15194 15195 15196 15197 15198 15199 15200 15201 15202 15203 15204 15205 15206 15207 15208 15209 15210 15211 15212 15213 15214 15215 15216 15217 15218 15219 15220 15221 15222 15223 15224 15225 15226 15227 15228 15229 15230 15231 15232 15233 15234 15235 15236 15237 15238 15239 15240 15241 15242 15243 15244 15245 15246 15247 15248 15249 15250 15251 15252 15253 15254 15255 15256 15257 15258 15259 15260 15261 15262 15263 15264 15265 15266 15267 15268 15269 15270 15271 15272 15273 15274 15275 15276 15277 15278 15279 15280 15281 15282 15283 15284 15285 15286 15287 15288 15289 15290 15291 15292 15293 15294 15295 15296 15297 15298 15299 15300 15301 15302 15303 15304 15305 15306 15307 15308 15309 15310 15311 15312 15313 15314 15315 15316 15317 15318 15319 15320 15321 15322 15323 15324 15325 15326 15327 15328 15329 15330 15331 15332 15333 15334 15335 15336 15337 15338 15339 15340 15341 15342 15343 15344 15345 15346 15347 15348 15349 15350 15351 15352 15353 15354 15355 15356 15357 15358 15359 15360 15361 15362 15363 15364 15365 15366 15367 15368 15369 15370 15371 15372 15373 15374 15375 15376 15377 15378 15379 15380 15381 15382 15383 15384 15385 15386 15387 15388 15389 15390 15391 15392 15393 15394 15395 15396 15397 15398 15399 15400 15401 15402 15403 15404 15405 15406 15407 15408 15409 15410 15411 15412 15413 15414 15415 15416 15417 15418 15419 15420 15421 15422 15423 15424 15425 15426 15427 15428 15429 15430 15431 15432 15433 15434 15435 15436 15437 15438 15439 15440 15441 15442 15443 15444 15445 15446 15447 15448 15449 15450 15451 15452 15453 15454 15455 15456 15457 15458 15459 15460 15461 15462 15463 15464 15465 15466 15467 15468 15469 15470 15471 15472 15473 15474 15475 15476 15477 15478 15479 15480 15481 15482 15483 15484 15485 15486 15487 15488 15489 15490 15491 15492 15493 15494 15495 15496 15497 15498 15499 15500 15501 15502 15503 15504 15505 15506 15507 15508 15509 15510 15511 15512 15513 15514 15515 15516 15517 15518 15519 15520 15521 15522 15523 15524 15525 15526 15527 15528 15529 15530 15531 15532 15533 15534 15535 15536 15537 15538 15539 15540 15541 15542 15543 15544 15545 15546 15547 15548 15549 15550 15551 15552 15553 15554 15555 15556 15557 15558 15559 15560 15561 15562 15563 15564 15565 15566 15567 15568 15569 15570 15571 15572 15573 15574 15575 15576 15577 15578 15579 15580 15581 15582 15583 15584 15585 15586 15587 15588 15589 15590 15591 15592 15593 15594 15595 15596 15597 15598 15599 15600 15601 15602 15603 15604 15605 15606 15607 15608 15609 15610 15611 15612 15613 15614 15615 15616 15617 15618 15619 15620 15621 15622 15623 15624 15625 15626 15627 15628 15629 15630 15631 15632 15633 15634 15635 15636 15637 15638 15639 15640 15641 15642 15643 15644 15645 15646 15647 15648 15649 15650 15651 15652 15653 15654 15655 15656 15657 15658 15659 15660 15661 15662 15663 15664 15665 15666 15667 15668 15669 15670 15671 15672 15673 15674 15675 15676 15677 15678 15679 15680 15681 15682 15683 15684 15685 15686 15687 15688 15689 15690 15691 15692 15693 15694 15695 15696 15697 15698 15699 15700 15701 15702 15703 15704 15705 15706 15707 15708 15709 15710 15711 15712 15713 15714 15715 15716 15717 15718 15719 15720 15721 15722 15723 15724 15725 15726 15727 15728 15729 15730 15731 15732 15733 15734 15735 15736 15737 15738 15739 15740 15741 15742 15743 15744 15745 15746 15747 15748 15749 15750 15751 15752 15753 15754 15755 15756 15757 15758 15759 15760 15761 15762 15763 15764 15765 15766 15767 15768 15769 15770 15771 15772 15773 15774 15775 15776 15777 15778 15779 15780 15781 15782 15783 15784 15785 15786 15787 15788 15789 15790 15791 15792 15793 15794 15795 15796 15797 15798 15799 15800 15801 15802 15803 15804 15805 15806 15807 15808 15809 15810 15811 15812 15813 15814 15815 15816 15817 15818 15819 15820 15821 15822 15823 15824 15825 15826 15827 15828 15829 15830 15831 15832 15833 15834 15835 15836 15837 15838 15839 15840 15841 15842 15843 15844 15845 15846 15847 15848 15849 15850 15851 15852 15853 15854 15855 15856 15857 15858 15859 15860 15861 15862 15863 15864 15865 15866 15867 15868 15869 15870 15871 15872 15873 15874 15875 15876 15877 15878 15879 15880 15881 15882 15883 15884 15885 15886 15887 15888 15889 15890 15891 15892 15893 15894 15895 15896 15897 15898 15899 15900 15901 15902 15903 15904 15905 15906 15907 15908 15909 15910 15911 15912 15913 15914 15915 15916 15917 15918 15919 15920 15921 15922 15923 15924 15925 15926 15927 15928 15929 15930 15931 15932 15933 15934 15935 15936 15937 15938 15939 15940 15941 15942 15943 15944 15945 15946 15947 15948 15949 15950 15951 15952 15953 15954 15955 15956 15957 15958 15959 15960 15961 15962 15963 15964 15965 15966 15967 15968 15969 15970 15971 15972 15973 15974 15975 15976 15977 15978 15979 15980 15981 15982 15983 15984 15985 15986 15987 15988 15989 15990 15991 15992 15993 15994 15995 15996 15997 15998 15999 16000 16001 16002 16003 16004 16005 16006 16007 16008 16009 16010 16011 16012 16013 16014 16015 16016 16017 16018 16019 16020 16021 16022 16023 16024 16025 16026 16027 16028 16029 16030 16031 16032 16033 16034 16035 16036 16037 16038 16039 16040 16041 16042 16043 16044 16045 16046 16047 16048 16049 16050 16051 16052 16053 16054 16055 16056 16057 16058 16059 16060 16061 16062 16063 16064 16065 16066 16067 16068 16069 16070 16071 16072 16073 16074 16075 16076 16077 16078 16079 16080 16081 16082 16083 16084 16085 16086 16087 16088 16089 16090 16091 16092 16093 16094 16095 16096 16097 16098 16099 16100 16101 16102 16103 16104 16105 16106 16107 16108 16109 16110 16111 16112 16113 16114 16115 16116 16117 16118 16119 16120 16121 16122 16123 16124 16125 16126 16127 16128 16129 16130 16131 16132 16133 16134 16135 16136 16137 16138 16139 16140 16141 16142 16143 16144 16145 16146 16147 16148 16149 16150 16151 16152 16153 16154 16155 16156 16157 16158 16159 16160 16161 16162 16163 16164 16165 16166 16167 16168 16169 16170 16171 16172 16173 16174 16175 16176 16177 16178 16179 16180 16181 16182 16183 16184 16185 16186 16187 16188 16189 16190 16191 16192 16193 16194 16195 16196 16197 16198 16199 16200 16201 16202 16203 16204 16205 16206 16207 16208 16209 16210 16211 16212 16213 16214 16215 16216 16217 16218 16219 16220 16221 16222 16223 16224 16225 16226 16227 16228 16229 16230 16231 16232 16233 16234 16235 16236 16237 16238 16239 16240 16241 16242 16243 16244 16245 16246 16247 16248 16249 16250 16251 16252 16253 16254 16255 16256 16257 16258 16259 16260 16261 16262 16263 16264 16265 16266 16267 16268 16269 16270 16271 16272 16273 16274 16275 16276 16277 16278 16279 16280 16281 16282 16283 16284 16285 16286 16287 16288 16289 16290 16291 16292 16293 16294 16295 16296 16297 16298 16299 16300 16301 16302 16303 16304 16305 16306 16307 16308 16309 16310 16311 16312 16313 16314 16315 16316 16317 16318 16319 16320 16321 16322 16323 16324 16325 16326 16327 16328 16329 16330 16331 16332 16333 16334 16335 16336 16337 16338 16339 16340 16341 16342 16343 16344 16345 16346 16347 16348 16349 16350 16351 16352 16353 16354 16355 16356 16357 16358 16359 16360 16361 16362 16363 16364 16365 16366 16367 16368 16369 16370 16371 16372 16373 16374 16375 16376 16377 16378 16379 16380 16381 16382 16383 16384 16385 16386 16387 16388 16389 16390 16391 16392 16393 16394 16395 16396 16397 16398 16399 16400 16401 16402 16403 16404 16405 16406 16407 16408 16409 16410 16411 16412 16413 16414 16415 16416 16417 16418 16419 16420 16421 16422 16423 16424 16425 16426 16427 16428 16429 16430 16431 16432 16433 16434 16435 16436 16437 16438 16439 16440 16441 16442 16443 16444 16445 16446 16447 16448 16449 16450 16451 16452 16453 16454 16455 16456 16457 16458 16459 16460 16461 16462 16463 16464 16465 16466 16467 16468 16469 16470 16471 16472 16473 16474 16475 16476 16477 16478 16479 16480 16481 16482 16483 16484 16485 16486 16487 16488 16489 16490 16491 16492 16493 16494 16495 16496 16497 16498 16499 16500 16501 16502 16503 16504 16505 16506 16507 16508 16509 16510 16511 16512 16513 16514 16515 16516 16517 16518 16519 16520 16521 16522 16523 16524 16525 16526 16527 16528 16529 16530 16531 16532 16533 16534 16535 16536 16537 16538 16539 16540 16541 16542 16543 16544 16545 16546 16547 16548 16549 16550 16551 16552 16553 16554 16555 16556 16557 16558 16559 16560 16561 16562 16563 16564 16565 16566 16567 16568 16569 16570 16571 16572 16573 16574 16575 16576 16577 16578 16579 16580 16581 16582 16583 16584 16585 16586 16587 16588 16589 16590 16591 16592 16593 16594 16595 16596 16597 16598 16599 16600 16601 16602 16603 16604 16605 16606 16607 16608 16609 16610 16611 16612 16613 16614 16615 16616 16617 16618 16619 16620 16621 16622 16623 16624 16625 16626 16627 16628 16629 16630 16631 16632 16633 16634 16635 16636 16637 16638 16639 16640 16641 16642 16643 16644 16645 16646 16647 16648 16649 16650 16651 16652 16653 16654 16655 16656 16657 16658 16659 16660 16661 16662 16663 16664 16665 16666 16667 16668 16669 16670 16671 16672 16673 16674 16675 16676 16677 16678 16679 16680 16681 16682 16683 16684 16685 16686 16687 16688 16689 16690 16691 16692 16693 16694 16695 16696 16697 16698 16699 16700 16701 16702 16703 16704 16705 16706 16707 16708 16709 16710 16711 16712 16713 16714 16715 16716 16717 16718 16719 16720 16721 16722 16723 16724 16725 16726 16727 16728 16729 16730 16731 16732 16733 16734 16735 16736 16737 16738 16739 16740 16741 16742 16743 16744 16745 16746 16747 16748 16749 16750 16751 16752 16753 16754 16755 16756 16757 16758 16759 16760 16761 16762 16763 16764 16765 16766 16767 16768 16769 16770 16771 16772 16773 16774 16775 16776 16777 16778 16779 16780 16781 16782 16783 16784 16785 16786 16787 16788 16789 16790 16791 16792 16793 16794 16795 16796 16797 16798 16799 16800 16801 16802 16803 16804 16805 16806 16807 16808 16809 16810 16811 16812 16813 16814 16815 16816 16817 16818 16819 16820 16821 16822 16823 16824 16825 16826 16827 16828 16829 16830 16831 16832 16833 16834 16835 16836 16837 16838 16839 16840 16841 16842 16843 16844 16845 16846 16847 16848 16849 16850 16851 16852 16853 16854 16855 16856 16857 16858 16859 16860 16861 16862 16863 16864 16865 16866 16867 16868 16869 16870 16871 16872 16873 16874 16875 16876 16877 16878 16879 16880 16881 16882 16883 16884 16885 16886 16887 16888 16889 16890 16891 16892 16893 16894 16895 16896 16897 16898 16899 16900 16901 16902 16903 16904 16905 16906 16907 16908 16909 16910 16911 16912 16913 16914 16915 16916 16917 16918 16919 16920 16921 16922 16923 16924 16925 16926 16927 16928 16929 16930 16931 16932 16933 16934 16935 16936 16937 16938 16939 16940 16941 16942 16943 16944 16945 16946 16947 16948 16949 16950 16951 16952 16953 16954 16955 16956 16957 16958 16959 16960 16961 16962 16963 16964 16965 16966 16967 16968 16969 16970 16971 16972 16973 16974 16975 16976 16977 16978 16979 16980 16981 16982 16983 16984 16985 16986 16987 16988 16989 16990 16991 16992 16993 16994 16995 16996 16997 16998 16999 17000 17001 17002 17003 17004 17005 17006 17007 17008 17009 17010 17011 17012 17013 17014 17015 17016 17017 17018 17019 17020 17021 17022 17023 17024 17025 17026 17027 17028 17029 17030 17031 17032 17033 17034 17035 17036 17037 17038 17039 17040 17041 17042 17043 17044 17045 17046 17047 17048 17049 17050 17051 17052 17053 17054 17055 17056 17057 17058 17059 17060 17061 17062 17063 17064 17065 17066 17067 17068 17069 17070 17071 17072 17073 17074 17075 17076 17077 17078 17079 17080 17081 17082 17083 17084 17085 17086 17087 17088 17089 17090 17091 17092 17093 17094 17095 17096 17097 17098 17099 17100 17101 17102 17103 17104 17105 17106 17107 17108 17109 17110 17111 17112 17113 17114 17115 17116 17117 17118 17119 17120 17121 17122 17123 17124 17125 17126 17127 17128 17129 17130 17131 17132 17133 17134 17135 17136 17137 17138 17139 17140 17141 17142 17143 17144 17145 17146 17147 17148 17149 17150 17151 17152 17153 17154 17155 17156 17157 17158 17159 17160 17161 17162 17163 17164 17165 17166 17167 17168 17169 17170 17171 17172 17173 17174 17175 17176 17177 17178 17179 17180 17181 17182 17183 17184 17185 17186 17187 17188 17189 17190 17191 17192 17193 17194 17195 17196 17197 17198 17199 17200 17201 17202 17203 17204 17205 17206 17207 17208 17209 17210 17211 17212 17213 17214 17215 17216 17217 17218 17219 17220 17221 17222 17223 17224 17225 17226 17227 17228 17229 17230 17231 17232 17233 17234 17235 17236 17237 17238 17239 17240 17241 17242 17243 17244 17245 17246 17247 17248 17249 17250 17251 17252 17253 17254 17255 17256 17257 17258 17259 17260 17261 17262 17263 17264 17265 17266 17267 17268 17269 17270 17271 17272 17273 17274 17275 17276 17277 17278 17279 17280 17281 17282 17283 17284 17285 17286 17287 17288 17289 17290 17291 17292 17293 17294 17295 17296 17297 17298 17299 17300 17301 17302 17303 17304 17305 17306 17307 17308 17309 17310 17311 17312 17313 17314 17315 17316 17317 17318 17319 17320 17321 17322 17323 17324 17325 17326 17327 17328 17329 17330 17331 17332 17333 17334 17335 17336 17337 17338 17339 17340 17341 17342 17343 17344 17345 17346 17347 17348 17349 17350 17351 17352 17353 17354 17355 17356 17357 17358 17359 17360 17361 17362 17363 17364 17365 17366 17367 17368 17369 17370 17371 17372 17373 17374 17375 17376 17377 17378 17379 17380 17381 17382 17383 17384 17385 17386 17387 17388 17389 17390 17391 17392 17393 17394 17395 17396 17397 17398 17399 17400 17401 17402 17403 17404 17405 17406 17407 17408 17409 17410 17411 17412 17413 17414 17415 17416 17417 17418 17419 17420 17421 17422 17423 17424 17425 17426 17427 17428 17429 17430 17431 17432 17433 17434 17435 17436 17437 17438 17439 17440 17441 17442 17443 17444 17445 17446 17447 17448 17449 17450 17451 17452 17453 17454 17455 17456 17457 17458 17459 17460 17461 17462 17463 17464 17465 17466 17467 17468 17469 17470 17471 17472 17473 17474 17475 17476 17477 17478 17479 17480 17481 17482 17483 17484 17485 17486 17487 17488 17489 17490 17491 17492 17493 17494 17495 17496 17497 17498 17499 17500 17501 17502 17503 17504 17505 17506 17507 17508 17509 17510 17511 17512 17513 17514 17515 17516 17517 17518 17519 17520 17521 17522 17523 17524 17525 17526 17527 17528 17529 17530 17531 17532 17533 17534 17535 17536 17537 17538 17539 17540 17541 17542 17543 17544 17545 17546 17547 17548 17549 17550 17551 17552 17553 17554 17555 17556 17557 17558 17559 17560 17561 17562 17563 17564 17565 17566 17567 17568 17569 17570 17571 17572 17573 17574 17575 17576 17577 17578 17579 17580 17581 17582 17583 17584 17585 17586 17587 17588 17589 17590 17591 17592 17593 17594 17595 17596 17597 17598 17599 17600 17601 17602 17603 17604 17605 17606 17607 17608 17609 17610 17611 17612 17613 17614 17615 17616 17617 17618 17619 17620 17621 17622 17623 17624 17625 17626 17627 17628 17629 17630 17631 17632 17633 17634 17635 17636 17637 17638 17639 17640 17641 17642 17643 17644 17645 17646 17647 17648 17649 17650 17651 17652 17653 17654 17655 17656 17657 17658 17659 17660 17661 17662 17663 17664 17665 17666 17667 17668 17669 17670 17671 17672 17673 17674 17675 17676 17677 17678 17679 17680 17681 17682 17683 17684 17685 17686 17687 17688 17689 17690 17691 17692 17693 17694 17695 17696 17697 17698 17699 17700 17701 17702 17703 17704 17705 17706 17707 17708 17709 17710 17711 17712 17713 17714 17715 17716 17717 17718 17719 17720 17721 17722 17723 17724 17725 17726 17727 17728 17729 17730 17731 17732 17733 17734 17735 17736 17737 17738 17739 17740 17741 17742 17743 17744 17745 17746 17747 17748 17749 17750 17751 17752 17753 17754 17755 17756 17757 17758 17759 17760 17761 17762 17763 17764 17765 17766 17767 17768 17769 17770 17771 17772 17773 17774 17775 17776 17777 17778 17779 17780 17781 17782 17783 17784 17785 17786 17787 17788 17789 17790 17791 17792 17793 17794 17795 17796 17797 17798 17799 17800 17801 17802 17803 17804 17805 17806 17807 17808 17809 17810 17811 17812 17813 17814 17815 17816 17817 17818 17819 17820 17821 17822 17823 17824 17825 17826 17827 17828 17829 17830 17831 17832 17833 17834 17835 17836 17837 17838 17839 17840 17841 17842 17843 17844 17845 17846 17847 17848 17849 17850 17851 17852 17853 17854 17855 17856 17857 17858 17859 17860 17861 17862 17863 17864 17865 17866 17867 17868 17869 17870 17871 17872 17873 17874 17875 17876 17877 17878 17879 17880 17881 17882 17883 17884 17885 17886 17887 17888 17889 17890 17891 17892 17893 17894 17895 17896 17897 17898 17899 17900 17901 17902 17903 17904 17905 17906 17907 17908 17909 17910 17911 17912 17913 17914 17915 17916 17917 17918 17919 17920 17921 17922 17923 17924 17925 17926 17927 17928 17929 17930 17931 17932 17933 17934 17935 17936 17937 17938 17939 17940 17941 17942 17943 17944 17945 17946 17947 17948 17949 17950 17951 17952 17953 17954 17955 17956 17957 17958 17959 17960 17961 17962 17963 17964 17965 17966 17967 17968 17969 17970 17971 17972 17973 17974 17975 17976 17977 17978 17979 17980 17981 17982 17983 17984 17985 17986 17987 17988 17989 17990 17991 17992 17993 17994 17995 17996 17997 17998 17999 18000 18001 18002 18003 18004 18005 18006 18007 18008 18009 18010 18011 18012 18013 18014 18015 18016 18017 18018 18019 18020 18021 18022 18023 18024 18025 18026 18027 18028 18029 18030 18031 18032 18033 18034 18035 18036 18037 18038 18039 18040 18041 18042 18043 18044 18045 18046 18047 18048 18049 18050 18051 18052 18053 18054 18055 18056 18057 18058 18059 18060 18061 18062 18063 18064 18065 18066 18067 18068 18069 18070 18071 18072 18073 18074 18075 18076 18077 18078 18079 18080 18081 18082 18083 18084 18085 18086 18087 18088 18089 18090 18091 18092 18093 18094 18095 18096 18097 18098 18099 18100 18101 18102 18103 18104 18105 18106 18107 18108 18109 18110 18111 18112 18113 18114 18115 18116 18117 18118 18119 18120 18121 18122 18123 18124 18125 18126 18127 18128 18129 18130 18131 18132 18133 18134 18135 18136 18137 18138 18139 18140 18141 18142 18143 18144 18145 18146 18147 18148 18149 18150 18151 18152 18153 18154 18155 18156 18157 18158 18159 18160 18161 18162 18163 18164 18165 18166 18167 18168 18169 18170 18171 18172 18173 18174 18175 18176 18177 18178 18179 18180 18181 18182 18183 18184 18185 18186 18187 18188 18189 18190 18191 18192 18193 18194 18195 18196 18197 18198 18199 18200 18201 18202 18203 18204 18205 18206 18207 18208 18209 18210 18211 18212 18213 18214 18215 18216 18217 18218 18219 18220 18221 18222 18223 18224 18225 18226 18227 18228 18229 18230 18231 18232 18233 18234 18235 18236 18237 18238 18239 18240 18241 18242 18243 18244 18245 18246 18247 18248 18249 18250 18251 18252 18253 18254 18255 18256 18257 18258 18259 18260 18261 18262 18263 18264 18265 18266 18267 18268 18269 18270 18271 18272 18273 18274 18275 18276 18277 18278 18279 18280 18281 18282 18283 18284 18285 18286 18287 18288 18289 18290 18291 18292 18293 18294 18295 18296 18297 18298 18299 18300 18301 18302 18303 18304 18305 18306 18307 18308 18309 18310 18311 18312 18313 18314 18315 18316 18317 18318 18319 18320 18321 18322 18323 18324 18325 18326 18327 18328 18329 18330 18331 18332 18333 18334 18335 18336 18337 18338 18339 18340 18341 18342 18343 18344 18345 18346 18347 18348 18349 18350 18351 18352 18353 18354 18355 18356 18357 18358 18359 18360 18361 18362 18363 18364 18365 18366 18367 18368 18369 18370 18371 18372 18373 18374 18375 18376 18377 18378 18379 18380 18381 18382 18383 18384 18385 18386 18387 18388 18389 18390 18391 18392 18393 18394 18395 18396 18397 18398 18399 18400 18401 18402 18403 18404 18405 18406 18407 18408 18409 18410 18411 18412 18413 18414 18415 18416 18417 18418 18419 18420 18421 18422 18423 18424 18425 18426 18427 18428 18429 18430 18431 18432 18433 18434 18435 18436 18437 18438 18439 18440 18441 18442 18443 18444 18445 18446 18447 18448 18449 18450 18451 18452 18453 18454 18455 18456 18457 18458 18459 18460 18461 18462 18463 18464 18465 18466 18467 18468 18469 18470 18471 18472 18473 18474 18475 18476 18477 18478 18479 18480 18481 18482 18483 18484 18485 18486 18487 18488 18489 18490 18491 18492 18493 18494 18495 18496 18497 18498 18499 18500 18501 18502 18503 18504 18505 18506 18507 18508 18509 18510 18511 18512 18513 18514 18515 18516 18517 18518 18519 18520 18521 18522 18523 18524 18525 18526 18527 18528 18529 18530 18531 18532 18533 18534 18535 18536 18537 18538 18539 18540 18541 18542 18543 18544 18545 18546 18547 18548 18549 18550 18551 18552 18553 18554 18555 18556 18557 18558 18559 18560 18561 18562 18563 18564 18565 18566 18567 18568 18569 18570 18571 18572 18573 18574 18575 18576 18577 18578 18579 18580 18581 18582 18583 18584 18585 18586 18587 18588 18589 18590 18591 18592 18593 18594 18595 18596 18597 18598 18599 18600 18601 18602 18603 18604 18605 18606 18607 18608 18609 18610 18611 18612 18613 18614 18615 18616 18617 18618 18619 18620 18621 18622 18623 18624 18625 18626 18627 18628 18629 18630 18631 18632 18633 18634 18635 18636 18637 18638 18639 18640 18641 18642 18643 18644 18645 18646 18647 18648 18649 18650 18651 18652 18653 18654 18655 18656 18657 18658 18659 18660 18661 18662 18663 18664 18665 18666 18667 18668 18669 18670 18671 18672 18673 18674 18675 18676 18677 18678 18679 18680 18681 18682 18683 18684 18685 18686 18687 18688 18689 18690 18691 18692 18693 18694 18695 18696 18697 18698 18699 18700 18701 18702 18703 18704 18705 18706 18707 18708 18709 18710 18711 18712 18713 18714 18715 18716 18717 18718 18719 18720 18721 18722 18723 18724 18725 18726 18727 18728 18729 18730 18731 18732 18733 18734 18735 18736 18737 18738 18739 18740 18741 18742 18743 18744 18745 18746 18747 18748 18749 18750 18751 18752 18753 18754 18755 18756 18757 18758 18759 18760 18761 18762 18763 18764 18765 18766 18767 18768 18769 18770 18771 18772 18773 18774 18775 18776 18777 18778 18779 18780 18781 18782 18783 18784 18785 18786 18787 18788 18789 18790 18791 18792 18793 18794 18795 18796 18797 18798 18799 18800 18801 18802 18803 18804 18805 18806 18807 18808 18809 18810 18811 18812 18813 18814 18815 18816 18817 18818 18819 18820 18821 18822 18823 18824 18825 18826 18827 18828 18829 18830 18831 18832 18833 18834 18835 18836 18837 18838 18839 18840 18841 18842 18843 18844 18845 18846 18847 18848 18849 18850 18851 18852 18853 18854 18855 18856 18857 18858 18859 18860 18861 18862 18863 18864 18865 18866 18867 18868 18869 18870 18871 18872 18873 18874 18875 18876 18877 18878 18879 18880 18881 18882 18883 18884 18885 18886 18887 18888 18889 18890 18891 18892 18893 18894 18895 18896 18897 18898 18899 18900 18901 18902 18903 18904 18905 18906 18907 18908 18909 18910 18911 18912 18913 18914 18915 18916 18917 18918 18919 18920 18921 18922 18923 18924 18925 18926 18927 18928 18929 18930 18931 18932 18933 18934 18935 18936 18937 18938 18939 18940 18941 18942 18943 18944 18945 18946 18947 18948 18949 18950 18951 18952 18953 18954 18955 18956 18957 18958 18959 18960 18961 18962 18963 18964 18965 18966 18967 18968 18969 18970 18971 18972 18973 18974 18975 18976 18977 18978 18979 18980 18981 18982 18983 18984 18985 18986 18987 18988 18989 18990 18991 18992 18993 18994 18995 18996 18997 18998 18999 19000 19001 19002 19003 19004 19005 19006 19007 19008 19009 19010 19011 19012 19013 19014 19015 19016 19017 19018 19019 19020 19021 19022 19023 19024 19025 19026 19027 19028 19029 19030 19031 19032 19033 19034 19035 19036 19037 19038 19039 19040 19041 19042 19043 19044 19045 19046 19047 19048 19049 19050 19051 19052 19053 19054 19055 19056 19057 19058 19059 19060 19061 19062 19063 19064 19065 19066 19067 19068 19069 19070 19071 19072 19073 19074 19075 19076 19077 19078 19079 19080 19081 19082 19083 19084 19085 19086 19087 19088 19089 19090 19091 19092 19093 19094 19095 19096 19097 19098 19099 19100 19101 19102 19103 19104 19105 19106 19107 19108 19109 19110 19111 19112 19113 19114 19115 19116 19117 19118 19119 19120 19121 19122 19123 19124 19125 19126 19127 19128 19129 19130 19131 19132 19133 19134 19135 19136 19137 19138 19139 19140 19141 19142 19143 19144 19145 19146 19147 19148 19149 19150 19151 19152 19153 19154 19155 19156 19157 19158 19159 19160 19161 19162 19163 19164 19165 19166 19167 19168 19169 19170 19171 19172 19173 19174 19175 19176 19177 19178 19179 19180 19181 19182 19183 19184 19185 19186 19187 19188 19189 19190 19191 19192 19193 19194 19195 19196 19197 19198 19199 19200 19201 19202 19203 19204 19205 19206 19207 19208 19209 19210 19211 19212 19213 19214 19215 19216 19217 19218 19219 19220 19221 19222 19223 19224 19225 19226 19227 19228 19229 19230 19231 19232 19233 19234 19235 19236 19237 19238 19239 19240 19241 19242 19243 19244 19245 19246 19247 19248 19249 19250 19251 19252 19253 19254 19255 19256 19257 19258 19259 19260 19261 19262 19263 19264 19265 19266 19267 19268 19269 19270 19271 19272 19273 19274 19275 19276 19277 19278 19279 19280 19281 19282 19283 19284 19285 19286 19287 19288 19289 19290 19291 19292 19293 19294 19295 19296 19297 19298 19299 19300 19301 19302 19303 19304 19305 19306 19307 19308 19309 19310 19311 19312 19313 19314 19315 19316 19317 19318 19319 19320 19321 19322 19323 19324 19325 19326 19327 19328 19329 19330 19331 19332 19333 19334 19335 19336 19337 19338 19339 19340 19341 19342 19343 19344 19345 19346 19347 19348 19349 19350 19351 19352 19353 19354 19355 19356 19357 19358 19359 19360 19361 19362 19363 19364 19365 19366 19367 19368 19369 19370 19371 19372 19373 19374 19375 19376 19377 19378 19379 19380 19381 19382 19383 19384 19385 19386 19387 19388 19389 19390 19391 19392 19393 19394 19395 19396 19397 19398 19399 19400 19401 19402 19403 19404 19405 19406 19407 19408 19409 19410 19411 19412 19413 19414 19415 19416 19417 19418 19419 19420 19421 19422 19423 19424 19425 19426 19427 19428 19429 19430 19431 19432 19433 19434 19435 19436 19437 19438 19439 19440 19441 19442 19443 19444 19445 19446 19447 19448 19449 19450 19451 19452 19453 19454 19455 19456 19457 19458 19459 19460 19461 19462 19463 19464 19465 19466 19467 19468 19469 19470 19471 19472 19473 19474 19475 19476 19477 19478 19479 19480 19481 19482 19483 19484 19485 19486 19487 19488 19489 19490 19491 19492 19493 19494 19495 19496 19497 19498 19499 19500 19501 19502 19503 19504 19505 19506 19507 19508 19509 19510 19511 19512 19513 19514 19515 19516 19517 19518 19519 19520 19521 19522 19523 19524 19525 19526 19527 19528 19529 19530 19531 19532 19533 19534 19535 19536 19537 19538 19539 19540 19541 19542 19543 19544 19545 19546 19547 19548 19549 19550 19551 19552 19553 19554 19555 19556 19557 19558 19559 19560 19561 19562 19563 19564 19565 19566 19567 19568 19569 19570 19571 19572 19573 19574 19575 19576 19577 19578 19579 19580 19581 19582 19583 19584 19585 19586 19587 19588 19589 19590 19591 19592 19593 19594 19595 19596 19597 19598 19599 19600 19601 19602 19603 19604 19605 19606 19607 19608 19609 19610 19611 19612 19613 19614 19615 19616 19617 19618 19619 19620 19621 19622 19623 19624 19625 19626 19627 19628 19629 19630 19631 19632 19633 19634 19635 19636 19637 19638 19639 19640 19641 19642 19643 19644 19645 19646 19647 19648 19649 19650 19651 19652 19653 19654 19655 19656 19657 19658 19659 19660 19661 19662 19663 19664 19665 19666 19667 19668 19669 19670 19671 19672 19673 19674 19675 19676 19677 19678 19679 19680 19681 19682 19683 19684 19685 19686 19687 19688 19689 19690 19691 19692 19693 19694 19695 19696 19697 19698 19699 19700 19701 19702 19703 19704 19705 19706 19707 19708 19709 19710 19711 19712 19713 19714 19715 19716 19717 19718 19719 19720 19721 19722 19723 19724 19725 19726 19727 19728 19729 19730 19731 19732 19733 19734 19735 19736 19737 19738 19739 19740 19741 19742 19743 19744 19745 19746 19747 19748 19749 19750 19751 19752 19753 19754 19755 19756 19757 19758 19759 19760 19761 19762 19763 19764 19765 19766 19767 19768 19769 19770 19771 19772 19773 19774 19775 19776 19777 19778 19779 19780 19781 19782 19783 19784 19785 19786 19787 19788 19789 19790 19791 19792 19793 19794 19795 19796 19797 19798 19799 19800 19801 19802 19803 19804 19805 19806 19807 19808 19809 19810 19811 19812 19813 19814 19815 19816 19817 19818 19819 19820 19821 19822 19823 19824 19825 19826 19827 19828 19829 19830 19831 19832 19833 19834 19835 19836 19837 19838 19839 19840 19841 19842 19843 19844 19845 19846 19847 19848 19849 19850 19851 19852 19853 19854 19855 19856 19857 19858 19859 19860 19861 19862 19863 19864 19865 19866 19867 19868 19869 19870 19871 19872 19873 19874 19875 19876 19877 19878 19879 19880 19881 19882 19883 19884 19885 19886 19887 19888 19889 19890 19891 19892 19893 19894 19895 19896 19897 19898 19899 19900 19901 19902 19903 19904 19905 19906 19907 19908 19909 19910 19911 19912 19913 19914 19915 19916 19917 19918 19919 19920 19921 19922 19923 19924 19925 19926 19927 19928 19929 19930 19931 19932 19933 19934 19935 19936 19937 19938 19939 19940 19941 19942 19943 19944 19945 19946 19947 19948 19949 19950 19951 19952 19953 19954 19955 19956 19957 19958 19959 19960 19961 19962 19963 19964 19965 19966 19967 19968 19969 19970 19971 19972 19973 19974 19975 19976 19977 19978 19979 19980 19981 19982 19983 19984 19985 19986 19987 19988 19989 19990 19991 19992 19993 19994 19995 19996 19997 19998 19999 20000 20001 20002 20003 20004 20005 20006 20007 20008 20009 20010 20011 20012 20013 20014 20015 20016 20017 20018 20019 20020 20021 20022 20023 20024 20025 20026 20027 20028 20029 20030 20031 20032 20033 20034 20035 20036 20037 20038 20039 20040 20041 20042 20043 20044 20045 20046 20047 20048 20049 20050 20051 20052 20053 20054 20055 20056 20057 20058 20059 20060 20061 20062 20063 20064 20065 20066 20067 20068 20069 20070 20071 20072 20073 20074 20075 20076 20077 20078 20079 20080 20081 20082 20083 20084 20085 20086 20087 20088 20089 20090 20091 20092 20093 20094 20095 20096 20097 20098 20099 20100 20101 20102 20103 20104 20105 20106 20107 20108 20109 20110 20111 20112 20113 20114 20115 20116 20117 20118 20119 20120 20121 20122 20123 20124 20125 20126 20127 20128 20129 20130 20131 20132 20133 20134 20135 20136 20137 20138 20139 20140 20141 20142 20143 20144 20145 20146 20147 20148 20149 20150 20151 20152 20153 20154 20155 20156 20157 20158 20159 20160 20161 20162 20163 20164 20165 20166 20167 20168 20169 20170 20171 20172 20173 20174 20175 20176 20177 20178 20179 20180 20181 20182 20183 20184 20185 20186 20187 20188 20189 20190 20191 20192 20193 20194 20195 20196 20197 20198 20199 20200 20201 20202 20203 20204 20205 20206 20207 20208 20209 20210 20211 20212 20213 20214 20215 20216 20217 20218 20219 20220 20221 20222 20223 20224 20225 20226 20227 20228 20229 20230 20231 20232 20233 20234 20235 20236 20237 20238 20239 20240 20241 20242 20243 20244 20245 20246 20247 20248 20249 20250 20251 20252 20253 20254 20255 20256 20257 20258 20259 20260 20261 20262 20263 20264 20265 20266 20267 20268 20269 20270 20271 20272 20273 20274 20275 20276 20277 20278 20279 20280 20281 20282 20283 20284 20285 20286 20287 20288 20289 20290 20291 20292 20293 20294 20295 20296 20297 20298 20299 20300 20301 20302 20303 20304 20305 20306 20307 20308 20309 20310 20311 20312 20313 20314 20315 20316 20317 20318 20319 20320 20321 20322 20323 20324 20325 20326 20327 20328 20329 20330 20331 20332 20333 20334 20335 20336 20337 20338 20339 20340 20341 20342 20343 20344 20345 20346 20347 20348 20349 20350 20351 20352 20353 20354 20355 20356 20357 20358 20359 20360 20361 20362 20363 20364 20365 20366 20367 20368 20369 20370 20371 20372 20373 20374 20375 20376 20377 20378 20379 20380 20381 20382 20383 20384 20385 20386 20387 20388 20389 20390 20391 20392 20393 20394 20395 20396 20397 20398 20399 20400 20401 20402 20403 20404 20405 20406 20407 20408 20409 20410 20411 20412 20413 20414 20415 20416 20417 20418 20419 20420 20421 20422 20423 20424 20425 20426 20427 20428 20429 20430 20431 20432 20433 20434 20435 20436 20437 20438 20439 20440 20441 20442 20443 20444 20445 20446 20447 20448 20449 20450 20451 20452 20453 20454 20455 20456 20457 20458 20459 20460 20461 20462 20463 20464 20465 20466 20467 20468 20469 20470 20471 20472 20473 20474 20475 20476 20477 20478 20479 20480 20481 20482 20483 20484 20485 20486 20487 20488 20489 20490 20491 20492 20493 20494 20495 20496 20497 20498 20499 20500 20501 20502 20503 20504 20505 20506 20507 20508 20509 20510 20511 20512 20513 20514 20515 20516 20517 20518 20519 20520 20521 20522 20523 20524 20525 20526 20527 20528 20529 20530 20531 20532 20533 20534 20535 20536 20537 20538 20539 20540 20541 20542 20543 20544 20545 20546 20547 20548 20549 20550 20551 20552 20553 20554 20555 20556 20557 20558 20559 20560 20561 20562 20563 20564 20565 20566 20567 20568 20569 20570 20571 20572 20573 20574 20575 20576 20577 20578 20579 20580 20581 20582 20583 20584 20585 20586 20587 20588 20589 20590 20591 20592 20593 20594 20595 20596 20597 20598 20599 20600 20601 20602 20603 20604 20605 20606 20607 20608 20609 20610 20611 20612 20613 20614 20615 20616 20617 20618 20619 20620 20621 20622 20623 20624 20625 20626 20627 20628 20629 20630 20631 20632 20633 20634 20635 20636 20637 20638 20639 20640 20641 20642 20643 20644 20645 20646 20647 20648 20649 20650 20651 20652 20653 20654 20655 20656 20657 20658 20659 20660 20661 20662 20663 20664 20665 20666 20667 20668 20669 20670 20671 20672 20673 20674 20675 20676 20677 20678 20679 20680 20681 20682 20683 20684 20685 20686 20687 20688 20689 20690 20691 20692 20693 20694 20695 20696 20697 20698 20699 20700 20701 20702 20703 20704 20705 20706 20707 20708 20709 20710 20711 20712 20713 20714 20715 20716 20717 20718 20719 20720 20721 20722 20723 20724 20725 20726 20727 20728 20729 20730 20731 20732 20733 20734 20735 20736 20737 20738 20739 20740 20741 20742 20743 20744 20745 20746 20747 20748 20749 20750 20751 20752 20753 20754 20755 20756 20757 20758 20759 20760 20761 20762 20763 20764 20765 20766 20767 20768 20769 20770 20771 20772 20773 20774 20775 20776 20777 20778 20779 20780 20781 20782 20783 20784 20785 20786 20787 20788 20789 20790 20791 20792 20793 20794 20795 20796 20797 20798 20799 20800 20801 20802 20803 20804 20805 20806 20807 20808 20809 20810 20811 20812 20813 20814 20815 20816 20817 20818 20819 20820 20821 20822 20823 20824 20825 20826 20827 20828 20829 20830 20831 20832 20833 20834 20835 20836 20837 20838 20839 20840 20841 20842 20843 20844 20845 20846 20847 20848 20849 20850 20851 20852 20853 20854 20855 20856 20857 20858 20859 20860 20861 20862 20863 20864 20865 20866 20867 20868 20869 20870 20871 20872 20873 20874 20875 20876 20877 20878 20879 20880 20881 20882 20883 20884 20885 20886 20887 20888 20889 20890 20891 20892 20893 20894 20895 20896 20897 20898 20899 20900 20901 20902 20903 20904 20905 20906 20907 20908 20909 20910 20911 20912 20913 20914 20915 20916 20917 20918 20919 20920 20921 20922 20923 20924 20925 20926 20927 20928 20929 20930 20931 20932 20933 20934 20935 20936 20937 20938 20939 20940 20941 20942 20943 20944 20945 20946 20947 20948 20949 20950 20951 20952 20953 20954 20955 20956 20957 20958 20959 20960 20961 20962 20963 20964 20965 20966 20967 20968 20969 20970 20971 20972 20973 20974 20975 20976 20977 20978 20979 20980 20981 20982 20983 20984 20985 20986 20987 20988 20989 20990 20991 20992 20993 20994 20995 20996 20997 20998 20999 21000 21001 21002 21003 21004 21005 21006 21007 21008 21009 21010 21011 21012 21013 21014 21015 21016 21017 21018 21019 21020 21021 21022 21023 21024 21025 21026 21027 21028 21029 21030 21031 21032 21033 21034 21035 21036 21037 21038 21039 21040 21041 21042 21043 21044 21045 21046 21047 21048 21049 21050 21051 21052 21053 21054 21055 21056 21057 21058 21059 21060 21061 21062 21063 21064 21065 21066 21067 21068 21069 21070 21071 21072 21073 21074 21075 21076 21077 21078 21079 21080 21081 21082 21083 21084 21085 21086 21087 21088 21089 21090 21091 21092 21093 21094 21095 21096 21097 21098 21099 21100 21101 21102 21103 21104 21105 21106 21107 21108 21109 21110 21111 21112 21113 21114 21115 21116 21117 21118 21119 21120 21121 21122 21123 21124 21125 21126 21127 21128 21129 21130 21131 21132 21133 21134 21135 21136 21137 21138 21139 21140 21141 21142 21143 21144 21145 21146 21147 21148 21149 21150 21151 21152 21153 21154 21155 21156 21157 21158 21159 21160 21161 21162 21163 21164 21165 21166 21167 21168 21169 21170 21171 21172 21173 21174 21175 21176 21177 21178 21179 21180 21181 21182 21183 21184 21185 21186 21187 21188 21189 21190 21191 21192 21193 21194 21195 21196 21197 21198 21199 21200 21201 21202 21203 21204 21205 21206 21207 21208 21209 21210 21211 21212 21213 21214 21215 21216 21217 21218 21219 21220 21221 21222 21223 21224 21225 21226 21227 21228 21229 21230 21231 21232 21233 21234 21235 21236 21237 21238 21239 21240 21241 21242 21243 21244 21245 21246 21247 21248 21249 21250 21251 21252 21253 21254 21255 21256 21257 21258 21259 21260 21261 21262 21263 21264 21265 21266 21267 21268 21269 21270 21271 21272 21273 21274 21275 21276 21277 21278 21279 21280 21281 21282 21283 21284 21285 21286 21287 21288 21289 21290 21291 21292 21293 21294 21295 21296 21297 21298 21299 21300 21301 21302 21303 21304 21305 21306 21307 21308 21309 21310 21311 21312 21313 21314 21315 21316 21317 21318 21319 21320 21321 21322 21323 21324 21325 21326 21327 21328 21329 21330 21331 21332 21333 21334 21335 21336 21337 21338 21339 21340 21341 21342 21343 21344 21345 21346 21347 21348 21349 21350 21351 21352 21353 21354 21355 21356 21357 21358 21359 21360 21361 21362 21363 21364 21365 21366 21367 21368 21369 21370 21371 21372 21373 21374 21375 21376 21377 21378 21379 21380 21381 21382 21383 21384 21385 21386 21387 21388 21389 21390 21391 21392 21393 21394 21395 21396 21397 21398 21399 21400 21401 21402 21403 21404 21405 21406 21407 21408 21409 21410 21411 21412 21413 21414 21415 21416 21417 21418 21419 21420 21421 21422 21423 21424 21425 21426 21427 21428 21429 21430 21431 21432 21433 21434 21435 21436 21437 21438 21439 21440 21441 21442 21443 21444 21445 21446 21447 21448 21449 21450 21451 21452 21453 21454 21455 21456 21457 21458 21459 21460 21461 21462 21463 21464 21465 21466 21467 21468 21469 21470 21471 21472 21473 21474 21475 21476 21477 21478 21479 21480 21481 21482 21483 21484 21485 21486 21487 21488 21489 21490 21491 21492 21493 21494 21495 21496 21497 21498 21499 21500 21501 21502 21503 21504 21505 21506 21507 21508 21509 21510 21511 21512 21513 21514 21515 21516 21517 21518 21519 21520 21521 21522 21523 21524 21525 21526 21527 21528 21529 21530 21531 21532 21533 21534 21535 21536 21537 21538 21539 21540 21541 21542 21543 21544 21545 21546 21547 21548 21549 21550 21551 21552 21553 21554 21555 21556 21557 21558 21559 21560 21561 21562 21563 21564 21565 21566 21567 21568 21569 21570 21571 21572 21573 21574 21575 21576 21577 21578 21579 21580 21581 21582 21583 21584 21585 21586 21587 21588 21589 21590 21591 21592 21593 21594 21595 21596 21597 21598 21599 21600 21601 21602 21603 21604 21605 21606 21607 21608 21609 21610 21611 21612 21613 21614 21615 21616 21617 21618 21619 21620 21621 21622 21623 21624 21625 21626 21627 21628 21629 21630 21631 21632 21633 21634 21635 21636 21637 21638 21639 21640 21641 21642 21643 21644 21645 21646 21647 21648 21649 21650 21651 21652 21653 21654 21655 21656 21657 21658 21659 21660 21661 21662 21663 21664 21665 21666 21667 21668 21669 21670 21671 21672 21673 21674 21675 21676 21677 21678 21679 21680 21681 21682 21683 21684 21685 21686 21687 21688 21689 21690 21691 21692 21693 21694 21695 21696 21697 21698 21699 21700 21701 21702 21703 21704 21705 21706 21707 21708 21709 21710 21711 21712 21713 21714 21715 21716 21717 21718 21719 21720 21721 21722 21723 21724 21725 21726 21727 21728 21729 21730 21731 21732 21733 21734 21735 21736 21737 21738 21739 21740 21741 21742 21743 21744 21745 21746 21747 21748 21749 21750 21751 21752 21753 21754 21755 21756 21757 21758 21759 21760 21761 21762 21763 21764 21765 21766 21767 21768 21769 21770 21771 21772 21773 21774 21775 21776 21777 21778 21779 21780 21781 21782 21783 21784 21785 21786 21787 21788 21789 21790 21791 21792 21793 21794 21795 21796 21797 21798 21799 21800 21801 21802 21803 21804 21805 21806 21807 21808 21809 21810 21811 21812 21813 21814 21815 21816 21817 21818 21819 21820 21821 21822 21823 21824 21825 21826 21827 21828 21829 21830 21831 21832 21833 21834 21835 21836 21837 21838 21839 21840 21841 21842 21843 21844 21845 21846 21847 21848 21849 21850 21851 21852 21853 21854 21855 21856 21857 21858 21859 21860 21861 21862 21863 21864 21865 21866 21867 21868 21869 21870 21871 21872 21873 21874 21875 21876 21877 21878 21879 21880 21881 21882 21883 21884 21885 21886 21887 21888 21889 21890 21891 21892 21893 21894 21895 21896 21897 21898 21899 21900 21901 21902 21903 21904 21905 21906 21907 21908 21909 21910 21911 21912 21913 21914 21915 21916 21917 21918 21919 21920 21921 21922 21923 21924 21925 21926 21927 21928 21929 21930 21931 21932 21933 21934 21935 21936 21937 21938 21939 21940 21941 21942 21943 21944 21945 21946 21947 21948 21949 21950 21951 21952 21953 21954 21955 21956 21957 21958 21959 21960 21961 21962 21963 21964 21965 21966 21967 21968 21969 21970 21971 21972 21973 21974 21975 21976 21977 21978 21979 21980 21981 21982 21983 21984 21985 21986 21987 21988 21989 21990 21991 21992 21993 21994 21995 21996 21997 21998 21999 22000 22001 22002 22003 22004 22005 22006 22007 22008 22009 22010 22011 22012 22013 22014 22015 22016 22017 22018 22019 22020 22021 22022 22023 22024 22025 22026 22027 22028 22029 22030 22031 22032 22033 22034 22035 22036 22037 22038 22039 22040 22041 22042 22043 22044 22045 22046 22047 22048 22049 22050 22051 22052 22053 22054 22055 22056 22057 22058 22059 22060 22061 22062 22063 22064 22065 22066 22067 22068 22069 22070 22071 22072 22073 22074 22075 22076 22077 22078 22079 22080 22081 22082 22083 22084 22085 22086 22087 22088 22089 22090 22091 22092 22093 22094 22095 22096 22097 22098 22099 22100 22101 22102 22103 22104 22105 22106 22107 22108 22109 22110 22111 22112 22113 22114 22115 22116 22117 22118 22119 22120 22121 22122 22123 22124 22125 22126 22127 22128 22129 22130 22131 22132 22133 22134 22135 22136 22137 22138 22139 22140 22141 22142 22143 22144 22145 22146 22147 22148 22149 22150 22151 22152 22153 22154 22155 22156 22157 22158 22159 22160 22161 22162 22163 22164 22165 22166 22167 22168 22169 22170 22171 22172 22173 22174 22175 22176 22177 22178 22179 22180 22181 22182 22183 22184 22185 22186 22187 22188 22189 22190 22191 22192 22193 22194 22195 22196 22197 22198 22199 22200 22201 22202 22203 22204 22205 22206 22207 22208 22209 22210 22211 22212 22213 22214 22215 22216 22217 22218 22219 22220 22221 22222 22223 22224 22225 22226 22227 22228 22229 22230 22231 22232 22233 22234 22235 22236 22237 22238 22239 22240 22241 22242 22243 22244 22245 22246 22247 22248 22249 22250 22251 22252 22253 22254 22255 22256 22257 22258 22259 22260 22261 22262 22263 22264 22265 22266 22267 22268 22269 22270 22271 22272 22273 22274 22275 22276 22277 22278 22279 22280 22281 22282 22283 22284 22285 22286 22287 22288 22289 22290 22291 22292 22293 22294 22295 22296 22297 22298 22299 22300 22301 22302 22303 22304 22305 22306 22307 22308 22309 22310 22311 22312 22313 22314 22315 22316 22317 22318 22319 22320 22321 22322 22323 22324 22325 22326 22327 22328 22329 22330 22331 22332 22333 22334 22335 22336 22337 22338 22339 22340 22341 22342 22343 22344 22345 22346 22347 22348 22349 22350 22351 22352 22353 22354 22355 22356 22357 22358 22359 22360 22361 22362 22363 22364 22365 22366 22367 22368 22369 22370 22371 22372 22373 22374 22375 22376 22377 22378 22379 22380 22381 22382 22383 22384 22385 22386 22387 22388 22389 22390 22391 22392 22393 22394 22395 22396 22397 22398 22399 22400 22401 22402 22403 22404 22405 22406 22407 22408 22409 22410 22411 22412 22413 22414 22415 22416 22417 22418 22419 22420 22421 22422 22423 22424 22425 22426 22427 22428 22429 22430 22431 22432 22433 22434 22435 22436 22437 22438 22439 22440 22441 22442 22443 22444 22445 22446 22447 22448 22449 22450 22451 22452 22453 22454 22455 22456 22457 22458 22459 22460 22461 22462 22463 22464 22465 22466 22467 22468 22469 22470 22471 22472 22473 22474 22475 22476 22477 22478 22479 22480 22481 22482 22483 22484 22485 22486 22487 22488 22489 22490 22491 22492 22493 22494 22495 22496 22497 22498 22499 22500 22501 22502 22503 22504 22505 22506 22507 22508 22509 22510 22511 22512 22513 22514 22515 22516 22517 22518 22519 22520 22521 22522 22523 22524 22525 22526 22527 22528 22529 22530 22531 22532 22533 22534 22535 22536 22537 22538 22539 22540 22541 22542 22543 22544 22545 22546 22547 22548 22549 22550 22551 22552 22553 22554 22555 22556 22557 22558 22559 22560 22561 22562 22563 22564 22565 22566 22567 22568 22569 22570 22571 22572 22573 22574 22575 22576 22577 22578 22579 22580 22581 22582 22583 22584 22585 22586 22587 22588 22589 22590 22591 22592 22593 22594 22595 22596 22597 22598 22599 22600 22601 22602 22603 22604 22605 22606 22607 22608 22609 22610 22611 22612 22613 22614 22615 22616 22617 22618 22619 22620 22621 22622 22623 22624 22625 22626 22627 22628 22629 22630 22631 22632 22633 22634 22635 22636 22637 22638 22639 22640 22641 22642 22643 22644 22645 22646 22647 22648 22649 22650 22651 22652 22653 22654 22655 22656 22657 22658 22659 22660 22661 22662 22663 22664 22665 22666 22667 22668 22669 22670 22671 22672 22673 22674 22675 22676 22677 22678 22679 22680 22681 22682 22683 22684 22685 22686 22687 22688 22689 22690 22691 22692 22693 22694 22695 22696 22697 22698 22699 22700 22701 22702 22703 22704 22705 22706 22707 22708 22709 22710 22711 22712 22713 22714 22715 22716 22717 22718 22719 22720 22721 22722 22723 22724 22725 22726 22727 22728 22729 22730 22731 22732 22733 22734 22735 22736 22737 22738 22739 22740 22741 22742 22743 22744 22745 22746 22747 22748 22749 22750 22751 22752 22753 22754 22755 22756 22757 22758 22759 22760 22761 22762 22763 22764 22765 22766 22767 22768 22769 22770 22771 22772 22773 22774 22775 22776 22777 22778 22779 22780 22781 22782 22783 22784 22785 22786 22787 22788 22789 22790 22791 22792 22793 22794 22795 22796 22797 22798 22799 22800 22801 22802 22803 22804 22805 22806 22807 22808 22809 22810 22811 22812 22813 22814 22815 22816 22817 22818 22819 22820 22821 22822 22823 22824 22825 22826 22827 22828 22829 22830 22831 22832 22833 22834 22835 22836 22837 22838 22839 22840 22841 22842 22843 22844 22845 22846 22847 22848 22849 22850 22851 22852 22853 22854 22855 22856 22857 22858 22859 22860 22861 22862 22863 22864 22865 22866 22867 22868 22869 22870 22871 22872 22873 22874 22875 22876 22877 22878 22879 22880 22881 22882 22883 22884 22885 22886 22887 22888 22889 22890 22891 22892 22893 22894 22895 22896 22897 22898 22899 22900 22901 22902 22903 22904 22905 22906 22907 22908 22909 22910 22911 22912 22913 22914 22915 22916 22917 22918 22919 22920 22921 22922 22923 22924 22925 22926 22927 22928 22929 22930 22931 22932 22933 22934 22935 22936 22937 22938 22939 22940 22941 22942 22943 22944 22945 22946 22947 22948 22949 22950 22951 22952 22953 22954 22955 22956 22957 22958 22959 22960 22961 22962 22963 22964 22965 22966 22967 22968 22969 22970 22971 22972 22973 22974 22975 22976 22977 22978 22979 22980 22981 22982 22983 22984 22985 22986 22987 22988 22989 22990 22991 22992 22993 22994 22995 22996 22997 22998 22999 23000 23001 23002 23003 23004 23005 23006 23007 23008 23009 23010 23011 23012 23013 23014 23015 23016 23017 23018 23019 23020 23021 23022 23023 23024 23025 23026 23027 23028 23029 23030 23031 23032 23033 23034 23035 23036 23037 23038 23039 23040 23041 23042 23043 23044 23045 23046 23047 23048 23049 23050 23051 23052 23053 23054 23055 23056 23057 23058 23059 23060 23061 23062 23063 23064 23065 23066 23067 23068 23069 23070 23071 23072 23073 23074 23075 23076 23077 23078 23079 23080 23081 23082 23083 23084 23085 23086 23087 23088 23089 23090 23091 23092 23093 23094 23095 23096 23097 23098 23099 23100 23101 23102 23103 23104 23105 23106 23107 23108 23109 23110 23111 23112 23113 23114 23115 23116 23117 23118 23119 23120 23121 23122 23123 23124 23125 23126 23127 23128 23129 23130 23131 23132 23133 23134 23135 23136 23137 23138 23139 23140 23141 23142 23143 23144 23145 23146 23147 23148 23149 23150 23151 23152 23153 23154 23155 23156 23157 23158 23159 23160 23161 23162 23163 23164 23165 23166 23167 23168 23169 23170 23171 23172 23173 23174 23175 23176 23177 23178 23179 23180 23181 23182 23183 23184 23185 23186 23187 23188 23189 23190 23191 23192 23193 23194 23195 23196 23197 23198 23199 23200 23201 23202 23203 23204 23205 23206 23207 23208 23209 23210 23211 23212 23213 23214 23215 23216 23217 23218 23219 23220 23221 23222 23223 23224 23225 23226 23227 23228 23229 23230 23231 23232 23233 23234 23235 23236 23237 23238 23239 23240 23241 23242 23243 23244 23245 23246 23247 23248 23249 23250 23251 23252 23253 23254 23255 23256 23257 23258 23259 23260 23261 23262 23263 23264 23265 23266 23267 23268 23269 23270 23271 23272 23273 23274 23275 23276 23277 23278 23279 23280 23281 23282 23283 23284 23285 23286 23287 23288 23289 23290 23291 23292 23293 23294 23295 23296 23297 23298 23299 23300 23301 23302 23303 23304 23305 23306 23307 23308 23309 23310 23311 23312 23313 23314 23315 23316 23317 23318 23319 23320 23321 23322 23323 23324 23325 23326 23327 23328 23329 23330 23331 23332 23333 23334 23335 23336 23337 23338 23339 23340 23341 23342 23343 23344 23345 23346 23347 23348 23349 23350 23351 23352 23353 23354 23355 23356 23357 23358 23359 23360 23361 23362 23363 23364 23365 23366 23367 23368 23369 23370 23371 23372 23373 23374 23375 23376 23377 23378 23379 23380 23381 23382 23383 23384 23385 23386 23387 23388 23389 23390 23391 23392 23393 23394 23395 23396 23397 23398 23399 23400 23401 23402 23403 23404 23405 23406 23407 23408 23409 23410 23411 23412 23413 23414 23415 23416 23417 23418 23419 23420 23421 23422 23423 23424 23425 23426 23427 23428 23429 23430 23431 23432 23433 23434 23435 23436 23437 23438 23439 23440 23441 23442 23443 23444 23445 23446 23447 23448 23449 23450 23451 23452 23453 23454 23455 23456 23457 23458 23459 23460 23461 23462 23463 23464 23465 23466 23467 23468 23469 23470 23471 23472 23473 23474 23475 23476 23477 23478 23479 23480 23481 23482 23483 23484 23485 23486 23487 23488 23489 23490 23491 23492 23493 23494 23495 23496 23497 23498 23499 23500 23501 23502 23503 23504 23505 23506 23507 23508 23509 23510 23511 23512 23513 23514 23515 23516 23517 23518 23519 23520 23521 23522 23523 23524 23525 23526 23527 23528 23529 23530 23531 23532 23533 23534 23535 23536 23537 23538 23539 23540 23541 23542 23543 23544 23545 23546 23547 23548 23549 23550 23551 23552 23553 23554 23555 23556 23557 23558 23559 23560 23561 23562 23563 23564 23565 23566 23567 23568 23569 23570 23571 23572 23573 23574 23575 23576 23577 23578 23579 23580 23581 23582 23583 23584 23585 23586 23587 23588 23589 23590 23591 23592 23593 23594 23595 23596 23597 23598 23599 23600 23601 23602 23603 23604 23605 23606 23607 23608 23609 23610 23611 23612 23613 23614 23615 23616 23617 23618 23619 23620 23621 23622 23623 23624 23625 23626 23627 23628 23629 23630 23631 23632 23633 23634 23635 23636 23637 23638 23639 23640 23641 23642 23643 23644 23645 23646 23647 23648 23649 23650 23651 23652 23653 23654 23655 23656 23657 23658 23659 23660 23661 23662 23663 23664 23665 23666 23667 23668 23669 23670 23671 23672 23673 23674 23675 23676 23677 23678 23679 23680 23681 23682 23683 23684 23685 23686 23687 23688 23689 23690 23691 23692 23693 23694 23695 23696 23697 23698 23699 23700 23701 23702 23703 23704 23705 23706 23707 23708 23709 23710 23711 23712 23713 23714 23715 23716 23717 23718 23719 23720 23721 23722 23723 23724 23725 23726 23727 23728 23729 23730 23731 23732 23733 23734 23735 23736 23737 23738 23739 23740 23741 23742 23743 23744 23745 23746 23747 23748 23749 23750 23751 23752 23753 23754 23755 23756 23757 23758 23759 23760 23761 23762 23763 23764 23765 23766 23767 23768 23769 23770 23771 23772 23773 23774 23775 23776 23777 23778 23779 23780 23781 23782 23783 23784 23785 23786 23787 23788 23789 23790 23791 23792 23793 23794 23795 23796 23797 23798 23799 23800 23801 23802 23803 23804 23805 23806 23807 23808 23809 23810 23811 23812 23813 23814 23815 23816 23817 23818 23819 23820 23821 23822 23823 23824 23825 23826 23827 23828 23829 23830 23831 23832 23833 23834 23835 23836 23837 23838 23839 23840 23841 23842 23843 23844 23845 23846 23847 23848 23849 23850 23851 23852 23853 23854 23855 23856 23857 23858 23859 23860 23861 23862 23863 23864 23865 23866 23867 23868 23869 23870 23871 23872 23873 23874 23875 23876 23877 23878 23879 23880 23881 23882 23883 23884 23885 23886 23887 23888 23889 23890 23891 23892 23893 23894 23895 23896 23897 23898 23899 23900 23901 23902 23903 23904 23905 23906 23907 23908 23909 23910 23911 23912 23913 23914 23915 23916 23917 23918 23919 23920 23921 23922 23923 23924 23925 23926 23927 23928 23929 23930 23931 23932 23933 23934 23935 23936 23937 23938 23939 23940 23941 23942 23943 23944 23945 23946 23947 23948 23949 23950 23951 23952 23953 23954 23955 23956 23957 23958 23959 23960 23961 23962 23963 23964 23965 23966 23967 23968 23969 23970 23971 23972 23973 23974 23975 23976 23977 23978 23979 23980 23981 23982 23983 23984 23985 23986 23987 23988 23989 23990 23991 23992 23993 23994 23995 23996 23997 23998 23999 24000 24001 24002 24003 24004 24005 24006 24007 24008 24009 24010 24011 24012 24013 24014 24015 24016 24017 24018 24019 24020 24021 24022 24023 24024 24025 24026 24027 24028 24029 24030 24031 24032 24033 24034 24035 24036 24037 24038 24039 24040 24041 24042 24043 24044 24045 24046 24047 24048 24049 24050 24051 24052 24053 24054 24055 24056 24057 24058 24059 24060 24061 24062 24063 24064 24065 24066 24067 24068 24069 24070 24071 24072 24073 24074 24075 24076 24077 24078 24079 24080 24081 24082 24083 24084 24085 24086 24087 24088 24089 24090 24091 24092 24093 24094 24095 24096 24097 24098 24099 24100 24101 24102 24103 24104 24105 24106 24107 24108 24109 24110 24111 24112 24113 24114 24115 24116 24117 24118 24119 24120 24121 24122 24123 24124 24125 24126 24127 24128 24129 24130 24131 24132 24133 24134 24135 24136 24137 24138 24139 24140 24141 24142 24143 24144 24145 24146 24147 24148 24149 24150 24151 24152 24153 24154 24155 24156 24157 24158 24159 24160 24161 24162 24163 24164 24165 24166 24167 24168 24169 24170 24171 24172 24173 24174 24175 24176 24177 24178 24179 24180 24181 24182 24183 24184 24185 24186 24187 24188 24189 24190 24191 24192 24193 24194 24195 24196 24197 24198 24199 24200 24201 24202 24203 24204 24205 24206 24207 24208 24209 24210 24211 24212 24213 24214 24215 24216 24217 24218 24219 24220 24221 24222 24223 24224 24225 24226 24227 24228 24229 24230 24231 24232 24233 24234 24235 24236 24237 24238 24239 24240 24241 24242 24243 24244 24245 24246 24247 24248 24249 24250 24251 24252 24253 24254 24255 24256 24257 24258 24259 24260 24261 24262 24263 24264 24265 24266 24267 24268 24269 24270 24271 24272 24273 24274 24275 24276 24277 24278 24279 24280 24281 24282 24283 24284 24285 24286 24287 24288 24289 24290 24291 24292 24293 24294 24295 24296 24297 24298 24299 24300 24301 24302 24303 24304 24305 24306 24307 24308 24309 24310 24311 24312 24313 24314 24315 24316 24317 24318 24319 24320 24321 24322 24323 24324 24325 24326 24327 24328 24329 24330 24331 24332 24333 24334 24335 24336 24337 24338 24339 24340 24341 24342 24343 24344 24345 24346 24347 24348 24349 24350 24351 24352 24353 24354 24355 24356 24357 24358 24359 24360 24361 24362 24363 24364 24365 24366 24367 24368 24369 24370 24371 24372 24373 24374 24375 24376 24377 24378 24379 24380 24381 24382 24383 24384 24385 24386 24387 24388 24389 24390 24391 24392 24393 24394 24395 24396 24397 24398 24399 24400 24401 24402 24403 24404 24405 24406 24407 24408 24409 24410 24411 24412 24413 24414 24415 24416 24417 24418 24419 24420 24421 24422 24423 24424 24425 24426 24427 24428 24429 24430 24431 24432 24433 24434 24435 24436 24437 24438 24439 24440 24441 24442 24443 24444 24445 24446 24447 24448 24449 24450 24451 24452 24453 24454 24455 24456 24457 24458 24459 24460 24461 24462 24463 24464 24465 24466 24467 24468 24469 24470 24471 24472 24473 24474 24475 24476 24477 24478 24479 24480 24481 24482 24483 24484 24485 24486 24487 24488 24489 24490 24491 24492 24493 24494 24495 24496 24497 24498 24499 24500 24501 24502 24503 24504 24505 24506 24507 24508 24509 24510 24511 24512 24513 24514 24515 24516 24517 24518 24519 24520 24521 24522 24523 24524 24525 24526 24527 24528 24529 24530 24531 24532 24533 24534 24535 24536 24537 24538 24539 24540 24541 24542 24543 24544 24545 24546 24547 24548 24549 24550 24551 24552 24553 24554 24555 24556 24557 24558 24559 24560 24561 24562 24563 24564 24565 24566 24567 24568 24569 24570 24571 24572 24573 24574 24575 24576 24577 24578 24579 24580 24581 24582 24583 24584 24585 24586 24587 24588 24589 24590 24591 24592 24593 24594 24595 24596 24597 24598 24599 24600 24601 24602 24603 24604 24605 24606 24607 24608 24609 24610 24611 24612 24613 24614 24615 24616 24617 24618 24619 24620 24621 24622 24623 24624 24625 24626 24627 24628 24629 24630 24631 24632 24633 24634 24635 24636 24637 24638 24639 24640 24641 24642 24643 24644 24645 24646 24647 24648 24649 24650 24651 24652 24653 24654 24655 24656 24657 24658 24659 24660 24661 24662 24663 24664 24665 24666 24667 24668 24669 24670 24671 24672 24673 24674 24675 24676 24677 24678 24679 24680 24681 24682 24683 24684 24685 24686 24687 24688 24689 24690 24691 24692 24693 24694 24695 24696 24697 24698 24699 24700 24701 24702 24703 24704 24705 24706 24707 24708 24709 24710 24711 24712 24713 24714 24715 24716 24717 24718 24719 24720 24721 24722 24723 24724 24725 24726 24727 24728 24729 24730 24731 24732 24733 24734 24735 24736 24737 24738 24739 24740 24741 24742 24743 24744 24745 24746 24747 24748 24749 24750 24751 24752 24753 24754 24755 24756 24757 24758 24759 24760 24761 24762 24763 24764 24765 24766 24767 24768 24769 24770 24771 24772 24773 24774 24775 24776 24777 24778 24779 24780 24781 24782 24783 24784 24785 24786 24787 24788 24789 24790 24791 24792 24793 24794 24795 24796 24797 24798 24799 24800 24801 24802 24803 24804 24805 24806 24807 24808 24809 24810 24811 24812 24813 24814 24815 24816 24817 24818 24819 24820 24821 24822 24823 24824 24825 24826 24827 24828 24829 24830 24831 24832 24833 24834 24835 24836 24837 24838 24839 24840 24841 24842 24843 24844 24845 24846 24847 24848 24849 24850 24851 24852 24853 24854 24855 24856 24857 24858 24859 24860 24861 24862 24863 24864 24865 24866 24867 24868 24869 24870 24871 24872 24873 24874 24875 24876 24877 24878 24879 24880 24881 24882 24883 24884 24885 24886 24887 24888 24889 24890 24891 24892 24893 24894 24895 24896 24897 24898 24899 24900 24901 24902 24903 24904 24905 24906 24907 24908 24909 24910 24911 24912 24913 24914 24915 24916 24917 24918 24919 24920 24921 24922 24923 24924 24925 24926 24927 24928 24929 24930 24931 24932 24933 24934 24935 24936 24937 24938 24939 24940 24941 24942 24943 24944 24945 24946 24947 24948 24949 24950 24951 24952 24953 24954 24955 24956 24957 24958 24959 24960 24961 24962 24963 24964 24965 24966 24967 24968 24969 24970 24971 24972 24973 24974 24975 24976 24977 24978 24979 24980 24981 24982 24983 24984 24985 24986 24987 24988 24989 24990 24991 24992 24993 24994 24995 24996 24997 24998 24999 25000 25001 25002 25003 25004 25005 25006 25007 25008 25009 25010 25011 25012 25013 25014 25015 25016 25017 25018 25019 25020 25021 25022 25023 25024 25025 25026 25027 25028 25029 25030 25031 25032 25033 25034 25035 25036 25037 25038 25039 25040 25041 25042 25043 25044 25045 25046 25047 25048 25049 25050 25051 25052 25053 25054 25055 25056 25057 25058 25059 25060 25061 25062 25063 25064 25065 25066 25067 25068 25069 25070 25071 25072 25073 25074 25075 25076 25077 25078 25079 25080 25081 25082 25083 25084 25085 25086 25087 25088 25089 25090 25091 25092 25093 25094 25095 25096 25097 25098 25099 25100 25101 25102 25103 25104 25105 25106 25107 25108 25109 25110 25111 25112 25113 25114 25115 25116 25117 25118 25119 25120 25121 25122 25123 25124 25125 25126 25127 25128 25129 25130 25131 25132 25133 25134 25135 25136 25137 25138 25139 25140 25141 25142 25143 25144 25145 25146 25147 25148 25149 25150 25151 25152 25153 25154 25155 25156 25157 25158 25159 25160 25161 25162 25163 25164 25165 25166 25167 25168 25169 25170 25171 25172 25173 25174 25175 25176 25177 25178 25179 25180 25181 25182 25183 25184 25185 25186 25187 25188 25189 25190 25191 25192 25193 25194 25195 25196 25197 25198 25199 25200 25201 25202 25203 25204 25205 25206 25207 25208 25209 25210 25211 25212 25213 25214 25215 25216 25217 25218 25219 25220 25221 25222 25223 25224 25225 25226 25227 25228 25229 25230 25231 25232 25233 25234 25235 25236 25237 25238 25239 25240 25241 25242 25243 25244 25245 25246 25247 25248 25249 25250 25251 25252 25253 25254 25255 25256 25257 25258 25259 25260 25261 25262 25263 25264 25265 25266 25267 25268 25269 25270 25271 25272 25273 25274 25275 25276 25277 25278 25279 25280 25281 25282 25283 25284 25285 25286 25287 25288 25289 25290 25291 25292 25293 25294 25295 25296 25297 25298 25299 25300 25301 25302 25303 25304 25305 25306 25307 25308 25309 25310 25311 25312 25313 25314 25315 25316 25317 25318 25319 25320 25321 25322 25323 25324 25325 25326 25327 25328 25329 25330 25331 25332 25333 25334 25335 25336 25337 25338 25339 25340 25341 25342 25343 25344 25345 25346 25347 25348 25349 25350 25351 25352 25353 25354 25355 25356 25357 25358 25359 25360 25361 25362 25363 25364 25365 25366 25367 25368 25369 25370 25371 25372 25373 25374 25375 25376 25377 25378 25379 25380 25381 25382 25383 25384 25385 25386 25387 25388 25389 25390 25391 25392 25393 25394 25395 25396 25397 25398 25399 25400 25401 25402 25403 25404 25405 25406 25407 25408 25409 25410 25411 25412 25413 25414 25415 25416 25417 25418 25419 25420 25421 25422 25423 25424 25425 25426 25427 25428 25429 25430 25431 25432 25433 25434 25435 25436 25437 25438 25439 25440 25441 25442 25443 25444 25445 25446 25447 25448 25449 25450 25451 25452 25453 25454 25455 25456 25457 25458 25459 25460 25461 25462 25463 25464 25465 25466 25467 25468 25469 25470 25471 25472 25473 25474 25475 25476 25477 25478 25479 25480 25481 25482 25483 25484 25485 25486 25487 25488 25489 25490 25491 25492 25493 25494 25495 25496 25497 25498 25499 25500 25501 25502 25503 25504 25505 25506 25507 25508 25509 25510 25511 25512 25513 25514 25515 25516 25517 25518 25519 25520 25521 25522 25523 25524 25525 25526 25527 25528 25529 25530 25531 25532 25533 25534 25535 25536 25537 25538 25539 25540 25541 25542 25543 25544 25545 25546 25547 25548 25549 25550 25551 25552 25553 25554 25555 25556 25557 25558 25559 25560 25561 25562 25563 25564 25565 25566 25567 25568 25569 25570 25571 25572 25573 25574 25575 25576 25577 25578 25579 25580 25581 25582 25583 25584 25585 25586 25587 25588 25589 25590 25591 25592 25593 25594 25595 25596 25597 25598 25599 25600 25601 25602 25603 25604 25605 25606 25607 25608 25609 25610 25611 25612 25613 25614 25615 25616 25617 25618 25619 25620 25621 25622 25623 25624 25625 25626 25627 25628 25629 25630 25631 25632 25633 25634 25635 25636 25637 25638 25639 25640 25641 25642 25643 25644 25645 25646 25647 25648 25649 25650 25651 25652 25653 25654 25655 25656 25657 25658 25659 25660 25661 25662 25663 25664 25665 25666 25667 25668 25669 25670 25671 25672 25673 25674 25675 25676 25677 25678 25679 25680 25681 25682 25683 25684 25685 25686 25687 25688 25689 25690 25691 25692 25693 25694 25695 25696 25697 25698 25699 25700 25701 25702 25703 25704 25705 25706 25707 25708 25709 25710 25711 25712 25713 25714 25715 25716 25717 25718 25719 25720 25721 25722 25723 25724 25725 25726 25727 25728 25729 25730 25731 25732 25733 25734 25735 25736 25737 25738 25739 25740 25741 25742 25743 25744 25745 25746 25747 25748 25749 25750 25751 25752 25753 25754 25755 25756 25757 25758 25759 25760 25761 25762 25763 25764 25765 25766 25767 25768 25769 25770 25771 25772 25773 25774 25775 25776 25777 25778 25779 25780 25781 25782 25783 25784 25785 25786 25787 25788 25789 25790 25791 25792 25793 25794 25795 25796 25797 25798 25799 25800 25801 25802 25803 25804 25805 25806 25807 25808 25809 25810 25811 25812 25813 25814 25815 25816 25817 25818 25819 25820 25821 25822 25823 25824 25825 25826 25827 25828 25829 25830 25831 25832 25833 25834 25835 25836 25837 25838 25839 25840 25841 25842 25843 25844 25845 25846 25847 25848 25849 25850 25851 25852 25853 25854 25855 25856 25857 25858 25859 25860 25861 25862 25863 25864 25865 25866 25867 25868 25869 25870 25871 25872 25873 25874 25875 25876 25877 25878 25879 25880 25881 25882 25883 25884 25885 25886 25887 25888 25889 25890 25891 25892 25893 25894 25895 25896 25897 25898 25899 25900 25901 25902 25903 25904 25905 25906 25907 25908 25909 25910 25911 25912 25913 25914 25915 25916 25917 25918 25919 25920 25921 25922 25923 25924 25925 25926 25927 25928 25929 25930 25931 25932 25933 25934 25935 25936 25937 25938 25939 25940 25941 25942 25943 25944 25945 25946 25947 25948 25949 25950 25951 25952 25953 25954 25955 25956 25957 25958 25959 25960 25961 25962 25963 25964 25965 25966 25967 25968 25969 25970 25971 25972 25973 25974 25975 25976 25977 25978 25979 25980 25981 25982 25983 25984 25985 25986 25987 25988 25989 25990 25991 25992 25993 25994 25995 25996 25997 25998 25999 26000 26001 26002 26003 26004 26005 26006 26007 26008 26009 26010 26011 26012 26013 26014 26015 26016 26017 26018 26019 26020 26021 26022 26023 26024 26025 26026 26027 26028 26029 26030 26031 26032 26033 26034 26035 26036 26037 26038 26039 26040 26041 26042 26043 26044 26045 26046 26047 26048 26049 26050 26051 26052 26053 26054 26055 26056 26057 26058 26059 26060 26061 26062 26063 26064 26065 26066 26067 26068 26069 26070 26071 26072 26073 26074 26075 26076 26077 26078 26079 26080 26081 26082 26083 26084 26085 26086 26087 26088 26089 26090 26091 26092 26093 26094 26095 26096 26097 26098 26099 26100 26101 26102 26103 26104 26105 26106 26107 26108 26109 26110 26111 26112 26113 26114 26115 26116 26117 26118 26119 26120 26121 26122 26123 26124 26125 26126 26127 26128 26129 26130 26131 26132 26133 26134 26135 26136 26137 26138 26139 26140 26141 26142 26143 26144 26145 26146 26147 26148 26149 26150 26151 26152 26153 26154 26155 26156 26157 26158 26159 26160 26161 26162 26163 26164 26165 26166 26167 26168 26169 26170 26171 26172 26173 26174 26175 26176 26177 26178 26179 26180 26181 26182 26183 26184 26185 26186 26187 26188 26189 26190 26191 26192 26193 26194 26195 26196 26197 26198 26199 26200 26201 26202 26203 26204 26205 26206 26207 26208 26209 26210 26211 26212 26213 26214 26215 26216 26217 26218 26219 26220 26221 26222 26223 26224 26225 26226 26227 26228 26229 26230 26231 26232 26233 26234 26235 26236 26237 26238 26239 26240 26241 26242 26243 26244 26245 26246 26247 26248 26249 26250 26251 26252 26253 26254 26255 26256 26257 26258 26259 26260 26261 26262 26263 26264 26265 26266 26267 26268 26269 26270 26271 26272 26273 26274 26275 26276 26277 26278 26279 26280 26281 26282 26283 26284 26285 26286 26287 26288 26289 26290 26291 26292 26293 26294 26295 26296 26297 26298 26299 26300 26301 26302 26303 26304 26305 26306 26307 26308 26309 26310 26311 26312 26313 26314 26315 26316 26317 26318 26319 26320 26321 26322 26323 26324 26325 26326 26327 26328 26329 26330 26331 26332 26333 26334 26335 26336 26337 26338 26339 26340 26341 26342 26343 26344 26345 26346 26347 26348 26349 26350 26351 26352 26353 26354 26355 26356 26357 26358 26359 26360 26361 26362 26363 26364 26365 26366 26367 26368 26369 26370 26371 26372 26373 26374 26375 26376 26377 26378 26379 26380 26381 26382 26383 26384 26385 26386 26387 26388 26389 26390 26391 26392 26393 26394 26395 26396 26397 26398 26399 26400 26401 26402 26403 26404 26405 26406 26407 26408 26409 26410 26411 26412 26413 26414 26415 26416 26417 26418 26419 26420 26421 26422 26423 26424 26425 26426 26427 26428 26429 26430 26431 26432 26433 26434 26435 26436 26437 26438 26439 26440 26441 26442 26443 26444 26445 26446 26447 26448 26449 26450 26451 26452 26453 26454 26455 26456 26457 26458 26459 26460 26461 26462 26463 26464 26465 26466 26467 26468 26469 26470 26471 26472 26473 26474 26475 26476 26477 26478 26479 26480 26481 26482 26483 26484 26485 26486 26487 26488 26489 26490 26491 26492 26493 26494 26495 26496 26497 26498 26499 26500 26501 26502 26503 26504 26505 26506 26507 26508 26509 26510 26511 26512 26513 26514 26515 26516 26517 26518 26519 26520 26521 26522 26523 26524 26525 26526 26527 26528 26529 26530 26531 26532 26533 26534 26535 26536 26537 26538 26539 26540 26541 26542 26543 26544 26545 26546 26547 26548 26549 26550 26551 26552 26553 26554 26555 26556 26557 26558 26559 26560 26561 26562 26563 26564 26565 26566 26567 26568 26569 26570 26571 26572 26573 26574 26575 26576 26577 26578 26579 26580 26581 26582 26583 26584 26585 26586 26587 26588 26589 26590 26591 26592 26593 26594 26595 26596 26597 26598 26599 26600 26601 26602 26603 26604 26605 26606 26607 26608 26609 26610 26611 26612 26613 26614 26615 26616 26617 26618 26619 26620 26621 26622 26623 26624 26625 26626 26627 26628 26629 26630 26631 26632 26633 26634 26635 26636 26637 26638 26639 26640 26641 26642 26643 26644 26645 26646 26647 26648 26649 26650 26651 26652 26653 26654 26655 26656 26657 26658 26659 26660 26661 26662 26663 26664 26665 26666 26667 26668 26669 26670 26671 26672 26673 26674 26675 26676 26677 26678 26679 26680 26681 26682 26683 26684 26685 26686 26687 26688 26689 26690 26691 26692 26693 26694 26695 26696 26697 26698 26699 26700 26701 26702 26703 26704 26705 26706 26707 26708 26709 26710 26711 26712 26713 26714 26715 26716 26717 26718 26719 26720 26721 26722 26723 26724 26725 26726 26727 26728 26729 26730 26731 26732 26733 26734 26735 26736 26737 26738 26739 26740 26741 26742 26743 26744 26745 26746 26747 26748 26749 26750 26751 26752 26753 26754 26755 26756 26757 26758 26759 26760 26761 26762 26763 26764 26765 26766 26767 26768 26769 26770 26771 26772 26773 26774 26775 26776 26777 26778 26779 26780 26781 26782 26783 26784 26785 26786 26787 26788 26789 26790 26791 26792 26793 26794 26795 26796 26797 26798 26799 26800 26801 26802 26803 26804 26805 26806 26807 26808 26809 26810 26811 26812 26813 26814 26815 26816 26817 26818 26819 26820 26821 26822 26823 26824 26825 26826 26827 26828 26829 26830 26831 26832 26833 26834 26835 26836 26837 26838 26839 26840 26841 26842 26843 26844 26845 26846 26847 26848 26849 26850 26851 26852 26853 26854 26855 26856 26857 26858 26859 26860 26861 26862 26863 26864 26865 26866 26867 26868 26869 26870 26871 26872 26873 26874 26875 26876 26877 26878 26879 26880 26881 26882 26883 26884 26885 26886 26887 26888 26889 26890 26891 26892 26893 26894 26895 26896 26897 26898 26899 26900 26901 26902 26903 26904 26905 26906 26907 26908 26909 26910 26911 26912 26913 26914 26915 26916 26917 26918 26919 26920 26921 26922 26923 26924 26925 26926 26927 26928 26929 26930 26931 26932 26933 26934 26935 26936 26937 26938 26939 26940 26941 26942 26943 26944 26945 26946 26947 26948 26949 26950 26951 26952 26953 26954 26955 26956 26957 26958 26959 26960 26961 26962 26963 26964 26965 26966 26967 26968 26969 26970 26971 26972 26973 26974 26975 26976 26977 26978 26979 26980 26981 26982 26983 26984 26985 26986 26987 26988 26989 26990 26991 26992 26993 26994 26995 26996 26997 26998 26999 27000 27001 27002 27003 27004 27005 27006 27007 27008 27009 27010 27011 27012 27013 27014 27015 27016 27017 27018 27019 27020 27021 27022 27023 27024 27025 27026 27027 27028 27029 27030 27031 27032 27033 27034 27035 27036 27037 27038 27039 27040 27041 27042 27043 27044 27045 27046 27047 27048 27049 27050 27051 27052 27053 27054 27055 27056 27057 27058 27059 27060 27061 27062 27063 27064 27065 27066 27067 27068 27069 27070 27071 27072 27073 27074 27075 27076 27077 27078 27079 27080 27081 27082 27083 27084 27085 27086 27087 27088 27089 27090 27091 27092 27093 27094 27095 27096 27097 27098 27099 27100 27101 27102 27103 27104 27105 27106 27107 27108 27109 27110 27111 27112 27113 27114 27115 27116 27117 27118 27119 27120 27121 27122 27123 27124 27125 27126 27127 27128 27129 27130 27131 27132 27133 27134 27135 27136 27137 27138 27139 27140 27141 27142 27143 27144 27145 27146 27147 27148 27149 27150 27151 27152 27153 27154 27155 27156 27157 27158 27159 27160 27161 27162 27163 27164 27165 27166 27167 27168 27169 27170 27171 27172 27173 27174 27175 27176 27177 27178 27179 27180 27181 27182 27183 27184 27185 27186 27187 27188 27189 27190 27191 27192 27193 27194 27195 27196 27197 27198 27199 27200 27201 27202 27203 27204 27205 27206 27207 27208 27209 27210 27211 27212 27213 27214 27215 27216 27217 27218 27219 27220 27221 27222 27223 27224 27225 27226 27227 27228 27229 27230 27231 27232 27233 27234 27235 27236 27237 27238 27239 27240 27241 27242 27243 27244 27245 27246 27247 27248 27249 27250 27251 27252 27253 27254 27255 27256 27257 27258 27259 27260 27261 27262 27263 27264 27265 27266 27267 27268 27269 27270 27271 27272 27273 27274 27275 27276 27277 27278 27279 27280 27281 27282 27283 27284 27285 27286 27287 27288 27289 27290 27291 27292 27293 27294 27295 27296 27297 27298 27299 27300 27301 27302 27303 27304 27305 27306 27307 27308 27309 27310 27311 27312 27313 27314 27315 27316 27317 27318 27319 27320 27321 27322 27323 27324 27325 27326 27327 27328 27329 27330 27331 27332 27333 27334 27335 27336 27337 27338 27339 27340 27341 27342 27343 27344 27345 27346 27347 27348 27349 27350 27351 27352 27353 27354 27355 27356 27357 27358 27359 27360 27361 27362 27363 27364 27365 27366 27367 27368 27369 27370 27371 27372 27373 27374 27375 27376 27377 27378 27379 27380 27381 27382 27383 27384 27385 27386 27387 27388 27389 27390 27391 27392 27393 27394 27395 27396 27397 27398 27399 27400 27401 27402 27403 27404 27405 27406 27407 27408 27409 27410 27411 27412 27413 27414 27415 27416 27417 27418 27419 27420 27421 27422 27423 27424 27425 27426 27427 27428 27429 27430 27431 27432 27433 27434 27435 27436 27437 27438 27439 27440 27441 27442 27443 27444 27445 27446 27447 27448 27449 27450 27451 27452 27453 27454 27455 27456 27457 27458 27459 27460 27461 27462 27463 27464 27465 27466 27467 27468 27469 27470 27471 27472 27473 27474 27475 27476 27477 27478 27479 27480 27481 27482 27483 27484 27485 27486 27487 27488 27489 27490 27491 27492 27493 27494 27495 27496 27497 27498 27499 27500 27501 27502 27503 27504 27505 27506 27507 27508 27509 27510 27511 27512 27513 27514 27515 27516 27517 27518 27519 27520 27521 27522 27523 27524 27525 27526 27527 27528 27529 27530 27531 27532 27533 27534 27535 27536 27537 27538 27539 27540 27541 27542 27543 27544 27545 27546 27547 27548 27549 27550 27551 27552 27553 27554 27555 27556 27557 27558 27559 27560 27561 27562 27563 27564 27565 27566 27567 27568 27569 27570 27571 27572 27573 27574 27575 27576 27577 27578 27579 27580 27581 27582 27583 27584 27585 27586 27587 27588 27589 27590 27591 27592 27593 27594 27595 27596 27597 27598 27599 27600 27601 27602 27603 27604 27605 27606 27607 27608 27609 27610 27611 27612 27613 27614 27615 27616 27617 27618 27619 27620 27621 27622 27623 27624 27625 27626 27627 27628 27629 27630 27631 27632 27633 27634 27635 27636 27637 27638 27639 27640 27641 27642 27643 27644 27645 27646 27647 27648 27649 27650 27651 27652 27653 27654 27655 27656 27657 27658 27659 27660 27661 27662 27663 27664 27665 27666 27667 27668 27669 27670 27671 27672 27673 27674 27675 27676 27677 27678 27679 27680 27681 27682 27683 27684 27685 27686 27687 27688 27689 27690 27691 27692 27693 27694 27695 27696 27697 27698 27699 27700 27701 27702 27703 27704 27705 27706 27707 27708 27709 27710 27711 27712 27713 27714 27715 27716 27717 27718 27719 27720 27721 27722 27723 27724 27725 27726 27727 27728 27729 27730 27731 27732 27733 27734 27735 27736 27737 27738 27739 27740 27741 27742 27743 27744 27745 27746 27747 27748 27749 27750 27751 27752 27753 27754 27755 27756 27757 27758 27759 27760 27761 27762 27763 27764 27765 27766 27767 27768 27769 27770 27771 27772 27773 27774 27775 27776 27777 27778 27779 27780 27781 27782 27783 27784 27785 27786 27787 27788 27789 27790 27791 27792 27793 27794 27795 27796 27797 27798 27799 27800 27801 27802 27803 27804 27805 27806 27807 27808 27809 27810 27811 27812 27813 27814 27815 27816 27817 27818 27819 27820 27821 27822 27823 27824 27825 27826 27827 27828 27829 27830 27831 27832 27833 27834 27835 27836 27837 27838 27839 27840 27841 27842 27843 27844 27845 27846 27847 27848 27849 27850 27851 27852 27853 27854 27855 27856 27857 27858 27859 27860 27861 27862 27863 27864 27865 27866 27867 27868 27869 27870 27871 27872 27873 27874 27875 27876 27877 27878 27879 27880 27881 27882 27883 27884 27885 27886 27887 27888 27889 27890 27891 27892 27893 27894 27895 27896 27897 27898 27899 27900 27901 27902 27903 27904 27905 27906 27907 27908 27909 27910 27911 27912 27913 27914 27915 27916 27917 27918 27919 27920 27921 27922 27923 27924 27925 27926 27927 27928 27929 27930 27931 27932 27933 27934 27935 27936 27937 27938 27939 27940 27941 27942 27943 27944 27945 27946 27947 27948 27949 27950 27951 27952 27953 27954 27955 27956 27957 27958 27959 27960 27961 27962 27963 27964 27965 27966 27967 27968 27969 27970 27971 27972 27973 27974 27975 27976 27977 27978 27979 27980 27981 27982 27983 27984 27985 27986 27987 27988 27989 27990 27991 27992 27993 27994 27995 27996 27997 27998 27999 28000 28001 28002 28003 28004 28005 28006 28007 28008 28009 28010 28011 28012 28013 28014 28015 28016 28017 28018 28019 28020 28021 28022 28023 28024 28025 28026 28027 28028 28029 28030 28031 28032 28033 28034 28035 28036 28037 28038 28039 28040 28041 28042 28043 28044 28045 28046 28047 28048 28049 28050 28051 28052 28053 28054 28055 28056 28057 28058 28059 28060 28061 28062 28063 28064 28065 28066 28067 28068 28069 28070 28071 28072 28073 28074 28075 28076 28077 28078 28079 28080 28081 28082 28083 28084 28085 28086 28087 28088 28089 28090 28091 28092 28093 28094 28095 28096 28097 28098 28099 28100 28101 28102 28103 28104 28105 28106 28107 28108 28109 28110 28111 28112 28113 28114 28115 28116 28117 28118 28119 28120 28121 28122 28123 28124 28125 28126 28127 28128 28129 28130 28131 28132 28133 28134 28135 28136 28137 28138 28139 28140 28141 28142 28143 28144 28145 28146 28147 28148 28149 28150 28151 28152 28153 28154 28155 28156 28157 28158 28159 28160 28161 28162 28163 28164 28165 28166 28167 28168 28169 28170 28171 28172 28173 28174 28175 28176 28177 28178 28179 28180 28181 28182 28183 28184 28185 28186 28187 28188 28189 28190 28191 28192 28193 28194 28195 28196 28197 28198 28199 28200 28201 28202 28203 28204 28205 28206 28207 28208 28209 28210 28211 28212 28213 28214 28215 28216 28217 28218 28219 28220 28221 28222 28223 28224 28225 28226 28227 28228 28229 28230 28231 28232 28233 28234 28235 28236 28237 28238 28239 28240 28241 28242 28243 28244 28245 28246 28247 28248 28249 28250 28251 28252 28253 28254 28255 28256 28257 28258 28259 28260 28261 28262 28263 28264 28265 28266 28267 28268 28269 28270 28271 28272 28273 28274 28275 28276 28277 28278 28279 28280 28281 28282 28283 28284 28285 28286 28287 28288 28289 28290 28291 28292 28293 28294 28295 28296 28297 28298 28299 28300 28301 28302 28303 28304 28305 28306 28307 28308 28309 28310 28311 28312 28313 28314 28315 28316 28317 28318 28319 28320 28321 28322 28323 28324 28325 28326 28327 28328 28329 28330 28331 28332 28333 28334 28335 28336 28337 28338 28339 28340 28341 28342 28343 28344 28345 28346 28347 28348 28349 28350 28351 28352 28353 28354 28355 28356 28357 28358 28359 28360 28361 28362 28363 28364 28365 28366 28367 28368 28369 28370 28371 28372 28373 28374 28375 28376 28377 28378 28379 28380 28381 28382 28383 28384 28385 28386 28387 28388 28389 28390 28391 28392 28393 28394 28395 28396 28397 28398 28399 28400 28401 28402 28403 28404 28405 28406 28407 28408 28409 28410 28411 28412 28413 28414 28415 28416 28417 28418 28419 28420 28421 28422 28423 28424 28425 28426 28427 28428 28429 28430 28431 28432 28433 28434 28435 28436 28437 28438 28439 28440 28441 28442 28443 28444 28445 28446 28447 28448 28449 28450 28451 28452 28453 28454 28455 28456 28457 28458 28459 28460 28461 28462 28463 28464 28465 28466 28467 28468 28469 28470 28471 28472 28473 28474 28475 28476 28477 28478 28479 28480 28481 28482 28483 28484 28485 28486 28487 28488 28489 28490 28491 28492 28493 28494 28495 28496 28497 28498 28499 28500 28501 28502 28503 28504 28505 28506 28507 28508 28509 28510 28511 28512 28513 28514 28515 28516 28517 28518 28519 28520 28521 28522 28523 28524 28525 28526 28527 28528 28529 28530 28531 28532 28533 28534 28535 28536 28537 28538 28539 28540 28541 28542 28543 28544 28545 28546 28547 28548 28549 28550 28551 28552 28553 28554 28555 28556 28557 28558 28559 28560 28561 28562 28563 28564 28565 28566 28567 28568 28569 28570 28571 28572 28573 28574 28575 28576 28577 28578 28579 28580 28581 28582 28583 28584 28585 28586 28587 28588 28589 28590 28591 28592 28593 28594 28595 28596 28597 28598 28599 28600 28601 28602 28603 28604 28605 28606 28607 28608 28609 28610 28611 28612 28613 28614 28615 28616 28617 28618 28619 28620 28621 28622 28623 28624 28625 28626 28627 28628 28629 28630 28631 28632 28633 28634 28635 28636 28637 28638 28639 28640 28641 28642 28643 28644 28645 28646 28647 28648 28649 28650 28651 28652 28653 28654 28655 28656 28657 28658 28659 28660 28661 28662 28663 28664 28665 28666 28667 28668 28669 28670 28671 28672 28673 28674 28675 28676 28677 28678 28679 28680 28681 28682 28683 28684 28685 28686 28687 28688 28689 28690 28691 28692 28693 28694 28695 28696 28697 28698 28699 28700 28701 28702 28703 28704 28705 28706 28707 28708 28709 28710 28711 28712 28713 28714 28715 28716 28717 28718 28719 28720 28721 28722 28723 28724 28725 28726 28727 28728 28729 28730 28731 28732 28733 28734 28735 28736 28737 28738 28739 28740 28741 28742 28743 28744 28745 28746 28747 28748 28749 28750 28751 28752 28753 28754 28755 28756 28757 28758 28759 28760 28761 28762 28763 28764 28765 28766 28767 28768 28769 28770 28771 28772 28773 28774 28775 28776 28777 28778 28779 28780 28781 28782 28783 28784 28785 28786 28787 28788 28789 28790 28791 28792 28793 28794 28795 28796 28797 28798 28799 28800 28801 28802 28803 28804 28805 28806 28807 28808 28809 28810 28811 28812 28813 28814 28815 28816 28817 28818 28819 28820 28821 28822 28823 28824 28825 28826 28827 28828 28829 28830 28831 28832 28833 28834 28835 28836 28837 28838 28839 28840 28841 28842 28843 28844 28845 28846 28847 28848 28849 28850 28851 28852 28853 28854 28855 28856 28857 28858 28859 28860 28861 28862 28863 28864 28865 28866 28867 28868 28869 28870 28871 28872 28873 28874 28875 28876 28877 28878 28879 28880 28881 28882 28883 28884 28885 28886 28887 28888 28889 28890 28891 28892 28893 28894 28895 28896 28897 28898 28899 28900 28901 28902 28903 28904 28905 28906 28907 28908 28909 28910 28911 28912 28913 28914 28915 28916 28917 28918 28919 28920 28921 28922 28923 28924 28925 28926 28927 28928 28929 28930 28931 28932 28933 28934 28935 28936 28937 28938 28939 28940 28941 28942 28943 28944 28945 28946 28947 28948 28949 28950 28951 28952 28953 28954 28955 28956 28957 28958 28959 28960 28961 28962 28963 28964 28965 28966 28967 28968 28969 28970 28971 28972 28973 28974 28975 28976 28977 28978 28979 28980 28981 28982 28983 28984 28985 28986 28987 28988 28989 28990 28991 28992 28993 28994 28995 28996 28997 28998 28999 29000 29001 29002 29003 29004 29005 29006 29007 29008 29009 29010 29011 29012 29013 29014 29015 29016 29017 29018 29019 29020 29021 29022 29023 29024 29025 29026 29027 29028 29029 29030 29031 29032 29033 29034 29035 29036 29037 29038 29039 29040 29041 29042 29043 29044 29045 29046 29047 29048 29049 29050 29051 29052 29053 29054 29055 29056 29057 29058 29059 29060 29061 29062 29063 29064 29065 29066 29067 29068 29069 29070 29071 29072 29073 29074 29075 29076 29077 29078 29079 29080 29081 29082 29083 29084 29085 29086 29087 29088 29089 29090 29091 29092 29093 29094 29095 29096 29097 29098 29099 29100 29101 29102 29103 29104 29105 29106 29107 29108 29109 29110 29111 29112 29113 29114 29115 29116 29117 29118 29119 29120 29121 29122 29123 29124 29125 29126 29127 29128 29129 29130 29131 29132 29133 29134 29135 29136 29137 29138 29139 29140 29141 29142 29143 29144 29145 29146 29147 29148 29149 29150 29151 29152 29153 29154 29155 29156 29157 29158 29159 29160 29161 29162 29163 29164 29165 29166 29167 29168 29169 29170 29171 29172 29173 29174 29175 29176 29177 29178 29179 29180 29181 29182 29183 29184 29185 29186 29187 29188 29189 29190 29191 29192 29193 29194 29195 29196 29197 29198 29199 29200 29201 29202 29203 29204 29205 29206 29207 29208 29209 29210 29211 29212 29213 29214 29215 29216 29217 29218 29219 29220 29221 29222 29223 29224 29225 29226 29227 29228 29229 29230 29231 29232 29233 29234 29235 29236 29237 29238 29239 29240 29241 29242 29243 29244 29245 29246 29247 29248 29249 29250 29251 29252 29253 29254 29255 29256 29257 29258 29259 29260 29261 29262 29263 29264 29265 29266 29267 29268 29269 29270 29271 29272 29273 29274 29275 29276 29277 29278 29279 29280 29281 29282 29283 29284 29285 29286 29287 29288 29289 29290 29291 29292 29293 29294 29295 29296 29297 29298 29299 29300 29301 29302 29303 29304 29305 29306 29307 29308 29309 29310 29311 29312 29313 29314 29315 29316 29317 29318 29319 29320 29321 29322 29323 29324 29325 29326 29327 29328 29329 29330 29331 29332 29333 29334 29335 29336 29337 29338 29339 29340 29341 29342 29343 29344 29345 29346 29347 29348 29349 29350 29351 29352 29353 29354 29355 29356 29357 29358 29359 29360 29361 29362 29363 29364 29365 29366 29367 29368 29369 29370 29371 29372 29373 29374 29375 29376 29377 29378 29379 29380 29381 29382 29383 29384 29385 29386 29387 29388 29389 29390 29391 29392 29393 29394 29395 29396 29397 29398 29399 29400 29401 29402 29403 29404 29405 29406 29407 29408 29409 29410 29411 29412 29413 29414 29415 29416 29417 29418 29419 29420 29421 29422 29423 29424 29425 29426 29427 29428 29429 29430 29431 29432 29433 29434 29435 29436 29437 29438 29439 29440 29441 29442 29443 29444 29445 29446 29447 29448 29449 29450 29451 29452 29453 29454 29455 29456 29457 29458 29459 29460 29461 29462 29463 29464 29465 29466 29467 29468 29469 29470 29471 29472 29473 29474 29475 29476 29477 29478 29479 29480 29481 29482 29483 29484 29485 29486 29487 29488 29489 29490 29491 29492 29493 29494 29495 29496 29497 29498 29499 29500 29501 29502 29503 29504 29505 29506 29507 29508 29509 29510 29511 29512 29513 29514 29515 29516 29517 29518 29519 29520 29521 29522 29523 29524 29525 29526 29527 29528 29529 29530 29531 29532 29533 29534 29535 29536 29537 29538 29539 29540 29541 29542 29543 29544 29545 29546 29547 29548 29549 29550 29551 29552 29553 29554 29555 29556 29557 29558 29559 29560 29561 29562 29563 29564 29565 29566 29567 29568 29569 29570 29571 29572 29573 29574 29575 29576 29577 29578 29579 29580 29581 29582 29583 29584 29585 29586 29587 29588 29589 29590 29591 29592 29593 29594 29595 29596 29597 29598 29599 29600 29601 29602 29603 29604 29605 29606 29607 29608 29609 29610 29611 29612 29613 29614 29615 29616 29617 29618 29619 29620 29621 29622 29623 29624 29625 29626 29627 29628 29629 29630 29631 29632 29633 29634 29635 29636 29637 29638 29639 29640 29641 29642 29643 29644 29645 29646 29647 29648 29649 29650 29651 29652 29653 29654 29655 29656 29657 29658 29659 29660 29661 29662 29663 29664 29665 29666 29667 29668 29669 29670 29671 29672 29673 29674 29675 29676 29677 29678 29679 29680 29681 29682 29683 29684 29685 29686 29687 29688 29689 29690 29691 29692 29693 29694 29695 29696 29697 29698 29699 29700 29701 29702 29703 29704 29705 29706 29707 29708 29709 29710 29711 29712 29713 29714 29715 29716 29717 29718 29719 29720 29721 29722 29723 29724 29725 29726 29727 29728 29729 29730 29731 29732 29733 29734 29735 29736 29737 29738 29739 29740 29741 29742 29743 29744 29745 29746 29747 29748 29749 29750 29751 29752 29753 29754 29755 29756 29757 29758 29759 29760 29761 29762 29763 29764 29765 29766 29767 29768 29769 29770 29771 29772 29773 29774 29775 29776 29777 29778 29779 29780 29781 29782 29783 29784 29785 29786 29787 29788 29789 29790 29791 29792 29793 29794 29795 29796 29797 29798 29799 29800 29801 29802 29803 29804 29805 29806 29807 29808 29809 29810 29811 29812 29813 29814 29815 29816 29817 29818 29819 29820 29821 29822 29823 29824 29825 29826 29827 29828 29829 29830 29831 29832 29833 29834 29835 29836 29837 29838 29839 29840 29841 29842 29843 29844 29845 29846 29847 29848 29849 29850 29851 29852 29853 29854 29855 29856 29857 29858 29859 29860 29861 29862 29863 29864 29865 29866 29867 29868 29869 29870 29871 29872 29873 29874 29875 29876 29877 29878 29879 29880 29881 29882 29883 29884 29885 29886 29887 29888 29889 29890 29891 29892 29893 29894 29895 29896 29897 29898 29899 29900 29901 29902 29903 29904 29905 29906 29907 29908 29909 29910 29911 29912 29913 29914 29915 29916 29917 29918 29919 29920 29921 29922 29923 29924 29925 29926 29927 29928 29929 29930 29931 29932 29933 29934 29935 29936 29937 29938 29939 29940 29941 29942 29943 29944 29945 29946 29947 29948 29949 29950 29951 29952 29953 29954 29955 29956 29957 29958 29959 29960 29961 29962 29963 29964 29965 29966 29967 29968 29969 29970 29971 29972 29973 29974 29975 29976 29977 29978 29979 29980 29981 29982 29983 29984 29985 29986 29987 29988 29989 29990 29991 29992 29993 29994 29995 29996 29997 29998 29999 30000 30001 30002 30003 30004 30005 30006 30007 30008 30009 30010 30011 30012 30013 30014 30015 30016 30017 30018 30019 30020 30021 30022 30023 30024 30025 30026 30027 30028 30029 30030 30031 30032 30033 30034 30035 30036 30037 30038 30039 30040 30041 30042 30043 30044 30045 30046 30047 30048 30049 30050 30051 30052 30053 30054 30055 30056 30057 30058 30059 30060 30061 30062 30063 30064 30065 30066 30067 30068 30069 30070 30071 30072 30073 30074 30075 30076 30077 30078 30079 30080 30081 30082 30083 30084 30085 30086 30087 30088 30089 30090 30091 30092 30093 30094 30095 30096 30097 30098 30099 30100 30101 30102 30103 30104 30105 30106 30107 30108 30109 30110 30111 30112 30113 30114 30115 30116 30117 30118 30119 30120 30121 30122 30123 30124 30125 30126 30127 30128 30129 30130 30131 30132 30133 30134 30135 30136 30137 30138 30139 30140 30141 30142 30143 30144 30145 30146 30147 30148 30149 30150 30151 30152 30153 30154 30155 30156 30157 30158 30159 30160 30161 30162 30163 30164 30165 30166 30167 30168 30169 30170 30171 30172 30173 30174 30175 30176 30177 30178 30179 30180 30181 30182 30183 30184 30185 30186 30187 30188 30189 30190 30191 30192 30193 30194 30195 30196 30197 30198 30199 30200 30201 30202 30203 30204 30205 30206 30207 30208 30209 30210 30211 30212 30213 30214 30215 30216 30217 30218 30219 30220 30221 30222 30223 30224 30225 30226 30227 30228 30229 30230 30231 30232 30233 30234 30235 30236 30237 30238 30239 30240 30241 30242 30243 30244 30245 30246 30247 30248 30249 30250 30251 30252 30253 30254 30255 30256 30257 30258 30259 30260 30261 30262 30263 30264 30265 30266 30267 30268 30269 30270 30271 30272 30273 30274 30275 30276 30277 30278 30279 30280 30281 30282 30283 30284 30285 30286 30287 30288 30289 30290 30291 30292 30293 30294 30295 30296 30297 30298 30299 30300 30301 30302 30303 30304 30305 30306 30307 30308 30309 30310 30311 30312 30313 30314 30315 30316 30317 30318 30319 30320 30321 30322 30323 30324 30325 30326 30327 30328 30329 30330 30331 30332 30333 30334 30335 30336 30337 30338 30339 30340 30341 30342 30343 30344 30345 30346 30347 30348 30349 30350 30351 30352 30353 30354 30355 30356 30357 30358 30359 30360 30361 30362 30363 30364 30365 30366 30367 30368 30369 30370 30371 30372 30373 30374 30375 30376 30377 30378 30379 30380 30381 30382 30383 30384 30385 30386 30387 30388 30389 30390 30391 30392 30393 30394 30395 30396 30397 30398 30399 30400 30401 30402 30403 30404 30405 30406 30407 30408 30409 30410 30411 30412 30413 30414 30415 30416 30417 30418 30419 30420 30421 30422 30423 30424 30425 30426 30427 30428 30429 30430 30431 30432 30433 30434 30435 30436 30437 30438 30439 30440 30441 30442 30443 30444 30445 30446 30447 30448 30449 30450 30451 30452 30453 30454 30455 30456 30457 30458 30459 30460 30461 30462 30463 30464 30465 30466 30467 30468 30469 30470 30471 30472 30473 30474 30475 30476 30477 30478 30479 30480 30481 30482 30483 30484 30485 30486 30487 30488 30489 30490 30491 30492 30493 30494 30495 30496 30497 30498 30499 30500 30501 30502 30503 30504 30505 30506 30507 30508 30509 30510 30511 30512 30513 30514 30515 30516 30517 30518 30519 30520 30521 30522 30523 30524 30525 30526 30527 30528 30529 30530 30531 30532 30533 30534 30535 30536 30537 30538 30539 30540 30541 30542 30543 30544 30545 30546 30547 30548 30549 30550 30551 30552 30553 30554 30555 30556 30557 30558 30559 30560 30561 30562 30563 30564 30565 30566 30567 30568 30569 30570 30571 30572 30573 30574 30575 30576 30577 30578 30579 30580 30581 30582 30583 30584 30585 30586 30587 30588 30589 30590 30591 30592 30593 30594 30595 30596 30597 30598 30599 30600 30601 30602 30603 30604 30605 30606 30607 30608 30609 30610 30611 30612 30613 30614 30615 30616 30617 
</DataArray>
<DataArray type="UInt32" Name="offsets" format="ascii">
2 5 8 11 14 17 20 23 26 28 31 34 37 39 42 45 48 51 54 57 60 63 66 69 72 75 78 81 84 86 89 92 94 97 100 103 105 108 111 114 116 119 122 125 128 131 134 137 140 142 145 148 151 154 157 160 162 165 168 171 174 177 180 183 186 189 191 194 197 199 202 205 208 210 213 215 218 220 222 225 228 231 234 237 240 243 246 249 251 254 256 259 262 264 267 270 273 276 279 282 285 288 291 294 297 300 303 306 309 311 314 317 320 323 325 328 331 333 335 338 341 343 346 349 352 354 356 358 361 363 366 369 372 375 378 381 384 387 390 392 394 397 400 403 406 409 412 414 417 420 423 426 429 431 433 436 439 441 444 447 449 451 454 456 458 461 464 467 470 473 476 479 482 485 488 491 494 496 499 502 504 507 510 513 516 519 522 525 528 531 534 537 540 543 546 549 552 555 558 561 564 566 569 572 575 578 581 584 587 590 593 596 599 602 605 608 611 613 616 619 621 624 627 630 633 635 637 640 643 646 649 652 655 658 661 664 667 670 673 676 679 682 684 687 690 693 695 698 701 704 707 710 713 716 719 721 723 726 729 732 735 738 741 744 747 750 752 755 758 761 764 767 769 772 774 777 780 783 786 789 791 793 796 799 802 804 807 809 812 815 818 820 823 825 828 831 833 836 839 842 844 847 850 853 856 859 861 863 866 869 871 874 876 878 881 884 886 889 891 894 897 900 903 905 908 910 913 916 918 920 922 925 927 930 932 934 937 940 943 946 949 952 955 958 961 963 966 969 972 975 978 981 984 987 990 993 996 999 1002 1005 1008 1011 1014 1017 1020 1023 1026 1029 1032 1035 1037 1040 1042 1045 1048 1051 1054 1057 1059 1062 1064 1067 1070 1072 1075 1078 1081 1084 1086 1089 1091 1094 1097 1100 1103 1106 1109 1112 1115 1118 1121 1124 1127 1130 1132 1135 1138 1140 1143 1146 1149 1152 1155 1158 1161 1164 1167 1170 1173 1176 1179 1182 1185 1188 1191 1193 1196 1199 1202 1205 1208 1211 1214 1217 1220 1223 1225 1228 1231 1234 1236 1238 1241 1244 1247 1250 1253 1256 1259 1262 1265 1268 1271 1274 1277 1280 1283 1286 1289 1292 1295 1298 1301 1304 1307 1309 1312 1315 1317 1320 1323 1325 1328 1330 1333 1336 1339 1341 1344 1346 1348 1351 1354 1357 1360 1363 1366 1369 1372 1375 1378 1380 1383 1386 1389 1392 1395 1398 1401 1404 1407 1410 1413 1416 1419 1422 1425 1428 1431 1434 1437 1440 1443 1446 1449 1452 1455 1458 1461 1464 1467 1470 1473 1476 1478 1481 1484 1487 1490 1492 1495 1498 1501 1504 1507 1510 1513 1515 1518 1521 1524 1527 1530 1533 1536 1539 1542 1544 1547 1549 1551 1554 1557 1559 1562 1564 1567 1570 1573 1576 1579 1582 1585 1588 1590 1593 1596 1599 1602 1605 1607 1610 1613 1616 1619 1622 1625 1627 1630 1633 1636 1639 1642 1645 1648 1651 1653 1656 1658 1661 1664 1667 1670 1673 1675 1678 1680 1683 1686 1689 1692 1695 1698 1700 1703 1706 1709 1712 1715 1718 1721 1724 1727 1730 1732 1734 1737 1740 1743 1746 1748 1751 1754 1757 1760 1763 1766 1769 1772 1775 1778 1781 1784 1786 1789 1792 1794 1797 1800 1803 1806 1809 1812 1815 1818 1821 1824 1826 1828 1831 1834 1837 1840 1843 1846 1849 1852 1855 1858 1860 1863 1865 1868 1871 1874 1877 1880 1883 1886 1889 1892 1895 1898 1901 1904 1907 1910 1913 1916 1919 1922 1925 1928 1931 1934 1937 1940 1943 1946 1949 1952 1955 1958 1961 1964 1967 1970 1973 1976 1979 1982 1984 1987 1990 1993 1995 1998 2000 2003 2005 2008 2011 2013 2016 2018 2021 2023 2026 2029 2031 2034 2037 2040 2043 2046 2049 2052 2055 2057 2060 2063 2065 2068 2071 2074 2077 2079 2082 2085 2088 2091 2094 2097 2100 2103 2106 2109 2111 2114 2116 2119 2121 2124 2126 2129 2131 2134 2137 2140 2142 2145 2147 2150 2153 2156 2159 2162 2165 2168 2171 2174 2177 2180 2183 2185 2188 2191 2193 2195 2198 2201 2204 2206 2209 2212 2214 2217 2220 2222 2225 2228 2231 2233 2236 2239 2242 2245 2248 2250 2253 2256 2258 2260 2263 2266 2269 2271 2273 2275 2278 2281 2283 2286 2289 2291 2294 2297 2300 2303 2306 2309 2311 2314 2317 2319 2322 2325 2327 2330 2333 2336 2339 2342 2345 2348 2351 2353 2356 2359 2362 2365 2368 2370 2372 2374 2377 2380 2383 2386 2389 2392 2395 2398 2401 2404 2407 2409 2412 2415 2418 2421 2423 2426 2429 2432 2435 2438 2441 2444 2446 2449 2452 2455 2457 2460 2462 2465 2467 2470 2472 2475 2478 2481 2484 2487 2490 2493 2496 2499 2502 2504 2507 2510 2513 2516 2519 2522 2525 2528 2530 2533 2536 2538 2541 2544 2547 2550 2552 2555 2558 2561 2564 2567 2570 2572 2575 2577 2580 2583 2586 2589 2592 2595 2597 2599 2602 2605 2608 2611 2613 2616 2618 2621 2624 2627 2629 2632 2635 2638 2641 2644 2647 2650 2652 2654 2657 2660 2662 2665 2667 2669 2671 2674 2677 2680 2683 2686 2689 2692 2694 2697 2700 2703 2706 2709 2712 2715 2718 2721 2724 2727 2730 2733 2735 2738 2741 2744 2747 2750 2753 2756 2759 2762 2765 2767 2770 2773 2775 2778 2781 2784 2787 2790 2792 2795 2798 2801 2804 2807 2810 2813 2816 2818 2821 2823 2826 2829 2831 2834 2837 2839 2842 2845 2848 2851 2853 2856 2859 2862 2865 2868 2870 2873 2876 2879 2882 2885 2888 2891 2894 2897 2899 2902 2905 2907 2909 2912 2915 2918 2921 2923 2926 2928 2931 2934 2936 2938 2941 2943 2946 2948 2951 2954 2957 2960 2963 2965 2968 2971 2974 2976 2979 2982 2985 2987 2990 2993 2996 2999 3002 3005 3008 3011 3014 3017 3019 3022 3025 3028 3031 3034 3037 3040 3043 3046 3049 3052 3055 3058 3061 3064 3067 3070 3073 3075 3078 3081 3083 3086 3089 3092 3095 3097 3100 3103 3106 3109 3112 3115 3118 3121 3124 3127 3130 3133 3136 3139 3142 3145 3148 3151 3154 3157 3160 3163 3166 3169 3172 3175 3178 3181 3184 3187 3190 3193 3196 3199 3202 3205 3208 3211 3214 3217 3220 3223 3226 3229 3232 3235 3238 3241 3244 3247 3250 3253 3256 3259 3262 3265 3268 3271 3273 3276 3279 3282 3285 3288 3291 3294 3297 3300 3303 3306 3309 3312 3315 3318 3321 3324 3327 3330 3332 3335 3338 3341 3344 3346 3349 3352 3355 3358 3361 3364 3367 3370 3373 3376 3379 3382 3385 3388 3391 3394 3397 3400 3402 3405 3408 3411 3414 3416 3419 3422 3425 3428 3431 3433 3435 3438 3441 3444 3447 3450 3453 3456 3459 3462 3465 3468 3471 3474 3477 3480 3483 3486 3489 3491 3494 3497 3500 3502 3505 3507 3510 3513 3516 3519 3522 3525 3528 3531 3534 3536 3539 3542 3545 3548 3550 3552 3555 3558 3561 3564 3567 3570 3573 3576 3579 3582 3585 3588 3591 3594 3597 3600 3603 3606 3609 3611 3614 3617 3620 3623 3626 3629 3632 3635 3638 3641 3644 3647 3650 3652 3655 3658 3661 3664 3667 3670 3673 3676 3679 3682 3685 3688 3691 3694 3697 3700 3703 3706 3709 3712 3715 3718 3720 3723 3726 3729 3732 3735 3738 3741 3743 3746 3749 3752 3754 3757 3760 3763 3766 3769 3772 3775 3778 3781 3784 3787 3790 3793 3796 3799 3802 3805 3808 3811 3814 3817 3820 3823 3826 3828 3831 3833 3836 3839 3842 3845 3847 3850 3852 3855 3858 3861 3864 3867 3870 3873 3875 3878 3881 3884 3887 3889 3892 3895 3898 3901 3904 3907 3910 3913 3916 3919 3922 3924 3927 3930 3933 3936 3939 3942 3944 3947 3949 3952 3955 3958 3961 3964 3966 3969 3972 3974 3977 3980 3982 3985 3988 3991 3994 3997 4000 4003 4006 4009 4012 4015 4018 4021 4024 4027 4030 4033 4036 4039 4042 4045 4048 4051 4054 4057 4060 4063 4065 4068 4071 4074 4076 4079 4081 4084 4087 4089 4091 4094 4097 4100 4102 4105 4108 4111 4114 4116 4119 4121 4124 4127 4129 4132 4135 4138 4141 4144 4146 4149 4152 4155 4158 4161 4163 4166 4169 4172 4175 4178 4181 4184 4187 4190 4193 4196 4199 4202 4205 4208 4211 4214 4217 4220 4223 4226 4229 4232 4235 4238 4241 4244 4247 4250 4253 4256 4259 4262 4265 4268 4271 4274 4277 4280 4283 4286 4289 4292 4294 4296 4299 4302 4305 4308 4311 4314 4317 4320 4323 4326 4329 4332 4335 4338 4341 4344 4347 4350 4353 4356 4359 4362 4365 4368 4371 4374 4377 4380 4382 4385 4388 4391 4394 4396 4399 4402 4405 4408 4410 4413 4416 4419 4422 4425 4428 4431 4433 4436 4438 4441 4444 4447 4450 4453 4455 4458 4461 4464 4467 4470 4473 4476 4479 4482 4485 4487 4490 4493 4496 4499 4502 4505 4508 4511 4514 4517 4520 4523 4526 4529 4532 4535 4538 4541 4544 4547 4550 4553 4556 4559 4562 4564 4567 4570 4573 4576 4578 4581 4583 4586 4589 4591 4594 4596 4599 4602 4605 4608 4611 4614 4616 4619 4622 4625 4627 4630 4633 4636 4639 4642 4645 4648 4651 4654 4657 4660 4663 4666 4669 4672 4675 4678 4680 4683 4685 4688 4691 4694 4697 4700 4702 4705 4707 4710 4713 4716 4719 4722 4725 4728 4731 4733 4736 4739 4742 4745 4748 4751 4754 4757 4760 4763 4766 4769 4772 4775 4778 4781 4784 4787 4790 4793 4796 4799 4802 4804 4807 4809 4812 4815 4818 4821 4824 4827 4830 4833 4836 4839 4842 4845 4847 4850 4853 4856 4859 4862 4865 4868 4871 4874 4877 4880 4883 4886 4889 4892 4895 4898 4901 4904 4907 4910 4913 4916 4919 4922 4925 4928 4930 4933 4936 4939 4941 4944 4946 4948 4951 4954 4957 4960 4963 4965 4968 4971 4974 4977 4980 4983 4986 4989 4992 4995 4998 5001 5004 5007 5010 5013 5016 5019 5022 5025 5028 5031 5034 5037 5039 5042 5045 5047 5050 5053 5056 5059 5062 5065 5068 5071 5073 5075 5078 5081 5084 5087 5090 5093 5096 5099 5102 5105 5107 5110 5113 5115 5117 5120 5122 5125 5128 5131 5134 5137 5139 5142 5144 5146 5148 5151 5154 5157 5160 5163 5166 5168 5171 5174 5177 5180 5183 5186 5189 5192 5195 5197 5200 5202 5205 5208 5210 5213 5216 5219 5222 5225 5228 5231 5234 5237 5240 5243 5246 5249 5252 5255 5258 5261 5264 5267 5270 5273 5276 5279 5282 5285 5288 5290 5292 5295 5298 5301 5304 5307 5310 5313 5316 5319 5322 5325 5328 5331 5334 5337 5340 5343 5346 5349 5352 5355 5358 5361 5364 5367 5370 5373 5376 5379 5382 5385 5388 5391 5394 5397 5400 5403 5406 5409 5412 5415 5418 5421 5424 5427 5430 5433 5436 5439 5442 5445 5448 5451 5454 5457 5460 5462 5465 5468 5471 5474 5477 5480 5483 5486 5489 5491 5493 5496 5499 5502 5504 5507 5510 5513 5516 5519 5522 5525 5528 5531 5534 5537 5540 5543 5546 5549 5552 5555 5558 5561 5564 5567 5570 5573 5576 5579 5582 5585 5588 5591 5594 5596 5599 5602 5605 5608 5611 5614 5617 5619 5622 5625 5628 5631 5634 5637 5640 5642 5645 5648 5650 5653 5656 5659 5662 5665 5668 5671 5674 5677 5679 5682 5685 5687 5689 5692 5695 5698 5700 5703 5706 5709 5712 5715 5718 5721 5724 5727 5730 5733 5735 5738 5741 5744 5747 5749 5752 5754 5757 5760 5762 5765 5768 5770 5772 5775 5778 5781 5784 5787 5790 5793 5796 5799 5802 5804 5806 5809 5812 5815 5818 5821 5824 5826 5829 5832 5835 5838 5841 5844 5846 5849 5851 5854 5857 5860 5863 5866 5868 5870 5873 5876 5879 5882 5885 5888 5891 5894 5897 5900 5903 5906 5909 5912 5915 5918 5921 5924 5927 5929 5931 5934 5937 5939 5942 5945 5948 5951 5954 5957 5960 5963 5966 5969 5972 5974 5977 5980 5983 5986 5989 5992 5995 5998 6001 6004 6007 6010 6013 6016 6019 6022 6025 6028 6031 6034 6037 6040 6043 6046 6049 6052 6055 6058 6060 6063 6066 6069 6072 6074 6076 6079 6082 6085 6088 6091 6094 6097 6099 6102 6104 6107 6110 6113 6116 6119 6122 6125 6128 6131 6134 6137 6140 6143 6146 6149 6152 6155 6158 6161 6164 6166 6168 6171 6173 6176 6179 6182 6185 6188 6190 6193 6196 6199 6202 6205 6208 6211 6214 6217 6220 6223 6226 6229 6232 6235 6238 6241 6243 6246 6249 6252 6255 6258 6261 6264 6267 6270 6273 6276 6278 6281 6284 6287 6290 6293 6296 6299 6302 6305 6308 6310 6313 6316 6319 6322 6325 6328 6331 6334 6337 6339 6342 6345 6348 6351 6353 6356 6359 6362 6364 6367 6370 6373 6376 6378 6381 6384 6387 6390 6393 6396 6399 6402 6405 6407 6410 6413 6416 6419 6421 6424 6427 6430 6433 6436 6439 6442 6445 6447 6450 6452 6454 6457 6459 6461 6464 6467 6470 6472 6475 6478 6481 6483 6486 6488 6491 6494 6497 6500 6503 6505 6508 6511 6514 6516 6519 6522 6525 6528 6531 6534 6536 6538 6541 6544 6547 6550 6553 6556 6559 6562 6565 6568 6571 6573 6576 6578 6580 6583 6586 6589 6592 6595 6597 6599 6602 6605 6607 6610 6613 6616 6619 6621 6624 6627 6630 6633 6636 6638 6641 6644 6647 6650 6652 6654 6657 6660 6662 6665 6667 6669 6672 6675 6678 6681 6684 6687 6690 6693 6696 6699 6702 6705 6708 6711 6714 6717 6720 6723 6726 6729 6732 6734 6737 6740 6742 6745 6747 6750 6753 6756 6758 6761 6764 6767 6770 6773 6776 6778 6780 6783 6786 6789 6792 6795 6798 6800 6803 6806 6808 6811 6814 6817 6820 6823 6826 6828 6831 6834 6837 6839 6842 6845 6848 6851 6854 6857 6859 6862 6865 6868 6871 6874 6877 6880 6883 6886 6889 6892 6895 6898 6900 6903 6905 6908 6911 6914 6917 6920 6923 6926 6929 6932 6934 6937 6940 6943 6945 6948 6951 6954 6957 6960 6963 6966 6969 6972 6975 6977 6980 6983 6986 6989 6992 6995 6998 7001 7004 7007 7010 7013 7016 7019 7022 7025 7028 7031 7034 7037 7040 7043 7046 7049 7052 7054 7057 7060 7063 7065 7068 7071 7073 7076 7079 7082 7085 7088 7090 7093 7096 7099 7101 7104 7107 7110 7113 7116 7119 7122 7124 7127 7130 7133 7136 7139 7142 7145 7148 7151 7154 7157 7160 7163 7166 7169 7172 7175 7177 7180 7182 7185 7188 7191 7194 7197 7200 7203 7206 7209 7211 7214 7216 7219 7221 7224 7226 7228 7231 7234 7237 7240 7242 7245 7248 7251 7254 7256 7259 7262 7265 7268 7271 7273 7276 7278 7281 7284 7286 7289 7292 7295 7298 7301 7304 7307 7310 7313 7316 7319 7322 7325 7328 7331 7334 7337 7339 7342 7345 7348 7351 7354 7357 7359 7362 7365 7368 7371 7374 7376 7379 7382 7385 7388 7391 7394 7397 7399 7402 7405 7407 7410 7413 7416 7419 7422 7425 7427 7430 7433 7436 7438 7441 7444 7447 7450 7453 7456 7459 7462 7465 7468 7471 7474 7477 7480 7483 7486 7489 7491 7494 7497 7500 7503 7506 7508 7510 7513 7516 7519 7522 7525 7527 7530 7532 7535 7537 7540 7542 7544 7547 7550 7553 7555 7557 7560 7563 7566 7569 7572 7575 7578 7581 7584 7587 7590 7593 7596 7599 7602 7605 7608 7611 7614 7617 7620 7623 7626 7629 7632 7635 7638 7641 7644 7647 7650 7653 7656 7659 7662 7665 7668 7671 7673 7676 7679 7682 7685 7688 7691 7694 7696 7699 7701 7704 7707 7710 7713 7716 7719 7721 7724 7727 7730 7732 7735 7738 7741 7743 7745 7748 7750 7753 7756 7759 7762 7765 7768 7770 7773 7776 7778 7781 7784 7787 7790 7793 7796 7799 7802 7805 7808 7811 7814 7816 7818 7820 7823 7826 7829 7831 7834 7837 7840 7843 7846 7849 7852 7855 7858 7861 7864 7867 7870 7873 7876 7879 7882 7885 7888 7891 7894 7897 7899 7902 7905 7908 7911 7913 7916 7919 7922 7925 7928 7931 7934 7936 7939 7942 7945 7948 7951 7953 7956 7959 7962 7965 7968 7970 7973 7976 7979 7982 7985 7988 7991 7994 7997 7999 8002 8005 8008 8011 8013 8016 8019 8022 8025 8028 8031 8034 8037 8040 8043 8045 8048 8051 8053 8056 8059 8062 8065 8068 8071 8074 8077 8080 8083 8086 8089 8092 8095 8098 8101 8104 8107 8110 8113 8115 8118 8121 8124 8127 8129 8132 8135 8138 8141 8144 8147 8150 8153 8155 8158 8161 8164 8167 8170 8172 8175 8178 8180 8183 8186 8189 8192 8195 8198 8201 8204 8207 8210 8213 8216 8218 8221 8224 8227 8230 8233 8236 8239 8242 8245 8248 8251 8254 8257 8260 8263 8266 8269 8272 8275 8278 8281 8284 8287 8290 8293 8296 8299 8302 8304 8307 8310 8313 8316 8319 8322 8325 8328 8331 8334 8337 8340 8343 8346 8348 8351 8354 8357 8360 8363 8366 8369 8372 8375 8378 8381 8384 8387 8390 8393 8396 8399 8402 8405 8407 8410 8413 8416 8419 8422 8425 8428 8430 8433 8436 8439 8442 8445 8448 8451 8454 8457 8460 8463 8466 8469 8472 8475 8478 8481 8484 8487 8490 8493 8496 8499 8502 8504 8507 8510 8513 8516 8519 8521 8524 8527 8530 8533 8536 8539 8542 8545 8548 8551 8553 8556 8559 8561 8564 8566 8569 8572 8575 8578 8581 8584 8587 8589 8592 8594 8597 8599 8602 8605 8608 8611 8614 8617 8620 8623 8626 8629 8632 8635 8638 8641 8644 8647 8650 8653 8656 8659 8662 8665 8668 8671 8674 8677 8680 8683 8686 8689 8692 8695 8698 8701 8704 8707 8709 8712 8715 8718 8721 8724 8727 8730 8733 8736 8739 8742 8745 8748 8751 8754 8757 8760 8763 8766 8769 8772 8775 8778 8781 8784 8787 8790 8793 8796 8799 8802 8804 8807 8810 8813 8816 8819 8822 8824 8826 8829 8832 8835 8838 8841 8844 8847 8850 8853 8856 8859 8862 8865 8867 8870 8873 8876 8879 8882 8885 8888 8891 8894 8897 8899 8901 8904 8906 8909 8912 8915 8917 8920 8922 8924 8927 8929 8932 8935 8938 8941 8944 8947 8950 8952 8954 8957 8960 8963 8966 8968 8971 8974 8977 8980 8982 8985 8987 8990 8992 8994 8997 8999 9002 9005 9008 9011 9014 9016 9019 9021 9023 9025 9027 9030 9033 9036 9039 9042 9044 9047 9050 9052 9054 9057 9060 9063 9065 9068 9071 9073 9076 9079 9082 9085 9087 9090 9093 9095 9098 9101 9103 9106 9109 9112 9115 9118 9121 9124 9127 9130 9133 9136 9139 9142 9145 9147 9150 9152 9155 9158 9161 9164 9167 9169 9172 9175 9177 9180 9183 9186 9189 9192 9194 9197 9200 9203 9206 9209 9212 9215 9218 9221 9224 9226 9229 9232 9235 9238 9241 9244 9247 9250 9253 9256 9259 9261 9264 9267 9270 9273 9276 9279 9281 9284 9287 9290 9293 9296 9299 9302 9305 9308 9311 9314 9317 9320 9323 9325 9328 9331 9334 9336 9339 9342 9345 9348 9351 9354 9357 9359 9362 9364 9367 9370 9373 9376 9379 9382 9385 9388 9391 9394 9397 9400 9403 9406 9409 9412 9415 9418 9421 9424 9427 9430 9433 9436 9439 9442 9445 9448 9451 9454 9457 9460 9463 9466 9469 9472 9474 9477 9479 9482 9485 9487 9490 9492 9495 9498 9501 9504 9507 9510 9512 9515 9518 9520 9522 9525 9528 9531 9534 9537 9540 9542 9545 9548 9551 9554 9557 9560 9563 9565 9568 9571 9574 9577 9580 9583 9586 9589 9592 9595 9598 9601 9604 9607 9610 9613 9616 9619 9622 9624 9627 9630 9633 9635 9638 9640 9643 9645 9648 9651 9654 9657 9659 9662 9665 9668 9671 9674 9677 9679 9682 9685 9688 9691 9694 9697 9699 9702 9705 9707 9710 9713 9716 9719 9722 9725 9727 9730 9733 9736 9739 9742 9745 9748 9751 9754 9756 9759 9761 9764 9767 9770 9773 9776 9778 9780 9783 9786 9789 9791 9793 9796 9799 9802 9805 9808 9811 9813 9816 9819 9821 9823 9826 9829 9831 9834 9837 9839 9842 9845 9848 9851 9853 9856 9859 9862 9865 9868 9871 9873 9876 9879 9882 9885 9888 9891 9894 9897 9900 9903 9905 9908 9911 9914 9916 9918 9921 9924 9927 9930 9933 9936 9939 9942 9945 9947 9950 9953 9956 9959 9962 9965 9968 9971 9974 9977 9980 9982 9984 9987 9990 9993 9996 9998 10001 10004 10007 10010 10012 10015 10018 10021 10024 10026 10029 10032 10035 10037 10040 10043 10046 10049 10051 10054 10057 10060 10063 10066 10068 10071 10074 10077 10080 10082 10085 10088 10091 10094 10097 10100 10103 10106 10109 10112 10115 10118 10121 10124 10127 10130 10133 10136 10139 10142 10145 10148 10151 10154 10157 10160 10163 10166 10169 10172 10175 10178 10180 10183 10186 10189 10192 10194 10197 10200 10203 10206 10209 10212 10214 10217 10220 10223 10225 10228 10230 10233 10236 10239 10242 10245 10248 10251 10254 10257 10260 10263 10266 10269 10272 10275 10278 10281 10284 10287 10290 10293 10296 10299 10301 10304 10306 10309 10312 10315 10317 10320 10323 10326 10329 10332 10335 10338 10341 10344 10347 10350 10353 10356 10358 10361 10364 10366 10369 10372 10374 10376 10379 10381 10384 10387 10390 10393 10396 10399 10402 10405 10408 10411 10414 10417 10420 10423 10426 10429 10432 10434 10437 10440 10443 10446 10449 10451 10454 10457 10460 10463 10466 10469 10472 10474 10477 10480 10483 10486 10489 10492 10495 10497 10500 10503 10506 10509 10512 10515 10518 10521 10524 10527 10530 10533 10536 10539 10542 10544 10547 10550 10553 10555 10558 10561 10564 10567 10570 10573 10576 10579 10582 10585 10588 10590 10593 10596 10599 10602 10605 10608 10610 10613 10616 10618 10621 10623 10626 10629 10632 10634 10637 10640 10643 10646 10649 10652 10655 10658 10661 10664 10667 10669 10672 10675 10678 10681 10684 10686 10689 10692 10695 10697 10700 10703 10706 10708 10711 10714 10717 10720 10723 10725 10728 10730 10733 10736 10739 10742 10745 10748 10751 10754 10756 10759 10761 10764 10767 10769 10772 10774 10777 10779 10782 10785 10788 10791 10794 10797 10800 10803 10806 10809 10811 10814 10816 10819 10822 10825 10828 10830 10833 10836 10839 10841 10843 10846 10849 10852 10854 10857 10859 10861 10864 10867 10869 10871 10874 10876 10878 10881 10884 10886 10888 10891 10894 10896 10899 10902 10904 10907 10909 10912 10915 10917 10920 10923 10925 10928 10930 10933 10936 10939 10941 10944 10946 10949 10952 10954 10956 10959 10962 10965 10967 10969 10972 10974 10977 10980 10983 10986 10989 10992 10995 10998 11000 11003 11006 11008 11010 11013 11015 11018 11020 11022 11025 11028 11031 11033 11036 11039 11041 11044 11047 11050 11053 11056 11059 11061 11063 11066 11069 11072 11075 11078 11081 11084 11086 11088 11091 11094 11097 11100 11102 11105 11108 11111 11113 11116 11119 11121 11124 11127 11130 11133 11136 11138 11141 11144 11146 11149 11152 11155 11157 11159 11162 11165 11167 11170 11173 11176 11178 11181 11184 11187 11189 11191 11194 11197 11199 11202 11205 11208 11211 11213 11215 11218 11221 11223 11225 11228 11230 11232 11235 11238 11241 11244 11247 11250 11252 11255 11258 11261 11264 11267 11270 11273 11276 11279 11282 11284 11286 11289 11292 11295 11298 11301 11304 11307 11309 11312 11315 11318 11321 11324 11327 11330 11333 11336 11338 11341 11344 11346 11349 11352 11354 11357 11360 11363 11366 11369 11372 11375 11378 11381 11384 11387 11390 11393 11396 11399 11402 11405 11408 11410 11412 11415 11418 11421 11424 11426 11429 11432 11434 11437 11440 11443 11446 11449 11452 11455 11458 11461 11463 11466 11469 11471 11474 11477 11480 11483 11486 11489 11492 11495 11498 11501 11504 11506 11509 11511 11514 11517 11520 11523 11526 11529 11532 11535 11538 11541 11543 11546 11549 11552 11555 11558 11561 11564 11567 11570 11573 11576 11579 11582 11585 11588 11591 11594 11597 11600 11603 11606 11609 11612 11615 11618 11621 11624 11627 11630 11633 11636 11639 11642 11645 11648 11651 11654 11657 11660 11662 11665 11668 11671 11674 11677 11680 11683 11686 11689 11691 11694 11697 11699 11702 11705 11708 11711 11714 11717 11720 11723 11726 11729 11732 11735 11738 11741 11744 11747 11749 11752 11754 11757 11760 11762 11765 11768 11771 11773 11775 11778 11780 11782 11785 11787 11790 11793 11795 11798 11801 11803 11806 11809 11812 11815 11818 11821 11824 11827 11830 11833 11836 11839 11842 11845 11848 11851 11854 11857 11860 11863 11866 11868 11871 11874 11877 11880 11883 11886 11889 11892 11895 11898 11901 11904 11907 11910 11913 11916 11919 11922 11925 11927 11930 11933 11936 11939 11942 11944 11947 11950 11953 11956 11959 11962 11965 11968 11971 11974 11977 11980 11983 11986 11989 11992 11995 11998 12001 12004 12007 12010 12013 12016 12018 12021 12024 12027 12030 12033 12036 12038 12041 12044 12047 12050 12053 12056 12059 12062 12065 12068 12071 12074 12077 12080 12083 12085 12088 12091 12094 12096 12098 12101 12104 12107 12109 12112 12115 12118 12121 12124 12127 12130 12133 12135 12138 12141 12144 12147 12149 12152 12155 12158 12161 12164 12167 12170 12173 12176 12179 12182 12185 12188 12190 12193 12196 12199 12202 12205 12208 12211 12214 12217 12220 12223 12226 12229 12232 12235 12238 12241 12244 12247 12250 12253 12256 12259 12262 12265 12268 12271 12273 12276 12279 12282 12285 12288 12291 12294 12297 12300 12303 12306 12309 12312 12315 12318 12320 12322 12325 12328 12331 12333 12336 12339 12342 12345 12348 12351 12354 12357 12360 12363 12366 12369 12372 12375 12378 12381 12384 12387 12390 12393 12396 12399 12402 12405 12408 12411 12414 12417 12420 12423 12425 12428 12431 12434 12437 12440 12443 12446 12449 12452 12455 12458 12461 12464 12467 12470 12473 12476 12479 12482 12485 12488 12491 12494 12497 12500 12502 12505 12508 12511 12514 12517 12520 12523 12525 12528 12531 12534 12536 12539 12542 12544 12547 12550 12553 12556 12559 12562 12565 12568 12570 12572 12575 12578 12581 12584 12587 12589 12592 12595 12598 12601 12604 12607 12610 12613 12616 12619 12622 12625 12628 12631 12634 12637 12640 12643 12646 12648 12651 12653 12656 12658 12661 12664 12667 12669 12672 12674 12677 12680 12683 12686 12689 12692 12695 12698 12701 12704 12707 12710 12712 12715 12718 12721 12724 12726 12729 12732 12734 12737 12739 12742 12745 12747 12750 12753 12756 12758 12761 12764 12767 12770 12773 12776 12779 12782 12785 12787 12790 12793 12796 12799 12801 12804 12807 12810 12813 12815 12818 12821 12824 12827 12830 12833 12835 12838 12840 12843 12845 12848 12851 12854 12856 12859 12862 12865 12868 12871 12874 12876 12878 12881 12884 12887 12890 12893 12895 12898 12901 12904 12907 12910 12913 12916 12919 12922 12925 12928 12931 12934 12937 12940 12943 12946 12949 12952 12954 12957 12960 12963 12966 12969 12972 12975 12978 12981 12983 12986 12988 12991 12993 12996 12999 13002 13005 13008 13011 13014 13017 13020 13023 13026 13029 13031 13034 13037 13039 13042 13045 13048 13051 13054 13057 13060 13063 13066 13068 13071 13073 13076 13079 13082 13085 13088 13091 13093 13096 13099 13102 13105 13108 13111 13114 13117 13120 13123 13126 13129 13132 13135 13138 13141 13144 13147 13150 13153 13156 13159 13162 13165 13168 13171 13174 13177 13180 13183 13186 13189 13192 13195 13198 13201 13204 13207 13210 13213 13216 13218 13221 13224 13226 13229 13231 13234 13237 13240 13242 13244 13247 13250 13252 13255 13258 13261 13264 13267 13270 13273 13276 13279 13282 13285 13288 13290 13293 13296 13299 13302 13305 13308 13311 13314 13317 13320 13323 13326 13328 13331 13334 13337 13340 13343 13346 13349 13352 13355 13358 13361 13364 13367 13370 13373 13375 13378 13381 13384 13387 13390 13392 13395 13398 13401 13404 13407 13410 13413 13416 13419 13421 13424 13427 13430 13433 13435 13438 13441 13444 13447 13450 13453 13456 13459 13462 13465 13468 13470 13473 13475 13478 13480 13483 13486 13489 13491 13494 13497 13500 13503 13506 13509 13512 13515 13518 13521 13524 13527 13530 13533 13536 13539 13542 13545 13548 13551 13553 13556 13559 13562 13565 13568 13571 13574 13577 13580 13583 13586 13589 13592 13595 13598 13601 13604 13607 13609 13612 13615 13618 13621 13624 13626 13629 13632 13635 13638 13641 13644 13647 13650 13652 13655 13658 13660 13663 13666 13669 13672 13675 13678 13681 13683 13686 13689 13692 13695 13698 13701 13704 13707 13710 13712 13715 13718 13721 13724 13727 13730 13733 13736 13739 13742 13745 13748 13751 13754 13757 13760 13763 13766 13769 13772 13775 13778 13781 13784 13786 13789 13791 13794 13797 13799 13802 13805 13808 13811 13814 13817 13820 13823 13825 13828 13831 13834 13837 13840 13843 13845 13848 13851 13854 13857 13860 13863 13866 13869 13872 13875 13878 13881 13883 13886 13889 13892 13895 13898 13901 13904 13907 13910 13913 13916 13919 13922 13925 13927 13930 13933 13936 13938 13941 13944 13947 13950 13952 13955 13958 13961 13964 13967 13970 13973 13976 13979 13982 13985 13988 13991 13994 13997 14000 14003 14006 14009 14012 14015 14018 14021 14024 14027 14030 14032 14035 14038 14040 14043 14046 14049 14052 14055 14058 14061 14064 14067 14069 14072 14075 14077 14080 14083 14085 14088 14091 14094 14097 14100 14103 14106 14109 14112 14115 14118 14121 14124 14127 14130 14133 14136 14139 14142 14145 14148 14151 14154 14157 14160 14163 14166 14169 14172 14175 14178 14181 14184 14187 14190 14193 14196 14199 14202 14205 14208 14211 14214 14217 14220 14223 14226 14229 14232 14235 14238 14241 14244 14247 14250 14253 14256 14259 14262 14265 14268 14271 14274 14276 14279 14282 14285 14288 14291 14294 14296 14299 14302 14305 14308 14311 14314 14317 14320 14323 14326 14329 14331 14333 14336 14339 14341 14344 14346 14349 14352 14354 14357 14360 14362 14365 14368 14371 14374 14377 14380 14383 14386 14388 14391 14394 14397 14400 14403 14406 14409 14412 14415 14417 14420 14423 14426 14429 14431 14434 14437 14440 14443 14446 14449 14452 14455 14458 14461 14464 14467 14470 14473 14476 14478 14481 14484 14487 14490 14492 14495 14497 14500 14503 14506 14508 14511 14514 14516 14519 14522 14525 14528 14531 14534 14537 14540 14543 14546 14549 14551 14554 14557 14559 14562 14565 14568 14570 14573 14576 14578 14580 14583 14586 14588 14591 14594 14597 14600 14603 14606 14609 14612 14614 14617 14620 14623 14626 14628 14631 14633 14636 14638 14641 14644 14647 14650 14652 14655 14658 14661 14663 14666 14669 14672 14675 14678 14681 14684 14687 14690 14693 14696 14699 14702 14705 14708 14711 14714 14717 14719 14722 14725 14728 14731 14734 14737 14740 14743 14746 14749 14752 14755 14758 14761 14764 14767 14770 14773 14776 14779 14782 14785 14788 14791 14794 14797 14800 14803 14806 14809 14812 14815 14818 14821 14824 14827 14830 14833 14836 14839 14841 14844 14847 14850 14853 14856 14858 14861 14864 14867 14870 14873 14876 14879 14882 14885 14888 14891 14894 14897 14899 14902 14905 14907 14910 14913 14916 14918 14921 14923 14926 14929 14932 14935 14937 14940 14943 14946 14949 14952 14955 14958 14961 14964 14966 14969 14972 14974 14976 14979 14981 14984 14987 14990 14993 14996 14999 15002 15005 15008 15011 15014 15017 15020 15023 15026 15029 15032 15035 15038 15041 15044 15047 15050 15052 15055 15058 15061 15063 15066 15069 15072 15075 15078 15081 15084 15086 15089 15092 15095 15098 15101 15104 15107 15110 15113 15116 15119 15122 15125 15128 15131 15134 15137 15140 15143 15146 15149 15152 15155 15157 15160 15163 15166 15169 15172 15174 15177 15179 15181 15184 15187 15190 15192 15195 15198 15200 15203 15206 15209 15212 15215 15218 15221 15224 15227 15230 15233 15235 15238 15241 15244 15246 15249 15251 15254 15257 15260 15263 15266 15268 15271 15273 15276 15278 15281 15284 15287 15290 15293 15296 15299 15302 15304 15306 15308 15311 15314 15316 15319 15322 15325 15328 15331 15334 15337 15340 15343 15346 15349 15352 15355 15358 15361 15364 15367 15370 15373 15376 15379 15382 15385 15388 15391 15394 15397 15400 15403 15406 15409 15412 15415 15418 15421 15424 15427 15429 15432 15435 15438 15441 15444 15447 15450 15452 15455 15458 15460 15463 15466 15469 15472 15475 15478 15481 15484 15487 15490 15493 15496 15499 15502 15505 15508 15511 15514 15517 15520 15523 15526 15529 15531 15534 15537 15540 15543 15546 15549 15552 15555 15558 15561 15563 15566 15569 15572 15575 15577 15580 15583 15586 15589 15591 15594 15596 15598 15601 15604 15607 15610 15612 15615 15618 15620 15623 15626 15628 15630 15633 15636 15639 15642 15645 15648 15651 15653 15656 15659 15662 15665 15668 15671 15674 15677 15680 15683 15686 15689 15692 15694 15697 15700 15703 15706 15709 15712 15715 15717 15719 15722 15724 15727 15729 15732 15735 15738 15740 15743 15746 15749 15752 15755 15757 15760 15763 15765 15768 15771 15774 15777 15780 15783 15786 15788 15791 15794 15797 15800 15803 15806 15809 15812 15814 15817 15820 15823 15825 15828 15831 15834 15837 15840 15842 15844 15847 15850 15852 15855 15858 15861 15864 15867 15870 15873 15876 15879 15882 15885 15888 15891 15894 15896 15899 15902 15904 15907 15909 15912 15915 15918 15921 15923 15926 15929 15932 15935 15938 15940 15943 15946 15948 15950 15953 15956 15959 15962 15964 15967 15970 15973 15976 15979 15982 15985 15988 15990 15993 15995 15998 16001 16004 16007 16010 16013 16016 16019 16021 16024 16027 16030 16033 16035 16038 16041 16044 16047 16050 16053 16056 16059 16062 16065 16068 16071 16074 16077 16080 16083 16086 16089 16092 16095 16098 16101 16104 16107 16110 16113 16116 16119 16122 16125 16128 16131 16134 16136 16139 16142 16145 16148 16151 16154 16157 16159 16162 16165 16168 16171 16174 16177 16180 16183 16186 16189 16192 16195 16197 16200 16203 16206 16209 16211 16214 16217 16220 16223 16226 16229 16232 16235 16238 16241 16244 16247 16250 16252 16255 16258 16260 16263 16266 16269 16272 16274 16277 16280 16283 16286 16289 16292 16295 16298 16301 16304 16307 16309 16312 16314 16317 16320 16322 16325 16328 16331 16334 16336 16339 16342 16345 16348 16351 16354 16357 16360 16363 16366 16369 16372 16375 16378 16381 16384 16387 16390 16393 16396 16399 16402 16405 16408 16411 16414 16417 16420 16422 16425 16428 16431 16434 16436 16439 16442 16445 16448 16451 16454 16457 16460 16463 16465 16468 16471 16474 16476 16479 16482 16485 16488 16491 16494 16496 16499 16501 16504 16506 16509 16512 16515 16518 16521 16524 16527 16530 16533 16536 16539 16542 16545 16548 16551 16554 16557 16560 16563 16566 16569 16572 16575 16578 16581 16584 16587 16590 16593 16596 16599 16602 16605 16608 16611 16613 16616 16618 16621 16624 16627 16630 16633 16636 16639 16642 16644 16647 16650 16653 16656 16659 16662 16665 16668 16671 16674 16677 16680 16682 16685 16688 16691 16694 16697 16700 16703 16706 16709 16712 16715 16718 16721 16723 16726 16729 16731 16734 16737 16740 16743 16745 16748 16751 16754 16757 16759 16762 16765 16768 16771 16774 16776 16778 16781 16783 16786 16789 16791 16794 16797 16800 16803 16805 16808 16810 16813 16816 16819 16822 16825 16828 16831 16834 16836 16839 16842 16845 16848 16850 16853 16856 16859 16862 16865 16868 16871 16874 16877 16880 16883 16886 16889 16892 16895 16898 16901 16904 16907 16910 16913 16916 16918 16921 16924 16927 16930 16933 16936 16939 16942 16945 16948 16951 16954 16957 16960 16963 16966 16969 16972 16975 16978 16981 16983 16986 16989 16992 16995 16998 17001 17004 17006 17009 17011 17014 17017 17020 17023 17026 17029 17032 17035 17038 17041 17044 17047 17050 17053 17056 17059 17062 17065 17068 17071 17074 17077 17080 17083 17086 17089 17091 17094 17097 17100 17103 17106 17108 17111 17113 17116 17119 17122 17125 17127 17129 17131 17134 17136 17139 17142 17145 17147 17150 17153 17156 17159 17161 17164 17166 17169 17172 17175 17178 17180 17183 17186 17189 17191 17193 17195 17198 17200 17203 17205 17208 17211 17213 17216 17219 17222 17225 17228 17231 17234 17237 17240 17243 17245 17248 17250 17253 17255 17258 17261 17264 17267 17269 17272 17275 17278 17281 17283 17286 17289 17292 17295 17298 17301 17304 17307 17310 17313 17315 17318 17320 17323 17326 17328 17331 17334 17336 17339 17342 17345 17348 17351 17353 17356 17359 17362 17365 17368 17371 17374 17377 17380 17383 17386 17389 17391 17394 17397 17400 17402 17405 17408 17411 17414 17417 17419 17422 17425 17428 17431 17434 17437 17440 17443 17446 17449 17452 17455 17458 17461 17464 17467 17470 17473 17476 17479 17482 17484 17487 17490 17493 17496 17498 17501 17504 17507 17509 17512 17514 17517 17520 17522 17525 17527 17530 17533 17536 17539 17542 17545 17547 17550 17553 17556 17559 17561 17564 17566 17569 17572 17575 17578 17581 17584 17587 17589 17592 17595 17598 17601 17604 17607 17610 17612 17615 17618 17621 17624 17627 17630 17633 17636 17639 17642 17645 17648 17651 17654 17657 17660 17663 17665 17668 17671 17674 17676 17679 17682 17685 17688 17691 17694 17697 17700 17703 17706 17709 17712 17715 17718 17720 17723 17726 17729 17732 17735 17738 17741 17744 17747 17750 17753 17756 17759 17762 17765 17768 17771 17774 17777 17780 17783 17786 17789 17792 17795 17798 17801 17803 17806 17808 17811 17814 17817 17819 17822 17825 17828 17830 17833 17836 17838 17840 17843 17846 17849 17852 17855 17858 17861 17864 17866 17869 17872 17874 17877 17880 17883 17886 17888 17891 17893 17896 17899 17902 17904 17907 17910 17913 17916 17919 17922 17925 17928 17931 17934 17936 17939 17942 17944 17947 17950 17952 17955 17958 17961 17964 17967 17970 17973 17975 17978 17981 17983 17985 17988 17991 17994 17996 17999 18002 18005 18008 18011 18014 18016 18019 18022 18025 18028 18030 18033 18036 18039 18041 18044 18047 18050 18053 18055 18058 18061 18063 18066 18069 18072 18075 18078 18081 18084 18087 18090 18093 18096 18098 18101 18104 18107 18110 18112 18115 18117 18120 18122 18125 18127 18130 18133 18136 18139 18142 18145 18148 18151 18154 18157 18160 18162 18164 18167 18170 18173 18176 18179 18182 18184 18187 18190 18192 18195 18198 18201 18204 18207 18210 18212 18215 18218 18221 18223 18226 18228 18231 18234 18237 18239 18242 18245 18248 18251 18254 18257 18259 18262 18265 18268 18271 18274 18277 18279 18282 18284 18287 18290 18293 18295 18298 18301 18304 18307 18309 18312 18315 18318 18321 18324 18327 18330 18332 18335 18337 18340 18342 18345 18348 18351 18353 18355 18358 18361 18363 18366 18369 18372 18375 18378 18380 18383 18385 18387 18389 18391 18394 18397 18400 18403 18406 18408 18410 18413 18416 18418 18421 18424 18427 18429 18432 18435 18438 18441 18444 18447 18450 18453 18456 18458 18461 18464 18467 18469 18472 18475 18478 18481 18484 18487 18490 18492 18495 18497 18500 18503 18506 18509 18511 18514 18516 18519 18522 18525 18528 18530 18533 18536 18539 18542 18545 18548 18551 18554 18557 18559 18562 18565 18568 18571 18574 18577 18580 18583 18586 18589 18592 18595 18598 18601 18604 18607 18610 18613 18616 18619 18622 18624 18627 18630 18633 18636 18638 18641 18644 18647 18650 18653 18655 18658 18660 18663 18666 18669 18672 18675 18678 18681 18684 18687 18690 18693 18695 18698 18700 18703 18705 18707 18710 18712 18715 18717 18720 18723 18726 18728 18731 18734 18737 18739 18742 18745 18748 18751 18753 18756 18758 18761 18764 18767 18770 18773 18776 18779 18782 18784 18787 18790 18793 18796 18799 18802 18805 18808 18810 18813 18816 18819 18822 18825 18828 18831 18834 18837 18839 18842 18845 18847 18850 18853 18856 18858 18861 18864 18867 18870 18873 18876 18879 18882 18885 18888 18891 18894 18896 18899 18902 18905 18908 18910 18913 18916 18919 18922 18925 18928 18930 18933 18936 18939 18942 18944 18947 18949 18952 18955 18958 18961 18964 18967 18970 18972 18975 18978 18981 18983 18985 18988 18991 18994 18997 18999 19002 19004 19007 19010 19012 19015 19018 19021 19024 19027 19030 19033 19036 19039 19042 19045 19048 19051 19054 19057 19060 19063 19066 19069 19072 19075 19078 19081 19084 19087 19090 19093 19096 19099 19102 19105 19108 19111 19114 19117 19119 19122 19125 19128 19130 19133 19136 19139 19142 19145 19148 19151 19154 19157 19160 19163 19166 19169 19171 19174 19176 19179 19182 19185 19188 19191 19194 19197 19200 19203 19206 19209 19212 19215 19217 19220 19223 19225 19228 19231 19234 19237 19240 19242 19245 19248 19251 19254 19257 19260 19263 19266 19269 19272 19275 19278 19281 19284 19287 19290 19293 19296 19299 19301 19303 19306 19309 19311 19314 19317 19319 19322 19325 19328 19331 19334 19337 19340 19342 19345 19348 19351 19354 19356 19359 19362 19365 19368 19371 19374 19377 19380 19383 19386 19389 19392 19395 19398 19400 19403 19406 19408 19411 19414 19417 19420 19423 19426 19429 19431 19433 19436 19439 19442 19445 19448 19451 19454 19457 19460 19463 19466 19469 19472 19475 19478 19481 19483 19486 19489 19492 19495 19497 19500 19503 19505 19508 19511 19513 19516 19519 19522 19525 19528 19531 19534 19537 19540 19543 19546 19549 19551 19554 19557 19560 19563 19565 19568 19571 19574 19577 19580 19583 19586 19589 19592 19594 19596 19598 19601 19604 19607 19609 19612 19615 19617 19619 19622 19624 19627 19630 19633 19635 19638 19641 19644 19647 19650 19653 19656 19659 19662 19665 19668 19671 19674 19677 19680 19683 19686 19689 19692 19695 19698 19701 19704 19707 19710 19713 19716 19719 19722 19725 19728 19731 19734 19737 19740 19743 19746 19749 19752 19755 19758 19761 19764 19767 19770 19773 19776 19779 19781 19784 19786 19789 19792 19795 19798 19801 19804 19807 19810 19813 19815 19818 19821 19824 19827 19830 19833 19835 19838 19841 19844 19847 19850 19852 19855 19858 19861 19864 19867 19870 19873 19876 19879 19882 19885 19888 19891 19894 19897 19899 19902 19905 19908 19911 19914 19917 19920 19922 19925 19928 19931 19934 19937 19939 19941 19944 19947 19950 19953 19955 19958 19961 19964 19967 19970 19973 19976 19979 19982 19985 19988 19991 19994 19997 20000 20003 20006 20009 20012 20015 20018 20020 20023 20026 20029 20032 20035 20038 20040 20043 20046 20049 20051 20054 20057 20060 20063 20066 20069 20072 20075 20078 20081 20084 20087 20090 20093 20096 20099 20102 20105 20107 20110 20112 20115 20118 20121 20124 20127 20129 20131 20134 20137 20140 20142 20145 20148 20151 20154 20157 20160 20162 20165 20168 20171 20174 20177 20179 20182 20184 20187 20190 20192 20195 20198 20201 20204 20206 20209 20212 20215 20218 20220 20223 20226 20229 20232 20234 20237 20240 20243 20246 20249 20252 20255 20258 20261 20264 20267 20270 20273 20275 20278 20281 20284 20287 20290 20293 20296 20299 20302 20305 20308 20311 20314 20317 20320 20323 20325 20328 20331 20334 20337 20339 20342 20345 20348 20351 20353 20356 20359 20362 20365 20368 20371 20374 20377 20380 20383 20385 20388 20391 20394 20397 20399 20402 20405 20408 20411 20414 20417 20420 20423 20426 20429 20432 20435 20438 20441 20444 20446 20449 20452 20455 20457 20460 20463 20466 20469 20472 20475 20478 20481 20484 20487 20490 20493 20496 20499 20501 20504 20507 20510 20513 20516 20519 20522 20525 20528 20531 20534 20536 20539 20542 20544 20547 20550 20553 20556 20559 20562 20564 20566 20569 20572 20575 20578 20580 20583 20585 20588 20591 20594 20596 20599 20602 20604 20607 20610 20613 20616 20619 20622 20625 20628 20631 20634 20637 20640 20643 20646 20649 20652 20654 20657 20660 20663 20666 20669 20672 20675 20678 20680 20682 20685 20688 20691 20693 20695 20698 20700 20703 20705 20708 20711 20714 20717 20719 20722 20725 20728 20731 20734 20737 20740 20743 20746 20749 20752 20755 20758 20760 20763 20765 20768 20771 20774 20777 20780 20783 20786 20789 20791 20793 20796 20799 20801 20803 20805 20808 20811 20814 20817 20820 20823 20825 20828 20831 20833 20836 20839 20841 20843 20845 20847 20850 20853 20856 20859 20862 20865 20868 20871 20874 20877 20880 20883 20886 20888 20891 20894 20896 20899 20901 20904 20907 20910 20913 20916 20919 20922 20924 20926 20929 20932 20934 20937 20940 20942 20945 20948 20951 20954 20956 20958 20960 20962 20965 20968 20971 20974 20977 20980 20983 20986 20989 20992 20995 20998 21001 21004 21006 21009 21012 21014 21017 21020 21023 21026 21028 21031 21034 21037 21039 21042 21045 21047 21050 21053 21055 21058 21061 21063 21065 21068 21070 21073 21076 21079 21082 21085 21088 21090 21093 21096 21099 21102 21104 21107 21110 21113 21116 21119 21121 21124 21127 21129 21132 21134 21136 21139 21142 21145 21147 21150 21153 21156 21159 21162 21164 21167 21170 21173 21175 21178 21181 21184 21186 21189 21192 21195 21198 21201 21204 21207 21209 21212 21215 21218 21221 21224 21226 21229 21232 21235 21238 21241 21244 21247 21249 21252 21254 21256 21259 21262 21264 21267 21270 21273 21276 21279 21282 21284 21287 21290 21293 21296 21299 21302 21304 21307 21310 21313 21316 21319 21322 21324 21327 21329 21332 21334 21337 21340 21342 21345 21348 21351 21354 21356 21358 21360 21362 21365 21368 21371 21374 21377 21380 21383 21386 21388 21391 21394 21397 21399 21402 21404 21407 21410 21413 21416 21419 21422 21425 21428 21431 21434 21437 21440 21443 21446 21449 21452 21454 21457 21459 21462 21465 21468 21471 21474 21477 21480 21483 21485 21488 21491 21494 21497 21500 21502 21505 21508 21510 21513 21516 21519 21522 21525 21528 21530 21532 21535 21538 21540 21543 21546 21549 21552 21555 21558 21561 21564 21567 21570 21573 21575 21577 21580 21583 21586 21589 21591 21594 21597 21600 21603 21606 21609 21612 21615 21617 21620 21623 21626 21629 21631 21634 21637 21640 21643 21646 21649 21651 21654 21656 21659 21661 21664 21667 21670 21673 21676 21679 21682 21685 21688 21691 21694 21697 21700 21703 21706 21709 21712 21715 21717 21720 21723 21726 21729 21732 21735 21738 21741 21744 21747 21750 21753 21756 21759 21762 21765 21768 21770 21772 21775 21778 21781 21784 21787 21790 21793 21796 21799 21802 21805 21808 21811 21814 21817 21820 21823 21826 21829 21832 21835 21838 21841 21844 21847 21850 21853 21856 21859 21862 21865 21868 21871 21874 21877 21880 21883 21886 21889 21892 21895 21898 21901 21904 21907 21909 21912 21914 21917 21920 21923 21926 21929 21932 21935 21937 21940 21943 21946 21948 21951 21953 21955 21957 21960 21962 21964 21967 21970 21972 21974 21976 21979 21982 21985 21988 21991 21993 21996 21998 22000 22003 22006 22009 22012 22015 22018 22021 22023 22026 22029 22031 22034 22037 22039 22041 22044 22047 22050 22053 22056 22059 22061 22064 22067 22069 22071 22074 22077 22079 22082 22085 22088 22090 22093 22096 22099 22102 22104 22107 22110 22113 22115 22118 22121 22123 22126 22129 22132 22135 22138 22141 22144 22147 22150 22153 22156 22159 22162 22165 22168 22171 22174 22177 22180 22182 22184 22187 22190 22193 22195 22198 22201 22204 22207 22209 22212 22215 22218 22221 22224 22226 22228 22231 22234 22237 22240 22243 22246 22249 22252 22255 22257 22260 22263 22266 22269 22272 22275 22278 22281 22284 22287 22290 22293 22296 22299 22302 22305 22308 22311 22314 22317 22320 22323 22326 22329 22332 22335 22338 22340 22343 22345 22347 22350 22353 22356 22359 22362 22365 22368 22371 22374 22377 22380 22383 22386 22389 22392 22395 22398 22401 22404 22407 22410 22413 22416 22419 22422 22425 22428 22430 22433 22436 22438 22441 22444 22446 22449 22452 22454 22457 22459 22462 22465 22468 22471 22474 22477 22480 22482 22485 22488 22491 22494 22497 22500 22503 22506 22509 22512 22515 22518 22520 22523 22525 22528 22530 22533 22536 22539 22542 22545 22547 22550 22553 22556 22559 22561 22564 22567 22569 22572 22575 22578 22581 22584 22587 22590 22593 22595 22598 22601 22604 22607 22610 22613 22615 22618 22621 22624 22627 22629 22632 22635 22638 22640 22643 22646 22649 22652 22655 22658 22661 22664 22667 22670 22673 22676 22679 22682 22685 22688 22691 22694 22696 22699 22701 22704 22707 22710 22712 22715 22718 22721 22724 22727 22730 22733 22736 22739 22742 22745 22748 22751 22754 22757 22760 22763 22766 22769 22771 22774 22777 22780 22782 22785 22788 22791 22793 22796 22799 22802 22805 22808 22811 22814 22817 22820 22823 22826 22829 22832 22835 22838 22840 22843 22846 22849 22852 22854 22857 22860 22862 22865 22868 22871 22874 22877 22880 22882 22885 22887 22890 22892 22894 22896 22899 22902 22905 22907 22909 22912 22915 22918 22921 22924 22927 22930 22932 22935 22938 22941 22943 22946 22948 22951 22954 22957 22960 22963 22966 22969 22972 22975 22977 22980 22983 22986 22989 22992 22995 22998 23001 23003 23006 23009 23012 23015 23017 23020 23023 23026 23029 23032 23035 23038 23041 23044 23047 23050 23053 23056 23059 23062 23065 23068 23071 23074 23077 23080 23082 23084 23087 23090 23093 23096 23099 23102 23105 23108 23110 23113 23116 23119 23122 23125 23128 23131 23134 23137 23140 23142 23145 23148 23151 23154 23157 23160 23162 23165 23168 23171 23174 23177 23179 23182 23184 23187 23190 23192 23194 23197 23200 23203 23206 23209 23212 23215 23218 23221 23224 23227 23230 23233 23236 23239 23242 23245 23248 23251 23254 23257 23260 23263 23266 23269 23272 23275 23278 23281 23284 23287 23290 23293 23296 23299 23302 23305 23308 23311 23314 23317 23320 23323 23326 23329 23332 23335 23338 23340 23342 23345 23348 23350 23353 23356 23359 23362 23365 23367 23369 23372 23375 23377 23379 23382 23385 23388 23391 23394 23397 23400 23403 23406 23409 23411 23414 23417 23420 23423 23426 23429 23432 23435 23438 23441 23444 23447 23450 23453 23456 23458 23461 23464 23467 23470 23473 23476 23479 23482 23485 23488 23491 23494 23497 23499 23502 23504 23506 23508 23511 23514 23517 23520 23523 23526 23529 23532 23534 23536 23539 23542 23545 23548 23550 23553 23556 23559 23562 23565 23568 23571 23574 23576 23579 23582 23585 23588 23591 23594 23597 23600 23603 23606 23609 23612 23615 23618 23621 23624 23627 23629 23632 23635 23638 23641 23644 23647 23649 23652 23655 23657 23660 23663 23666 23669 23672 23675 23678 23681 23684 23687 23690 23693 23696 23699 23702 23705 23708 23711 23713 23716 23719 23722 23724 23727 23730 23732 23735 23737 23739 23742 23745 23747 23750 23753 23756 23758 23761 23764 23766 23769 23771 23773 23776 23779 23782 23785 23787 23790 23793 23796 23799 23802 23805 23807 23810 23812 23815 23818 23821 23823 23826 23829 23832 23835 23837 23840 23842 23844 23847 23850 23853 23856 23859 23861 23864 23866 23869 23871 23874 23876 23878 23881 23884 23887 23890 23893 23896 23899 23901 23904 23906 23909 23912 23914 23917 23920 23922 23925 23928 23931 23934 23937 23940 23943 23946 23949 23952 23955 23958 23961 23964 23967 23970 23973 23976 23979 23982 23985 23988 23991 23994 23997 24000 24003 24006 24009 24012 24015 24017 24020 24023 24026 24029 24032 24035 24038 24041 24044 24047 24050 24053 24056 24059 24062 24065 24068 24071 24074 24077 24080 24083 24086 24088 24091 24094 24097 24100 24103 24105 24107 24110 24113 24116 24119 24122 24125 24128 24131 24134 24137 24140 24143 24146 24149 24152 24155 24158 24161 24164 24167 24170 24172 24175 24178 24181 24184 24187 24190 24193 24196 24199 24202 24205 24208 24211 24213 24216 24218 24221 24224 24227 24229 24232 24235 24238 24241 24244 24247 24250 24253 24255 24258 24260 24263 24266 24269 24272 24275 24277 24280 24283 24286 24289 24292 24295 24298 24301 24304 24307 24310 24312 24315 24318 24321 24324 24327 24330 24333 24336 24339 24342 24345 24347 24350 24353 24356 24359 24362 24365 24368 24371 24373 24376 24379 24382 24385 24388 24391 24394 24397 24400 24403 24406 24409 24412 24415 24418 24421 24424 24427 24430 24433 24436 24439 24442 24445 24448 24451 24453 24456 24459 24461 24464 24467 24470 24473 24476 24479 24482 24485 24488 24491 24494 24497 24500 24503 24506 24509 24512 24515 24518 24521 24524 24527 24530 24533 24536 24539 24542 24545 24547 24550 24552 24555 24557 24560 24563 24566 24569 24572 24574 24577 24580 24583 24586 24588 24591 24594 24597 24599 24602 24605 24608 24611 24614 24617 24620 24623 24626 24629 24632 24635 24638 24641 24644 24647 24650 24653 24655 24657 24659 24662 24665 24668 24671 24674 24677 24680 24683 24686 24689 24692 24695 24698 24700 24703 24706 24709 24712 24715 24718 24721 24724 24727 24730 24733 24736 24738 24741 24744 24746 24749 24752 24755 24758 24761 24764 24767 24770 24773 24776 24779 24782 24785 24788 24791 24794 24797 24800 24803 24806 24809 24811 24813 24816 24819 24822 24825 24828 24831 24834 24837 24840 24843 24846 24849 24852 24855 24857 24860 24863 24865 24868 24871 24874 24877 24879 24882 24885 24888 24891 24894 24897 24899 24902 24905 24908 24911 24914 24917 24920 24923 24926 24929 24932 24935 24938 24941 24944 24947 24950 24953 24955 24958 24961 24964 24967 24970 24972 24975 24978 24981 24984 24987 24990 24993 24996 24999 25002 25005 25008 25011 25014 25017 25020 25023 25026 25029 25032 25035 25038 25041 25044 25047 25050 25053 25056 25058 25061 25063 25066 25069 25072 25075 25077 25079 25082 25085 25088 25091 25094 25097 25100 25103 25106 25109 25112 25115 25118 25121 25124 25127 25130 25133 25136 25139 25142 25145 25148 25151 25154 25157 25160 25163 25166 25169 25172 25175 25178 25181 25184 25186 25189 25192 25195 25198 25200 25203 25206 25209 25212 25215 25218 25221 25224 25227 25230 25233 25235 25238 25241 25244 25247 25250 25253 25256 25259 25262 25265 25268 25271 25274 25277 25280 25283 25286 25288 25290 25293 25295 25298 25301 25304 25307 25310 25313 25316 25319 25322 25325 25327 25330 25333 25336 25339 25342 25345 25348 25351 25354 25357 25360 25363 25366 25369 25372 25375 25378 25380 25383 25386 25389 25392 25394 25397 25400 25403 25406 25409 25412 25415 25418 25421 25424 25427 25430 25433 25436 25439 25442 25445 25448 25451 25454 25457 25460 25463 25466 25469 25472 25475 25478 25481 25484 25487 25490 25493 25496 25499 25502 25505 25508 25511 25514 25517 25520 25523 25526 25529 25532 25535 25538 25541 25544 25547 25550 25553 25556 25559 25562 25565 25568 25571 25574 25577 25580 25583 25586 25589 25592 25595 25598 25601 25604 25607 25610 25613 25616 25619 25622 25625 25628 25631 25634 25637 25639 25642 25645 25648 25651 25654 25657 25660 25662 25665 25668 25670 25673 25676 25679 25682 25685 25688 25691 25694 25697 25700 25703 25706 25708 25711 25713 25716 25718 25721 25724 25727 25730 25733 25736 25739 25742 25744 25747 25750 25753 25756 25759 25762 25765 25768 25771 25773 25776 25779 25782 25785 25788 25791 25794 25797 25800 25803 25806 25809 25812 25815 25818 25821 25824 25827 25830 25833 25836 25838 25841 25844 25847 25850 25853 25856 25859 25862 25865 25868 25871 25874 25876 25879 25882 25885 25888 25891 25893 25896 25899 25901 25904 25907 25910 25913 25915 25917 25920 25923 25925 25928 25931 25934 25937 25940 25943 25946 25948 25950 25953 25956 25959 25962 25965 25968 25971 25974 25977 25980 25983 25986 25988 25991 25994 25997 26000 26002 26005 26008 26011 26014 26017 26020 26023 26026 26028 26031 26034 26037 26040 26042 26045 26048 26051 26054 26056 26059 26062 26065 26068 26071 26074 26077 26079 26082 26085 26088 26091 26094 26096 26099 26102 26105 26107 26110 26113 26116 26119 26122 26124 26127 26130 26133 26136 26139 26142 26145 26148 26151 26154 26157 26160 26163 26166 26168 26171 26174 26176 26179 26182 26185 26188 26191 26194 26197 26200 26203 26206 26209 26212 26215 26218 26221 26224 26227 26230 26233 26236 26239 26241 26244 26247 26249 26252 26255 26257 26260 26263 26266 26269 26272 26275 26278 26281 26284 26287 26290 26293 26296 26299 26302 26305 26308 26311 26314 26317 26320 26323 26326 26329 26332 26335 26338 26341 26344 26347 26349 26352 26355 26358 26361 26363 26366 26369 26371 26374 26376 26379 26382 26385 26388 26390 26393 26395 26398 26401 26403 26406 26408 26411 26413 26415 26418 26421 26423 26426 26428 26431 26433 26436 26439 26441 26444 26447 26450 26453 26456 26459 26461 26464 26466 26469 26472 26474 26476 26479 26482 26484 26487 26489 26492 26495 26497 26500 26503 26505 26508 26511 26513 26515 26517 26520 26522 26525 26528 26531 26534 26537 26540 26543 26546 26548 26551 26554 26557 26560 26563 26566 26569 26571 26574 26577 26580 26583 26586 26589 26592 26595 26598 26601 26604 26607 26610 26613 26615 26618 26621 26624 26627 26630 26633 26636 26639 26642 26645 26648 26651 26654 26657 26660 26663 26666 26669 26672 26674 26677 26680 26683 26686 26689 26692 26695 26698 26701 26704 26707 26710 26713 26716 26719 26722 26725 26728 26731 26734 26737 26740 26743 26746 26749 26752 26755 26758 26761 26764 26767 26769 26772 26775 26778 26780 26783 26785 26787 26790 26792 26795 26798 26801 26803 26806 26809 26812 26815 26817 26819 26821 26824 26827 26830 26833 26836 26839 26842 26845 26848 26851 26854 26857 26860 26863 26866 26869 26872 26874 26877 26880 26883 26886 26889 26892 26895 26898 26901 26903 26906 26909 26912 26914 26917 26920 26923 26926 26929 26932 26935 26938 26941 26944 26947 26950 26952 26955 26958 26960 26963 26966 26969 26972 26975 26978 26981 26984 26987 26990 26993 26996 26999 27002 27005 27008 27011 27014 27017 27020 27023 27026 27028 27031 27034 27037 27040 27043 27046 27049 27052 27055 27058 27061 27064 27067 27070 27073 27076 27079 27082 27084 27087 27090 27093 27096 27099 27102 27105 27107 27110 27113 27116 27119 27121 27124 27127 27130 27133 27136 27139 27142 27145 27148 27151 27154 27157 27160 27163 27166 27169 27172 27175 27178 27181 27184 27187 27190 27193 27196 27199 27202 27205 27208 27211 27214 27217 27220 27223 27226 27228 27230 27233 27236 27239 27242 27244 27247 27249 27252 27255 27258 27261 27264 27266 27269 27272 27275 27278 27281 27284 27287 27290 27292 27294 27297 27300 27303 27306 27308 27311 27314 27317 27320 27323 27326 27329 27332 27335 27338 27341 27344 27347 27350 27353 27356 27359 27362 27365 27368 27371 27373 27376 27379 27382 27385 27388 27391 27393 27396 27399 27401 27404 27407 27410 27413 27416 27419 27422 27425 27428 27430 27433 27436 27439 27442 27445 27448 27451 27454 27456 27459 27462 27465 27468 27471 27474 27477 27480 27483 27486 27489 27492 27495 27498 27501 27504 27507 27509 27512 27515 27517 27520 27523 27526 27529 27532 27535 27538 27541 27544 27547 27550 27553 27556 27559 27562 27565 27568 27571 27574 27577 27580 27583 27586 27589 27592 27595 27598 27601 27604 27606 27609 27611 27614 27617 27620 27623 27626 27629 27632 27635 27638 27641 27644 27647 27650 27653 27656 27659 27662 27665 27668 27671 27674 27677 27679 27682 27685 27688 27690 27693 27696 27699 27702 27705 27708 27711 27714 27717 27720 27723 27726 27728 27731 27734 27737 27739 27741 27744 27747 27749 27752 27755 27758 27761 27764 27767 27770 27773 27776 27778 27781 27784 27787 27790 27793 27796 27799 27802 27805 27808 27811 27814 27817 27819 27822 27824 27827 27830 27833 27836 27839 27842 27845 27848 27851 27854 27857 27860 27863 27866 27869 27872 27875 27878 27881 27884 27887 27890 27893 27896 27899 27902 27905 27908 27911 27913 27916 27919 27922 27925 27928 27931 27933 27936 27939 27942 27945 27948 27951 27954 27957 27960 27963 27966 27969 27972 27975 27978 27981 27983 27986 27988 27991 27994 27997 28000 28003 28006 28009 28011 28014 28017 28020 28022 28025 28028 28031 28034 28036 28039 28042 28045 28048 28051 28054 28056 28059 28062 28065 28068 28070 28073 28075 28078 28081 28084 28087 28090 28093 28096 28099 28101 28103 28106 28109 28112 28114 28116 28119 28122 28125 28128 28131 28134 28137 28139 28141 28144 28146 28148 28151 28154 28157 28160 28162 28165 28167 28170 28173 28176 28179 28182 28185 28187 28190 28193 28196 28199 28201 28204 28207 28210 28213 28215 28218 28221 28224 28227 28230 28232 28235 28238 28240 28243 28246 28249 28252 28254 28257 28260 28263 28266 28269 28272 28275 28278 28281 28283 28285 28288 28291 28294 28297 28300 28303 28306 28309 28312 28315 28318 28321 28324 28326 28329 28331 28334 28337 28340 28343 28346 28349 28352 28355 28358 28361 28364 28367 28370 28373 28376 28379 28382 28385 28388 28391 28394 28396 28399 28402 28405 28408 28411 28414 28417 28420 28423 28426 28429 28432 28435 28438 28441 28444 28447 28450 28453 28456 28459 28462 28465 28468 28471 28474 28476 28479 28482 28485 28488 28491 28494 28497 28500 28502 28505 28507 28510 28513 28516 28519 28522 28525 28527 28530 28533 28536 28539 28542 28545 28548 28551 28554 28557 28560 28563 28566 28569 28572 28575 28578 28581 28584 28587 28590 28593 28596 28599 28602 28605 28607 28610 28613 28616 28619 28622 28625 28628 28631 28633 28636 28639 28641 28644 28647 28649 28652 28655 28658 28661 28664 28666 28669 28672 28675 28678 28681 28684 28687 28690 28693 28695 28698 28701 28704 28707 28710 28713 28716 28719 28722 28725 28728 28731 28734 28737 28740 28742 28745 28748 28751 28754 28757 28760 28763 28766 28768 28771 28774 28777 28780 28783 28786 28789 28792 28795 28798 28801 28804 28807 28810 28813 28816 28819 28822 28824 28827 28829 28832 28834 28837 28840 28842 28844 28847 28850 28853 28856 28859 28862 28865 28868 28871 28874 28877 28880 28883 28886 28888 28891 28894 28897 28900 28903 28906 28908 28911 28914 28917 28919 28922 28925 28928 28931 28934 28937 28940 28943 28946 28949 28952 28955 28957 28960 28963 28966 28969 28971 28973 28975 28978 28981 28984 28987 28990 28993 28996 28998 29001 29004 29006 29009 29011 29014 29016 29019 29022 29025 29028 29031 29033 29036 29039 29042 29045 29048 29051 29054 29057 29060 29063 29066 29069 29072 29075 29078 29081 29084 29087 29090 29093 29095 29098 29101 29104 29106 29109 29111 29113 29115 29118 29121 29124 29127 29130 29132 29135 29138 29141 29144 29147 29150 29153 29156 29159 29162 29165 29168 29171 29174 29177 29180 29183 29186 29189 29192 29195 29198 29201 29204 29207 29210 29212 29215 29218 29220 29223 29226 29229 29232 29235 29238 29241 29244 29246 29249 29251 29254 29257 29260 29263 29266 29269 29272 29275 29277 29280 29283 29286 29289 29291 29294 29297 29299 29302 29305 29307 29310 29313 29316 29318 29321 29324 29327 29330 29333 29336 29339 29342 29345 29348 29351 29354 29357 29360 29363 29366 29369 29372 29375 29378 29380 29383 29386 29389 29392 29395 29398 29400 29403 29406 29409 29412 29415 29417 29420 29423 29426 29429 29432 29434 29437 29439 29441 29444 29447 29450 29453 29456 29459 29462 29465 29468 29471 29474 29477 29479 29482 29485 29488 29491 29493 29496 29498 29500 29503 29506 29509 29511 29514 29517 29520 29523 29526 29529 29532 29535 29538 29541 29544 29547 29550 29553 29556 29559 29562 29565 29568 29571 29574 29577 29579 29582 29584 29587 29590 29592 29595 29598 29600 29603 29606 29608 29611 29614 29617 29619 29621 29624 29627 29630 29633 29636 29639 29642 29644 29647 29650 29653 29656 29659 29662 29665 29668 29670 29673 29676 29679 29682 29685 29688 29691 29693 29696 29699 29702 29704 29707 29709 29711 29714 29717 29720 29722 29725 29728 29731 29734 29737 29740 29743 29746 29749 29752 29755 29758 29761 29764 29767 29770 29773 29776 29779 29782 29785 29788 29790 29793 29796 29798 29801 29804 29807 29809 29812 29815 29818 29821 29824 29827 29830 29832 29834 29837 29840 29842 29845 29848 29851 29854 29857 29860 29863 29866 29869 29872 29875 29878 29881 29884 29887 29890 29893 29896 29899 29902 29905 29908 29911 29914 29917 29920 29923 29926 29929 29932 29935 29938 29941 29944 29947 29949 29952 29955 29958 29961 29964 29967 29970 29972 29975 29978 29980 29983 29986 29988 29991 29994 29997 30000 30003 30006 30009 30012 30015 30018 30021 30024 30027 30030 30033 30036 30039 30042 30045 30047 30050 30053 30056 30059 30061 30064 30067 30070 30073 30076 30079 30082 30085 30088 30091 30093 30096 30099 30102 30105 30107 30110 30113 30116 30119 30121 30123 30126 30128 30131 30134 30137 30140 30143 30146 30149 30152 30155 30158 30161 30164 30167 30170 30172 30175 30178 30181 30184 30187 30190 30193 30196 30199 30201 30204 30207 30210 30213 30216 30219 30222 30225 30228 30231 30234 30237 30240 30243 30246 30249 30252 30255 30258 30261 30264 30267 30270 30273 30276 30279 30282 30285 30288 30291 30294 30297 30300 30303 30306 30309 30312 30315 30318 30321 30324 30326 30329 30332 30335 30338 30340 30343 30346 30348 30351 30354 30357 30360 30363 30366 30368 30370 30373 30376 30379 30382 30384 30387 30390 30393 30396 30399 30402 30405 30408 30411 30414 30417 30420 30423 30426 30429 30432 30435 30438 30441 30444 30447 30450 30453 30456 30459 30462 30465 30468 30471 30474 30477 30480 30483 30486 30489 30492 30495 30498 30501 30504 30507 30510 30513 30516 30519 30522 30525 30528 30531 30534 30537 30540 30543 30546 30549 30552 30555 30558 30561 30564 30567 30569 30572 30575 30578 30581 30584 30586 30589 30591 30594 30597 30600 30603 30606 30609 30612 30615 30618 
</DataArray>
<DataArray type="UInt32" Name="types" format="ascii">
3 5 5 5 5 5 5 5 5 3 5 5 5 3 5 5 5 5 5 5 5 5 5 5 5 5 5 5 5 3 5 5 3 5 5 5 3 5 5 5 3 5 5 5 5 5 5 5 5 3 5 5 5 5 5 5 3 5 5 5 5 5 5 5 5 5 3 5 5 3 5 5 5 3 5 3 5 3 3 5 5 5 5 5 5 5 5 5 3 5 3 5 5 3 5 5 5 5 5 5 5 5 5 5 5 5 5 5 5 3 5 5 5 5 3 5 5 3 3 5 5 3 5 5 5 3 3 3 5 3 5 5 5 5 5 5 5 5 5 3 3 5 5 5 5 5 5 3 5 5 5 5 5 3 3 5 5 3 5 5 3 3 5 3 3 5 5 5 5 5 5 5 5 5 5 5 5 3 5 5 3 5 5 5 5 5 5 5 5 5 5 5 5 5 5 5 5 5 5 5 5 3 5 5 5 5 5 5 5 5 5 5 5 5 5 5 5 3 5 5 3 5 5 5 5 3 3 5 5 5 5 5 5 5 5 5 5 5 5 5 5 5 3 5 5 5 3 5 5 5 5 5 5 5 5 3 3 5 5 5 5 5 5 5 5 5 3 5 5 5 5 5 3 5 3 5 5 5 5 5 3 3 5 5 5 3 5 3 5 5 5 3 5 3 5 5 3 5 5 5 3 5 5 5 5 5 3 3 5 5 3 5 3 3 5 5 3 5 3 5 5 5 5 3 5 3 5 5 3 3 3 5 3 5 3 3 5 5 5 5 5 5 5 5 5 3 5 5 5 5 5 5 5 5 5 5 5 5 5 5 5 5 5 5 5 5 5 5 5 5 3 5 3 5 5 5 5 5 3 5 3 5 5 3 5 5 5 5 3 5 3 5 5 5 5 5 5 5 5 5 5 5 5 5 3 5 5 3 5 5 5 5 5 5 5 5 5 5 5 5 5 5 5 5 5 3 5 5 5 5 5 5 5 5 5 5 3 5 5 5 3 3 5 5 5 5 5 5 5 5 5 5 5 5 5 5 5 5 5 5 5 5 5 5 5 3 5 5 3 5 5 3 5 3 5 5 5 3 5 3 3 5 5 5 5 5 5 5 5 5 5 3 5 5 5 5 5 5 5 5 5 5 5 5 5 5 5 5 5 5 5 5 5 5 5 5 5 5 5 5 5 5 5 5 3 5 5 5 5 3 5 5 5 5 5 5 5 3 5 5 5 5 5 5 5 5 5 3 5 3 3 5 5 3 5 3 5 5 5 5 5 5 5 5 3 5 5 5 5 5 3 5 5 5 5 5 5 3 5 5 5 5 5 5 5 5 3 5 3 5 5 5 5 5 3 5 3 5 5 5 5 5 5 3 5 5 5 5 5 5 5 5 5 5 3 3 5 5 5 5 3 5 5 5 5 5 5 5 5 5 5 5 5 3 5 5 3 5 5 5 5 5 5 5 5 5 5 3 3 5 5 5 5 5 5 5 5 5 5 3 5 3 5 5 5 5 5 5 5 5 5 5 5 5 5 5 5 5 5 5 5 5 5 5 5 5 5 5 5 5 5 5 5 5 5 5 5 5 5 5 5 3 5 5 5 3 5 3 5 3 5 5 3 5 3 5 3 5 5 3 5 5 5 5 5 5 5 5 3 5 5 3 5 5 5 5 3 5 5 5 5 5 5 5 5 5 5 3 5 3 5 3 5 3 5 3 5 5 5 3 5 3 5 5 5 5 5 5 5 5 5 5 5 5 3 5 5 3 3 5 5 5 3 5 5 3 5 5 3 5 5 5 3 5 5 5 5 5 3 5 5 3 3 5 5 5 3 3 3 5 5 3 5 5 3 5 5 5 5 5 5 3 5 5 3 5 5 3 5 5 5 5 5 5 5 5 3 5 5 5 5 5 3 3 3 5 5 5 5 5 5 5 5 5 5 5 3 5 5 5 5 3 5 5 5 5 5 5 5 3 5 5 5 3 5 3 5 3 5 3 5 5 5 5 5 5 5 5 5 5 3 5 5 5 5 5 5 5 5 3 5 5 3 5 5 5 5 3 5 5 5 5 5 5 3 5 3 5 5 5 5 5 5 3 3 5 5 5 5 3 5 3 5 5 5 3 5 5 5 5 5 5 5 3 3 5 5 3 5 3 3 3 5 5 5 5 5 5 5 3 5 5 5 5 5 5 5 5 5 5 5 5 5 3 5 5 5 5 5 5 5 5 5 5 3 5 5 3 5 5 5 5 5 3 5 5 5 5 5 5 5 5 3 5 3 5 5 3 5 5 3 5 5 5 5 3 5 5 5 5 5 3 5 5 5 5 5 5 5 5 5 3 5 5 3 3 5 5 5 5 3 5 3 5 5 3 3 5 3 5 3 5 5 5 5 5 3 5 5 5 3 5 5 5 3 5 5 5 5 5 5 5 5 5 5 3 5 5 5 5 5 5 5 5 5 5 5 5 5 5 5 5 5 5 3 5 5 3 5 5 5 5 3 5 5 5 5 5 5 5 5 5 5 5 5 5 5 5 5 5 5 5 5 5 5 5 5 5 5 5 5 5 5 5 5 5 5 5 5 5 5 5 5 5 5 5 5 5 5 5 5 5 5 5 5 5 5 5 5 5 5 3 5 5 5 5 5 5 5 5 5 5 5 5 5 5 5 5 5 5 5 3 5 5 5 5 3 5 5 5 5 5 5 5 5 5 5 5 5 5 5 5 5 5 5 3 5 5 5 5 3 5 5 5 5 5 3 3 5 5 5 5 5 5 5 5 5 5 5 5 5 5 5 5 5 5 3 5 5 5 3 5 3 5 5 5 5 5 5 5 5 5 3 5 5 5 5 3 3 5 5 5 5 5 5 5 5 5 5 5 5 5 5 5 5 5 5 5 3 5 5 5 5 5 5 5 5 5 5 5 5 5 3 5 5 5 5 5 5 5 5 5 5 5 5 5 5 5 5 5 5 5 5 5 5 3 5 5 5 5 5 5 5 3 5 5 5 3 5 5 5 5 5 5 5 5 5 5 5 5 5 5 5 5 5 5 5 5 5 5 5 5 3 5 3 5 5 5 5 3 5 3 5 5 5 5 5 5 5 3 5 5 5 5 3 5 5 5 5 5 5 5 5 5 5 5 3 5 5 5 5 5 5 3 5 3 5 5 5 5 5 3 5 5 3 5 5 3 5 5 5 5 5 5 5 5 5 5 5 5 5 5 5 5 5 5 5 5 5 5 5 5 5 5 5 3 5 5 5 3 5 3 5 5 3 3 5 5 5 3 5 5 5 5 3 5 3 5 5 3 5 5 5 5 5 3 5 5 5 5 5 3 5 5 5 5 5 5 5 5 5 5 5 5 5 5 5 5 5 5 5 5 5 5 5 5 5 5 5 5 5 5 5 5 5 5 5 5 5 5 5 5 5 5 5 3 3 5 5 5 5 5 5 5 5 5 5 5 5 5 5 5 5 5 5 5 5 5 5 5 5 5 5 5 5 3 5 5 5 5 3 5 5 5 5 3 5 5 5 5 5 5 5 3 5 3 5 5 5 5 5 3 5 5 5 5 5 5 5 5 5 5 3 5 5 5 5 5 5 5 5 5 5 5 5 5 5 5 5 5 5 5 5 5 5 5 5 5 3 5 5 5 5 3 5 3 5 5 3 5 3 5 5 5 5 5 5 3 5 5 5 3 5 5 5 5 5 5 5 5 5 5 5 5 5 5 5 5 5 3 5 3 5 5 5 5 5 3 5 3 5 5 5 5 5 5 5 5 3 5 5 5 5 5 5 5 5 5 5 5 5 5 5 5 5 5 5 5 5 5 5 5 3 5 3 5 5 5 5 5 5 5 5 5 5 5 5 3 5 5 5 5 5 5 5 5 5 5 5 5 5 5 5 5 5 5 5 5 5 5 5 5 5 5 5 3 5 5 5 3 5 3 3 5 5 5 5 5 3 5 5 5 5 5 5 5 5 5 5 5 5 5 5 5 5 5 5 5 5 5 5 5 5 3 5 5 3 5 5 5 5 5 5 5 5 3 3 5 5 5 5 5 5 5 5 5 5 3 5 5 3 3 5 3 5 5 5 5 5 3 5 3 3 3 5 5 5 5 5 5 3 5 5 5 5 5 5 5 5 5 3 5 3 5 5 3 5 5 5 5 5 5 5 5 5 5 5 5 5 5 5 5 5 5 5 5 5 5 5 5 5 5 3 3 5 5 5 5 5 5 5 5 5 5 5 5 5 5 5 5 5 5 5 5 5 5 5 5 5 5 5 5 5 5 5 5 5 5 5 5 5 5 5 5 5 5 5 5 5 5 5 5 5 5 5 5 5 5 5 5 3 5 5 5 5 5 5 5 5 5 3 3 5 5 5 3 5 5 5 5 5 5 5 5 5 5 5 5 5 5 5 5 5 5 5 5 5 5 5 5 5 5 5 5 5 5 3 5 5 5 5 5 5 5 3 5 5 5 5 5 5 5 3 5 5 3 5 5 5 5 5 5 5 5 5 3 5 5 3 3 5 5 5 3 5 5 5 5 5 5 5 5 5 5 5 3 5 5 5 5 3 5 3 5 5 3 5 5 3 3 5 5 5 5 5 5 5 5 5 5 3 3 5 5 5 5 5 5 3 5 5 5 5 5 5 3 5 3 5 5 5 5 5 3 3 5 5 5 5 5 5 5 5 5 5 5 5 5 5 5 5 5 5 5 3 3 5 5 3 5 5 5 5 5 5 5 5 5 5 5 3 5 5 5 5 5 5 5 5 5 5 5 5 5 5 5 5 5 5 5 5 5 5 5 5 5 5 5 5 3 5 5 5 5 3 3 5 5 5 5 5 5 5 3 5 3 5 5 5 5 5 5 5 5 5 5 5 5 5 5 5 5 5 5 5 5 3 3 5 3 5 5 5 5 5 3 5 5 5 5 5 5 5 5 5 5 5 5 5 5 5 5 5 3 5 5 5 5 5 5 5 5 5 5 5 3 5 5 5 5 5 5 5 5 5 5 3 5 5 5 5 5 5 5 5 5 3 5 5 5 5 3 5 5 5 3 5 5 5 5 3 5 5 5 5 5 5 5 5 5 3 5 5 5 5 3 5 5 5 5 5 5 5 5 3 5 3 3 5 3 3 5 5 5 3 5 5 5 3 5 3 5 5 5 5 5 3 5 5 5 3 5 5 5 5 5 5 3 3 5 5 5 5 5 5 5 5 5 5 5 3 5 3 3 5 5 5 5 5 3 3 5 5 3 5 5 5 5 3 5 5 5 5 5 3 5 5 5 5 3 3 5 5 3 5 3 3 5 5 5 5 5 5 5 5 5 5 5 5 5 5 5 5 5 5 5 5 5 3 5 5 3 5 3 5 5 5 3 5 5 5 5 5 5 3 3 5 5 5 5 5 5 3 5 5 3 5 5 5 5 5 5 3 5 5 5 3 5 5 5 5 5 5 3 5 5 5 5 5 5 5 5 5 5 5 5 5 3 5 3 5 5 5 5 5 5 5 5 5 3 5 5 5 3 5 5 5 5 5 5 5 5 5 5 3 5 5 5 5 5 5 5 5 5 5 5 5 5 5 5 5 5 5 5 5 5 5 5 5 5 3 5 5 5 3 5 5 3 5 5 5 5 5 3 5 5 5 3 5 5 5 5 5 5 5 3 5 5 5 5 5 5 5 5 5 5 5 5 5 5 5 5 5 3 5 3 5 5 5 5 5 5 5 5 5 3 5 3 5 3 5 3 3 5 5 5 5 3 5 5 5 5 3 5 5 5 5 5 3 5 3 5 5 3 5 5 5 5 5 5 5 5 5 5 5 5 5 5 5 5 5 3 5 5 5 5 5 5 3 5 5 5 5 5 3 5 5 5 5 5 5 5 3 5 5 3 5 5 5 5 5 5 3 5 5 5 3 5 5 5 5 5 5 5 5 5 5 5 5 5 5 5 5 5 3 5 5 5 5 5 3 3 5 5 5 5 5 3 5 3 5 3 5 3 3 5 5 5 3 3 5 5 5 5 5 5 5 5 5 5 5 5 5 5 5 5 5 5 5 5 5 5 5 5 5 5 5 5 5 5 5 5 5 5 5 5 5 5 3 5 5 5 5 5 5 5 3 5 3 5 5 5 5 5 5 3 5 5 5 3 5 5 5 3 3 5 3 5 5 5 5 5 5 3 5 5 3 5 5 5 5 5 5 5 5 5 5 5 5 3 3 3 5 5 5 3 5 5 5 5 5 5 5 5 5 5 5 5 5 5 5 5 5 5 5 5 5 5 3 5 5 5 5 3 5 5 5 5 5 5 5 3 5 5 5 5 5 3 5 5 5 5 5 3 5 5 5 5 5 5 5 5 5 3 5 5 5 5 3 5 5 5 5 5 5 5 5 5 5 3 5 5 3 5 5 5 5 5 5 5 5 5 5 5 5 5 5 5 5 5 5 5 5 3 5 5 5 5 3 5 5 5 5 5 5 5 5 3 5 5 5 5 5 3 5 5 3 5 5 5 5 5 5 5 5 5 5 5 5 3 5 5 5 5 5 5 5 5 5 5 5 5 5 5 5 5 5 5 5 5 5 5 5 5 5 5 5 5 3 5 5 5 5 5 5 5 5 5 5 5 5 5 5 3 5 5 5 5 5 5 5 5 5 5 5 5 5 5 5 5 5 5 5 3 5 5 5 5 5 5 5 3 5 5 5 5 5 5 5 5 5 5 5 5 5 5 5 5 5 5 5 5 5 5 5 5 3 5 5 5 5 5 3 5 5 5 5 5 5 5 5 5 5 3 5 5 3 5 3 5 5 5 5 5 5 5 3 5 3 5 3 5 5 5 5 5 5 5 5 5 5 5 5 5 5 5 5 5 5 5 5 5 5 5 5 5 5 5 5 5 5 5 5 5 5 5 5 3 5 5 5 5 5 5 5 5 5 5 5 5 5 5 5 5 5 5 5 5 5 5 5 5 5 5 5 5 5 5 5 3 5 5 5 5 5 5 3 3 5 5 5 5 5 5 5 5 5 5 5 5 5 3 5 5 5 5 5 5 5 5 5 5 3 3 5 3 5 5 5 3 5 3 3 5 3 5 5 5 5 5 5 5 3 3 5 5 5 5 3 5 5 5 5 3 5 3 5 3 3 5 3 5 5 5 5 5 3 5 3 3 3 3 5 5 5 5 5 3 5 5 3 3 5 5 5 3 5 5 3 5 5 5 5 3 5 5 3 5 5 3 5 5 5 5 5 5 5 5 5 5 5 5 5 5 3 5 3 5 5 5 5 5 3 5 5 3 5 5 5 5 5 3 5 5 5 5 5 5 5 5 5 5 3 5 5 5 5 5 5 5 5 5 5 5 3 5 5 5 5 5 5 3 5 5 5 5 5 5 5 5 5 5 5 5 5 5 3 5 5 5 3 5 5 5 5 5 5 5 3 5 3 5 5 5 5 5 5 5 5 5 5 5 5 5 5 5 5 5 5 5 5 5 5 5 5 5 5 5 5 5 5 5 5 5 5 5 5 3 5 3 5 5 3 5 3 5 5 5 5 5 5 3 5 5 3 3 5 5 5 5 5 5 3 5 5 5 5 5 5 5 3 5 5 5 5 5 5 5 5 5 5 5 5 5 5 5 5 5 5 5 3 5 5 5 3 5 3 5 3 5 5 5 5 3 5 5 5 5 5 5 3 5 5 5 5 5 5 3 5 5 3 5 5 5 5 5 5 3 5 5 5 5 5 5 5 5 5 3 5 3 5 5 5 5 5 3 3 5 5 5 3 3 5 5 5 5 5 5 3 5 5 3 3 5 5 3 5 5 3 5 5 5 5 3 5 5 5 5 5 5 3 5 5 5 5 5 5 5 5 5 5 3 5 5 5 3 3 5 5 5 5 5 5 5 5 5 3 5 5 5 5 5 5 5 5 5 5 5 3 3 5 5 5 5 3 5 5 5 5 3 5 5 5 5 3 5 5 5 3 5 5 5 5 3 5 5 5 5 5 3 5 5 5 5 3 5 5 5 5 5 5 5 5 5 5 5 5 5 5 5 5 5 5 5 5 5 5 5 5 5 5 5 5 5 5 5 5 3 5 5 5 5 3 5 5 5 5 5 5 3 5 5 5 3 5 3 5 5 5 5 5 5 5 5 5 5 5 5 5 5 5 5 5 5 5 5 5 5 5 3 5 3 5 5 5 3 5 5 5 5 5 5 5 5 5 5 5 5 5 3 5 5 3 5 5 3 3 5 3 5 5 5 5 5 5 5 5 5 5 5 5 5 5 5 5 5 3 5 5 5 5 5 3 5 5 5 5 5 5 5 3 5 5 5 5 5 5 5 3 5 5 5 5 5 5 5 5 5 5 5 5 5 5 5 3 5 5 5 3 5 5 5 5 5 5 5 5 5 5 5 3 5 5 5 5 5 5 3 5 5 3 5 3 5 5 5 3 5 5 5 5 5 5 5 5 5 5 5 3 5 5 5 5 5 3 5 5 5 3 5 5 5 3 5 5 5 5 5 3 5 3 5 5 5 5 5 5 5 5 3 5 3 5 5 3 5 3 5 3 5 5 5 5 5 5 5 5 5 5 3 5 3 5 5 5 5 3 5 5 5 3 3 5 5 5 3 5 3 3 5 5 3 3 5 3 3 5 5 3 3 5 5 3 5 5 3 5 3 5 5 3 5 5 3 5 3 5 5 5 3 5 3 5 5 3 3 5 5 5 3 3 5 3 5 5 5 5 5 5 5 5 3 5 5 3 3 5 3 5 3 3 5 5 5 3 5 5 3 5 5 5 5 5 5 3 3 5 5 5 5 5 5 5 3 3 5 5 5 5 3 5 5 5 3 5 5 3 5 5 5 5 5 3 5 5 3 5 5 5 3 3 5 5 3 5 5 5 3 5 5 5 3 3 5 5 3 5 5 5 5 3 3 5 5 3 3 5 3 3 5 5 5 5 5 5 3 5 5 5 5 5 5 5 5 5 5 3 3 5 5 5 5 5 5 5 3 5 5 5 5 5 5 5 5 5 3 5 5 3 5 5 3 5 5 5 5 5 5 5 5 5 5 5 5 5 5 5 5 5 5 3 3 5 5 5 5 3 5 5 3 5 5 5 5 5 5 5 5 5 3 5 5 3 5 5 5 5 5 5 5 5 5 5 5 3 5 3 5 5 5 5 5 5 5 5 5 5 3 5 5 5 5 5 5 5 5 5 5 5 5 5 5 5 5 5 5 5 5 5 5 5 5 5 5 5 5 5 5 5 5 5 5 5 5 5 5 5 3 5 5 5 5 5 5 5 5 5 3 5 5 3 5 5 5 5 5 5 5 5 5 5 5 5 5 5 5 5 3 5 3 5 5 3 5 5 5 3 3 5 3 3 5 3 5 5 3 5 5 3 5 5 5 5 5 5 5 5 5 5 5 5 5 5 5 5 5 5 5 5 5 3 5 5 5 5 5 5 5 5 5 5 5 5 5 5 5 5 5 5 5 3 5 5 5 5 5 3 5 5 5 5 5 5 5 5 5 5 5 5 5 5 5 5 5 5 5 5 5 5 5 5 3 5 5 5 5 5 5 3 5 5 5 5 5 5 5 5 5 5 5 5 5 5 5 3 5 5 5 3 3 5 5 5 3 5 5 5 5 5 5 5 5 3 5 5 5 5 3 5 5 5 5 5 5 5 5 5 5 5 5 5 3 5 5 5 5 5 5 5 5 5 5 5 5 5 5 5 5 5 5 5 5 5 5 5 5 5 5 5 3 5 5 5 5 5 5 5 5 5 5 5 5 5 5 5 3 3 5 5 5 3 5 5 5 5 5 5 5 5 5 5 5 5 5 5 5 5 5 5 5 5 5 5 5 5 5 5 5 5 5 5 3 5 5 5 5 5 5 5 5 5 5 5 5 5 5 5 5 5 5 5 5 5 5 5 5 5 3 5 5 5 5 5 5 5 3 5 5 5 3 5 5 3 5 5 5 5 5 5 5 5 3 3 5 5 5 5 5 3 5 5 5 5 5 5 5 5 5 5 5 5 5 5 5 5 5 5 5 3 5 3 5 3 5 5 5 3 5 3 5 5 5 5 5 5 5 5 5 5 5 5 3 5 5 5 5 3 5 5 3 5 3 5 5 3 5 5 5 3 5 5 5 5 5 5 5 5 5 3 5 5 5 5 3 5 5 5 5 3 5 5 5 5 5 5 3 5 3 5 3 5 5 5 3 5 5 5 5 5 5 3 3 5 5 5 5 5 3 5 5 5 5 5 5 5 5 5 5 5 5 5 5 5 5 5 5 5 3 5 5 5 5 5 5 5 5 5 3 5 3 5 3 5 5 5 5 5 5 5 5 5 5 5 5 3 5 5 3 5 5 5 5 5 5 5 5 5 3 5 3 5 5 5 5 5 5 3 5 5 5 5 5 5 5 5 5 5 5 5 5 5 5 5 5 5 5 5 5 5 5 5 5 5 5 5 5 5 5 5 5 5 5 5 5 5 5 5 5 3 5 5 3 5 3 5 5 5 3 3 5 5 3 5 5 5 5 5 5 5 5 5 5 5 5 3 5 5 5 5 5 5 5 5 5 5 5 5 3 5 5 5 5 5 5 5 5 5 5 5 5 5 5 5 3 5 5 5 5 5 3 5 5 5 5 5 5 5 5 5 3 5 5 5 5 3 5 5 5 5 5 5 5 5 5 5 5 3 5 3 5 3 5 5 5 3 5 5 5 5 5 5 5 5 5 5 5 5 5 5 5 5 5 5 5 5 3 5 5 5 5 5 5 5 5 5 5 5 5 5 5 5 5 5 5 3 5 5 5 5 5 3 5 5 5 5 5 5 5 5 3 5 5 3 5 5 5 5 5 5 5 3 5 5 5 5 5 5 5 5 5 3 5 5 5 5 5 5 5 5 5 5 5 5 5 5 5 5 5 5 5 5 5 5 5 5 3 5 3 5 5 3 5 5 5 5 5 5 5 5 3 5 5 5 5 5 5 3 5 5 5 5 5 5 5 5 5 5 5 5 3 5 5 5 5 5 5 5 5 5 5 5 5 5 5 3 5 5 5 3 5 5 5 5 3 5 5 5 5 5 5 5 5 5 5 5 5 5 5 5 5 5 5 5 5 5 5 5 5 5 5 3 5 5 3 5 5 5 5 5 5 5 5 5 3 5 5 3 5 5 3 5 5 5 5 5 5 5 5 5 5 5 5 5 5 5 5 5 5 5 5 5 5 5 5 5 5 5 5 5 5 5 5 5 5 5 5 5 5 5 5 5 5 5 5 5 5 5 5 5 5 5 5 5 5 5 5 5 5 5 5 5 5 5 3 5 5 5 5 5 5 3 5 5 5 5 5 5 5 5 5 5 5 3 3 5 5 3 5 3 5 5 3 5 5 3 5 5 5 5 5 5 5 5 3 5 5 5 5 5 5 5 5 5 3 5 5 5 5 3 5 5 5 5 5 5 5 5 5 5 5 5 5 5 5 3 5 5 5 5 3 5 3 5 5 5 3 5 5 3 5 5 5 5 5 5 5 5 5 5 5 3 5 5 3 5 5 5 3 5 5 3 3 5 5 3 5 5 5 5 5 5 5 5 3 5 5 5 5 3 5 3 5 3 5 5 5 5 3 5 5 5 3 5 5 5 5 5 5 5 5 5 5 5 5 5 5 5 5 5 5 3 5 5 5 5 5 5 5 5 5 5 5 5 5 5 5 5 5 5 5 5 5 5 5 5 5 5 5 5 5 5 5 5 5 5 5 5 5 5 5 5 3 5 5 5 5 5 3 5 5 5 5 5 5 5 5 5 5 5 5 5 3 5 5 3 5 5 5 3 5 3 5 5 5 5 3 5 5 5 5 5 5 5 5 5 3 5 5 3 3 5 3 5 5 5 5 5 5 5 5 5 5 5 5 5 5 5 5 5 5 5 5 5 5 5 3 5 5 5 3 5 5 5 5 5 5 5 3 5 5 5 5 5 5 5 5 5 5 5 5 5 5 5 5 5 5 5 5 5 5 5 3 5 5 5 5 5 3 5 3 3 5 5 5 3 5 5 3 5 5 5 5 5 5 5 5 5 5 5 3 5 5 5 3 5 3 5 5 5 5 5 3 5 3 5 3 5 5 5 5 5 5 5 5 3 3 3 5 5 3 5 5 5 5 5 5 5 5 5 5 5 5 5 5 5 5 5 5 5 5 5 5 5 5 5 5 5 5 5 5 5 5 5 5 5 5 5 3 5 5 5 5 5 5 5 3 5 5 3 5 5 5 5 5 5 5 5 5 5 5 5 5 5 5 5 5 5 5 5 5 5 5 3 5 5 5 5 5 5 5 5 5 5 3 5 5 5 5 3 5 5 5 5 3 5 3 3 5 5 5 5 3 5 5 3 5 5 3 3 5 5 5 5 5 5 5 3 5 5 5 5 5 5 5 5 5 5 5 5 5 3 5 5 5 5 5 5 5 3 3 5 3 5 3 5 5 5 3 5 5 5 5 5 3 5 5 3 5 5 5 5 5 5 5 3 5 5 5 5 5 5 5 5 3 5 5 5 3 5 5 5 5 5 3 3 5 5 3 5 5 5 5 5 5 5 5 5 5 5 5 5 5 3 5 5 3 5 3 5 5 5 5 3 5 5 5 5 5 3 5 5 3 3 5 5 5 5 3 5 5 5 5 5 5 5 5 3 5 3 5 5 5 5 5 5 5 5 3 5 5 5 5 3 5 5 5 5 5 5 5 5 5 5 5 5 5 5 5 5 5 5 5 5 5 5 5 5 5 5 5 5 5 5 5 5 5 3 5 5 5 5 5 5 5 3 5 5 5 5 5 5 5 5 5 5 5 5 3 5 5 5 5 3 5 5 5 5 5 5 5 5 5 5 5 5 5 3 5 5 3 5 5 5 5 3 5 5 5 5 5 5 5 5 5 5 5 3 5 3 5 5 3 5 5 5 5 3 5 5 5 5 5 5 5 5 5 5 5 5 5 5 5 5 5 5 5 5 5 5 5 5 5 5 5 5 3 5 5 5 5 3 5 5 5 5 5 5 5 5 5 3 5 5 5 3 5 5 5 5 5 5 3 5 3 5 3 5 5 5 5 5 5 5 5 5 5 5 5 5 5 5 5 5 5 5 5 5 5 5 5 5 5 5 5 5 5 5 5 5 5 5 3 5 3 5 5 5 5 5 5 5 5 3 5 5 5 5 5 5 5 5 5 5 5 5 3 5 5 5 5 5 5 5 5 5 5 5 5 5 3 5 5 3 5 5 5 5 3 5 5 5 5 3 5 5 5 5 5 3 3 5 3 5 5 3 5 5 5 5 3 5 3 5 5 5 5 5 5 5 5 3 5 5 5 5 3 5 5 5 5 5 5 5 5 5 5 5 5 5 5 5 5 5 5 5 5 5 5 3 5 5 5 5 5 5 5 5 5 5 5 5 5 5 5 5 5 5 5 5 5 3 5 5 5 5 5 5 5 3 5 3 5 5 5 5 5 5 5 5 5 5 5 5 5 5 5 5 5 5 5 5 5 5 5 5 5 5 3 5 5 5 5 5 3 5 3 5 5 5 5 3 3 3 5 3 5 5 5 3 5 5 5 5 3 5 3 5 5 5 5 3 5 5 5 3 3 3 5 3 5 3 5 5 3 5 5 5 5 5 5 5 5 5 5 3 5 3 5 3 5 5 5 5 3 5 5 5 5 3 5 5 5 5 5 5 5 5 5 5 3 5 3 5 5 3 5 5 3 5 5 5 5 5 3 5 5 5 5 5 5 5 5 5 5 5 5 3 5 5 5 3 5 5 5 5 5 3 5 5 5 5 5 5 5 5 5 5 5 5 5 5 5 5 5 5 5 5 5 3 5 5 5 5 3 5 5 5 3 5 3 5 5 3 5 3 5 5 5 5 5 5 3 5 5 5 5 3 5 3 5 5 5 5 5 5 5 3 5 5 5 5 5 5 5 3 5 5 5 5 5 5 5 5 5 5 5 5 5 5 5 5 5 3 5 5 5 3 5 5 5 5 5 5 5 5 5 5 5 5 5 5 3 5 5 5 5 5 5 5 5 5 5 5 5 5 5 5 5 5 5 5 5 5 5 5 5 5 5 5 3 5 3 5 5 5 3 5 5 5 3 5 5 3 3 5 5 5 5 5 5 5 5 3 5 5 3 5 5 5 5 3 5 3 5 5 5 3 5 5 5 5 5 5 5 5 5 5 3 5 5 3 5 5 3 5 5 5 5 5 5 5 3 5 5 3 3 5 5 5 3 5 5 5 5 5 5 3 5 5 5 5 3 5 5 5 3 5 5 5 5 3 5 5 3 5 5 5 5 5 5 5 5 5 5 5 3 5 5 5 5 3 5 3 5 3 5 3 5 5 5 5 5 5 5 5 5 5 5 3 3 5 5 5 5 5 5 3 5 5 3 5 5 5 5 5 5 3 5 5 5 3 5 3 5 5 5 3 5 5 5 5 5 5 3 5 5 5 5 5 5 3 5 3 5 5 5 3 5 5 5 5 3 5 5 5 5 5 5 5 3 5 3 5 3 5 5 5 3 3 5 5 3 5 5 5 5 5 3 5 3 3 3 3 5 5 5 5 5 3 3 5 5 3 5 5 5 3 5 5 5 5 5 5 5 5 5 3 5 5 5 3 5 5 5 5 5 5 5 3 5 3 5 5 5 5 3 5 3 5 5 5 5 3 5 5 5 5 5 5 5 5 5 3 5 5 5 5 5 5 5 5 5 5 5 5 5 5 5 5 5 5 5 5 5 3 5 5 5 5 3 5 5 5 5 5 3 5 3 5 5 5 5 5 5 5 5 5 5 5 3 5 3 5 3 3 5 3 5 3 5 5 5 3 5 5 5 3 5 5 5 5 3 5 3 5 5 5 5 5 5 5 5 3 5 5 5 5 5 5 5 5 3 5 5 5 5 5 5 5 5 5 3 5 5 3 5 5 5 3 5 5 5 5 5 5 5 5 5 5 5 5 3 5 5 5 5 3 5 5 5 5 5 5 3 5 5 5 5 3 5 3 5 5 5 5 5 5 5 3 5 5 5 3 3 5 5 5 5 3 5 3 5 5 3 5 5 5 5 5 5 5 5 5 5 5 5 5 5 5 5 5 5 5 5 5 5 5 5 5 5 5 5 5 5 5 5 5 5 5 3 5 5 5 3 5 5 5 5 5 5 5 5 5 5 5 5 5 3 5 3 5 5 5 5 5 5 5 5 5 5 5 5 5 3 5 5 3 5 5 5 5 5 3 5 5 5 5 5 5 5 5 5 5 5 5 5 5 5 5 5 5 5 3 3 5 5 3 5 5 3 5 5 5 5 5 5 5 3 5 5 5 5 3 5 5 5 5 5 5 5 5 5 5 5 5 5 5 3 5 5 3 5 5 5 5 5 5 5 3 3 5 5 5 5 5 5 5 5 5 5 5 5 5 5 5 5 3 5 5 5 5 3 5 5 3 5 5 3 5 5 5 5 5 5 5 5 5 5 5 5 3 5 5 5 5 3 5 5 5 5 5 5 5 5 5 3 3 3 5 5 5 3 5 5 3 3 5 3 5 5 5 3 5 5 5 5 5 5 5 5 5 5 5 5 5 5 5 5 5 5 5 5 5 5 5 5 5 5 5 5 5 5 5 5 5 5 5 5 5 5 5 5 5 5 5 5 5 5 5 5 3 5 3 5 5 5 5 5 5 5 5 5 3 5 5 5 5 5 5 3 5 5 5 5 5 3 5 5 5 5 5 5 5 5 5 5 5 5 5 5 5 3 5 5 5 5 5 5 5 3 5 5 5 5 5 3 3 5 5 5 5 3 5 5 5 5 5 5 5 5 5 5 5 5 5 5 5 5 5 5 5 5 5 3 5 5 5 5 5 5 3 5 5 5 3 5 5 5 5 5 5 5 5 5 5 5 5 5 5 5 5 5 5 3 5 3 5 5 5 5 5 3 3 5 5 5 3 5 5 5 5 5 5 3 5 5 5 5 5 3 5 3 5 5 3 5 5 5 5 3 5 5 5 5 3 5 5 5 5 3 5 5 5 5 5 5 5 5 5 5 5 5 5 3 5 5 5 5 5 5 5 5 5 5 5 5 5 5 5 5 3 5 5 5 5 3 5 5 5 5 3 5 5 5 5 5 5 5 5 5 5 3 5 5 5 5 3 5 5 5 5 5 5 5 5 5 5 5 5 5 5 5 3 5 5 5 3 5 5 5 5 5 5 5 5 5 5 5 5 5 5 3 5 5 5 5 5 5 5 5 5 5 5 3 5 5 3 5 5 5 5 5 5 3 3 5 5 5 5 3 5 3 5 5 5 3 5 5 3 5 5 5 5 5 5 5 5 5 5 5 5 5 5 5 5 3 5 5 5 5 5 5 5 5 3 3 5 5 5 3 3 5 3 5 3 5 5 5 5 3 5 5 5 5 5 5 5 5 5 5 5 5 5 3 5 3 5 5 5 5 5 5 5 5 3 3 5 5 3 3 3 5 5 5 5 5 5 3 5 5 3 5 5 3 3 3 3 5 5 5 5 5 5 5 5 5 5 5 5 5 3 5 5 3 5 3 5 5 5 5 5 5 5 3 3 5 5 3 5 5 3 5 5 5 5 3 3 3 3 5 5 5 5 5 5 5 5 5 5 5 5 5 5 3 5 5 3 5 5 5 5 3 5 5 5 3 5 5 3 5 5 3 5 5 3 3 5 3 5 5 5 5 5 5 3 5 5 5 5 3 5 5 5 5 5 3 5 5 3 5 3 3 5 5 5 3 5 5 5 5 5 3 5 5 5 3 5 5 5 3 5 5 5 5 5 5 5 3 5 5 5 5 5 3 5 5 5 5 5 5 5 3 5 3 3 5 5 3 5 5 5 5 5 5 3 5 5 5 5 5 5 3 5 5 5 5 5 5 3 5 3 5 3 5 5 3 5 5 5 5 3 3 3 3 5 5 5 5 5 5 5 5 3 5 5 5 3 5 3 5 5 5 5 5 5 5 5 5 5 5 5 5 5 5 5 3 5 3 5 5 5 5 5 5 5 5 3 5 5 5 5 5 3 5 5 3 5 5 5 5 5 5 3 3 5 5 3 5 5 5 5 5 5 5 5 5 5 5 3 3 5 5 5 5 3 5 5 5 5 5 5 5 5 3 5 5 5 5 3 5 5 5 5 5 5 3 5 3 5 3 5 5 5 5 5 5 5 5 5 5 5 5 5 5 5 5 5 5 3 5 5 5 5 5 5 5 5 5 5 5 5 5 5 5 5 5 3 3 5 5 5 5 5 5 5 5 5 5 5 5 5 5 5 5 5 5 5 5 5 5 5 5 5 5 5 5 5 5 5 5 5 5 5 5 5 5 5 5 5 5 5 5 5 3 5 3 5 5 5 5 5 5 5 3 5 5 5 3 5 3 3 3 5 3 3 5 5 3 3 3 5 5 5 5 5 3 5 3 3 5 5 5 5 5 5 5 3 5 5 3 5 5 3 3 5 5 5 5 5 5 3 5 5 3 3 5 5 3 5 5 5 3 5 5 5 5 3 5 5 5 3 5 5 3 5 5 5 5 5 5 5 5 5 5 5 5 5 5 5 5 5 5 5 3 3 5 5 5 3 5 5 5 5 3 5 5 5 5 5 3 3 5 5 5 5 5 5 5 5 5 3 5 5 5 5 5 5 5 5 5 5 5 5 5 5 5 5 5 5 5 5 5 5 5 5 5 5 5 3 5 3 3 5 5 5 5 5 5 5 5 5 5 5 5 5 5 5 5 5 5 5 5 5 5 5 5 5 5 5 3 5 5 3 5 5 3 5 5 3 5 3 5 5 5 5 5 5 5 3 5 5 5 5 5 5 5 5 5 5 5 5 3 5 3 5 3 5 5 5 5 5 3 5 5 5 5 3 5 5 3 5 5 5 5 5 5 5 5 3 5 5 5 5 5 5 3 5 5 5 5 3 5 5 5 3 5 5 5 5 5 5 5 5 5 5 5 5 5 5 5 5 5 5 3 5 3 5 5 5 3 5 5 5 5 5 5 5 5 5 5 5 5 5 5 5 5 5 5 5 3 5 5 5 3 5 5 5 3 5 5 5 5 5 5 5 5 5 5 5 5 5 5 5 3 5 5 5 5 3 5 5 3 5 5 5 5 5 5 3 5 3 5 3 3 3 5 5 5 3 3 5 5 5 5 5 5 5 3 5 5 5 3 5 3 5 5 5 5 5 5 5 5 5 3 5 5 5 5 5 5 5 5 3 5 5 5 5 3 5 5 5 5 5 5 5 5 5 5 5 5 5 5 5 5 5 5 5 5 5 3 3 5 5 5 5 5 5 5 5 3 5 5 5 5 5 5 5 5 5 5 3 5 5 5 5 5 5 3 5 5 5 5 5 3 5 3 5 5 3 3 5 5 5 5 5 5 5 5 5 5 5 5 5 5 5 5 5 5 5 5 5 5 5 5 5 5 5 5 5 5 5 5 5 5 5 5 5 5 5 5 5 5 5 5 5 5 5 5 3 3 5 5 3 5 5 5 5 5 3 3 5 5 3 3 5 5 5 5 5 5 5 5 5 5 3 5 5 5 5 5 5 5 5 5 5 5 5 5 5 5 3 5 5 5 5 5 5 5 5 5 5 5 5 5 3 5 3 3 3 5 5 5 5 5 5 5 5 3 3 5 5 5 5 3 5 5 5 5 5 5 5 5 3 5 5 5 5 5 5 5 5 5 5 5 5 5 5 5 5 5 3 5 5 5 5 5 5 3 5 5 3 5 5 5 5 5 5 5 5 5 5 5 5 5 5 5 5 5 5 3 5 5 5 3 5 5 3 5 3 3 5 5 3 5 5 5 3 5 5 3 5 3 3 5 5 5 5 3 5 5 5 5 5 5 3 5 3 5 5 5 3 5 5 5 5 3 5 3 3 5 5 5 5 5 3 5 3 5 3 5 3 3 5 5 5 5 5 5 5 3 5 3 5 5 3 5 5 3 5 5 5 5 5 5 5 5 5 5 5 5 5 5 5 5 5 5 5 5 5 5 5 5 5 5 5 5 5 5 5 3 5 5 5 5 5 5 5 5 5 5 5 5 5 5 5 5 5 5 5 5 5 5 5 3 5 5 5 5 5 3 3 5 5 5 5 5 5 5 5 5 5 5 5 5 5 5 5 5 5 5 5 5 3 5 5 5 5 5 5 5 5 5 5 5 5 5 3 5 3 5 5 5 3 5 5 5 5 5 5 5 5 3 5 3 5 5 5 5 5 3 5 5 5 5 5 5 5 5 5 5 5 3 5 5 5 5 5 5 5 5 5 5 5 3 5 5 5 5 5 5 5 5 3 5 5 5 5 5 5 5 5 5 5 5 5 5 5 5 5 5 5 5 5 5 5 5 5 5 5 3 5 5 3 5 5 5 5 5 5 5 5 5 5 5 5 5 5 5 5 5 5 5 5 5 5 5 5 5 5 5 5 3 5 3 5 3 5 5 5 5 5 3 5 5 5 5 3 5 5 5 3 5 5 5 5 5 5 5 5 5 5 5 5 5 5 5 5 5 5 3 3 3 5 5 5 5 5 5 5 5 5 5 5 5 5 3 5 5 5 5 5 5 5 5 5 5 5 5 3 5 5 3 5 5 5 5 5 5 5 5 5 5 5 5 5 5 5 5 5 5 5 5 5 3 3 5 5 5 5 5 5 5 5 5 5 5 5 5 5 3 5 5 3 5 5 5 5 3 5 5 5 5 5 5 3 5 5 5 5 5 5 5 5 5 5 5 5 5 5 5 5 5 5 3 5 5 5 5 5 3 5 5 5 5 5 5 5 5 5 5 5 5 5 5 5 5 5 5 5 5 5 5 5 5 5 5 5 5 3 5 3 5 5 5 5 3 3 5 5 5 5 5 5 5 5 5 5 5 5 5 5 5 5 5 5 5 5 5 5 5 5 5 5 5 5 5 5 5 5 5 5 5 3 5 5 5 5 3 5 5 5 5 5 5 5 5 5 5 5 3 5 5 5 5 5 5 5 5 5 5 5 5 5 5 5 5 5 3 3 5 3 5 5 5 5 5 5 5 5 5 5 3 5 5 5 5 5 5 5 5 5 5 5 5 5 5 5 5 5 3 5 5 5 5 3 5 5 5 5 5 5 5 5 5 5 5 5 5 5 5 5 5 5 5 5 5 5 5 5 5 5 5 5 5 5 5 5 5 5 5 5 5 5 5 5 5 5 5 5 5 5 5 5 5 5 5 5 5 5 5 5 5 5 5 5 5 5 5 5 5 5 5 5 5 5 5 5 5 5 5 5 5 5 5 5 5 3 5 5 5 5 5 5 5 3 5 5 3 5 5 5 5 5 5 5 5 5 5 5 5 3 5 3 5 3 5 5 5 5 5 5 5 5 3 5 5 5 5 5 5 5 5 5 3 5 5 5 5 5 5 5 5 5 5 5 5 5 5 5 5 5 5 5 5 5 3 5 5 5 5 5 5 5 5 5 5 5 5 3 5 5 5 5 5 3 5 5 3 5 5 5 5 3 3 5 5 3 5 5 5 5 5 5 5 3 3 5 5 5 5 5 5 5 5 5 5 5 5 3 5 5 5 5 3 5 5 5 5 5 5 5 5 3 5 5 5 5 3 5 5 5 5 3 5 5 5 5 5 5 5 3 5 5 5 5 5 3 5 5 5 3 5 5 5 5 5 3 5 5 5 5 5 5 5 5 5 5 5 5 5 5 3 5 5 3 5 5 5 5 5 5 5 5 5 5 5 5 5 5 5 5 5 5 5 5 5 3 5 5 3 5 5 3 5 5 5 5 5 5 5 5 5 5 5 5 5 5 5 5 5 5 5 5 5 5 5 5 5 5 5 5 5 5 3 5 5 5 5 3 5 5 3 5 3 5 5 5 5 3 5 3 5 5 3 5 3 5 3 3 5 5 3 5 3 5 3 5 5 3 5 5 5 5 5 5 3 5 3 5 5 3 3 5 5 3 5 3 5 5 3 5 5 3 5 5 3 3 3 5 3 5 5 5 5 5 5 5 5 3 5 5 5 5 5 5 5 3 5 5 5 5 5 5 5 5 5 5 5 5 5 5 3 5 5 5 5 5 5 5 5 5 5 5 5 5 5 5 5 5 5 5 3 5 5 5 5 5 5 5 5 5 5 5 5 5 5 5 5 5 5 5 5 5 5 5 5 5 5 5 5 5 5 5 3 5 5 5 3 5 3 3 5 3 5 5 5 3 5 5 5 5 3 3 3 5 5 5 5 5 5 5 5 5 5 5 5 5 5 5 5 5 3 5 5 5 5 5 5 5 5 5 3 5 5 5 3 5 5 5 5 5 5 5 5 5 5 5 5 3 5 5 3 5 5 5 5 5 5 5 5 5 5 5 5 5 5 5 5 5 5 5 5 5 5 3 5 5 5 5 5 5 5 5 5 5 5 5 5 5 5 5 5 5 3 5 5 5 5 5 5 5 3 5 5 5 5 3 5 5 5 5 5 5 5 5 5 5 5 5 5 5 5 5 5 5 5 5 5 5 5 5 5 5 5 5 5 5 5 5 5 5 5 3 3 5 5 5 5 3 5 3 5 5 5 5 5 3 5 5 5 5 5 5 5 5 3 3 5 5 5 5 3 5 5 5 5 5 5 5 5 5 5 5 5 5 5 5 5 5 5 5 5 5 3 5 5 5 5 5 5 3 5 5 3 5 5 5 5 5 5 5 5 5 3 5 5 5 5 5 5 5 5 3 5 5 5 5 5 5 5 5 5 5 5 5 5 5 5 5 5 3 5 5 3 5 5 5 5 5 5 5 5 5 5 5 5 5 5 5 5 5 5 5 5 5 5 5 5 5 5 5 5 5 3 5 3 5 5 5 5 5 5 5 5 5 5 5 5 5 5 5 5 5 5 5 5 5 5 3 5 5 5 3 5 5 5 5 5 5 5 5 5 5 5 5 3 5 5 5 3 3 5 5 3 5 5 5 5 5 5 5 5 5 3 5 5 5 5 5 5 5 5 5 5 5 5 5 3 5 3 5 5 5 5 5 5 5 5 5 5 5 5 5 5 5 5 5 5 5 5 5 5 5 5 5 5 5 5 5 3 5 5 5 5 5 5 3 5 5 5 5 5 5 5 5 5 5 5 5 5 5 5 5 3 5 3 5 5 5 5 5 5 5 3 5 5 5 3 5 5 5 5 3 5 5 5 5 5 5 3 5 5 5 5 3 5 3 5 5 5 5 5 5 5 5 3 3 5 5 5 3 3 5 5 5 5 5 5 5 3 3 5 3 3 5 5 5 5 3 5 3 5 5 5 5 5 5 3 5 5 5 5 3 5 5 5 5 3 5 5 5 5 5 3 5 5 3 5 5 5 5 3 5 5 5 5 5 5 5 5 5 3 3 5 5 5 5 5 5 5 5 5 5 5 5 5 3 5 3 5 5 5 5 5 5 5 5 5 5 5 5 5 5 5 5 5 5 5 5 5 3 5 5 5 5 5 5 5 5 5 5 5 5 5 5 5 5 5 5 5 5 5 5 5 5 5 5 3 5 5 5 5 5 5 5 5 3 5 3 5 5 5 5 5 5 3 5 5 5 5 5 5 5 5 5 5 5 5 5 5 5 5 5 5 5 5 5 5 5 5 5 5 3 5 5 5 5 5 5 5 5 3 5 5 3 5 5 3 5 5 5 5 5 3 5 5 5 5 5 5 5 5 5 3 5 5 5 5 5 5 5 5 5 5 5 5 5 5 5 3 5 5 5 5 5 5 5 5 3 5 5 5 5 5 5 5 5 5 5 5 5 5 5 5 5 5 5 3 5 3 5 3 5 5 3 3 5 5 5 5 5 5 5 5 5 5 5 5 5 5 3 5 5 5 5 5 5 3 5 5 5 3 5 5 5 5 5 5 5 5 5 5 5 5 3 5 5 5 5 3 3 3 5 5 5 5 5 5 5 3 5 5 3 5 3 5 3 5 5 5 5 5 3 5 5 5 5 5 5 5 5 5 5 5 5 5 5 5 5 5 5 5 5 3 5 5 5 3 5 3 3 3 5 5 5 5 5 3 5 5 5 5 5 5 5 5 5 5 5 5 5 5 5 5 5 5 5 5 5 5 5 5 5 5 3 5 5 3 5 5 5 5 5 5 5 5 3 5 3 5 5 5 5 5 5 5 5 3 5 5 5 5 3 5 5 3 5 5 3 5 5 5 3 5 5 5 5 5 5 5 5 5 5 5 5 5 5 5 5 5 5 5 5 3 5 5 5 5 5 5 3 5 5 5 5 5 3 5 5 5 5 5 3 5 3 3 5 5 5 5 5 5 5 5 5 5 5 5 3 5 5 5 5 3 5 3 3 5 5 5 3 5 5 5 5 5 5 5 5 5 5 5 5 5 5 5 5 5 5 5 5 5 5 3 5 3 5 5 3 5 5 3 5 5 3 5 5 5 3 3 5 5 5 5 5 5 5 3 5 5 5 5 5 5 5 5 3 5 5 5 5 5 5 5 3 5 5 5 3 5 3 3 5 5 5 3 5 5 5 5 5 5 5 5 5 5 5 5 5 5 5 5 5 5 5 5 5 5 3 5 5 3 5 5 5 3 5 5 5 5 5 5 5 3 3 5 5 3 5 5 5 5 5 5 5 5 5 5 5 5 5 5 5 5 5 5 5 5 5 5 5 5 5 5 5 5 5 5 5 5 5 5 5 3 5 5 5 5 5 5 5 3 5 5 3 5 5 3 5 5 5 5 5 5 5 5 5 5 5 5 5 5 5 5 5 5 5 3 5 5 5 5 3 5 5 5 5 5 5 5 5 5 5 3 5 5 5 5 3 5 5 5 5 3 3 5 3 5 5 5 5 5 5 5 5 5 5 5 5 5 5 3 5 5 5 5 5 5 5 5 5 3 5 5 5 5 5 5 5 5 5 5 5 5 5 5 5 5 5 5 5 5 5 5 5 5 5 5 5 5 5 5 5 5 5 5 5 5 5 5 5 5 5 3 5 5 5 5 3 5 5 3 5 5 5 5 5 5 3 3 5 5 5 5 3 5 5 5 5 5 5 5 5 5 5 5 5 5 5 5 5 5 5 5 5 5 5 5 5 5 5 5 5 5 5 5 5 5 5 5 5 5 5 5 5 5 5 5 5 5 5 5 5 5 5 5 5 5 5 5 5 5 5 5 5 5 3 5 5 5 5 5 3 5 3 5 5 5 5 5 5 5 5 5 
</DataArray>
</Cells>
<PointData Scalars="" Vectors="displacement," Tensors="">
<DataArray type="Float64" Name="displacement" NumberOfComponents="3" format="ascii">
-0.034599263945538007 1.5448718265322212e-07 0 -0.033666001003479974 0.00028580378587777659 0 -0.034603720384579852 4.4899676191117162e-07 0 -0.034997278475555386 -3.2730457673686149e-07 0 -0.03499219255520164 1.1293358830121288e-06 0 -0.034997278475555386 -3.2730457673686149e-07 0 -0.03499219255520164 1.1293358830121288e-06 0 -0.035001149590434058 3.0134962842094373e-07 0 -0.03459767881754084 1.695930632267974e-06 0 -0.032372909648393018 0.00067284099818813584 0 -0.033347536062083682 -6.1057751019029459e-05 0 -0.03459767881754084 1.695930632267974e-06 0 -0.033354243428527747 -9.9842184684671223e-07 0 -0.033347536062083682 -6.1057751019029459e-05 0 -0.032372909648393018 0.00067284099818813584 0 -0.032762609541547888 -0.00052457502913893963 0 -0.033347536062083682 -6.1057751019029459e-05 0 -0.032762609541547888 -0.00052457502913893963 0 -0.033354243428527747 -9.9842184684671223e-07 0 -0.033347536062083682 -6.1057751019029459e-05 0 -0.030604745028755126 0.00062872574659382356 0 -0.032106186013015951 1.6804833158074341e-06 0 -0.031094819461280315 1.8080382411636892e-05 0 -0.032762609541547888 -0.00052457502913893963 0 -0.033354243428527747 -9.9842184684671223e-07 0 -0.032113384621701532 1.739936261761471e-07 0 -0.031655805033281047 3.7356670359069334e-05 0 -0.032110414548166946 -3.8729557172799826e-09 0 -0.030604745028755126 0.00062872574659382356 0 -0.031094819461280315 1.8080382411636892e-05 0 -0.030441261396756885 0.00036180088829121067 0 -0.030868905488564607 -0.00012799247299317241 0 -0.031094819461280315 1.8080382411636892e-05 0 -0.030441261396756885 0.00036180088829121067 0 -0.030868905488564607 -0.00012799247299317241 0 -0.031007505029638647 -1.3132450112910207e-06 0 -0.031094819461280315 1.8080382411636892e-05 0 -0.030020132689040108 -5.397541828600464e-05 0 -0.031003369704201048 -9.4334889601324533e-09 0 -0.032106186013015951 1.6804833158074341e-06 0 -0.031007505029638647 -1.3132450112910207e-06 0 -0.031094819461280315 1.8080382411636892e-05 0 -0.030168204795559744 0.00050104656302279408 0 -0.029589126399263598 1.1673921483775638e-05 0 -0.029827942691423665 0.00029772397662388312 0 -0.030168204795559744 0.00050104656302279408 0 -0.030156991047772745 0.00052899547172089681 0 -0.029827942691423665 0.00029772397662388312 0 -0.030168204795559744 0.00050104656302279408 0 -0.030441261396756885 0.00036180088829121067 0 -0.0304155801395763 0.00046683790932857967 0 -0.030168204795559744 0.00050104656302279408 0 -0.030441261396756885 0.00036180088829121067 0 -0.029589126399263598 1.1673921483775638e-05 0 -0.030868905488564607 -0.00012799247299317241 0 -0.030441261396756885 0.00036180088829121067 0 -0.029589126399263598 1.1673921483775638e-05 0 -0.030604745028755126 0.00062872574659382356 0 -0.030441261396756885 0.00036180088829121067 0 -0.030588940589667855 0.00046274464527971075 0 -0.030441261396756885 0.00036180088829121067 0 -0.0304155801395763 0.00046683790932857967 0 -0.030588940589667855 0.00046274464527971075 0 -0.030168204795559744 0.00050104656302279408 0 -0.030727595322479147 0.00048218571517235796 0 -0.031021216319444576 0.0010209756916549106 0 -0.030168204795559744 0.00050104656302279408 0 -0.0304155801395763 0.00046683790932857967 0 -0.030727595322479147 0.00048218571517235796 0 -0.0304155801395763 0.00046683790932857967 0 -0.030588940589667855 0.00046274464527971075 0 -0.030727595322479147 0.00048218571517235796 0 -0.03499219255520164 1.1293358830121288e-06 0 -0.035001149590434058 3.0134962842094373e-07 0 -0.034996027101725148 1.7594177003613058e-06 0 -0.030727595322479147 0.00048218571517235796 0 -0.031044861543581836 8.2092145841286204e-05 0 -0.031408733718861936 0.0001443284982466396 0 -0.030727595322479147 0.00048218571517235796 0 -0.030878443267389987 6.0256364866624626e-05 0 -0.031044861543581836 8.2092145841286204e-05 0 -0.030588940589667855 0.00046274464527971075 0 -0.030727595322479147 0.00048218571517235796 0 -0.030878443267389987 6.0256364866624626e-05 0 -0.031655805033281047 3.7356670359069334e-05 0 -0.030951117951615599 9.7648981978180272e-05 0 -0.032372909648393018 0.00067284099818813584 0 -0.032762609541547888 -0.00052457502913893963 0 -0.030878443267389987 6.0256364866624626e-05 0 -0.030604745028755126 0.00062872574659382356 0 -0.030588940589667855 0.00046274464527971075 0 -0.030878443267389987 6.0256364866624626e-05 0 -0.033666001003479974 0.00028580378587777659 0 -0.032983967899290714 5.7065961089079798e-05 0 -0.032372909648393018 0.00067284099818813584 0 -0.030878443267389987 6.0256364866624626e-05 0 -0.030818063940487157 0.00013944981519315751 0 -0.030878443267389987 6.0256364866624626e-05 0 -0.031044861543581836 8.2092145841286204e-05 0 -0.030818063940487157 0.00013944981519315751 0 -0.035001149590434058 3.0134962842094373e-07 0 -0.035005944513867709 -2.3772380765637143e-06 0 -0.034998005921121969 -8.8917165355945539e-07 0 -0.032983967899290714 5.7065961089079798e-05 0 -0.033569975156176719 -0.00026406560076042157 0 -0.031044861543581836 8.2092145841286204e-05 0 -0.032069575662384782 -0.00065935785723441579 0 -0.031408733718861936 0.0001443284982466396 0 -0.035001149590434058 3.0134962842094373e-07 0 -0.034996027101725148 1.7594177003613058e-06 0 -0.035005944513867709 -2.3772380765637143e-06 0 -0.031044861543581836 8.2092145841286204e-05 0 -0.030818063940487157 0.00013944981519315751 0 -0.032069575662384782 -0.00065935785723441579 0 -0.033569975156176719 -0.00026406560076042157 0 -0.034739208667796485 -0.00013618096707689853 0 -0.032069575662384782 -0.00065935785723441579 0 -0.033331555048084875 0.00011408168004786994 0 -0.034865130646659338 -7.4900619690384081e-05 0 -0.032069575662384782 -0.00065935785723441579 0 -0.033331555048084875 0.00011408168004786994 0 -0.032047519181809418 0.00053620404743758075 0 -0.033331555048084875 0.00011408168004786994 0 -0.032047519181809418 0.00053620404743758075 0 -0.034193472642724869 0.00050391114716921584 0 -0.030727595322479147 0.00048218571517235796 0 -0.032047519181809418 0.00053620404743758075 0 -0.031408733718861936 0.0001443284982466396 0 -0.032069575662384782 -0.00065935785723441579 0 -0.032047519181809418 0.00053620404743758075 0 -0.031408733718861936 0.0001443284982466396 0 -0.034998005921121969 -8.8917165355945539e-07 0 -0.034865130646659338 -7.4900619690384081e-05 0 -0.034956846670411629 4.4138608328379257e-05 0 -0.035005944513867709 -2.3772380765637143e-06 0 -0.034998005921121969 -8.8917165355945539e-07 0 -0.034865130646659338 -7.4900619690384081e-05 0 -0.033331555048084875 0.00011408168004786994 0 -0.034865130646659338 -7.4900619690384081e-05 0 -0.034193472642724869 0.00050391114716921584 0 -0.034179748677216779 0.00048180943441251511 0 -0.035365944609017867 0.00012291284781564834 0 -0.034865130646659338 -7.4900619690384081e-05 0 -0.034193472642724869 0.00050391114716921584 0 -0.034956846670411629 4.4138608328379257e-05 0 -0.034193472642724869 0.00050391114716921584 0 -0.035040671517045166 0.0011201203736391034 0 -0.035567728114664084 0.00021944577635954411 0 -0.035040671517045166 0.0011201203736391034 0 -0.033180679902463525 0.0014335850139606892 0 -0.034752227204501093 0.0023401627466162339 0 -0.034193472642724869 0.00050391114716921584 0 -0.035040671517045166 0.0011201203736391034 0 -0.033180679902463525 0.0014335850139606892 0 -0.033180679902463525 0.0014335850139606892 0 -0.033234224455181496 0.0028413635842681377 0 -0.034752227204501093 0.0023401627466162339 0 -0.026920799715186926 0.00085277615634513863 0 -0.028365522809569617 0.00031590957683425843 0 -0.027099080017819705 0.0010915808608127871 0 -0.030086248545203326 0.0018857940827924011 0 -0.031621290672389106 0.0013429977869127902 0 -0.030727595322479147 0.00048218571517235796 0 -0.032047519181809418 0.00053620404743758075 0 -0.031021216319444576 0.0010209756916549106 0 -0.032047519181809418 0.00053620404743758075 0 -0.034193472642724869 0.00050391114716921584 0 -0.033180679902463525 0.0014335850139606892 0 -0.032047519181809418 0.00053620404743758075 0 -0.033180679902463525 0.0014335850139606892 0 -0.031021216319444576 0.0010209756916549106 0 -0.033180679902463525 0.0014335850139606892 0 -0.031021216319444576 0.0010209756916549106 0 -0.03199548890673462 0.0024381927976167644 0 -0.033180679902463525 0.0014335850139606892 0 -0.033234224455181496 0.0028413635842681377 0 -0.03199548890673462 0.0024381927976167644 0 -0.033234224455181496 0.0028413635842681377 0 -0.03199548890673462 0.0024381927976167644 0 -0.03130156236715418 0.0034913389312913844 0 -0.030168204795559744 0.00050104656302279408 0 -0.031021216319444576 0.0010209756916549106 0 -0.030156991047772745 0.00052899547172089681 0 -0.031021216319444576 0.0010209756916549106 0 -0.030156991047772745 0.00052899547172089681 0 -0.029579804726924265 0.0002424104835483562 0 -0.031021216319444576 0.0010209756916549106 0 -0.03199548890673462 0.0024381927976167644 0 -0.0310213844933491 0.0035713698570222835 0 -0.031044303211893266 0.0011488857381514231 0 -0.029562587408048083 0.001462271751577973 0 -0.030156991047772745 0.00052899547172089681 0 -0.029602954337974333 0.00018737926239864453 0 -0.029827942691423665 0.00029772397662388312 0 -0.030156991047772745 0.00052899547172089681 0 -0.029602954337974333 0.00018737926239864453 0 -0.029579804726924265 0.0002424104835483562 0 -0.029710887743239503 0.0011127799208150485 0 -0.029562587408048083 0.001462271751577973 0 -0.029602954337974333 0.00018737926239864453 0 -0.029445640820874402 9.4646906834869405e-05 0 -0.029287440493001325 5.7165470132351254e-05 0 -0.029602954337974333 0.00018737926239864453 0 -0.029445640820874402 9.4646906834869405e-05 0 -0.0294601362313732 0.00023938798755642946 0 -0.026570667981192276 0.001174542814044436 0 -0.026602594320926091 0.0010698870511421184 0 -0.026704521567559557 0.0012138701472487713 0 -0.028001867550238372 0.00077010669086377082 0 -0.02883990691417921 0.001766546981534133 0 -0.028634521221422175 0.0011652176005958344 0 -0.028642850672443185 0.0011519086357427606 0 -0.028636721603751109 0.0011531044446286311 0 -0.028001867550238372 0.00077010669086377082 0 -0.029562587408048083 0.001462271751577973 0 -0.03199548890673462 0.0024381927976167644 0 -0.03130156236715418 0.0034913389312913844 0 -0.0310213844933491 0.0035713698570222835 0 -0.02883990691417921 0.001766546981534133 0 -0.029562587408048083 0.001462271751577973 0 -0.030086248545203326 0.0018857940827924011 0 -0.02883990691417921 0.001766546981534133 0 -0.026920799715186926 0.00085277615634513863 0 -0.026602594320926091 0.0010698870511421184 0 -0.026797800173800682 0.0011347461609215843 0 -0.026920799715186926 0.00085277615634513863 0 -0.026797800173800682 0.0011347461609215843 0 -0.026957916739606378 0.0011490257305727179 0 -0.026797800173800682 0.0011347461609215843 0 -0.026704521567559557 0.0012138701472487713 0 -0.026837762562944758 0.0013012355341530967 0 -0.026797800173800682 0.0011347461609215843 0 -0.026837762562944758 0.0013012355341530967 0 -0.026957916739606378 0.0011490257305727179 0 -0.026602594320926091 0.0010698870511421184 0 -0.026797800173800682 0.0011347461609215843 0 -0.026704521567559557 0.0012138701472487713 0 -0.026837762562944758 0.0013012355341530967 0 -0.026693071349013706 0.0013403853286948161 0 -0.026765759969875656 0.0015009994126575581 0 -0.026837762562944758 0.0013012355341530967 0 -0.026924634291334858 0.0014515930587159368 0 -0.026765759969875656 0.0015009994126575581 0 -0.026704521567559557 0.0012138701472487713 0 -0.026837762562944758 0.0013012355341530967 0 -0.026693071349013706 0.0013403853286948161 0 -0.029445640820874402 9.4646906834869405e-05 0 -0.029287440493001325 5.7165470132351254e-05 0 -0.028846648401767087 2.0710210003875597e-05 0 -0.028001867550238372 0.00077010669086377082 0 -0.027593072689386731 5.4915810499882309e-05 0 -0.026287796434634959 0.00052608540607973714 0 -0.026329520231875243 0.0003411610088929758 0 -0.026255309946456737 0.00032652424402962254 0 -0.028001867550238372 0.00077010669086377082 0 -0.026273592760697666 0.00092988381424097862 0 -0.026570667981192276 0.001174542814044436 0 -0.026693071349013706 0.0013403853286948161 0 -0.026583514717794868 0.0014883897889609401 0 -0.026570667981192276 0.001174542814044436 0 -0.026704521567559557 0.0012138701472487713 0 -0.026693071349013706 0.0013403853286948161 0 -0.027158834450818785 0.0010277484020971999 0 -0.027842624537915299 0.0020949327793490162 0 -0.027099080017819705 0.0010915808608127871 0 -0.027104972668522274 0.0012752824720006389 0 -0.027206702705522199 0.0012841088541643492 0 -0.028397597094847567 0.0011423594566205525 0 -0.027099080017819705 0.0010915808608127871 0 -0.028772140952547241 0.0021455473555107717 0 -0.028365522809569617 0.00031590957683425843 0 -0.028397597094847567 0.0011423594566205525 0 -0.027099080017819705 0.0010915808608127871 0 -0.028397597094847567 0.0011423594566205525 0 -0.028772140952547241 0.0021455473555107717 0 -0.029376040538658145 0.001014950213698683 0 -0.028365522809569617 0.00031590957683425843 0 -0.028397597094847567 0.0011423594566205525 0 -0.029376040538658145 0.001014950213698683 0 -0.027099080017819705 0.0010915808608127871 0 -0.026995208234023502 0.0012343098505842819 0 -0.027104972668522274 0.0012752824720006389 0 -0.026920799715186926 0.00085277615634513863 0 -0.027099080017819705 0.0010915808608127871 0 -0.026957916739606378 0.0011490257305727179 0 -0.027099080017819705 0.0010915808608127871 0 -0.026957916739606378 0.0011490257305727179 0 -0.026995208234023502 0.0012343098505842819 0 -0.026837762562944758 0.0013012355341530967 0 -0.026957916739606378 0.0011490257305727179 0 -0.026995208234023502 0.0012343098505842819 0 -0.02702343027155911 0.0014250766582351586 0 -0.027104972668522274 0.0012752824720006389 0 -0.027133377758653647 0.0014878284991623456 0 -0.026837762562944758 0.0013012355341530967 0 -0.026995208234023502 0.0012343098505842819 0 -0.026980505979167662 0.0013367032343432207 0 -0.026837762562944758 0.0013012355341530967 0 -0.026980505979167662 0.0013367032343432207 0 -0.026924634291334858 0.0014515930587159368 0 -0.026980505979167662 0.0013367032343432207 0 -0.02702343027155911 0.0014250766582351586 0 -0.026924634291334858 0.0014515930587159368 0 -0.026980505979167662 0.0013367032343432207 0 -0.02702343027155911 0.0014250766582351586 0 -0.027104972668522274 0.0012752824720006389 0 -0.026995208234023502 0.0012343098505842819 0 -0.026980505979167662 0.0013367032343432207 0 -0.027104972668522274 0.0012752824720006389 0 -0.027131059743953228 0.0013877006135010509 0 -0.025952893223562434 0.0015223790578349843 0 -0.027104972668522274 0.0012752824720006389 0 -0.027171018599369028 0.0013459410638854046 0 -0.027128290894326713 0.0014193798143954603 0 -0.027104972668522274 0.0012752824720006389 0 -0.027173047516148591 0.0013007922115893542 0 -0.027206702705522199 0.0012841088541643492 0 -0.027104972668522274 0.0012752824720006389 0 -0.027171907716204251 0.0013261538150270275 0 -0.027173047516148591 0.0013007922115893542 0 -0.027104972668522274 0.0012752824720006389 0 -0.027171907716204251 0.0013261538150270275 0 -0.027171018599369028 0.0013459410638854046 0 -0.02632199874810498 0.0021083634696294662 0 -0.02586423647343802 0.0017706579976187048 0 -0.027171907716204251 0.0013261538150270275 0 -0.027187092087235243 0.0013157179912372827 0 -0.027170263762474115 0.0013467330075286835 0 -0.024607851618267982 0.0020945047555121507 0 -0.024639243246262522 0.002028623371962311 0 -0.024381898675785964 0.0018899200675509887 0 -0.025943937704665767 0.0016747567956000042 0 -0.02586423647343802 0.0017706579976187048 0 -0.02632199874810498 0.0021083634696294662 0 -0.027842624537915299 0.0020949327793490162 0 -0.027186165032337877 0.0013152750545106819 0 -0.027173047516148591 0.0013007922115893542 0 -0.027206702705522199 0.0012841088541643492 0 -0.027171907716204251 0.0013261538150270275 0 -0.027187092087235243 0.0013157179912372827 0 -0.027173047516148591 0.0013007922115893542 0 -0.02632199874810498 0.0021083634696294662 0 -0.026394473668811452 0.0020580478932011163 0 -0.024802008723091191 0.0016829766841308655 0 -0.024785956300108401 0.0013943110759655757 0 -0.024863215875491475 0.0015483127023398378 0 -0.024735862453814272 0.0015005727413816934 0 -0.024743687289448375 0.001507935602692067 0 -0.02474627354925997 0.001493139310761287 0 -0.024639243246262522 0.002028623371962311 0 -0.024629750673932322 0.0017151257168255306 0 -0.024381898675785964 0.0018899200675509887 0 -0.02586423647343802 0.0017706579976187048 0 -0.023220197994545798 0.0014481871867220812 0 -0.02586423647343802 0.0017706579976187048 0 -0.025952893223562434 0.0015223790578349843 0 -0.023220197994545798 0.0014481871867220812 0 -0.025952893223562434 0.0015223790578349843 0 -0.027133377758653647 0.0014878284991623456 0 -0.026980092679284116 0.0015728409278155775 0 -0.02697111260693251 0.0017634255052621361 0 -0.025952893223562434 0.0015223790578349843 0 -0.024605899370900679 0.0013566608756696524 0 -0.02702343027155911 0.0014250766582351586 0 -0.026980092679284116 0.0015728409278155775 0 -0.026924634291334858 0.0014515930587159368 0 -0.02702343027155911 0.0014250766582351586 0 -0.027133377758653647 0.0014878284991623456 0 -0.026980092679284116 0.0015728409278155775 0 -0.026980092679284116 0.0015728409278155775 0 -0.026924634291334858 0.0014515930587159368 0 -0.026881916614846103 0.0015504895400530432 0 -0.026924634291334858 0.0014515930587159368 0 -0.026881916614846103 0.0015504895400530432 0 -0.026765759969875656 0.0015009994126575581 0 -0.026881916614846103 0.0015504895400530432 0 -0.02690841034789216 0.0016763741523924238 0 -0.026796938677202779 0.0016344055626972896 0 -0.026980092679284116 0.0015728409278155775 0 -0.026881916614846103 0.0015504895400530432 0 -0.02690841034789216 0.0016763741523924238 0 -0.026756076883887828 0.0016691704995287653 0 -0.026757247175012284 0.0016677996130182438 0 -0.026796938677202779 0.0016344055626972896 0 -0.026757247175012284 0.0016677996130182438 0 -0.026741106783262497 0.0016782938685613649 0 -0.026796938677202779 0.0016344055626972896 0 -0.02690841034789216 0.0016763741523924238 0 -0.026941673248938341 0.001785649395512094 0 -0.026796938677202779 0.0016344055626972896 0 -0.024506048621340197 0.0014511312429243059 0 -0.026928113478030494 0.0021532433261766144 0 -0.024506048621340197 0.0014511312429243059 0 -0.022046259438736098 0.00066832940736252745 0 -0.026744128003805979 0.0016761610156176435 0 -0.026744591909612467 0.0016719068026558824 0 -0.026739953306287565 0.0016810080374568418 0 -0.026756076883887828 0.0016691704995287653 0 -0.026757247175012284 0.0016677996130182438 0 -0.026748797630535753 0.0016731980962943402 0 -0.026756076883887828 0.0016691704995287653 0 -0.026741800822381395 0.0016775952901970427 0 -0.026748797630535753 0.0016731980962943402 0 -0.026741800822381395 0.0016775952901970427 0 -0.026748797630535753 0.0016731980962943402 0 -0.026744128003805979 0.0016761610156176435 0 -0.026748797630535753 0.0016731980962943402 0 -0.026744128003805979 0.0016761610156176435 0 -0.026745145159589291 0.0016736030213185434 0 -0.026744128003805979 0.0016761610156176435 0 -0.026745145159589291 0.0016736030213185434 0 -0.026744591909612467 0.0016719068026558824 0 -0.024814160884626162 0.0013309019317420394 0 -0.024506048621340197 0.0014511312429243059 0 -0.026757247175012284 0.0016677996130182438 0 -0.026745145159589291 0.0016736030213185434 0 -0.026741106783262497 0.0016782938685613649 0 -0.026757247175012284 0.0016677996130182438 0 -0.026748797630535753 0.0016731980962943402 0 -0.026745145159589291 0.0016736030213185434 0 -0.022783259054295242 0.00042683937687876012 0 -0.022999820390934057 0.00065077208158745314 0 -0.022620183762973332 0.00087736215332486942 0 -0.02235138821316509 0.0010259193279279746 0 -0.022302390301178129 0.00090400945213738721 0 -0.022018423655712022 0.0010703231054134544 0 -0.02235138821316509 0.0010259193279279746 0 -0.022396263311845254 0.00099649635976916209 0 -0.022302390301178129 0.00090400945213738721 0 -0.024605899370900679 0.0013566608756696524 0 -0.024506048621340197 0.0014511312429243059 0 -0.024506048621340197 0.0014511312429243059 0 -0.020758307309071893 0.0002082184564339108 0 -0.026980092679284116 0.0015728409278155775 0 -0.02690841034789216 0.0016763741523924238 0 -0.02697111260693251 0.0017634255052621361 0 -0.02690841034789216 0.0016763741523924238 0 -0.02697111260693251 0.0017634255052621361 0 -0.026941673248938341 0.001785649395512094 0 -0.023220197994545798 0.0014481871867220812 0 -0.024605899370900679 0.0013566608756696524 0 -0.02235138821316509 0.0010259193279279746 0 -0.022018423655712022 0.0010703231054134544 0 -0.022020582815710239 0.0011662470572255047 0 -0.022021958194183011 0.0012484068286684675 0 -0.02235138821316509 0.0010259193279279746 0 -0.022020582815710239 0.0011662470572255047 0 -0.020758307309071893 0.0002082184564339108 0 -0.019481212469013191 0.00033129554169325097 0 -0.019481212469013191 0.00033129554169325097 0 -0.016746679088632695 -0.0013943901826691822 0 -0.01655495622563808 -0.00065532189509538946 0 -0.016199940503835671 -0.0010170192135959015 0 -0.016251849482328742 -0.0014367834283715575 0 -0.019481212469013191 0.00033129554169325097 0 -0.021536021531698962 0.0010350860078870256 0 -0.023220197994545798 0.0014481871867220812 0 -0.021536021531698962 0.0010350860078870256 0 -0.026304473001706262 0.00022636467515068241 0 -0.026329520231875243 0.0003411610088929758 0 -0.026255309946456737 0.00032652424402962254 0 -0.026693071349013706 0.0013403853286948161 0 -0.026583514717794868 0.0014883897889609401 0 -0.026765759969875656 0.0015009994126575581 0 -0.026583514717794868 0.0014883897889609401 0 -0.026765759969875656 0.0015009994126575581 0 -0.026693493293709465 0.0016312960367724433 0 -0.026765759969875656 0.0015009994126575581 0 -0.026693493293709465 0.0016312960367724433 0 -0.026796938677202779 0.0016344055626972896 0 -0.026881916614846103 0.0015504895400530432 0 -0.026765759969875656 0.0015009994126575581 0 -0.026796938677202779 0.0016344055626972896 0 -0.026756076883887828 0.0016691704995287653 0 -0.026796938677202779 0.0016344055626972896 0 -0.02674507998378018 0.0016719622032784298 0 -0.026693493293709465 0.0016312960367724433 0 -0.026796938677202779 0.0016344055626972896 0 -0.02674507998378018 0.0016719622032784298 0 -0.026756076883887828 0.0016691704995287653 0 -0.026741800822381395 0.0016775952901970427 0 -0.02674507998378018 0.0016719622032784298 0 -0.026693493293709465 0.0016312960367724433 0 -0.02674507998378018 0.0016719622032784298 0 -0.026671308241870657 0.0017361451027628103 0 -0.026693493293709465 0.0016312960367724433 0 -0.026591690218710964 0.0017054712695523061 0 -0.026671308241870657 0.0017361451027628103 0 -0.026304473001706262 0.00022636467515068241 0 -0.026231539031429125 0.00011124913290598593 0 -0.026381732446510521 0.00015494697015080996 0 -0.026583514717794868 0.0014883897889609401 0 -0.026693493293709465 0.0016312960367724433 0 -0.026591690218710964 0.0017054712695523061 0 -0.026273592760697666 0.00092988381424097862 0 -0.026526446930872655 0.00086249720544799308 0 -0.026304473001706262 0.00022636467515068241 0 -0.026255309946456737 0.00032652424402962254 0 -0.026231539031429125 0.00011124913290598593 0 -0.026231539031429125 0.00011124913290598593 0 -0.026381732446510521 0.00015494697015080996 0 -0.026299805156481941 -1.16657520784586e-05 0 -0.027593072689386731 5.4915810499882309e-05 0 -0.027087245741807153 4.8415345920921752e-05 0 -0.028846648401767087 2.0710210003875597e-05 0 -0.027804331860572642 4.2358082803954506e-05 0 -0.028353135081933788 -3.5806299507859186e-08 0 -0.027804331860572642 4.2358082803954506e-05 0 -0.028353135081933788 -3.5806299507859186e-08 0 -0.027813188188478621 -3.4157563965368842e-05 0 -0.026304473001706262 0.00022636467515068241 0 -0.026329520231875243 0.0003411610088929758 0 -0.026381732446510521 0.00015494697015080996 0 -0.028353135081933788 -3.5806299507859186e-08 0 -0.028767596905906554 -5.7423636414749208e-07 0 -0.028484254273880898 -9.2187567880352562e-06 0 -0.028846648401767087 2.0710210003875597e-05 0 -0.028353135081933788 -3.5806299507859186e-08 0 -0.028767596905906554 -5.7423636414749208e-07 0 -0.027813188188478621 -3.4157563965368842e-05 0 -0.028092655823550951 -4.7043507634119985e-05 0 -0.028484254273880898 -9.2187567880352562e-06 0 -0.028353135081933788 -3.5806299507859186e-08 0 -0.027813188188478621 -3.4157563965368842e-05 0 -0.028484254273880898 -9.2187567880352562e-06 0 -0.027804331860572642 4.2358082803954506e-05 0 -0.027813188188478621 -3.4157563965368842e-05 0 -0.026957551408760976 -5.6006939360356053e-05 0 -0.027813188188478621 -3.4157563965368842e-05 0 -0.02737492343892621 -6.9713783593873749e-05 0 -0.026957551408760976 -5.6006939360356053e-05 0 -0.02737492343892621 -6.9713783593873749e-05 0 -0.026240399921218596 -0.00011223457129265065 0 -0.026957551408760976 -5.6006939360356053e-05 0 -0.02737492343892621 -6.9713783593873749e-05 0 -0.027054532630064774 -3.5377220011300456e-08 0 -0.026240399921218596 -0.00011223457129265065 0 -0.027054532630064774 -3.5377220011300456e-08 0 -0.028108661710654504 -8.9851910632129738e-05 0 -0.029029799725410133 -9.6751805125798124e-07 0 -0.02737492343892621 -6.9713783593873749e-05 0 -0.027054532630064774 -3.5377220011300456e-08 0 -0.028108661710654504 -8.9851910632129738e-05 0 -0.027813188188478621 -3.4157563965368842e-05 0 -0.02737492343892621 -6.9713783593873749e-05 0 -0.028092655823550951 -4.7043507634119985e-05 0 -0.02737492343892621 -6.9713783593873749e-05 0 -0.028108661710654504 -8.9851910632129738e-05 0 -0.028092655823550951 -4.7043507634119985e-05 0 -0.028108661710654504 -8.9851910632129738e-05 0 -0.028092655823550951 -4.7043507634119985e-05 0 -0.028610703671196079 1.6572567056066914e-05 0 -0.028108661710654504 -8.9851910632129738e-05 0 -0.028610703671196079 1.6572567056066914e-05 0 -0.029029799725410133 -9.6751805125798124e-07 0 -0.029159480354332482 1.2137416476944417e-05 0 -0.030999971847433579 1.6023508579254985e-06 0 -0.029029799725410133 -9.6751805125798124e-07 0 -0.029159480354332482 1.2137416476944417e-05 0 -0.028610703671196079 1.6572567056066914e-05 0 -0.029029799725410133 -9.6751805125798124e-07 0 -0.029159480354332482 1.2137416476944417e-05 0 -0.028610703671196079 1.6572567056066914e-05 0 -0.029589126399263598 1.1673921483775638e-05 0 -0.030020132689040108 -5.397541828600464e-05 0 -0.029660261948972672 -9.7400749578409121e-06 0 -0.028610703671196079 1.6572567056066914e-05 0 -0.029589126399263598 1.1673921483775638e-05 0 -0.029080410761377275 1.9768090710197889e-05 0 -0.029589126399263598 1.1673921483775638e-05 0 -0.029827942691423665 0.00029772397662388312 0 -0.029464334524044674 9.228634163004354e-05 0 -0.029602954337974333 0.00018737926239864453 0 -0.029827942691423665 0.00029772397662388312 0 -0.029464334524044674 9.228634163004354e-05 0 -0.029602954337974333 0.00018737926239864453 0 -0.029287440493001325 5.7165470132351254e-05 0 -0.029464334524044674 9.228634163004354e-05 0 -0.029589126399263598 1.1673921483775638e-05 0 -0.029464334524044674 9.228634163004354e-05 0 -0.029080410761377275 1.9768090710197889e-05 0 -0.029080410761377275 1.9768090710197889e-05 0 -0.029120006063208068 2.508613556619589e-05 0 -0.028767596905906554 -5.7423636414749208e-07 0 -0.029287440493001325 5.7165470132351254e-05 0 -0.028846648401767087 2.0710210003875597e-05 0 -0.029120006063208068 2.508613556619589e-05 0 -0.029464334524044674 9.228634163004354e-05 0 -0.029080410761377275 1.9768090710197889e-05 0 -0.029120006063208068 2.508613556619589e-05 0 -0.029287440493001325 5.7165470132351254e-05 0 -0.029464334524044674 9.228634163004354e-05 0 -0.029120006063208068 2.508613556619589e-05 0 -0.028846648401767087 2.0710210003875597e-05 0 -0.029120006063208068 2.508613556619589e-05 0 -0.028767596905906554 -5.7423636414749208e-07 0 -0.029080410761377275 1.9768090710197889e-05 0 -0.028767596905906554 -5.7423636414749208e-07 0 -0.028484254273880898 -9.2187567880352562e-06 0 -0.028610703671196079 1.6572567056066914e-05 0 -0.029080410761377275 1.9768090710197889e-05 0 -0.028484254273880898 -9.2187567880352562e-06 0 -0.028092655823550951 -4.7043507634119985e-05 0 -0.028610703671196079 1.6572567056066914e-05 0 -0.028484254273880898 -9.2187567880352562e-06 0 -0.018575419004302197 -0.0033375235210322826 0 -0.019053671393593218 -0.0027956380823030637 0 -0.019576406009978103 -0.0039794230113176397 0 -0.018575419004302197 -0.0033375235210322826 0 -0.019053671393593218 -0.0027956380823030637 0 -0.018390235223783018 -0.0025403660553649601 0 -0.022109963769839432 -0.0023415967783815997 0 -0.021736958661640098 -0.001858699558485354 0 -0.026773905892361911 -0.0015663774277389043 0 -0.026771537908212975 -0.0016365785491920224 0 -0.026076380796615041 -0.0011688752766530316 0 -0.026773905892361911 -0.0015663774277389043 0 -0.026077742121160947 -0.001031191783610769 0 -0.026076380796615041 -0.0011688752766530316 0 -0.03138034831512293 -0.00082893898589489977 0 -0.030425883539869743 -0.00039705590458316521 0 -0.018575419004302197 -0.0033375235210322826 0 -0.017607955540759883 -0.0026594970332266699 0 -0.018390235223783018 -0.0025403660553649601 0 -0.034880216250638051 7.651098847245158e-05 0 -0.034955543072369775 0.00017585440239048969 0 -0.034953008796870258 2.1301303664939807e-05 0 -0.034880216250638051 7.651098847245158e-05 0 -0.034955543072369775 0.00017585440239048969 0 -0.034771331919440492 0.00046326127150409402 0 -0.026773905892361911 -0.0015663774277389043 0 -0.026771537908212975 -0.0016365785491920224 0 -0.027447687457434415 -0.0021209942156627812 0 -0.022109963769839432 -0.0023415967783815997 0 -0.027557027595463166 -0.0019894747781970062 0 -0.03138034831512293 -0.00082893898589489977 0 -0.027557027595463166 -0.0019894747781970062 0 -0.034955543072369775 0.00017585440239048969 0 -0.034953008796870258 2.1301303664939807e-05 0 -0.034960128335934003 5.4257013744042436e-05 0 -0.034953008796870258 2.1301303664939807e-05 0 -0.034975878647306294 1.3658974396762353e-05 0 -0.034960128335934003 5.4257013744042436e-05 0 -0.034953008796870258 2.1301303664939807e-05 0 -0.034981448029323813 8.1592415422534796e-06 0 -0.034975878647306294 1.3658974396762353e-05 0 -0.034981448029323813 8.1592415422534796e-06 0 -0.034999961872625947 4.4514244339028897e-08 0 -0.034999825570224762 -5.6473679549089995e-08 0 -0.034981448029323813 8.1592415422534796e-06 0 -0.034999961872625947 4.4514244339028897e-08 0 -0.034975878647306294 1.3658974396762353e-05 0 -0.034953008796870258 2.1301303664939807e-05 0 -0.034999825570224762 -5.6473679549089995e-08 0 -0.034907598228704782 -9.5020124775708207e-06 0 -0.034953008796870258 2.1301303664939807e-05 0 -0.034981448029323813 8.1592415422534796e-06 0 -0.034999825570224762 -5.6473679549089995e-08 0 -0.034880216250638051 7.651098847245158e-05 0 -0.034953008796870258 2.1301303664939807e-05 0 -0.034907598228704782 -9.5020124775708207e-06 0 -0.034880216250638051 7.651098847245158e-05 0 -0.034771461773243188 -2.728213895424014e-05 0 -0.034907598228704782 -9.5020124775708207e-06 0 -0.034771461773243188 -2.728213895424014e-05 0 -0.034907598228704782 -9.5020124775708207e-06 0 -0.034887248192658912 -2.9557557979747594e-06 0 -0.034999825570224762 -5.6473679549089995e-08 0 -0.034999871797637888 -8.7734895631903808e-09 0 -0.034971662112722249 -1.2379178369956563e-05 0 -0.034999825570224762 -5.6473679549089995e-08 0 -0.034907598228704782 -9.5020124775708207e-06 0 -0.034971662112722249 -1.2379178369956563e-05 0 -0.034907598228704782 -9.5020124775708207e-06 0 -0.034971662112722249 -1.2379178369956563e-05 0 -0.034887248192658912 -2.9557557979747594e-06 0 -0.034971662112722249 -1.2379178369956563e-05 0 -0.034868675829970143 9.7170146317140824e-06 0 -0.034815179987640325 -5.1494510432842883e-05 0 -0.034971662112722249 -1.2379178369956563e-05 0 -0.034868675829970143 9.7170146317140824e-06 0 -0.034887248192658912 -2.9557557979747594e-06 0 -0.035002877432644637 -2.428484449357598e-05 0 -0.034795912315561429 -1.5213530572578815e-05 0 -0.034999871797637888 -8.7734895631903808e-09 0 -0.034971662112722249 -1.2379178369956563e-05 0 -0.035005299836928003 -1.7113452239391762e-06 0 -0.034771461773243188 -2.728213895424014e-05 0 -0.034868675829970143 9.7170146317140824e-06 0 -0.03484299711836196 4.640284537693153e-05 0 -0.034771461773243188 -2.728213895424014e-05 0 -0.034868675829970143 9.7170146317140824e-06 0 -0.034887248192658912 -2.9557557979747594e-06 0 -0.034692641077290261 -4.5459892260896149e-05 0 -0.034146776830109291 5.8518388833472532e-07 0 -0.034771461773243188 -2.728213895424014e-05 0 -0.034385470066842214 0.00032490031917285127 0 -0.033461774349753379 -9.3402221031625279e-05 0 -0.034385470066842214 0.00032490031917285127 0 -0.033541235626039653 0.0010071797383635586 0 -0.033461774349753379 -9.3402221031625279e-05 0 -0.034880216250638051 7.651098847245158e-05 0 -0.034727947823137262 0.00022758533855594636 0 -0.034771331919440492 0.00046326127150409402 0 -0.034880216250638051 7.651098847245158e-05 0 -0.034771461773243188 -2.728213895424014e-05 0 -0.034727947823137262 0.00022758533855594636 0 -0.034771461773243188 -2.728213895424014e-05 0 -0.034385470066842214 0.00032490031917285127 0 -0.034727947823137262 0.00022758533855594636 0 -0.034385470066842214 0.00032490031917285127 0 -0.034771331919440492 0.00046326127150409402 0 -0.034378560349945471 0.00070914386700859314 0 -0.026077742121160947 -0.001031191783610769 0 -0.026076380796615041 -0.0011688752766530316 0 -0.025342653851127966 -0.00071899228159655738 0 -0.034385470066842214 0.00032490031917285127 0 -0.034727947823137262 0.00022758533855594636 0 -0.034771331919440492 0.00046326127150409402 0 -0.030425883539869743 -0.00039705590458316521 0 -0.029410029012759013 0.00053127024834582039 0 -0.035347311695047179 0.00075162190115701029 0 -0.029410029012759013 0.00053127024834582039 0 -0.034385470066842214 0.00032490031917285127 0 -0.033541235626039653 0.0010071797383635586 0 -0.034472790733567862 0.0019434141268881194 0 -0.033541235626039653 0.0010071797383635586 0 -0.03252288247701729 0.0010987958469758986 0 -0.033461774349753379 -9.3402221031625279e-05 0 -0.033541235626039653 0.0010071797383635586 0 -0.03252288247701729 0.0010987958469758986 0 -0.032914748254319309 0.0019051756219212038 0 -0.03252288247701729 0.0010987958469758986 0 -0.031832800003992377 0.00029917663889183604 0 -0.031340786346552241 0.0015013327295608394 0 -0.03252288247701729 0.0010987958469758986 0 -0.031340786346552241 0.0015013327295608394 0 -0.03213118983688934 0.0018094686170843878 0 -0.034700976231167135 0.00013668091400689651 0 -0.034690555017254612 3.0072417840990275e-05 0 -0.034601973944364955 5.3939258358592244e-05 0 -0.034700976231167135 0.00013668091400689651 0 -0.034771972491586499 1.1854262859836521e-05 0 -0.034690555017254612 3.0072417840990275e-05 0 -0.03252288247701729 0.0010987958469758986 0 -0.031832800003992377 0.00029917663889183604 0 -0.033461774349753379 -9.3402221031625279e-05 0 -0.034700976231167135 0.00013668091400689651 0 -0.03484299711836196 4.640284537693153e-05 0 -0.034771972491586499 1.1854262859836521e-05 0 -0.033229250650194921 0.00021165346807707614 0 -0.034146776830109291 5.8518388833472532e-07 0 -0.034825839386415071 7.286636505682255e-06 0 -0.034815179987640325 -5.1494510432842883e-05 0 -0.034771972491586499 1.1854262859836521e-05 0 -0.034868675829970143 9.7170146317140824e-06 0 -0.03484299711836196 4.640284537693153e-05 0 -0.034825839386415071 7.286636505682255e-06 0 -0.03484299711836196 4.640284537693153e-05 0 -0.034825839386415071 7.286636505682255e-06 0 -0.034771972491586499 1.1854262859836521e-05 0 -0.034868675829970143 9.7170146317140824e-06 0 -0.034825839386415071 7.286636505682255e-06 0 -0.034815179987640325 -5.1494510432842883e-05 0 -0.034999871797637888 -8.7734895631903808e-09 0 -0.035005299836928003 -1.7113452239391762e-06 0 -0.03500008618517654 -1.127971250451677e-09 0 -0.034795912315561429 -1.5213530572578815e-05 0 -0.035409903495275702 8.6769460437985206e-05 0 -0.035005299836928003 -1.7113452239391762e-06 0 -0.03500008618517654 -1.127971250451677e-09 0 -0.035001620487870609 2.3972195518645449e-06 0 -0.035000011361141656 1.0852150209234523e-07 0 -0.035409903495275702 8.6769460437985206e-05 0 -0.034690693365326167 -5.4005829047851205e-05 0 -0.034771972491586499 1.1854262859836521e-05 0 -0.034690555017254612 3.0072417840990275e-05 0 -0.034815179987640325 -5.1494510432842883e-05 0 -0.034690693365326167 -5.4005829047851205e-05 0 -0.034771972491586499 1.1854262859836521e-05 0 -0.034690693365326167 -5.4005829047851205e-05 0 -0.034690555017254612 3.0072417840990275e-05 0 -0.034601973944364955 5.3939258358592244e-05 0 -0.035000948375031302 4.9358879008567116e-07 0 -0.034993998567635548 2.6616306614058305e-05 0 -0.034956846670411629 4.4138608328379257e-05 0 -0.036947268378451026 -9.1380344551838025e-05 0 -0.035567728114664084 0.00021944577635954411 0 -0.036474571851989143 0.0008680426959181242 0 -0.035409903495275702 8.6769460437985206e-05 0 -0.035759043591152465 0.00034659249368407605 0 -0.035409903495275702 8.6769460437985206e-05 0 -0.035365944609017867 0.00012291284781564834 0 -0.034998005921121969 -8.8917165355945539e-07 0 -0.035000948375031302 4.9358879008567116e-07 0 -0.034956846670411629 4.4138608328379257e-05 0 -0.035040671517045166 0.0011201203736391034 0 -0.035567728114664084 0.00021944577635954411 0 -0.036474571851989143 0.0008680426959181242 0 -0.035040671517045166 0.0011201203736391034 0 -0.036474571851989143 0.0008680426959181242 0 -0.035998927780435334 0.0018897911728689993 0 -0.033229250650194921 0.00021165346807707614 0 -0.032611716938447971 0.00058507770684893413 0 -0.034700976231167135 0.00013668091400689651 0 -0.034601973944364955 5.3939258358592244e-05 0 -0.034500115438914125 0.00020824734792067036 0 -0.035759043591152465 0.00034659249368407605 0 -0.032611716938447971 0.00058507770684893413 0 -0.031832800003992377 0.00029917663889183604 0 -0.031340786346552241 0.0015013327295608394 0 -0.03031772282032677 0.00071876906031724649 0 -0.031340786346552241 0.0015013327295608394 0 -0.03031772282032677 0.00071876906031724649 0 -0.030519589265968494 0.0016046828020966999 0 -0.03031772282032677 0.00071876906031724649 0 -0.029771895371118958 0.0017526062528074406 0 -0.030519589265968494 0.0016046828020966999 0 -0.032611716938447971 0.00058507770684893413 0 -0.029522469788637595 0.0014776729585870595 0 -0.028365522809569617 0.00031590957683425843 0 -0.030004694910757482 -0.00015101742331980809 0 -0.029376040538658145 0.001014950213698683 0 -0.031621290672389106 0.0013429977869127902 0 -0.032611716938447971 0.00058507770684893413 0 -0.035040671517045166 0.0011201203736391034 0 -0.034752227204501093 0.0023401627466162339 0 -0.035998927780435334 0.0018897911728689993 0 -0.02922567254078387 0.0027838387705157882 0 -0.029771895371118958 0.0017526062528074406 0 -0.03064600141804617 0.0024431303005962232 0 -0.027842624537915299 0.0020949327793490162 0 -0.029522469788637595 0.0014776729585870595 0 -0.029771895371118958 0.0017526062528074406 0 -0.030519589265968494 0.0016046828020966999 0 -0.03064600141804617 0.0024431303005962232 0 -0.031340786346552241 0.0015013327295608394 0 -0.03064600141804617 0.0024431303005962232 0 -0.031735069349393477 0.0027140921134207441 0 -0.031340786346552241 0.0015013327295608394 0 -0.030519589265968494 0.0016046828020966999 0 -0.03064600141804617 0.0024431303005962232 0 -0.02790587517820755 0.0030166406174059134 0 -0.031744881092505992 0.0027686692209817759 0 -0.03064600141804617 0.0024431303005962232 0 -0.030490810640434182 0.0035499976637474555 0 -0.031735069349393477 0.0027140921134207441 0 -0.029288767729812499 0.0040878005954529152 0 -0.030117523614746292 0.0045847038301186265 0 -0.031150117221080693 0.0028862042646850814 0 -0.026518624192995371 0.0024539919314021403 0 -0.026395827504319166 0.0023836698860063036 0 -0.026443165903265571 0.0023457213335873468 0 -0.026532096757271445 0.0024220431130510061 0 -0.026518624192995371 0.0024539919314021403 0 -0.026443165903265571 0.0023457213335873468 0 -0.02922567254078387 0.0027838387705157882 0 -0.03064600141804617 0.0024431303005962232 0 -0.030490810640434182 0.0035499976637474555 0 -0.027842624537915299 0.0020949327793490162 0 -0.02790587517820755 0.0030166406174059134 0 -0.02632199874810498 0.0021083634696294662 0 -0.023951236691342248 0.0022665711688769261 0 -0.021433815941286002 0.0010985682661746223 0 -0.02143064351644005 0.0011217546566751309 0 -0.021574201245483388 0.0010693269313454331 0 -0.021433815941286002 0.0010985682661746223 0 -0.021540529832170037 0.0010332958923000685 0 -0.021574201245483388 0.0010693269313454331 0 -0.02790587517820755 0.0030166406174059134 0 -0.023951236691342248 0.0022665711688769261 0 -0.024142013453558025 0.00158442346515534 0 -0.023512114551863483 0.0020095360683017602 0 -0.02393904051811262 0.0024160396236540677 0 -0.023951236691342248 0.0022665711688769261 0 -0.019912867141984765 0.0010286676598280163 0 -0.023220197994545798 0.0014481871867220812 0 -0.023951236691342248 0.0022665711688769261 0 -0.021427125803266039 0.0011487944842712302 0 -0.02143064351644005 0.0011217546566751309 0 -0.021574201245483388 0.0010693269313454331 0 -0.01655495622563808 -0.00065532189509538946 0 -0.015690815143871484 -0.00014677601448167537 0 -0.016199940503835671 -0.0010170192135959015 0 -0.01570727055765166 -0.00089549918283830126 0 -0.016514902655593834 -0.00013128616066195395 0 -0.015690815143871484 -0.00014677601448167537 0 -0.016199940503835671 -0.0010170192135959015 0 -0.015422804983898811 -0.00040424879728616326 0 -0.019481212469013191 0.00033129554169325097 0 -0.019912867141984765 0.0010286676598280163 0 -0.016199940503835671 -0.0010170192135959015 0 -0.014965468740522372 -0.00019996361648438535 0 -0.015536237454343528 -0.0012078496392850066 0 -0.014894569074515005 -0.0010725462790550525 0 -0.014965468740522372 -0.00019996361648438535 0 -0.015536237454343528 -0.0012078496392850066 0 -0.014894569074515005 -0.0010725462790550525 0 -0.014965468740522372 -0.00019996361648438535 0 -0.014147601598652507 -0.0010301561038946409 0 -0.015392173068308545 -0.00020815448698088774 0 -0.014644031971500623 -0.00035731086813127315 0 -0.014430222624972597 -0.001059669016765205 0 -0.016514902655593834 -0.00013128616066195395 0 -0.014114502151057055 -0.00115823206977087 0 -0.015392173068308545 -0.00020815448698088774 0 -0.014623813852797624 0.00031938002622990938 0 -0.014644031971500623 -0.00035731086813127315 0 -0.016514902655593834 -0.00013128616066195395 0 -0.019387453458595917 -0.00024438149996905011 0 -0.020133709649339946 0.0008741503598753863 0 -0.020379689706976022 0.00018675235255605988 0 -0.020783845721405254 0.00043007331751100176 0 -0.019781411321907822 0.00053863853774816428 0 -0.020133709649339946 0.0008741503598753863 0 -0.020379689706976022 0.00018675235255605988 0 -0.019912867141984765 0.0010286676598280163 0 -0.016514902655593834 -0.00013128616066195395 0 -0.02790587517820755 0.0030166406174059134 0 -0.025012244355575239 0.0019611768276572555 0 -0.019912867141984765 0.0010286676598280163 0 -0.025012244355575239 0.0019611768276572555 0 -0.024142013453558025 0.00158442346515534 0 -0.02393904051811262 0.0024160396236540677 0 -0.024742643616442232 0.001944954158055552 0 -0.025012244355575239 0.0019611768276572555 0 -0.019387453458595917 -0.00024438149996905011 0 -0.019066895462580606 -0.001320921942038466 0 -0.018719110327371832 -0.0015315761966699861 0 -0.018788038833088997 -0.0014198561542903708 0 -0.019387453458595917 -0.00024438149996905011 0 -0.02225020211251821 2.3208283032588511e-05 0 -0.019387453458595917 -0.00024438149996905011 0 -0.015075724771132023 -0.00082864397308018967 0 -0.019066895462580606 -0.001320921942038466 0 -0.018768469923966104 -0.0013188264260008767 0 -0.018701844038870367 -0.0010766428274780707 0 -0.02325811328291481 0.0016825666289882802 0 -0.023756526449496339 0.0019846127127305401 0 -0.024926212726850611 0.00070858800440882781 0 -0.019066895462580606 -0.001320921942038466 0 -0.018788038833088997 -0.0014198561542903708 0 -0.018768469923966104 -0.0013188264260008767 0 -0.014623813852797624 0.00031938002622990938 0 -0.014644031971500623 -0.00035731086813127315 0 -0.014132282317271505 -0.0004722537435421287 0 -0.014623813852797624 0.00031938002622990938 0 -0.014132282317271505 -0.0004722537435421287 0 -0.013412892592571123 -0.00040637862774885788 0 -0.014644031971500623 -0.00035731086813127315 0 -0.014132282317271505 -0.0004722537435421287 0 -0.014430222624972597 -0.001059669016765205 0 -0.014132282317271505 -0.0004722537435421287 0 -0.013684463345630666 -0.0006707371854266658 0 -0.013412892592571123 -0.00040637862774885788 0 -0.014132282317271505 -0.0004722537435421287 0 -0.013752093475124589 -0.0009751711506688365 0 -0.014430222624972597 -0.001059669016765205 0 -0.014132282317271505 -0.0004722537435421287 0 -0.013752093475124589 -0.0009751711506688365 0 -0.013684463345630666 -0.0006707371854266658 0 -0.015075724771132023 -0.00082864397308018967 0 -0.012066406691456076 -0.0011364484591843316 0 -0.013412892592571123 -0.00040637862774885788 0 -0.012445880002413983 -0.0010887720262483861 0 -0.012813096237090765 -0.00099574293603909994 0 -0.013219252440963671 -0.00084165794176566241 0 -0.013412892592571123 -0.00040637862774885788 0 -0.012813096237090765 -0.00099574293603909994 0 -0.013219252440963671 -0.00084165794176566241 0 -0.012813096237090765 -0.00099574293603909994 0 -0.013205356613426334 -0.0011413488960940593 0 -0.013219252440963671 -0.00084165794176566241 0 -0.013426010686199797 -0.00080877837621189737 0 -0.013205356613426334 -0.0011413488960940593 0 -0.013752093475124589 -0.0009751711506688365 0 -0.013426010686199797 -0.00080877837621189737 0 -0.013205356613426334 -0.0011413488960940593 0 -0.013752093475124589 -0.0009751711506688365 0 -0.013684463345630666 -0.0006707371854266658 0 -0.013426010686199797 -0.00080877837621189737 0 -0.013219252440963671 -0.00084165794176566241 0 -0.013426010686199797 -0.00080877837621189737 0 -0.013412892592571123 -0.00040637862774885788 0 -0.013684463345630666 -0.0006707371854266658 0 -0.013426010686199797 -0.00080877837621189737 0 -0.013412892592571123 -0.00040637862774885788 0 -0.01869718945727001 -0.0014854183518016328 0 -0.018719110327371832 -0.0015315761966699861 0 -0.018788038833088997 -0.0014198561542903708 0 -0.01869718945727001 -0.0014854183518016328 0 -0.018566421440742754 -0.0015121966646384282 0 -0.018683632190315998 -0.0014231047899868935 0 -0.01869718945727001 -0.0014854183518016328 0 -0.018553405054752403 -0.0015641159326247485 0 -0.018566421440742754 -0.0015121966646384282 0 -0.01869718945727001 -0.0014854183518016328 0 -0.018719110327371832 -0.0015315761966699861 0 -0.018553405054752403 -0.0015641159326247485 0 -0.018566421440742754 -0.0015121966646384282 0 -0.018591109134201429 -0.0014350591352571801 0 -0.018458848534335749 -0.0015113934857277171 0 -0.018591109134201429 -0.0014350591352571801 0 -0.01861424960172562 -0.0013393434292015272 0 -0.018683632190315998 -0.0014231047899868935 0 -0.018566421440742754 -0.0015121966646384282 0 -0.018591109134201429 -0.0014350591352571801 0 -0.018683632190315998 -0.0014231047899868935 0 -0.018591109134201429 -0.0014350591352571801 0 -0.01861424960172562 -0.0013393434292015272 0 -0.018502396158325659 -0.0014083179614371062 0 -0.01861424960172562 -0.0013393434292015272 0 -0.018683632190315998 -0.0014231047899868935 0 -0.018768469923966104 -0.0013188264260008767 0 -0.01869718945727001 -0.0014854183518016328 0 -0.018788038833088997 -0.0014198561542903708 0 -0.018683632190315998 -0.0014231047899868935 0 -0.018788038833088997 -0.0014198561542903708 0 -0.018683632190315998 -0.0014231047899868935 0 -0.018768469923966104 -0.0013188264260008767 0 -0.01861424960172562 -0.0013393434292015272 0 -0.018768469923966104 -0.0013188264260008767 0 -0.018701844038870367 -0.0010766428274780707 0 -0.01861424960172562 -0.0013393434292015272 0 -0.018701844038870367 -0.0010766428274780707 0 -0.018481009022850835 -0.0013065470196915057 0 -0.024926212726850611 0.00070858800440882781 0 -0.025174688580764187 0.0010251646398149246 0 -0.026559972928779277 8.4871641908016387e-05 0 -0.023756526449496339 0.0019846127127305401 0 -0.024926212726850611 0.00070858800440882781 0 -0.025174688580764187 0.0010251646398149246 0 -0.030117523614746292 0.0045847038301186265 0 -0.032572185349524753 0.0031540024883238101 0 -0.031150117221080693 0.0028862042646850814 0 -0.025012244355575239 0.0019611768276572555 0 -0.029232587421327162 0.0020679068893399025 0 -0.032572185349524753 0.0031540024883238101 0 -0.031150117221080693 0.0028862042646850814 0 -0.032914748254319309 0.0019051756219212038 0 -0.031744881092505992 0.0027686692209817759 0 -0.032691166092581866 0.0020056586445377309 0 -0.031735069349393477 0.0027140921134207441 0 -0.03213118983688934 0.0018094686170843878 0 -0.032914748254319309 0.0019051756219212038 0 -0.031340786346552241 0.0015013327295608394 0 -0.031735069349393477 0.0027140921134207441 0 -0.03213118983688934 0.0018094686170843878 0 -0.03252288247701729 0.0010987958469758986 0 -0.03213118983688934 0.0018094686170843878 0 -0.032914748254319309 0.0019051756219212038 0 -0.032572185349524753 0.0031540024883238101 0 -0.032914748254319309 0.0019051756219212038 0 -0.034472790733567862 0.0019434141268881194 0 -0.033541235626039653 0.0010071797383635586 0 -0.032914748254319309 0.0019051756219212038 0 -0.034472790733567862 0.0019434141268881194 0 -0.029232587421327162 0.0020679068893399025 0 -0.029410029012759013 0.00053127024834582039 0 -0.024926212726850611 0.00070858800440882781 0 -0.026559972928779277 8.4871641908016387e-05 0 -0.026555650431202928 -0.00024429480109908338 0 -0.022484479674142889 -0.00078731632137000974 0 -0.029410029012759013 0.00053127024834582039 0 -0.017607955540759883 -0.0026594970332266699 0 -0.016719834703580183 -0.0019710538497515087 0 -0.017389739072656004 -0.0014792422609173914 0 -0.026077742121160947 -0.001031191783610769 0 -0.025343331326644826 -0.00051311418284410569 0 -0.025342653851127966 -0.00071899228159655738 0 -0.021736958661640098 -0.001858699558485354 0 -0.022484479674142889 -0.00078731632137000974 0 -0.016719834703580183 -0.0019710538497515087 0 -0.017078839508462923 -0.0011396164216241806 0 -0.016983166534752941 -0.00079575428062383675 0 -0.016719834703580183 -0.0019710538497515087 0 -0.017389739072656004 -0.0014792422609173914 0 -0.017078839508462923 -0.0011396164216241806 0 -0.017389739072656004 -0.0014792422609173914 0 -0.017185169538449126 -0.0010771612786043953 0 -0.017078839508462923 -0.0011396164216241806 0 -0.017389739072656004 -0.0014792422609173914 0 -0.017185169538449126 -0.0010771612786043953 0 -0.017496251964690679 -0.0010029045621944392 0 -0.022484479674142889 -0.00078731632137000974 0 -0.017380395144281132 -0.0013126804922637474 0 -0.018701844038870367 -0.0010766428274780707 0 -0.018368534552127506 -0.0008351791746447697 0 -0.018299330254079472 -0.0012610985509601974 0 -0.02225020211251821 2.3208283032588511e-05 0 -0.022484479674142889 -0.00078731632137000974 0 -0.018701844038870367 -0.0010766428274780707 0 -0.018481009022850835 -0.0013065470196915057 0 -0.018299330254079472 -0.0012610985509601974 0 -0.018299330254079472 -0.0012610985509601974 0 -0.01836214480325753 -0.0014074510492998378 0 -0.018229285178418306 -0.0017273787360226715 0 -0.018481009022850835 -0.0013065470196915057 0 -0.018299330254079472 -0.0012610985509601974 0 -0.01836214480325753 -0.0014074510492998378 0 -0.01861424960172562 -0.0013393434292015272 0 -0.018481009022850835 -0.0013065470196915057 0 -0.018502396158325659 -0.0014083179614371062 0 -0.018481009022850835 -0.0013065470196915057 0 -0.018431841035656489 -0.0013850662240073438 0 -0.018502396158325659 -0.0014083179614371062 0 -0.018481009022850835 -0.0013065470196915057 0 -0.01836214480325753 -0.0014074510492998378 0 -0.018431841035656489 -0.0013850662240073438 0 -0.018431841035656489 -0.0013850662240073438 0 -0.018502396158325659 -0.0014083179614371062 0 -0.018401388724327748 -0.001475837370282683 0 -0.01836214480325753 -0.0014074510492998378 0 -0.018431841035656489 -0.0013850662240073438 0 -0.018401388724327748 -0.001475837370282683 0 -0.018502396158325659 -0.0014083179614371062 0 -0.018458848534335749 -0.0015113934857277171 0 -0.018401388724327748 -0.001475837370282683 0 -0.018591109134201429 -0.0014350591352571801 0 -0.018502396158325659 -0.0014083179614371062 0 -0.018458848534335749 -0.0015113934857277171 0 -0.018566421440742754 -0.0015121966646384282 0 -0.018458848534335749 -0.0015113934857277171 0 -0.018229285178418306 -0.0017273787360226715 0 -0.018553405054752403 -0.0015641159326247485 0 -0.018566421440742754 -0.0015121966646384282 0 -0.018229285178418306 -0.0017273787360226715 0 -0.01836214480325753 -0.0014074510492998378 0 -0.018401388724327748 -0.001475837370282683 0 -0.018229285178418306 -0.0017273787360226715 0 -0.017380395144281132 -0.0013126804922637474 0 -0.015136519648696998 -0.0018116439954801427 0 -0.018719110327371832 -0.0015315761966699861 0 -0.018553405054752403 -0.0015641159326247485 0 -0.018229285178418306 -0.0017273787360226715 0 -0.013498286560363002 -0.00042937626450163596 0 -0.012045910808729169 -0.0010360655678435112 0 -0.012445880002413983 -0.0010887720262483861 0 -0.015075724771132023 -0.00082864397308018967 0 -0.015136519648696998 -0.0018116439954801427 0 -0.018458848534335749 -0.0015113934857277171 0 -0.018401388724327748 -0.001475837370282683 0 -0.018229285178418306 -0.0017273787360226715 0 -0.016983166534752941 -0.00079575428062383675 0 -0.017127556578439652 -0.0027136332791779664 0 -0.016596820263215233 -0.0018694901240261807 0 -0.017127556578439652 -0.0027136332791779664 0 -0.016010849580279807 -0.0025285331586380939 0 -0.015810094534434087 -0.0033704178604941465 0 -0.017127556578439652 -0.0027136332791779664 0 -0.016010849580279807 -0.0025285331586380939 0 -0.016596820263215233 -0.0018694901240261807 0 -0.016596820263215233 -0.0018694901240261807 0 -0.016105344729899045 -0.0014519949753905661 0 -0.015535970682016049 -0.0019281946872599313 0 -0.016010849580279807 -0.0025285331586380939 0 -0.016596820263215233 -0.0018694901240261807 0 -0.015535970682016049 -0.0019281946872599313 0 -0.016105344729899045 -0.0014519949753905661 0 -0.01535330424840959 -0.0013668986867374493 0 -0.015535970682016049 -0.0019281946872599313 0 -0.016105344729899045 -0.0014519949753905661 0 -0.016838946469758337 -0.0008778516245023947 0 -0.01535330424840959 -0.0013668986867374493 0 -0.016596820263215233 -0.0018694901240261807 0 -0.016105344729899045 -0.0014519949753905661 0 -0.016694826747834821 -0.0012376023336473059 0 -0.016983166534752941 -0.00079575428062383675 0 -0.016596820263215233 -0.0018694901240261807 0 -0.016694826747834821 -0.0012376023336473059 0 -0.016105344729899045 -0.0014519949753905661 0 -0.016694826747834821 -0.0012376023336473059 0 -0.016838946469758337 -0.0008778516245023947 0 -0.017185169538449126 -0.0010771612786043953 0 -0.017078839508462923 -0.0011396164216241806 0 -0.016838946469758337 -0.0008778516245023947 0 -0.017078839508462923 -0.0011396164216241806 0 -0.016983166534752941 -0.00079575428062383675 0 -0.016838946469758337 -0.0008778516245023947 0 -0.016983166534752941 -0.00079575428062383675 0 -0.016694826747834821 -0.0012376023336473059 0 -0.016838946469758337 -0.0008778516245023947 0 -0.017185169538449126 -0.0010771612786043953 0 -0.016838946469758337 -0.0008778516245023947 0 -0.017496251964690679 -0.0010029045621944392 0 -0.017496251964690679 -0.0010029045621944392 0 -0.018291307088604158 -0.00068032087129853321 0 -0.018114490414701152 -0.0010196929683841535 0 -0.016838946469758337 -0.0008778516245023947 0 -0.017496251964690679 -0.0010029045621944392 0 -0.018291307088604158 -0.00068032087129853321 0 -0.016941311264282333 -0.00084936402483581008 0 -0.015825154835954869 -0.00074917797104035355 0 -0.016838946469758337 -0.0008778516245023947 0 -0.01535330424840959 -0.0013668986867374493 0 -0.013979775920218639 -0.00079603277885637481 0 -0.01535330424840959 -0.0013668986867374493 0 -0.014311169978514886 -0.0017699433256871098 0 -0.013979775920218639 -0.00079603277885637481 0 -0.01535330424840959 -0.0013668986867374493 0 -0.015535970682016049 -0.0019281946872599313 0 -0.014311169978514886 -0.0017699433256871098 0 -0.015535970682016049 -0.0019281946872599313 0 -0.014311169978514886 -0.0017699433256871098 0 -0.014936373454593655 -0.0027144596106440429 0 -0.014311169978514886 -0.0017699433256871098 0 -0.014936373454593655 -0.0027144596106440429 0 -0.013649754800538207 -0.0025640349676239204 0 -0.016010849580279807 -0.0025285331586380939 0 -0.014936373454593655 -0.0027144596106440429 0 -0.015810094534434087 -0.0033704178604941465 0 -0.016010849580279807 -0.0025285331586380939 0 -0.015535970682016049 -0.0019281946872599313 0 -0.014936373454593655 -0.0027144596106440429 0 -0.013212110285671867 -0.0020365736060277049 0 -0.012906584988951968 -0.0011939198144029542 0 -0.012193042618616569 -0.0021099102026854617 0 -0.013212110285671867 -0.0020365736060277049 0 -0.012643004291046865 -0.0026033849764822751 0 -0.012193042618616569 -0.0021099102026854617 0 -0.014311169978514886 -0.0017699433256871098 0 -0.013649754800538207 -0.0025640349676239204 0 -0.012906584988951968 -0.0011939198144029542 0 -0.013515334510564856 -0.0024376972151372604 0 -0.01291812687365259 -0.0012757426414393756 0 -0.012906584988951968 -0.0011939198144029542 0 -0.013979775920218639 -0.00079603277885637481 0 -0.011743932343395162 -0.00099909251754374292 0 -0.018599527341717763 -0.0007834878838358948 0 -0.018291307088604158 -0.00068032087129853321 0 -0.018114490414701152 -0.0010196929683841535 0 -0.018599527341717763 -0.0007834878838358948 0 -0.018291307088604158 -0.00068032087129853321 0 -0.018999758142070843 -0.00070060145263417084 0 -0.019249401744038688 -0.00068338393201652719 0 -0.018042750391700578 -0.0010197477886998312 0 -0.015825154835954869 -0.00074917797104035355 0 -0.016716552898922571 -0.0009692580157588316 0 -0.014311169978514886 -0.0017699433256871098 0 -0.012906584988951968 -0.0011939198144029542 0 -0.013979775920218639 -0.00079603277885637481 0 -0.019038017353366809 -0.00078335135243871835 0 -0.018770651171259176 -0.0014275994169915469 0 -0.018114490414701152 -0.0010196929683841535 0 -0.019038017353366809 -0.00078335135243871835 0 -0.018770651171259176 -0.0014275994169915469 0 -0.019622050821945736 -0.0014274077283771747 0 -0.018770651171259176 -0.0014275994169915469 0 -0.018945493893323735 -0.0020883775940435689 0 -0.019622050821945736 -0.0014274077283771747 0 -0.018770651171259176 -0.0014275994169915469 0 -0.01812069318724319 -0.0017882897382428074 0 -0.018945493893323735 -0.0020883775940435689 0 -0.018114490414701152 -0.0010196929683841535 0 -0.017758267279581633 -0.0013092824034900078 0 -0.01812069318724319 -0.0017882897382428074 0 -0.017496251964690679 -0.0010029045621944392 0 -0.018114490414701152 -0.0010196929683841535 0 -0.017758267279581633 -0.0013092824034900078 0 -0.017389739072656004 -0.0014792422609173914 0 -0.017496251964690679 -0.0010029045621944392 0 -0.017758267279581633 -0.0013092824034900078 0 -0.017389739072656004 -0.0014792422609173914 0 -0.017758267279581633 -0.0013092824034900078 0 -0.01812069318724319 -0.0017882897382428074 0 -0.018770651171259176 -0.0014275994169915469 0 -0.018114490414701152 -0.0010196929683841535 0 -0.01812069318724319 -0.0017882897382428074 0 -0.017607955540759883 -0.0026594970332266699 0 -0.01812069318724319 -0.0017882897382428074 0 -0.018390235223783018 -0.0025403660553649601 0 -0.017607955540759883 -0.0026594970332266699 0 -0.017389739072656004 -0.0014792422609173914 0 -0.01812069318724319 -0.0017882897382428074 0 -0.019053671393593218 -0.0027956380823030637 0 -0.018390235223783018 -0.0025403660553649601 0 -0.018945493893323735 -0.0020883775940435689 0 -0.01812069318724319 -0.0017882897382428074 0 -0.018390235223783018 -0.0025403660553649601 0 -0.018945493893323735 -0.0020883775940435689 0 -0.010953068666851695 -0.0039002811173836794 0 -0.010951753872821976 -0.0042504396724581056 0 -0.010705859994854837 -0.0041341169696684776 0 -0.010953068666851695 -0.0039002811173836794 0 -0.011357415696324417 -0.0040837660830876626 0 -0.011295529394241017 -0.0037499647904676728 0 -0.010953068666851695 -0.0039002811173836794 0 -0.011357415696324417 -0.0040837660830876626 0 -0.010951753872821976 -0.0042504396724581056 0 -0.011357415696324417 -0.0040837660830876626 0 -0.011295529394241017 -0.0037499647904676728 0 -0.011747424398242843 -0.0036900658579190797 0 -0.011295529394241017 -0.0037499647904676728 0 -0.011074088393378522 -0.0036571244065464123 0 -0.011352925490749297 -0.0035571769568839211 0 -0.010953068666851695 -0.0039002811173836794 0 -0.011295529394241017 -0.0037499647904676728 0 -0.011074088393378522 -0.0036571244065464123 0 -0.010953068666851695 -0.0039002811173836794 0 -0.011074088393378522 -0.0036571244065464123 0 -0.01091049647300046 -0.0037258603816984924 0 -0.011074088393378522 -0.0036571244065464123 0 -0.01096142065027182 -0.0035591603163542484 0 -0.01091049647300046 -0.0037258603816984924 0 -0.011074088393378522 -0.0036571244065464123 0 -0.011189405697382342 -0.0033934866662693043 0 -0.01096142065027182 -0.0035591603163542484 0 -0.012666192887184242 -0.0029706824169799498 0 -0.011661764025828587 -0.0034836258099684644 0 -0.013212110285671867 -0.0020365736060277049 0 -0.012643004291046865 -0.0026033849764822751 0 -0.013687013337835108 -0.0029148739474719951 0 -0.012643004291046865 -0.0026033849764822751 0 -0.013687013337835108 -0.0029148739474719951 0 -0.012469047958817184 -0.0033853314539424766 0 -0.013515334510564856 -0.0024376972151372604 0 -0.012666192887184242 -0.0029706824169799498 0 -0.011063328059151598 -0.0021971616128530018 0 -0.011412422924372893 -0.0028787507748013271 0 -0.011583988540786232 -0.001978713908446761 0 -0.014936373454593655 -0.0027144596106440429 0 -0.01443059341920923 -0.0039395376778101968 0 -0.015810094534434087 -0.0033704178604941465 0 -0.012666192887184242 -0.0029706824169799498 0 -0.013600830292691114 -0.0026923401312920229 0 -0.014936373454593655 -0.0027144596106440429 0 -0.013649754800538207 -0.0025640349676239204 0 -0.01443059341920923 -0.0039395376778101968 0 -0.012666192887184242 -0.0029706824169799498 0 -0.011229914569239918 -0.0031132758420236656 0 -0.011074088393378522 -0.0036571244065464123 0 -0.011189405697382342 -0.0033934866662693043 0 -0.011352925490749297 -0.0035571769568839211 0 -0.011412422924372893 -0.0028787507748013271 0 -0.012069892357058761 -0.0025530556335792371 0 -0.01201973660338755 -0.0033673309604636235 0 -0.011412422924372893 -0.0028787507748013271 0 -0.011583988540786232 -0.001978713908446761 0 -0.012069892357058761 -0.0025530556335792371 0 -0.011827694582362987 -0.0023161934571522356 0 -0.012051224641223032 -0.0033129107721346172 0 -0.012127859279755817 -0.0017596593550326053 0 -0.011583988540786232 -0.001978713908446761 0 -0.012069892357058761 -0.0025530556335792371 0 -0.015136519648696998 -0.0018116439954801427 0 -0.013600830292691114 -0.0026923401312920229 0 -0.015136519648696998 -0.0018116439954801427 0 -0.011827694582362987 -0.0023161934571522356 0 -0.012045910808729169 -0.0010360655678435112 0 -0.012716371541768709 -0.0018343958275980545 0 -0.012021117926456139 -0.0022014681663530531 0 -0.012445880002413983 -0.0010887720262483861 0 -0.012716371541768709 -0.0018343958275980545 0 -0.012851722883278844 -0.0013798272035984189 0 -0.012445880002413983 -0.0010887720262483861 0 -0.012813096237090765 -0.00099574293603909994 0 -0.012851722883278844 -0.0013798272035984189 0 -0.012045910808729169 -0.0010360655678435112 0 -0.012445880002413983 -0.0010887720262483861 0 -0.012716371541768709 -0.0018343958275980545 0 -0.012716371541768709 -0.0018343958275980545 0 -0.012021117926456139 -0.0022014681663530531 0 -0.012819361071022779 -0.0026008352359057642 0 -0.012021117926456139 -0.0022014681663530531 0 -0.012371958757795823 -0.0028855384575544388 0 -0.012819361071022779 -0.0026008352359057642 0 -0.012021117926456139 -0.0022014681663530531 0 -0.012371958757795823 -0.0028855384575544388 0 -0.01201973660338755 -0.0033673309604636235 0 -0.012605877986775789 -0.0033441256361075988 0 -0.012371958757795823 -0.0028855384575544388 0 -0.012819361071022779 -0.0026008352359057642 0 -0.012605877986775789 -0.0033441256361075988 0 -0.012371958757795823 -0.0028855384575544388 0 -0.01201973660338755 -0.0033673309604636235 0 -0.012605877986775789 -0.0033441256361075988 0 -0.01201973660338755 -0.0033673309604636235 0 -0.012142630315576077 -0.0036837627476399228 0 -0.011229914569239918 -0.0031132758420236656 0 -0.011766211044320886 -0.0037404602108309279 0 -0.011412422924372893 -0.0028787507748013271 0 -0.01201973660338755 -0.0033673309604636235 0 -0.011747424398242843 -0.0036900658579190797 0 -0.011295529394241017 -0.0037499647904676728 0 -0.011352925490749297 -0.0035571769568839211 0 -0.011747424398242843 -0.0036900658579190797 0 -0.01201973660338755 -0.0033673309604636235 0 -0.011747424398242843 -0.0036900658579190797 0 -0.012142630315576077 -0.0036837627476399228 0 -0.011747424398242843 -0.0036900658579190797 0 -0.011923843998721912 -0.0040527746540098024 0 -0.012142630315576077 -0.0036837627476399228 0 -0.011357415696324417 -0.0040837660830876626 0 -0.011747424398242843 -0.0036900658579190797 0 -0.011923843998721912 -0.0040527746540098024 0 -0.011923843998721912 -0.0040527746540098024 0 -0.012448915898664982 -0.0039055538631904254 0 -0.0122841134682833 -0.0043270420504265559 0 -0.012448915898664982 -0.0039055538631904254 0 -0.012753096030595835 -0.0042143689102783878 0 -0.0122841134682833 -0.0043270420504265559 0 -0.012448915898664982 -0.0039055538631904254 0 -0.013100879322734221 -0.003750926804310268 0 -0.012753096030595835 -0.0042143689102783878 0 -0.012605877986775789 -0.0033441256361075988 0 -0.012448915898664982 -0.0039055538631904254 0 -0.013100879322734221 -0.003750926804310268 0 -0.012605877986775789 -0.0033441256361075988 0 -0.012448915898664982 -0.0039055538631904254 0 -0.012142630315576077 -0.0036837627476399228 0 -0.011923843998721912 -0.0040527746540098024 0 -0.012448915898664982 -0.0039055538631904254 0 -0.012142630315576077 -0.0036837627476399228 0 -0.013100879322734221 -0.003750926804310268 0 -0.01338631864375007 -0.0044345356055067089 0 -0.012753096030595835 -0.0042143689102783878 0 -0.013100879322734221 -0.003750926804310268 0 -0.01375427325673005 -0.0038087638923946037 0 -0.01338631864375007 -0.0044345356055067089 0 -0.013100879322734221 -0.003750926804310268 0 -0.01375427325673005 -0.0038087638923946037 0 -0.013414026133482571 -0.0031440201195148229 0 -0.01375427325673005 -0.0038087638923946037 0 -0.014537843708411179 -0.0033725337538171923 0 -0.014173306977016761 -0.0045009511124329982 0 -0.01375427325673005 -0.0038087638923946037 0 -0.013955911279708934 -0.0032683566377473962 0 -0.014537843708411179 -0.0033725337538171923 0 -0.01375427325673005 -0.0038087638923946037 0 -0.013955911279708934 -0.0032683566377473962 0 -0.013414026133482571 -0.0031440201195148229 0 -0.013955911279708934 -0.0032683566377473962 0 -0.014119057548324918 -0.0027371958989841948 0 -0.014537843708411179 -0.0033725337538171923 0 -0.013414026133482571 -0.0031440201195148229 0 -0.013476043532553321 -0.0024767709489863527 0 -0.014119057548324918 -0.0027371958989841948 0 -0.013955911279708934 -0.0032683566377473962 0 -0.013414026133482571 -0.0031440201195148229 0 -0.014119057548324918 -0.0027371958989841948 0 -0.012605877986775789 -0.0033441256361075988 0 -0.013414026133482571 -0.0031440201195148229 0 -0.012819361071022779 -0.0026008352359057642 0 -0.012605877986775789 -0.0033441256361075988 0 -0.013100879322734221 -0.003750926804310268 0 -0.013414026133482571 -0.0031440201195148229 0 -0.013414026133482571 -0.0031440201195148229 0 -0.012819361071022779 -0.0026008352359057642 0 -0.013476043532553321 -0.0024767709489863527 0 -0.012716371541768709 -0.0018343958275980545 0 -0.013476043532553321 -0.0024767709489863527 0 -0.013470838500591392 -0.0017939563229800587 0 -0.012716371541768709 -0.0018343958275980545 0 -0.012819361071022779 -0.0026008352359057642 0 -0.013476043532553321 -0.0024767709489863527 0 -0.012716371541768709 -0.0018343958275980545 0 -0.013470838500591392 -0.0017939563229800587 0 -0.012851722883278844 -0.0013798272035984189 0 -0.013752093475124589 -0.0009751711506688365 0 -0.013470838500591392 -0.0017939563229800587 0 -0.013205356613426334 -0.0011413488960940593 0 -0.013470838500591392 -0.0017939563229800587 0 -0.013205356613426334 -0.0011413488960940593 0 -0.012851722883278844 -0.0013798272035984189 0 -0.012813096237090765 -0.00099574293603909994 0 -0.013205356613426334 -0.0011413488960940593 0 -0.012851722883278844 -0.0013798272035984189 0 -0.014147601598652507 -0.0010301561038946409 0 -0.013470838500591392 -0.0017939563229800587 0 -0.014111546125454592 -0.0019769746012099922 0 -0.014147601598652507 -0.0010301561038946409 0 -0.014111546125454592 -0.0019769746012099922 0 -0.014622773314677711 -0.0015784220313009491 0 -0.013752093475124589 -0.0009751711506688365 0 -0.014430222624972597 -0.001059669016765205 0 -0.013470838500591392 -0.0017939563229800587 0 -0.014114502151057055 -0.00115823206977087 0 -0.013615875636867635 -0.001667800954864025 0 -0.013476043532553321 -0.0024767709489863527 0 -0.013470838500591392 -0.0017939563229800587 0 -0.014111546125454592 -0.0019769746012099922 0 -0.013476043532553321 -0.0024767709489863527 0 -0.014111546125454592 -0.0019769746012099922 0 -0.014119057548324918 -0.0027371958989841948 0 -0.014119057548324918 -0.0027371958989841948 0 -0.014718639910674089 -0.0027407918495003687 0 -0.014845114066004139 -0.0022162109570567543 0 -0.014718639910674089 -0.0027407918495003687 0 -0.014845114066004139 -0.0022162109570567543 0 -0.015369794133588429 -0.0026334718783534048 0 -0.014984130423640746 -0.0022980120482978387 0 -0.015477938329837283 -0.0024654312038387286 0 -0.014845114066004139 -0.0022162109570567543 0 -0.015185595016928668 -0.0016642178780909866 0 -0.01544867213373834 -0.0021748451137036584 0 -0.014111546125454592 -0.0019769746012099922 0 -0.014119057548324918 -0.0027371958989841948 0 -0.014845114066004139 -0.0022162109570567543 0 -0.014111546125454592 -0.0019769746012099922 0 -0.014845114066004139 -0.0022162109570567543 0 -0.014622773314677711 -0.0015784220313009491 0 -0.014845114066004139 -0.0022162109570567543 0 -0.014622773314677711 -0.0015784220313009491 0 -0.015185595016928668 -0.0016642178780909866 0 -0.014894569074515005 -0.0010725462790550525 0 -0.014622773314677711 -0.0015784220313009491 0 -0.015185595016928668 -0.0016642178780909866 0 -0.014894569074515005 -0.0010725462790550525 0 -0.015185595016928668 -0.0016642178780909866 0 -0.015536237454343528 -0.0012078496392850066 0 -0.014894569074515005 -0.0010725462790550525 0 -0.014147601598652507 -0.0010301561038946409 0 -0.014622773314677711 -0.0015784220313009491 0 -0.016243822234963644 -0.001948335760236344 0 -0.016746679088632695 -0.0013943901826691822 0 -0.015703113363832941 -0.0018177119619080973 0 -0.015927111361188177 -0.0024343912497453908 0 -0.016251849482328742 -0.0014367834283715575 0 -0.015536237454343528 -0.0012078496392850066 0 -0.015703113363832941 -0.0018177119619080973 0 -0.016251849482328742 -0.0014367834283715575 0 -0.016199940503835671 -0.0010170192135959015 0 -0.015536237454343528 -0.0012078496392850066 0 -0.016251849482328742 -0.0014367834283715575 0 -0.015185595016928668 -0.0016642178780909866 0 -0.015703113363832941 -0.0018177119619080973 0 -0.01544867213373834 -0.0021748451137036584 0 -0.015185595016928668 -0.0016642178780909866 0 -0.015536237454343528 -0.0012078496392850066 0 -0.015703113363832941 -0.0018177119619080973 0 -0.014845114066004139 -0.0022162109570567543 0 -0.01544867213373834 -0.0021748451137036584 0 -0.015588886030274357 -0.0027844929458083439 0 -0.015703113363832941 -0.0018177119619080973 0 -0.015927111361188177 -0.0024343912497453908 0 -0.01544867213373834 -0.0021748451137036584 0 -0.015927111361188177 -0.0024343912497453908 0 -0.01544867213373834 -0.0021748451137036584 0 -0.015588886030274357 -0.0027844929458083439 0 -0.015165645890755117 -0.0027171469909094748 0 -0.015288161785265441 -0.0028089503286126065 0 -0.015204277497922232 -0.0029065865381254852 0 -0.015477938329837283 -0.0024654312038387286 0 -0.015760393597339457 -0.0022245713357096817 0 -0.016050523927941544 -0.0010914293892980071 0 -0.015970547192272748 -0.0013371644998649403 0 -0.016226412896145782 -0.001225106880057097 0 -0.016243822234963644 -0.001948335760236344 0 -0.015760393597339457 -0.0022245713357096817 0 -0.016243822234963644 -0.001948335760236344 0 -0.015477938329837283 -0.0024654312038387286 0 -0.016022484515908639 -0.0020700711633856125 0 -0.015799693666986421 -0.0022965906682147087 0 -0.015920677655927716 -0.0023867150069582376 0 -0.015288161785265441 -0.0028089503286126065 0 -0.015297555823206722 -0.0029910839446381401 0 -0.015680496867641763 -0.0030947901726018825 0 -0.015760393597339457 -0.0022245713357096817 0 -0.014562811464933025 -0.0014344590421848324 0 -0.015970547192272748 -0.0013371644998649403 0 -0.016226412896145782 -0.001225106880057097 0 -0.016268278134738964 -0.0015581422348934218 0 -0.012520346440142643 -0.0020908631379277075 0 -0.014562811464933025 -0.0014344590421848324 0 -0.015297555823206722 -0.0029910839446381401 0 -0.015218811785697742 -0.0032440265548164295 0 -0.015680496867641763 -0.0030947901726018825 0 -0.015218811785697742 -0.0032440265548164295 0 -0.014984688545509184 -0.0037808198428648031 0 -0.015680496867641763 -0.0030947901726018825 0 -0.015000255354464835 -0.0033328546934635931 0 -0.015218811785697742 -0.0032440265548164295 0 -0.014984688545509184 -0.0037808198428648031 0 -0.015000255354464835 -0.0033328546934635931 0 -0.015218811785697742 -0.0032440265548164295 0 -0.015069207966089293 -0.0030956203657912795 0 -0.015165645890755117 -0.0027171469909094748 0 -0.015069207966089293 -0.0030956203657912795 0 -0.015204277497922232 -0.0029065865381254852 0 -0.015297555823206722 -0.0029910839446381401 0 -0.015069207966089293 -0.0030956203657912795 0 -0.015204277497922232 -0.0029065865381254852 0 -0.015297555823206722 -0.0029910839446381401 0 -0.015218811785697742 -0.0032440265548164295 0 -0.015069207966089293 -0.0030956203657912795 0 -0.015288161785265441 -0.0028089503286126065 0 -0.015297555823206722 -0.0029910839446381401 0 -0.015204277497922232 -0.0029065865381254852 0 -0.015477938329837283 -0.0024654312038387286 0 -0.01451791810652771 -0.0034036702646148284 0 -0.014718639910674089 -0.0027407918495003687 0 -0.015369794133588429 -0.0026334718783534048 0 -0.014537843708411179 -0.0033725337538171923 0 -0.015165645890755117 -0.0027171469909094748 0 -0.015069207966089293 -0.0030956203657912795 0 -0.014537843708411179 -0.0033725337538171923 0 -0.014119057548324918 -0.0027371958989841948 0 -0.014718639910674089 -0.0027407918495003687 0 -0.014537843708411179 -0.0033725337538171923 0 -0.015000255354464835 -0.0033328546934635931 0 -0.015069207966089293 -0.0030956203657912795 0 -0.014537843708411179 -0.0033725337538171923 0 -0.014537843708411179 -0.0033725337538171923 0 -0.014984688545509184 -0.0037808198428648031 0 -0.014173306977016761 -0.0045009511124329982 0 -0.012520346440142643 -0.0020908631379277075 0 -0.011783136472349872 -0.0028520692029323259 0 -0.015000255354464835 -0.0033328546934635931 0 -0.014537843708411179 -0.0033725337538171923 0 -0.014984688545509184 -0.0037808198428648031 0 -0.011096290218191061 -0.00011525730542703207 0 -0.010356639997842408 -0.00032479730579138076 0 -0.010799009670729103 -0.00089025820173946834 0 -0.011096290218191061 -0.00011525730542703207 0 -0.010356639997842408 -0.00032479730579138076 0 -0.011384679792283426 0.00059767539384131729 0 -0.011096290218191061 -0.00011525730542703207 0 -0.010799009670729103 -0.00089025820173946834 0 -0.011639712666538132 -0.00076851368903750356 0 -0.010799009670729103 -0.00089025820173946834 0 -0.010220018739814214 -0.0012546656161827386 0 -0.010749536941904605 -0.0018431919678099805 0 -0.010356639997842408 -0.00032479730579138076 0 -0.010799009670729103 -0.00089025820173946834 0 -0.010220018739814214 -0.0012546656161827386 0 -0.01061991549073245 -0.0016905430836515075 0 -0.0127933184964819 -0.00021445717635383701 0 -0.010799009670729103 -0.00089025820173946834 0 -0.010749536941904605 -0.0018431919678099805 0 -0.011639712666538132 -0.00076851368903750356 0 -0.010220018739814214 -0.0012546656161827386 0 -0.0098595777598609064 -0.0019550275074633437 0 -0.010749536941904605 -0.0018431919678099805 0 -0.010356639997842408 -0.00032479730579138076 0 -0.010220018739814214 -0.0012546656161827386 0 -0.0093456424030089833 -0.0012517805037902492 0 -0.010220018739814214 -0.0012546656161827386 0 -0.0098595777598609064 -0.0019550275074633437 0 -0.0093456424030089833 -0.0012517805037902492 0 -0.0098595777598609064 -0.0019550275074633437 0 -0.0098484148365912526 -0.0028689556169056722 0 -0.0092147377127558237 -0.0024014874094290327 0 -0.0098595777598609064 -0.0019550275074633437 0 -0.010749536941904605 -0.0018431919678099805 0 -0.0098484148365912526 -0.0028689556169056722 0 -0.0098595777598609064 -0.0019550275074633437 0 -0.0092147377127558237 -0.0024014874094290327 0 -0.0093456424030089833 -0.0012517805037902492 0 -0.01080368679060908 -0.0013504034902003803 0 -0.010744045892444598 -0.0023285518148460842 0 -0.0098538249507640167 -0.0025959834211422795 0 -0.01061991549073245 -0.0016905430836515075 0 -0.0098739033588207542 -0.0027108182201952603 0 -0.01080368679060908 -0.0013504034902003803 0 -0.010744045892444598 -0.0023285518148460842 0 -0.011780830911215673 -0.0022599763318136069 0 -0.0095390995684651869 -0.0024852600671453353 0 -0.012201684479103768 -0.0013012504061466841 0 -0.010744045892444598 -0.0023285518148460842 0 -0.010592520685377776 -0.0031833870136289081 0 -0.011780830911215673 -0.0022599763318136069 0 -0.010744045892444598 -0.0023285518148460842 0 -0.010592520685377776 -0.0031833870136289081 0 -0.0098538249507640167 -0.0025959834211422795 0 -0.0085267568844007088 -0.0017563909691836609 0 -0.0098236552911054372 -0.002293891195295039 0 -0.0085217399370822334 -0.0033158133024986719 0 -0.0094638629381236794 -0.004064293043791049 0 -0.0098538249507640167 -0.0025959834211422795 0 -0.0089983571051885508 -0.0037650230006336122 0 -0.010592520685377776 -0.0031833870136289081 0 -0.0094638629381236794 -0.004064293043791049 0 -0.0098538249507640167 -0.0025959834211422795 0 -0.0095390995684651869 -0.0024852600671453353 0 -0.0070730997632281849 -0.0035485582316212602 0 -0.0085267568844007088 -0.0017563909691836609 0 -0.0072252999862122387 -0.0027860352734399574 0 -0.0085217399370822334 -0.0033158133024986719 0 -0.0098739033588207542 -0.0027108182201952603 0 -0.0090559496211500001 -0.0037029496997342606 0 -0.0098484148365912526 -0.0028689556169056722 0 -0.0091680201727869382 -0.0031361593060008027 0 -0.0089983571051885508 -0.0037650230006336122 0 -0.0098484148365912526 -0.0028689556169056722 0 -0.0091680201727869382 -0.0031361593060008027 0 -0.0092147377127558237 -0.0024014874094290327 0 -0.0085859434119788768 -0.0028387312954927329 0 -0.0091680201727869382 -0.0031361593060008027 0 -0.0092147377127558237 -0.0024014874094290327 0 -0.0085859434119788768 -0.0028387312954927329 0 -0.0087910046366833361 -0.0032382037136290806 0 -0.0085154387824550471 -0.0034893338838890009 0 -0.0085859434119788768 -0.0028387312954927329 0 -0.0087910046366833361 -0.0032382037136290806 0 -0.0091680201727869382 -0.0031361593060008027 0 -0.0087910046366833361 -0.0032382037136290806 0 -0.0091680201727869382 -0.0031361593060008027 0 -0.0087826507586703552 -0.0034750485857062492 0 -0.0070730997632281849 -0.0035485582316212602 0 -0.0090914358550094158 -0.0037871780109729248 0 -0.0094638629381236794 -0.004064293043791049 0 -0.0084867346286534029 -0.0035550699531528445 0 -0.0089983571051885508 -0.0037650230006336122 0 -0.0091680201727869382 -0.0031361593060008027 0 -0.0087826507586703552 -0.0034750485857062492 0 -0.0089983571051885508 -0.0037650230006336122 0 -0.0087826507586703552 -0.0034750485857062492 0 -0.0084867346286534029 -0.0035550699531528445 0 -0.0089983571051885508 -0.0037650230006336122 0 -0.0087910046366833361 -0.0032382037136290806 0 -0.0087826507586703552 -0.0034750485857062492 0 -0.0085154387824550471 -0.0034893338838890009 0 -0.0087826507586703552 -0.0034750485857062492 0 -0.0085154387824550471 -0.0034893338838890009 0 -0.0084867346286534029 -0.0035550699531528445 0 -0.0085912922542442319 -0.0035091985911166516 0 -0.008749776794121077 -0.0034346850191234895 0 -0.0086005541166611892 -0.0033539948761895865 0 -0.0084867346286534029 -0.0035550699531528445 0 -0.0085912922542442319 -0.0035091985911166516 0 -0.0086005541166611892 -0.0033539948761895865 0 -0.0085154387824550471 -0.0034893338838890009 0 -0.0084867346286534029 -0.0035550699531528445 0 -0.0085912922542442319 -0.0035091985911166516 0 -0.0085154387824550471 -0.0034893338838890009 0 -0.0085912922542442319 -0.0035091985911166516 0 -0.0087065535871625032 -0.0036912267127178801 0 -0.0085859434119788768 -0.0028387312954927329 0 -0.0083888428530529136 -0.0021515358707548614 0 -0.0074991097803712766 -0.0030063688118672455 0 -0.007920248301023192 -0.0032568905285460643 0 -0.0096041327855119259 -0.0038525981590770749 0 -0.010905883807628199 -0.0036948071363131301 0 -0.0096041327855119259 -0.0038525981590770749 0 -0.0085859434119788768 -0.0028387312954927329 0 -0.0085154387824550471 -0.0034893338838890009 0 -0.0074991097803712766 -0.0030063688118672455 0 -0.013344041432469532 -0.0051444565675463644 0 -0.012570063729196727 -0.0048322397481034571 0 -0.012594520108503706 -0.005739356929398867 0 -0.0083888428530529136 -0.0021515358707548614 0 -0.0092147377127558237 -0.0024014874094290327 0 -0.0093456424030089833 -0.0012517805037902492 0 -0.0085859434119788768 -0.0028387312954927329 0 -0.0083888428530529136 -0.0021515358707548614 0 -0.0092147377127558237 -0.0024014874094290327 0 -0.010905883807628199 -0.0036948071363131301 0 -0.011783136472349872 -0.0028520692029323259 0 -0.01375427325673005 -0.0038087638923946037 0 -0.014173306977016761 -0.0045009511124329982 0 -0.01338631864375007 -0.0044345356055067089 0 -0.013344041432469532 -0.0051444565675463644 0 -0.014173306977016761 -0.0045009511124329982 0 -0.01338631864375007 -0.0044345356055067089 0 -0.01338631864375007 -0.0044345356055067089 0 -0.012753096030595835 -0.0042143689102783878 0 -0.012570063729196727 -0.0048322397481034571 0 -0.013344041432469532 -0.0051444565675463644 0 -0.01338631864375007 -0.0044345356055067089 0 -0.012570063729196727 -0.0048322397481034571 0 -0.0122841134682833 -0.0043270420504265559 0 -0.011863266379288384 -0.0045387898571209954 0 -0.012570063729196727 -0.0048322397481034571 0 -0.012753096030595835 -0.0042143689102783878 0 -0.0122841134682833 -0.0043270420504265559 0 -0.012570063729196727 -0.0048322397481034571 0 -0.011357415696324417 -0.0040837660830876626 0 -0.011923843998721912 -0.0040527746540098024 0 -0.011863266379288384 -0.0045387898571209954 0 -0.011923843998721912 -0.0040527746540098024 0 -0.0122841134682833 -0.0043270420504265559 0 -0.011863266379288384 -0.0045387898571209954 0 -0.011357415696324417 -0.0040837660830876626 0 -0.011863266379288384 -0.0045387898571209954 0 -0.011379553095612581 -0.0045232632143815572 0 -0.011863266379288384 -0.0045387898571209954 0 -0.011841775369686133 -0.0053531408113713479 0 -0.012570063729196727 -0.0048322397481034571 0 -0.011863266379288384 -0.0045387898571209954 0 -0.011841775369686133 -0.0053531408113713479 0 -0.011379553095612581 -0.0045232632143815572 0 -0.011841775369686133 -0.0053531408113713479 0 -0.012570063729196727 -0.0048322397481034571 0 -0.012594520108503706 -0.005739356929398867 0 -0.010709286662548553 -0.0048557017076024545 0 -0.0096041327855119259 -0.0038525981590770749 0 -0.0091081733472662373 -0.0041041851716776944 0 -0.0086395878610466756 -0.0038936620172990198 0 -0.0090117015081917096 -0.0035053426806613015 0 -0.0087065535871625032 -0.0036912267127178801 0 -0.008749776794121077 -0.0034346850191234895 0 -0.0090117015081917096 -0.0035053426806613015 0 -0.0096041327855119259 -0.0038525981590770749 0 -0.0087281229663726725 -0.0036082571344930128 0 -0.008749776794121077 -0.0034346850191234895 0 -0.0090117015081917096 -0.0035053426806613015 0 -0.0088136719465268139 -0.0031809624899314373 0 -0.0085912922542442319 -0.0035091985911166516 0 -0.0087065535871625032 -0.0036912267127178801 0 -0.008749776794121077 -0.0034346850191234895 0 -0.0091081733472662373 -0.0041041851716776944 0 -0.0090117015081917096 -0.0035053426806613015 0 -0.009591343652325602 -0.0037199831179619957 0 -0.0091081733472662373 -0.0041041851716776944 0 -0.009591343652325602 -0.0037199831179619957 0 -0.0096625172423634512 -0.0043057106102992486 0 -0.0090117015081917096 -0.0035053426806613015 0 -0.009591343652325602 -0.0037199831179619957 0 -0.0092809635893315156 -0.0033080862711804037 0 -0.009591343652325602 -0.0037199831179619957 0 -0.00967883395079756 -0.003369090014019977 0 -0.0092809635893315156 -0.0033080862711804037 0 -0.009591343652325602 -0.0037199831179619957 0 -0.00967883395079756 -0.003369090014019977 0 -0.010149339156632216 -0.0036292398927451103 0 -0.009591343652325602 -0.0037199831179619957 0 -0.010210573546671767 -0.004049049290839879 0 -0.010149339156632216 -0.0036292398927451103 0 -0.009591343652325602 -0.0037199831179619957 0 -0.010210573546671767 -0.004049049290839879 0 -0.0096625172423634512 -0.0043057106102992486 0 -0.010210573546671767 -0.004049049290839879 0 -0.0096625172423634512 -0.0043057106102992486 0 -0.010472508004231168 -0.0044189279371324407 0 -0.010374365211689583 -0.0045793344381776235 0 -0.010465165195928839 -0.0044778085180138165 0 -0.010709286662548553 -0.0048557017076024545 0 -0.010374365211689583 -0.0045793344381776235 0 -0.011841775369686133 -0.0053531408113713479 0 -0.011159060294707687 -0.0049335313972891518 0 -0.011379553095612581 -0.0045232632143815572 0 -0.011159060294707687 -0.0049335313972891518 0 -0.011379553095612581 -0.0045232632143815572 0 -0.010951753872821976 -0.0042504396724581056 0 -0.011357415696324417 -0.0040837660830876626 0 -0.011379553095612581 -0.0045232632143815572 0 -0.010951753872821976 -0.0042504396724581056 0 -0.011159060294707687 -0.0049335313972891518 0 -0.010951753872821976 -0.0042504396724581056 0 -0.010472508004231168 -0.0044189279371324407 0 -0.010951753872821976 -0.0042504396724581056 0 -0.010472508004231168 -0.0044189279371324407 0 -0.010705859994854837 -0.0041341169696684776 0 -0.025669868580703643 4.4421729720497488e-05 0 -0.025994225196645522 0.00012474037792045925 0 -0.02537000763324776 0.00033715152726702773 0 -0.025669868580703643 4.4421729720497488e-05 0 -0.025994225196645522 0.00012474037792045925 0 -0.026120853362617047 -0.00011289248867406804 0 -0.025669868580703643 4.4421729720497488e-05 0 -0.02537000763324776 0.00033715152726702773 0 -0.024950283362313433 5.0711056325752428e-05 0 -0.025669868580703643 4.4421729720497488e-05 0 -0.024950283362313433 5.0711056325752428e-05 0 -0.025678766273788147 -7.2195460822919519e-05 0 -0.026257866322462586 2.9284023420914008e-05 0 -0.026120853362617047 -0.00011289248867406804 0 -0.026278356489717575 -3.8920856129195538e-05 0 -0.026797912503698444 0.00024220710495589362 0 -0.025909132871063584 -0.00023335320438287111 0 -0.026257866322462586 2.9284023420914008e-05 0 -0.026278356489717575 -3.8920856129195538e-05 0 -0.026287722833351731 1.611264552973789e-06 0 -0.026797912503698444 0.00024220710495589362 0 -0.021410692217835051 0.001207213544701824 0 -0.025994225196645522 0.00012474037792045925 0 -0.025523604938749413 0.0010360298195092059 0 -0.026062503600308151 0.0012455314922979958 0 -0.025994225196645522 0.00012474037792045925 0 -0.026684798355314374 0.0011452689595315979 0 -0.026062503600308151 0.0012455314922979958 0 -0.025523604938749413 0.0010360298195092059 0 -0.02537000763324776 0.00033715152726702773 0 -0.024453273682341906 0.00065786887235131687 0 -0.02537000763324776 0.00033715152726702773 0 -0.024453273682341906 0.00065786887235131687 0 -0.024950283362313433 5.0711056325752428e-05 0 -0.025994225196645522 0.00012474037792045925 0 -0.025523604938749413 0.0010360298195092059 0 -0.02537000763324776 0.00033715152726702773 0 -0.024453273682341906 0.00065786887235131687 0 -0.023755707170998727 0.0001248731437948786 0 -0.024950283362313433 5.0711056325752428e-05 0 -0.024453273682341906 0.00065786887235131687 0 -0.023755707170998727 0.0001248731437948786 0 -0.02229993677262208 0.0003893994857492438 0 -0.023755707170998727 0.0001248731437948786 0 -0.02229993677262208 0.0003893994857492438 0 -0.023106147772215743 3.6391365747227673e-07 0 -0.02229993677262208 0.0003893994857492438 0 -0.023106147772215743 3.6391365747227673e-07 0 -0.021131518601911776 8.1609105755823555e-07 0 -0.023106147772215743 3.6391365747227673e-07 0 -0.024344122586256678 -4.4837857210239875e-05 0 -0.025080830569335126 -4.1638192626049246e-07 0 -0.023755707170998727 0.0001248731437948786 0 -0.023106147772215743 3.6391365747227673e-07 0 -0.024344122586256678 -4.4837857210239875e-05 0 -0.024344122586256678 -4.4837857210239875e-05 0 -0.024950283362313433 5.0711056325752428e-05 0 -0.025374242969067297 -0.00010712233479316378 0 -0.024950283362313433 5.0711056325752428e-05 0 -0.025374242969067297 -0.00010712233479316378 0 -0.025678766273788147 -7.2195460822919519e-05 0 -0.023755707170998727 0.0001248731437948786 0 -0.024344122586256678 -4.4837857210239875e-05 0 -0.024950283362313433 5.0711056325752428e-05 0 -0.025374242969067297 -0.00010712233479316378 0 -0.026240399921218596 -0.00011223457129265065 0 -0.026248387521039484 -0.00011002792148259052 0 -0.025374242969067297 -0.00010712233479316378 0 -0.026248387521039484 -0.00011002792148259052 0 -0.025678766273788147 -7.2195460822919519e-05 0 -0.024344122586256678 -4.4837857210239875e-05 0 -0.025374242969067297 -0.00010712233479316378 0 -0.025080830569335126 -4.1638192626049246e-07 0 -0.025374242969067297 -0.00010712233479316378 0 -0.025080830569335126 -4.1638192626049246e-07 0 -0.026240399921218596 -0.00011223457129265065 0 -0.027054532630064774 -3.5377220011300456e-08 0 -0.025080830569335126 -4.1638192626049246e-07 0 -0.026240399921218596 -0.00011223457129265065 0 -0.026240399921218596 -0.00011223457129265065 0 -0.026957551408760976 -5.6006939360356053e-05 0 -0.026248387521039484 -0.00011002792148259052 0 -0.027804331860572642 4.2358082803954506e-05 0 -0.026957551408760976 -5.6006939360356053e-05 0 -0.026473730386692602 -5.8465343549572339e-05 0 -0.026957551408760976 -5.6006939360356053e-05 0 -0.026473730386692602 -5.8465343549572339e-05 0 -0.026248387521039484 -0.00011002792148259052 0 -0.026248387521039484 -0.00011002792148259052 0 -0.026120853362617047 -0.00011289248867406804 0 -0.025678766273788147 -7.2195460822919519e-05 0 -0.026473730386692602 -5.8465343549572339e-05 0 -0.026120853362617047 -0.00011289248867406804 0 -0.026286169650175956 -0.00010936658644890075 0 -0.026473730386692602 -5.8465343549572339e-05 0 -0.026248387521039484 -0.00011002792148259052 0 -0.026120853362617047 -0.00011289248867406804 0 -0.025669868580703643 4.4421729720497488e-05 0 -0.026120853362617047 -0.00011289248867406804 0 -0.025678766273788147 -7.2195460822919519e-05 0 -0.026285668775637282 -5.7829188516956492e-05 0 -0.026278356489717575 -3.8920856129195538e-05 0 -0.026281178459809464 -4.6249325990770426e-05 0 -0.026278356489717575 -3.8920856129195538e-05 0 -0.026286169650175956 -0.00010936658644890075 0 -0.026293395300774434 -7.5294624290507555e-05 0 -0.026285668775637282 -5.7829188516956492e-05 0 -0.026278356489717575 -3.8920856129195538e-05 0 -0.026293395300774434 -7.5294624290507555e-05 0 -0.026285668775637282 -5.7829188516956492e-05 0 -0.026293395300774434 -7.5294624290507555e-05 0 -0.026287327705345542 -6.505941432590086e-05 0 -0.026120853362617047 -0.00011289248867406804 0 -0.026278356489717575 -3.8920856129195538e-05 0 -0.026286169650175956 -0.00010936658644890075 0 -0.026473730386692602 -5.8465343549572339e-05 0 -0.026286169650175956 -0.00010936658644890075 0 -0.026333736206582407 -7.0693041585646204e-05 0 -0.026286169650175956 -0.00010936658644890075 0 -0.026307309119635768 -7.5690452516530298e-05 0 -0.026333736206582407 -7.0693041585646204e-05 0 -0.026307309119635768 -7.5690452516530298e-05 0 -0.026333736206582407 -7.0693041585646204e-05 0 -0.026295844305032047 -5.6188864406211931e-05 0 -0.026286169650175956 -0.00010936658644890075 0 -0.026307309119635768 -7.5690452516530298e-05 0 -0.026293395300774434 -7.5294624290507555e-05 0 -0.026307309119635768 -7.5690452516530298e-05 0 -0.026293395300774434 -7.5294624290507555e-05 0 -0.026287327705345542 -6.505941432590086e-05 0 -0.026307309119635768 -7.5690452516530298e-05 0 -0.026287327705345542 -6.505941432590086e-05 0 -0.026295844305032047 -5.6188864406211931e-05 0 -0.026333736206582407 -7.0693041585646204e-05 0 -0.026295844305032047 -5.6188864406211931e-05 0 -0.026299805156481941 -1.16657520784586e-05 0 -0.026381732446510521 0.00015494697015080996 0 -0.026473730386692602 -5.8465343549572339e-05 0 -0.026299805156481941 -1.16657520784586e-05 0 -0.027087245741807153 4.8415345920921752e-05 0 -0.026640163973667075 -8.2791075459221107e-05 0 -0.026473730386692602 -5.8465343549572339e-05 0 -0.026333736206582407 -7.0693041585646204e-05 0 -0.026299805156481941 -1.16657520784586e-05 0 -0.026591690218710964 0.0017054712695523061 0 -0.026671308241870657 0.0017361451027628103 0 -0.0265767516256608 0.0018717355455933101 0 -0.026231539031429125 0.00011124913290598593 0 -0.026299805156481941 -1.16657520784586e-05 0 -0.026264095273154209 -6.3984401327581345e-05 0 -0.026526446930872655 0.00086249720544799308 0 -0.025261989867611679 0.0011013418105561047 0 -0.026295844305032047 -5.6188864406211931e-05 0 -0.026299805156481941 -1.16657520784586e-05 0 -0.026278955253480243 -5.8131921101761904e-05 0 -0.019103050733841744 0.00065935595997492955 0 -0.022046259438736098 0.00066832940736252745 0 -0.026671308241870657 0.0017361451027628103 0 -0.02671138361604954 0.001802370130775951 0 -0.0265767516256608 0.0018717355455933101 0 -0.026700956563668041 0.0017873136402540423 0 -0.024310849612851529 0.0012732774831120104 0 -0.026741800822381395 0.0016775952901970427 0 -0.02674507998378018 0.0016719622032784298 0 -0.026715592480566531 0.001690639353034617 0 -0.02674507998378018 0.0016719622032784298 0 -0.026671308241870657 0.0017361451027628103 0 -0.02671138361604954 0.001802370130775951 0 -0.024310849612851529 0.0012732774831120104 0 -0.025261989867611679 0.0011013418105561047 0 -0.021327260726041838 0.00054014391906826028 0 -0.021273622999308711 0.0011545150609088887 0 -0.021733283288323448 0.00030341005873940001 0 -0.024310849612851529 0.0012732774831120104 0 -0.022046259438736098 0.00066832940736252745 0 -0.022361335824271335 0.0010807758210898695 0 -0.022354232689478899 0.00089888199577691202 0 -0.022539579067024022 0.00097258039390845123 0 -0.024310849612851529 0.0012732774831120104 0 -0.019103050733841744 0.00065935595997492955 0 -0.022354232689478899 0.00089888199577691202 0 -0.022539579067024022 0.00097258039390845123 0 -0.022521441710891536 0.00076385611642855098 0 -0.026281178459809464 -4.6249325990770426e-05 0 -0.026264095273154209 -6.3984401327581345e-05 0 -0.026287722833351731 1.611264552973789e-06 0 -0.025261989867611679 0.0011013418105561047 0 -0.024500820887585855 0.00022698666953599144 0 -0.026285668775637282 -5.7829188516956492e-05 0 -0.026287327705345542 -6.505941432590086e-05 0 -0.026281178459809464 -4.6249325990770426e-05 0 -0.026287327705345542 -6.505941432590086e-05 0 -0.026281178459809464 -4.6249325990770426e-05 0 -0.026278247814318575 -5.9171625005916786e-05 0 -0.026281178459809464 -4.6249325990770426e-05 0 -0.026278247814318575 -5.9171625005916786e-05 0 -0.026264095273154209 -6.3984401327581345e-05 0 -0.026299805156481941 -1.16657520784586e-05 0 -0.026278955253480243 -5.8131921101761904e-05 0 -0.026264095273154209 -6.3984401327581345e-05 0 -0.026278247814318575 -5.9171625005916786e-05 0 -0.026278955253480243 -5.8131921101761904e-05 0 -0.026264095273154209 -6.3984401327581345e-05 0 -0.026287327705345542 -6.505941432590086e-05 0 -0.026278247814318575 -5.9171625005916786e-05 0 -0.026278955253480243 -5.8131921101761904e-05 0 -0.026287327705345542 -6.505941432590086e-05 0 -0.026295844305032047 -5.6188864406211931e-05 0 -0.026278955253480243 -5.8131921101761904e-05 0 -0.017957825421610424 0.00044683020572411651 0 -0.017947696705591158 -0.0012481004318527611 0 -0.017404863966263378 -0.00087361408188948574 0 -0.019481212469013191 0.00033129554169325097 0 -0.017660256641837527 -0.00073541245052163309 0 -0.016955986353987523 -0.0022471361944669363 0 -0.017947696705591158 -0.0012481004318527611 0 -0.017404863966263378 -0.00087361408188948574 0 -0.019753959744210559 1.7610790855750448e-05 0 -0.018973964242654632 0.0004796372320484855 0 -0.018973273406550323 -0.00077125452248641923 0 -0.020758307309071893 0.0002082184564339108 0 -0.017660256641837527 -0.00073541245052163309 0 -0.017667085787108985 -0.00011629297529141489 0 -0.017724715248718326 -4.0400720952858637e-05 0 -0.017664213208738989 -5.2415016707002378e-05 0 -0.017724715248718326 -4.0400720952858637e-05 0 -0.017664213208738989 -5.2415016707002378e-05 0 -0.01762206996038632 3.4330362973375171e-06 0 -0.017664213208738989 -5.2415016707002378e-05 0 -0.017623592841368694 -9.4043645738547344e-05 0 -0.01762206996038632 3.4330362973375171e-06 0 -0.017667085787108985 -0.00011629297529141489 0 -0.017664213208738989 -5.2415016707002378e-05 0 -0.017623592841368694 -9.4043645738547344e-05 0 -0.020758307309071893 0.0002082184564339108 0 -0.022046259438736098 0.00066832940736252745 0 -0.026741800822381395 0.0016775952901970427 0 -0.026715592480566531 0.001690639353034617 0 -0.026739953306287565 0.0016810080374568418 0 -0.026741800822381395 0.0016775952901970427 0 -0.026744128003805979 0.0016761610156176435 0 -0.026739953306287565 0.0016810080374568418 0 -0.017509217964088563 6.2113080996522294e-05 0 -0.017623592841368694 -9.4043645738547344e-05 0 -0.01762206996038632 3.4330362973375171e-06 0 -0.017509217964088563 6.2113080996522294e-05 0 -0.017610049937519891 6.7060983659982391e-05 0 -0.017575058700072289 0.00011778399345855399 0 -0.017509217964088563 6.2113080996522294e-05 0 -0.017610049937519891 6.7060983659982391e-05 0 -0.01762206996038632 3.4330362973375171e-06 0 -0.017610049937519891 6.7060983659982391e-05 0 -0.01762206996038632 3.4330362973375171e-06 0 -0.017672847132097436 7.2898778286515739e-05 0 -0.017610049937519891 6.7060983659982391e-05 0 -0.017672847132097436 7.2898778286515739e-05 0 -0.017622988798533485 0.00010727755039494752 0 -0.017724715248718326 -4.0400720952858637e-05 0 -0.01762206996038632 3.4330362973375171e-06 0 -0.017672847132097436 7.2898778286515739e-05 0 -0.016427551909641847 -0.00071519933915811242 0 -0.016226412896145782 -0.001225106880057097 0 -0.016416724227282988 -0.0014216055691189831 0 -0.016050523927941544 -0.0010914293892980071 0 -0.016427551909641847 -0.00071519933915811242 0 -0.016226412896145782 -0.001225106880057097 0 -0.017660256641837527 -0.00073541245052163309 0 -0.016303533928271736 -0.0003954546293230912 0 -0.017724715248718326 -4.0400720952858637e-05 0 -0.017672847132097436 7.2898778286515739e-05 0 -0.01770219068541826 0.00010453153192097772 0 -0.016243822234963644 -0.001948335760236344 0 -0.017660256641837527 -0.00073541245052163309 0 -0.011096290218191061 -0.00011525730542703207 0 -0.011655414146283094 0.00039469224353346426 0 -0.011384679792283426 0.00059767539384131729 0 -0.01472511429912713 -0.00015908406020438467 0 -0.014562811464933025 -0.0014344590421848324 0 -0.015379703934226651 -0.00079037302608415895 0 -0.01540707094371723 -0.00081188351820407482 0 -0.015384057974189116 -0.00083519723801220096 0 -0.01472511429912713 -0.00015908406020438467 0 -0.016303533928271736 -0.0003954546293230912 0 -0.016226412896145782 -0.001225106880057097 0 -0.016268278134738964 -0.0015581422348934218 0 -0.016416724227282988 -0.0014216055691189831 0 -0.014562811464933025 -0.0014344590421848324 0 -0.016303533928271736 -0.0003954546293230912 0 -0.017672847132097436 7.2898778286515739e-05 0 -0.017700512907374434 0.00011004528716376378 0 -0.017653671314383459 0.00012912913259277152 0 -0.017672847132097436 7.2898778286515739e-05 0 -0.017653671314383459 0.00012912913259277152 0 -0.017622988798533485 0.00010727755039494752 0 -0.01769534900984367 0.00016464513693527903 0 -0.017700512907374434 0.00011004528716376378 0 -0.017653671314383459 0.00012912913259277152 0 -0.017364372869153093 0.00025577474284878987 0 -0.016303533928271736 -0.0003954546293230912 0 -0.01769534900984367 0.00016464513693527903 0 -0.017653671314383459 0.00012912913259277152 0 -0.017636357774489662 0.00016999407190942939 0 -0.01472511429912713 -0.00015908406020438467 0 -0.015967114359104834 0.00039016220316718446 0 -0.01769534900984367 0.00016464513693527903 0 -0.017636357774489662 0.00016999407190942939 0 -0.017629665372733104 0.00021844236041555177 0 -0.017615744711843004 0.0001966241597447157 0 -0.017601861086053498 0.00015029404641659716 0 -0.017557896123732025 0.0002079588129450743 0 -0.017615744711843004 0.0001966241597447157 0 -0.017636357774489662 0.00016999407190942939 0 -0.017629665372733104 0.00021844236041555177 0 -0.017615744711843004 0.0001966241597447157 0 -0.017601861086053498 0.00015029404641659716 0 -0.017636357774489662 0.00016999407190942939 0 -0.017653671314383459 0.00012912913259277152 0 -0.017601861086053498 0.00015029404641659716 0 -0.017636357774489662 0.00016999407190942939 0 -0.017653671314383459 0.00012912913259277152 0 -0.017601861086053498 0.00015029404641659716 0 -0.017622988798533485 0.00010727755039494752 0 -0.017610049937519891 6.7060983659982391e-05 0 -0.017622988798533485 0.00010727755039494752 0 -0.017575058700072289 0.00011778399345855399 0 -0.017601861086053498 0.00015029404641659716 0 -0.017622988798533485 0.00010727755039494752 0 -0.017575058700072289 0.00011778399345855399 0 -0.017601861086053498 0.00015029404641659716 0 -0.017575058700072289 0.00011778399345855399 0 -0.017557896123732025 0.0002079588129450743 0 -0.017575058700072289 0.00011778399345855399 0 -0.017557896123732025 0.0002079588129450743 0 -0.017472135032347354 0.00020555851337816658 0 -0.017557896123732025 0.0002079588129450743 0 -0.017633913212902023 0.00022346719878962919 0 -0.017449869529094608 0.00035974564265881263 0 -0.014542225931215102 0.0012883333860584951 0 -0.015889209719948966 0.00029171474327648815 0 -0.015177980112878039 0.00042887991380177726 0 -0.015967114359104834 0.00039016220316718446 0 -0.016474072828148074 0.00027442628290991271 0 -0.014542225931215102 0.0012883333860584951 0 -0.014687365624611601 0.00040688743952661414 0 -0.015177980112878039 0.00042887991380177726 0 -0.017615744711843004 0.0001966241597447157 0 -0.017557896123732025 0.0002079588129450743 0 -0.017633913212902023 0.00022346719878962919 0 -0.016409699480990546 0.00058477424704027814 0 -0.015967114359104834 0.00039016220316718446 0 -0.01472511429912713 -0.00015908406020438467 0 -0.0127933184964819 -0.00021445717635383701 0 -0.011096290218191061 -0.00011525730542703207 0 -0.011655414146283094 0.00039469224353346426 0 -0.011639712666538132 -0.00076851368903750356 0 -0.014253568860575444 0.00022567285310059757 0 -0.014531559339385026 1.9647121124527288e-05 0 -0.01424654981633665 -0.00033304618441353911 0 -0.014542225931215102 0.0012883333860584951 0 -0.013960343224846227 0.00056614132777623013 0 -0.014687365624611601 0.00040688743952661414 0 -0.015967114359104834 0.00039016220316718446 0 -0.0127933184964819 -0.00021445717635383701 0 -0.026278356489717575 -3.8920856129195538e-05 0 -0.026281178459809464 -4.6249325990770426e-05 0 -0.026287722833351731 1.611264552973789e-06 0 -0.017509217964088563 6.2113080996522294e-05 0 -0.017575058700072289 0.00011778399345855399 0 -0.017472135032347354 0.00020555851337816658 0 -0.019103050733841744 0.00065935595997492955 0 -0.019315245800156644 0.00082223986697399444 0 -0.022354232689478899 0.00089888199577691202 0 -0.022521441710891536 0.00076385611642855098 0 -0.022429828017293305 0.00072861769964603065 0 -0.016240983347420794 0.00096419461791548465 0 -0.016193863536170215 0.0006200615798640501 0 -0.016338340862992507 0.00069373537953020415 0 -0.019103050733841744 0.00065935595997492955 0 -0.016742683346094141 0.00038398835602325204 0 -0.016193863536170215 0.0006200615798640501 0 -0.016338340862992507 0.00069373537953020415 0 -0.01634496491375996 0.00048088324050574388 0 -0.017557896123732025 0.0002079588129450743 0 -0.017472135032347354 0.00020555851337816658 0 -0.017449869529094608 0.00035974564265881263 0 -0.016193863536170215 0.0006200615798640501 0 -0.01631927395264985 0.00027224838274020016 0 -0.016123470387490846 9.9545014150516923e-05 0 -0.016742683346094141 0.00038398835602325204 0 -0.016474072828148074 0.00027442628290991271 0 -0.016193863536170215 0.0006200615798640501 0 -0.01634496491375996 0.00048088324050574388 0 -0.01631927395264985 0.00027224838274020016 0 -0.026257866322462586 2.9284023420914008e-05 0 -0.026237928154719103 6.2289995889521456e-05 0 -0.026225457727675705 7.0886955544588955e-05 0 -0.026257866322462586 2.9284023420914008e-05 0 -0.026287722833351731 1.611264552973789e-06 0 -0.026237928154719103 6.2289995889521456e-05 0 -0.01631927395264985 0.00027224838274020016 0 -0.016551586613457202 0.00032883221115823438 0 -0.016583063000319306 0.00010580699973801881 0 -0.01634496491375996 0.00048088324050574388 0 -0.01631927395264985 0.00027224838274020016 0 -0.016551586613457202 0.00032883221115823438 0 -0.024500820887585855 0.00022698666953599144 0 -0.020989995383483173 0.0004950533771692486 0 -0.016338340862992507 0.00069373537953020415 0 -0.01634496491375996 0.00048088324050574388 0 -0.016551586613457202 0.00032883221115823438 0 -0.022521441710891536 0.00076385611642855098 0 -0.022429828017293305 0.00072861769964603065 0 -0.022499573715964935 0.00056039306890514023 0 -0.019315245800156644 0.00082223986697399444 0 -0.020989995383483173 0.0004950533771692486 0 -0.020989995383483173 0.0004950533771692486 0 -0.021410692217835051 0.001207213544701824 0 -0.015158149490014958 0.0013279709071074329 0 -0.015086772566619118 0.0012334040165660263 0 -0.015316321699404067 0.0009282587263084775 0 -0.01957740455696377 0.00052286757095560831 0 -0.019413426999051964 0.00083196576702544028 0 -0.019558699557994864 0.0010750913224606745 0 -0.016246551119218949 -7.8133440347392453e-05 0 -0.016583063000319306 0.00010580699973801881 0 -0.015940377541876806 -0.00058594378035246343 0 -0.021410692217835051 0.001207213544701824 0 -0.017741589922416631 0.00048258403232504101 0 -0.021410692217835051 0.001207213544701824 0 -0.020760781144439411 0.0015349419973221378 0 -0.020989995383483173 0.0004950533771692486 0 -0.017741589922416631 0.00048258403232504101 0 -0.01631927395264985 0.00027224838274020016 0 -0.016246551119218949 -7.8133440347392453e-05 0 -0.016583063000319306 0.00010580699973801881 0 -0.01631927395264985 0.00027224838274020016 0 -0.016246551119218949 -7.8133440347392453e-05 0 -0.016123470387490846 9.9545014150516923e-05 0 -0.016474072828148074 0.00027442628290991271 0 -0.015959600302261814 -0.00050335717682057897 0 -0.016246551119218949 -7.8133440347392453e-05 0 -0.01595650618596459 0.00014229032762454823 0 -0.015940377541876806 -0.00058594378035246343 0 -0.015889209719948966 0.00029171474327648815 0 -0.015741211798441724 0.00012411050486201946 0 -0.015940377541876806 -0.00058594378035246343 0 -0.016316849282872442 0.00015472894676121866 0 -0.016474072828148074 0.00027442628290991271 0 -0.015889209719948966 0.00029171474327648815 0 -0.015741211798441724 0.00012411050486201946 0 -0.015177980112878039 0.00042887991380177726 0 -0.015741211798441724 0.00012411050486201946 0 -0.015940377541876806 -0.00058594378035246343 0 -0.015507143530049996 -0.000397518866796715 0 -0.016583063000319306 0.00010580699973801881 0 -0.015940377541876806 -0.00058594378035246343 0 -0.015853529419481278 -0.00091899801438016175 0 -0.015422010690456562 -0.00065402398298422147 0 -0.015853529419481278 -0.00091899801438016175 0 -0.014989122493367906 -0.0011981856938015037 0 -0.015940377541876806 -0.00058594378035246343 0 -0.015422010690456562 -0.00065402398298422147 0 -0.015507143530049996 -0.000397518866796715 0 -0.015940377541876806 -0.00058594378035246343 0 -0.015422010690456562 -0.00065402398298422147 0 -0.015853529419481278 -0.00091899801438016175 0 -0.017741589922416631 0.00048258403232504101 0 -0.014577739818290476 0.00097483885897035785 0 -0.01501817068747577 0.001292468173540043 0 -0.014529417998639419 0.00057259006351968408 0 -0.014992959851891535 0.00061843214253549743 0 -0.015086772566619118 0.0012334040165660263 0 -0.014992959851891535 0.00061843214253549743 0 -0.015316321699404067 0.0009282587263084775 0 -0.017741589922416631 0.00048258403232504101 0 -0.014803592965758091 -0.00025632543640831374 0 -0.01080368679060908 -0.0013504034902003803 0 -0.011785954567118201 -0.00010152128263194197 0 -0.011783596720684643 -0.0011843468366528427 0 -0.013960343224846227 0.00056614132777623013 0 -0.013949819961317949 -0.00037303332630259138 0 -0.01451617933866099 -7.1713265086301986e-05 0 -0.0127933184964819 -0.00021445717635383701 0 -0.012849470915961248 -0.00078782322424284803 0 -0.013960343224846227 0.00056614132777623013 0 -0.01451617933866099 -7.1713265086301986e-05 0 -0.014687365624611601 0.00040688743952661414 0 -0.013949819961317949 -0.00037303332630259138 0 -0.01451617933866099 -7.1713265086301986e-05 0 -0.014855579495059931 -0.00060812215197581301 0 -0.01451617933866099 -7.1713265086301986e-05 0 -0.015026524395737501 3.5794425896172716e-05 0 -0.014855579495059931 -0.00060812215197581301 0 -0.01451617933866099 -7.1713265086301986e-05 0 -0.014687365624611601 0.00040688743952661414 0 -0.015026524395737501 3.5794425896172716e-05 0 -0.014687365624611601 0.00040688743952661414 0 -0.015177980112878039 0.00042887991380177726 0 -0.015026524395737501 3.5794425896172716e-05 0 -0.015741211798441724 0.00012411050486201946 0 -0.015177980112878039 0.00042887991380177726 0 -0.015026524395737501 3.5794425896172716e-05 0 -0.015741211798441724 0.00012411050486201946 0 -0.015507143530049996 -0.000397518866796715 0 -0.014928871961675499 -0.00047387362653095617 0 -0.015741211798441724 0.00012411050486201946 0 -0.015026524395737501 3.5794425896172716e-05 0 -0.014855579495059931 -0.00060812215197581301 0 -0.015571067667467929 -4.511048862216838e-06 0 -0.015153402855840766 -0.0003816191594232864 0 -0.014928871961675499 -0.00047387362653095617 0 -0.014100690980236013 -0.0010941842111586769 0 -0.014989122493367906 -0.0011981856938015037 0 -0.015422010690456562 -0.00065402398298422147 0 -0.015507143530049996 -0.000397518866796715 0 -0.014928871961675499 -0.00047387362653095617 0 -0.015422010690456562 -0.00065402398298422147 0 -0.014928871961675499 -0.00047387362653095617 0 -0.014989122493367906 -0.0011981856938015037 0 -0.01080368679060908 -0.0013504034902003803 0 -0.011783596720684643 -0.0011843468366528427 0 -0.011780830911215673 -0.0022599763318136069 0 -0.013949819961317949 -0.00037303332630259138 0 -0.014855579495059931 -0.00060812215197581301 0 -0.01394280644561495 -0.001330862602110195 0 -0.012849470915961248 -0.00078782322424284803 0 -0.012201684479103768 -0.0013012504061466841 0 -0.015153402855840766 -0.0003816191594232864 0 -0.012201684479103768 -0.0013012504061466841 0 -0.012201684479103768 -0.0013012504061466841 0 -0.012151459230971438 -0.0023553015292351698 0 -0.014100690980236013 -0.0010941842111586769 0 -0.014549056552040992 -0.0016629674393259545 0 -0.014085959664471126 -0.0022030954761156785 0 -0.0085267568844007088 -0.0017563909691836609 0 -0.0098389254755886484 -0.00073060447513927486 0 -0.0098236552911054372 -0.002293891195295039 0 -0.014100690980236013 -0.0010941842111586769 0 -0.014549056552040992 -0.0016629674393259545 0 -0.014989122493367906 -0.0011981856938015037 0 -0.014549056552040992 -0.0016629674393259545 0 -0.014989122493367906 -0.0011981856938015037 0 -0.015020035215558425 -0.0021521086310995149 0 -0.015853529419481278 -0.00091899801438016175 0 -0.014989122493367906 -0.0011981856938015037 0 -0.015020035215558425 -0.0021521086310995149 0 -0.014549056552040992 -0.0016629674393259545 0 -0.015020035215558425 -0.0021521086310995149 0 -0.014085959664471126 -0.0022030954761156785 0 -0.014244305796933247 7.7965897279933669e-06 0 -0.014406832238611797 -5.316916810287383e-05 0 -0.014291859866594866 -5.8462694036334761e-05 0 -0.015020035215558425 -0.0021521086310995149 0 -0.014085959664471126 -0.0022030954761156785 0 -0.014193341565898219 -0.0033485236967216669 0 -0.014992959851891535 0.00061843214253549743 0 -0.014982138510220568 0.00016029087966780686 0 -0.015527567457681465 0.00049992906002937771 0 -0.014992959851891535 0.00061843214253549743 0 -0.014982138510220568 0.00016029087966780686 0 -0.014557633383086816 0.00022556202062239288 0 -0.014529417998639419 0.00057259006351968408 0 -0.014992959851891535 0.00061843214253549743 0 -0.014557633383086816 0.00022556202062239288 0 -0.014803592965758091 -0.00025632543640831374 0 -0.015290219648062597 -0.00093869193789901124 0 -0.014529417998639419 0.00057259006351968408 0 -0.014244305796933247 7.7965897279933669e-06 0 -0.014557633383086816 0.00022556202062239288 0 -0.014982138510220568 0.00016029087966780686 0 -0.014557633383086816 0.00022556202062239288 0 -0.014406832238611797 -5.316916810287383e-05 0 -0.014406832238611797 -5.316916810287383e-05 0 -0.014304248838540638 -5.87729205422811e-05 0 -0.014335519837491982 -3.9837011136963996e-05 0 -0.014244305796933247 7.7965897279933669e-06 0 -0.014557633383086816 0.00022556202062239288 0 -0.014406832238611797 -5.316916810287383e-05 0 -0.013949404205377691 -0.00032983641941180262 0 -0.014689603827068893 0.00011517862400149127 0 -0.014310584450605559 -0.00011045743157924912 0 -0.014406832238611797 -5.316916810287383e-05 0 -0.014304248838540638 -5.87729205422811e-05 0 -0.014310584450605559 -0.00011045743157924912 0 -0.014304248838540638 -5.87729205422811e-05 0 -0.014285921220885456 -9.7767809775030424e-05 0 -0.014304248838540638 -5.87729205422811e-05 0 -0.014258496414919285 -6.2938714396970589e-05 0 -0.014285921220885456 -9.7767809775030424e-05 0 -0.014304248838540638 -5.87729205422811e-05 0 -0.014258496414919285 -6.2938714396970589e-05 0 -0.014253707359906706 -3.7222675681722816e-05 0 -0.014258496414919285 -6.2938714396970589e-05 0 -0.014267742957584078 -9.7706943815910249e-05 0 -0.014285921220885456 -9.7767809775030424e-05 0 -0.014258496414919285 -6.2938714396970589e-05 0 -0.014240680782500677 -6.3150278239663165e-05 0 -0.014267742957584078 -9.7706943815910249e-05 0 -0.020209416556936373 -0.00050262943764673763 0 -0.020119329215387498 -0.00029425683732096214 0 -0.020444753097715863 -0.00021929945837221386 0 -0.016872100011736602 -0.00014421237068110707 0 -0.017240669438611651 -0.00016475131829950466 0 -0.020119329215387498 -0.00029425683732096214 0 -0.020268377824934049 -0.00013162406321536019 0 -0.020444753097715863 -0.00021929945837221386 0 -0.020119329215387498 -0.00029425683732096214 0 -0.020268377824934049 -0.00013162406321536019 0 -0.020042594495250789 -0.00011602829686114096 0 -0.014310584450605559 -0.00011045743157924912 0 -0.014285921220885456 -9.7767809775030424e-05 0 -0.01430538726674673 -0.00012121608432643045 0 -0.013949404205377691 -0.00032983641941180262 0 -0.019355234163265182 0.00062541546089925142 0 -0.014267742957584078 -9.7706943815910249e-05 0 -0.014285921220885456 -9.7767809775030424e-05 0 -0.01430538726674673 -0.00012121608432643045 0 -0.017240669438611651 -0.00016475131829950466 0 -0.019355234163265182 0.00062541546089925142 0 -0.014992959851891535 0.00061843214253549743 0 -0.015527567457681465 0.00049992906002937771 0 -0.015316321699404067 0.0009282587263084775 0 -0.019355234163265182 0.00062541546089925142 0 -0.020760781144439411 0.0015349419973221378 0 -0.025878264275114492 0.0027899700856935314 0 -0.026305346546487987 0.0019882091484217262 0 -0.025711194592907247 0.0018457746206834704 0 -0.019355234163265182 0.00062541546089925142 0 -0.023246634037312072 0.0013338882840957277 0 -0.025878264275114492 0.0027899700856935314 0 -0.025711194592907247 0.0018457746206834704 0 -0.024715622757116154 0.0020808969682829938 0 -0.020268377824934049 -0.00013162406321536019 0 -0.020042594495250789 -0.00011602829686114096 0 -0.020275411292438445 0.00010585660298028694 0 -0.025523604938749413 0.0010360298195092059 0 -0.025711194592907247 0.0018457746206834704 0 -0.024715622757116154 0.0020808969682829938 0 -0.025523604938749413 0.0010360298195092059 0 -0.024453273682341906 0.00065786887235131687 0 -0.024715622757116154 0.0020808969682829938 0 -0.025523604938749413 0.0010360298195092059 0 -0.026062503600308151 0.0012455314922979958 0 -0.025711194592907247 0.0018457746206834704 0 -0.026684798355314374 0.0011452689595315979 0 -0.026305346546487987 0.0019882091484217262 0 -0.026062503600308151 0.0012455314922979958 0 -0.026305346546487987 0.0019882091484217262 0 -0.026062503600308151 0.0012455314922979958 0 -0.025711194592907247 0.0018457746206834704 0 -0.02229993677262208 0.0003893994857492438 0 -0.02095769721662193 1.9888608959728926e-07 0 -0.021131518601911776 8.1609105755823555e-07 0 -0.02229993677262208 0.0003893994857492438 0 -0.02095769721662193 1.9888608959728926e-07 0 -0.020275411292438445 0.00010585660298028694 0 -0.024453273682341906 0.00065786887235131687 0 -0.02229993677262208 0.0003893994857492438 0 -0.024715622757116154 0.0020808969682829938 0 -0.021926244158473177 0.00028076375431493669 0 -0.023246634037312072 0.0013338882840957277 0 -0.020268377824934049 -0.00013162406321536019 0 -0.020275411292438445 0.00010585660298028694 0 -0.020468542539490368 -0.000104204285535883 0 -0.02095769721662193 1.9888608959728926e-07 0 -0.020275411292438445 0.00010585660298028694 0 -0.020468542539490368 -0.000104204285535883 0 -0.020468542539490368 -0.000104204285535883 0 -0.020353709692186125 7.9148690347407883e-06 0 -0.020444753097715863 -0.00021929945837221386 0 -0.02095769721662193 1.9888608959728926e-07 0 -0.020468542539490368 -0.000104204285535883 0 -0.020353709692186125 7.9148690347407883e-06 0 -0.021131518601911776 8.1609105755823555e-07 0 -0.020353709692186125 7.9148690347407883e-06 0 -0.019156820503614513 -5.8959820778906741e-07 0 -0.02095769721662193 1.9888608959728926e-07 0 -0.021131518601911776 8.1609105755823555e-07 0 -0.020353709692186125 7.9148690347407883e-06 0 -0.020353709692186125 7.9148690347407883e-06 0 -0.019156820503614513 -5.8959820778906741e-07 0 -0.018913426043452815 -0.00012249784027057946 0 -0.019156820503614513 -5.8959820778906741e-07 0 -0.018913426043452815 -0.00012249784027057946 0 -0.01859008366127269 -6.712675467915224e-05 0 -0.020079636280156306 -0.00012755288403536812 0 -0.020090465193927827 -4.3190136399236142e-05 0 -0.020268377824934049 -0.00013162406321536019 0 -0.020468542539490368 -0.000104204285535883 0 -0.020444753097715863 -0.00021929945837221386 0 -0.019068177229985862 0.00011077363055467274 0 -0.01859008366127269 -6.712675467915224e-05 0 -0.018537808025544406 0.0003496462093722743 0 -0.016872100011736602 -0.00014421237068110707 0 -0.020090465193927827 -4.3190136399236142e-05 0 -0.019068177229985862 0.00011077363055467274 0 -0.018913426043452815 -0.00012249784027057946 0 -0.01859008366127269 -6.712675467915224e-05 0 -0.019156820503614513 -5.8959820778906741e-07 0 -0.01859008366127269 -6.712675467915224e-05 0 -0.017842341854308164 3.1461875625687418e-05 0 -0.019156820503614513 -5.8959820778906741e-07 0 -0.017842341854308164 3.1461875625687418e-05 0 -0.017182581745724502 6.0274446117546753e-07 0 -0.01859008366127269 -6.712675467915224e-05 0 -0.017842341854308164 3.1461875625687418e-05 0 -0.018537808025544406 0.0003496462093722743 0 -0.017580688162239122 -5.5201462565368918e-05 0 -0.017205934108144211 0.00042448116441675982 0 -0.017842341854308164 3.1461875625687418e-05 0 -0.018537808025544406 0.0003496462093722743 0 -0.018150874478885599 0.00090227619772144374 0 -0.017842341854308164 3.1461875625687418e-05 0 -0.017182581745724502 6.0274446117546753e-07 0 -0.015936282754562863 -7.1313060999635762e-06 0 -0.018537808025544406 0.0003496462093722743 0 -0.018752302921792658 0.0008566066783652432 0 -0.018150874478885599 0.00090227619772144374 0 -0.019068177229985862 0.00011077363055467274 0 -0.018537808025544406 0.0003496462093722743 0 -0.018752302921792658 0.0008566066783652432 0 -0.018752302921792658 0.0008566066783652432 0 -0.018150874478885599 0.00090227619772144374 0 -0.018301923517817769 0.0016559543997946972 0 -0.013349635168960299 -7.4144967691000221e-05 0 -0.013405246484727958 0.00027807863199910346 0 -0.013065519267030328 0.00042988892154459092 0 -0.016043713843040167 0.00044180520045591649 0 -0.015058757510186285 0.00068023464756119655 0 -0.017182581745724502 6.0274446117546753e-07 0 -0.015936282754562863 -7.1313060999635762e-06 0 -0.015206991531561867 -6.0108960368353169e-07 0 -0.017205934108144211 0.00042448116441675982 0 -0.015058757510186285 0.00068023464756119655 0 -0.015936282754562863 -7.1313060999635762e-06 0 -0.015206991531561867 -6.0108960368353169e-07 0 -0.014950085741216871 1.044633587800886e-05 0 -0.014258496414919285 -6.2938714396970589e-05 0 -0.014240680782500677 -6.3150278239663165e-05 0 -0.014219898342130454 -2.589604165213979e-05 0 -0.014258496414919285 -6.2938714396970589e-05 0 -0.014253707359906706 -3.7222675681722816e-05 0 -0.014219898342130454 -2.589604165213979e-05 0 -0.014253707359906706 -3.7222675681722816e-05 0 -0.014219898342130454 -2.589604165213979e-05 0 -0.014228170085695971 -8.542480738721286e-06 0 -0.013623885151748697 -0.00054605531328067759 0 -0.013855666467896594 -0.00020882138555066725 0 -0.013621256069189626 -6.8470174538306727e-05 0 -0.013623885151748697 -0.00054605531328067759 0 -0.013349635168960299 -7.4144967691000221e-05 0 -0.013621256069189626 -6.8470174538306727e-05 0 -0.016872100011736602 -0.00014421237068110707 0 -0.016043713843040167 0.00044180520045591649 0 -0.016872100011736602 -0.00014421237068110707 0 -0.013757142116127273 -0.00035434294363106034 0 -0.013621256069189626 -6.8470174538306727e-05 0 -0.013824500976979764 0.00010882240450061244 0 -0.013405246484727958 0.00027807863199910346 0 -0.013349635168960299 -7.4144967691000221e-05 0 -0.013621256069189626 -6.8470174538306727e-05 0 -0.013405246484727958 0.00027807863199910346 0 -0.013855666467896594 -0.00020882138555066725 0 -0.013621256069189626 -6.8470174538306727e-05 0 -0.013824500976979764 0.00010882240450061244 0 -0.013824500976979764 0.00010882240450061244 0 -0.014140101951745246 7.9242706711588472e-05 0 -0.014250998899722958 0.00013864865454117886 0 -0.015187097712485439 0.00040780193057480429 0 -0.01007650291869211 0.00072316165507557641 0 -0.013855666467896594 -0.00020882138555066725 0 -0.013824500976979764 0.00010882240450061244 0 -0.014140101951745246 7.9242706711588472e-05 0 -0.013757142116127273 -0.00035434294363106034 0 -0.014228890712584031 0.00017044570155127988 0 -0.014219898342130454 -2.589604165213979e-05 0 -0.014140101951745246 7.9242706711588472e-05 0 -0.014228170085695971 -8.542480738721286e-06 0 -0.013824500976979764 0.00010882240450061244 0 -0.013684544552484272 0.00047819309363532759 0 -0.014134277866197724 0.00024237142302072258 0 -0.0063121757873003479 0.0041448279121270555 0 -0.0041063396924664224 0.0029313690543989845 0 -0.0043777808320608963 0.0046671635556685921 0 -0.0097735766807163279 0.0025398411884322842 0 -0.01007650291869211 0.00072316165507557641 0 -0.013824500976979764 0.00010882240450061244 0 -0.013684544552484272 0.00047819309363532759 0 -0.013405246484727958 0.00027807863199910346 0 -0.0063121757873003479 0.0041448279121270555 0 -0.008658620850071996 0.0034276661981897903 0 -0.0071115203630212984 0.0022970383251121659 0 -0.0063121757873003479 0.0041448279121270555 0 -0.0071115203630212984 0.0022970383251121659 0 -0.0055494052444130032 0.0021761541097176933 0 -0.0063121757873003479 0.0041448279121270555 0 -0.0055494052444130032 0.0021761541097176933 0 -0.0041063396924664224 0.0029313690543989845 0 -0.015206991531561867 -6.0108960368353169e-07 0 -0.014950085741216871 1.044633587800886e-05 0 -0.013895948142987927 2.1264061642604112e-05 0 -0.013684544552484272 0.00047819309363532759 0 -0.013405246484727958 0.00027807863199910346 0 -0.013124485693691432 0.00073828895833875029 0 -0.013405246484727958 0.00027807863199910346 0 -0.013065519267030328 0.00042988892154459092 0 -0.013124485693691432 0.00073828895833875029 0 -0.015058757510186285 0.00068023464756119655 0 -0.011022918279864584 0.002212704246569273 0 -0.0097735766807163279 0.0025398411884322842 0 -0.011022918279864584 0.002212704246569273 0 -0.015206991531561867 -6.0108960368353169e-07 0 -0.013895948142987927 2.1264061642604112e-05 0 -0.013235318373079924 7.5434455449089325e-07 0 -0.013165132862499287 0.0010270788442991461 0 -0.013264493842458131 0.0014787992317762553 0 -0.012836560133409562 0.0016555894309712958 0 -0.015058757510186285 0.00068023464756119655 0 -0.012643434921168586 0.0010496297096048727 0 -0.0094104285706340628 0.0034235083759893425 0 -0.011063069801603199 0.0029145488655744341 0 -0.010166460790196749 0.0013317430830753338 0 -0.011022918279864584 0.002212704246569273 0 -0.012643434921168586 0.0010496297096048727 0 -0.012643434921168586 0.0010496297096048727 0 -0.013233489516737588 7.1422110706256513e-07 0 -0.012643434921168586 0.0010496297096048727 0 -0.012468996623178427 7.2269541032099082e-07 0 -0.013431373409641685 3.6538932404557146e-06 0 -0.013231570095291294 2.1211226451177555e-08 0 -0.012470495779716583 -1.3074687927686211e-08 0 -0.011063069801603199 0.0029145488655744341 0 -0.010166460790196749 0.0013317430830753338 0 -0.012465510929500892 5.502246188604983e-06 0 -0.010166460790196749 0.0013317430830753338 0 -0.012465510929500892 5.502246188604983e-06 0 -0.0099403105988265378 0.00012762729527983563 0 -0.012465510929500892 5.502246188604983e-06 0 -0.0099403105988265378 0.00012762729527983563 0 -0.010768727669489839 -1.9131340093726212e-06 0 -0.0099403105988265378 0.00012762729527983563 0 -0.0078777473737775966 -0.00017421648595276714 0 -0.0095575433004512281 -0.00030101166019755072 0 -0.0099403105988265378 0.00012762729527983563 0 -0.0078777473737775966 -0.00017421648595276714 0 -0.0082941290421721676 0.000886222505077276 0 -0.0078777473737775966 -0.00017421648595276714 0 -0.0082941290421721676 0.000886222505077276 0 -0.0067510818542347801 0.00086504756121387298 0 -0.011022918279864584 0.002212704246569273 0 -0.0079289445859909713 0.0013761139465721225 0 -0.008658620850071996 0.0034276661981897903 0 -0.0082941290421721676 0.000886222505077276 0 -0.0071115203630212984 0.0022970383251121659 0 -0.0094104285706340628 0.0034235083759893425 0 -0.010166460790196749 0.0013317430830753338 0 -0.0082941290421721676 0.000886222505077276 0 -0.010166460790196749 0.0013317430830753338 0 -0.0099403105988265378 0.00012762729527983563 0 -0.0082941290421721676 0.000886222505077276 0 -0.0082941290421721676 0.000886222505077276 0 -0.0071115203630212984 0.0022970383251121659 0 -0.0067510818542347801 0.00086504756121387298 0 -0.0071115203630212984 0.0022970383251121659 0 -0.0055494052444130032 0.0021761541097176933 0 -0.0067510818542347801 0.00086504756121387298 0 -0.0055494052444130032 0.0021761541097176933 0 -0.0056121690485233296 0.00050047567713821129 0 -0.0067510818542347801 0.00086504756121387298 0 -0.0055494052444130032 0.0021761541097176933 0 -0.0056121690485233296 0.00050047567713821129 0 -0.0034885202763285743 0.00088383381048885376 0 -0.0056121690485233296 0.00050047567713821129 0 -0.0067510818542347801 0.00086504756121387298 0 -0.0063392835878367491 -0.00015301076256537296 0 -0.0078777473737775966 -0.00017421648595276714 0 -0.0067510818542347801 0.00086504756121387298 0 -0.0063392835878367491 -0.00015301076256537296 0 -0.0078777473737775966 -0.00017421648595276714 0 -0.0062287062159072691 -0.00052655023582593764 0 -0.0063392835878367491 -0.00015301076256537296 0 -0.0062287062159072691 -0.00052655023582593764 0 -0.0063392835878367491 -0.00015301076256537296 0 -0.0056101737138343488 -0.00072967992442613059 0 -0.0056121690485233296 0.00050047567713821129 0 -0.0063392835878367491 -0.00015301076256537296 0 -0.0056101737138343488 -0.00072967992442613059 0 -0.0056121690485233296 0.00050047567713821129 0 -0.0056101737138343488 -0.00072967992442613059 0 -0.0034885202763285743 0.00088383381048885376 0 -0.0040357805391017503 0.00024841464872051234 0 -0.0041970207529811662 0.00063686338598946629 0 -0.0025145252786810466 0.00099391973141432755 0 -0.0025005085956743929 0.0013616381322587479 0 -0.0023093318392990499 0.0011393215689605013 0 -0.0062287062159072691 -0.00052655023582593764 0 -0.0056101737138343488 -0.00072967992442613059 0 -0.0059467657769524474 4.5670662089852339e-05 0 -0.0062287062159072691 -0.00052655023582593764 0 -0.0056107910346213496 -0.00014329335712800004 0 -0.0059467657769524474 4.5670662089852339e-05 0 -0.0053306392412454965 -0.00036550253763010252 0 -0.0056107910346213496 -0.00014329335712800004 0 -0.0048839515132187237 0.00045392356180834785 0 -0.0062287062159072691 -0.00052655023582593764 0 -0.0053306392412454965 -0.00036550253763010252 0 -0.0056107910346213496 -0.00014329335712800004 0 -0.0092997143026518955 -0.00032729669418889938 0 -0.0090691040346168907 -6.0575118687260481e-07 0 -0.0095575433004512281 -0.00030101166019755072 0 -0.0090691040346168907 -6.0575118687260481e-07 0 -0.010768727669489839 -1.9131340093726212e-06 0 -0.0095575433004512281 -0.00030101166019755072 0 -0.0099403105988265378 0.00012762729527983563 0 -0.010768727669489839 -1.9131340093726212e-06 0 -0.0095575433004512281 -0.00030101166019755072 0 -0.0078777473737775966 -0.00017421648595276714 0 -0.0062287062159072691 -0.00052655023582593764 0 -0.0053306392412454965 -0.00036550253763010252 0 -0.0078777473737775966 -0.00017421648595276714 0 -0.0092997143026518955 -0.00032729669418889938 0 -0.0095575433004512281 -0.00030101166019755072 0 -0.0077273965123317188 -2.2685158691871307e-05 0 -0.007255709893314889 -0.00023119569809927664 0 -0.0018308320350456798 0.00099765775039596834 0 -0.0020546328765840274 0.00057152229911075882 0 -0.0023724145125593732 0.00081749071890891355 0 -0.0018308320350456798 0.00099765775039596834 0 -0.0023724145125593732 0.00081749071890891355 0 -0.0023466278614400122 0.0012467395708102185 0 -0.0019717256228579424 0.00022111423720304419 0 -0.0020314487329909175 0.00058230754319055342 0 -0.0020866983280774312 -0.00049287897483491286 0 -0.0020546328765840274 0.00057152229911075882 0 -0.0028048830569517534 0.00018829099743821097 0 -0.0020546328765840274 0.00057152229911075882 0 -0.0023724145125593732 0.00081749071890891355 0 -0.002102118559582583 0.00078926593387595751 0 -0.0025158275654851114 0.00093229475509911785 0 -0.0023724145125593732 0.00081749071890891355 0 -0.002102118559582583 0.00078926593387595751 0 -0.0025145252786810466 0.00099391973141432755 0 -0.0025158275654851114 0.00093229475509911785 0 -0.0023093318392990499 0.0011393215689605013 0 -0.0025145252786810466 0.00099391973141432755 0 -0.0025158275654851114 0.00093229475509911785 0 -0.0034885202763285743 0.00088383381048885376 0 -0.0040357805391017503 0.00024841464872051234 0 -0.0034803880135136577 0.00088989090239575692 0 -0.0023724145125593732 0.00081749071890891355 0 -0.0034885202763285743 0.00088383381048885376 0 -0.0023466278614400122 0.0012467395708102185 0 -0.0025158275654851114 0.00093229475509911785 0 -0.0023724145125593732 0.00081749071890891355 0 -0.0034885202763285743 0.00088383381048885376 0 -0.0034885202763285743 0.00088383381048885376 0 -0.0026928299484221788 0.0020908207723295876 0 -0.0023466278614400122 0.0012467395708102185 0 -0.0055494052444130032 0.0021761541097176933 0 -0.0034885202763285743 0.00088383381048885376 0 -0.0041063396924664224 0.0029313690543989845 0 -0.0034885202763285743 0.00088383381048885376 0 -0.0026928299484221788 0.0020908207723295876 0 -0.0041063396924664224 0.0029313690543989845 0 -0.0026928299484221788 0.0020908207723295876 0 -0.0023466278614400122 0.0012467395708102185 0 -0.0015125166722153533 0.0018817816170683013 0 -0.0026928299484221788 0.0020908207723295876 0 -0.0015125166722153533 0.0018817816170683013 0 -0.0020122401388876568 0.0026200540805033949 0 -0.0018308320350456798 0.00099765775039596834 0 -0.0023466278614400122 0.0012467395708102185 0 -0.0015125166722153533 0.0018817816170683013 0 -0.0019717256228579424 0.00022111423720304419 0 -0.0016512990867335936 0.00049053394748402508 0 -0.0015125166722153533 0.0018817816170683013 0 -0.0013495729650423267 0.0031586735670808895 0 -0.0020122401388876568 0.0026200540805033949 0 -0.0016512990867335936 0.00049053394748402508 0 -0.0036678897588361724 -0.00096798085049212281 0 -0.0013495729650423267 0.0031586735670808895 0 -0.0020122401388876568 0.0026200540805033949 0 -0.0026802115622729028 0.0038343924521742588 0 -0.0026928299484221788 0.0020908207723295876 0 -0.0020122401388876568 0.0026200540805033949 0 -0.0026802115622729028 0.0038343924521742588 0 -0.0036678897588361724 -0.00096798085049212281 0 -0.0049479487585728666 0.0015289766651932946 0 -0.0069293944624778886 -0.0017537985754575392 0 -0.0069488479025456842 -0.0010075487232259891 0 -0.0081281665204778232 -0.0013501406869573229 0 -0.0069488479025456842 -0.0010075487232259891 0 -0.0081281665204778232 -0.0013501406869573229 0 -0.0074707179313234307 -0.00063666708570011871 0 -0.0036678897588361724 -0.00096798085049212281 0 -0.0047751591521799095 -0.0021094349362303136 0 -0.0025437228257190717 -0.0025022962758616991 0 -0.0025613928505734637 -0.0030561468608320676 0 -0.0028580007469782265 -0.003002632582069543 0 -0.0025613928505734637 -0.0030561468608320676 0 -0.0027425632970829298 -0.0033371845288256191 0 -0.0028580007469782265 -0.003002632582069543 0 -0.0026928299484221788 0.0020908207723295876 0 -0.0041063396924664224 0.0029313690543989845 0 -0.0026802115622729028 0.0038343924521742588 0 -0.0081281665204778232 -0.0013501406869573229 0 -0.009335984341901549 -0.0009298450749486984 0 -0.0082076255403682411 -0.00049535942726133071 0 -0.0049479487585728666 0.0015289766651932946 0 -0.01007650291869211 0.00072316165507557641 0 -0.0041063396924664224 0.0029313690543989845 0 -0.0026802115622729028 0.0038343924521742588 0 -0.0043777808320608963 0.0046671635556685921 0 -0.014250998899722958 0.00013864865454117886 0 -0.014277363057374801 1.0536191557638626e-05 0 -0.014313834743824886 -3.7107132795092321e-05 0 -0.014140101951745246 7.9242706711588472e-05 0 -0.014277363057374801 1.0536191557638626e-05 0 -0.014228170085695971 -8.542480738721286e-06 0 -0.014140101951745246 7.9242706711588472e-05 0 -0.014250998899722958 0.00013864865454117886 0 -0.014277363057374801 1.0536191557638626e-05 0 -0.014277363057374801 1.0536191557638626e-05 0 -0.014313834743824886 -3.7107132795092321e-05 0 -0.014335519837491982 -3.9837011136963996e-05 0 -0.01007650291869211 0.00072316165507557641 0 -0.011660166522101246 -0.00031055730901936618 0 -0.014313834743824886 -3.7107132795092321e-05 0 -0.014335519837491982 -3.9837011136963996e-05 0 -0.014291859866594866 -5.8462694036334761e-05 0 -0.014406832238611797 -5.316916810287383e-05 0 -0.014335519837491982 -3.9837011136963996e-05 0 -0.014291859866594866 -5.8462694036334761e-05 0 -0.014277363057374801 1.0536191557638626e-05 0 -0.014335519837491982 -3.9837011136963996e-05 0 -0.014284755496614097 -3.1219531100921068e-05 0 -0.014304248838540638 -5.87729205422811e-05 0 -0.014335519837491982 -3.9837011136963996e-05 0 -0.014284755496614097 -3.1219531100921068e-05 0 -0.014304248838540638 -5.87729205422811e-05 0 -0.014253707359906706 -3.7222675681722816e-05 0 -0.014284755496614097 -3.1219531100921068e-05 0 -0.014277363057374801 1.0536191557638626e-05 0 -0.014284755496614097 -3.1219531100921068e-05 0 -0.014228170085695971 -8.542480738721286e-06 0 -0.014253707359906706 -3.7222675681722816e-05 0 -0.014284755496614097 -3.1219531100921068e-05 0 -0.014228170085695971 -8.542480738721286e-06 0 -0.0025613928505734637 -0.0030561468608320676 0 -0.002605562114237871 -0.0035978105669524129 0 -0.0027425632970829298 -0.0033371845288256191 0 -0.0069488479025456842 -0.0010075487232259891 0 -0.0069724076780115626 -0.00027722207509459464 0 -0.0074707179313234307 -0.00063666708570011871 0 -0.0047751591521799095 -0.0021094349362303136 0 -0.0064789733619458213 -0.0025900518031863632 0 -0.0069724076780115626 -0.00027722207509459464 0 -0.0074707179313234307 -0.00063666708570011871 0 -0.0071074227241463492 -7.0685237364825662e-05 0 -0.0025885881028580963 -0.0036224128167867834 0 -0.0027425632970829298 -0.0033371845288256191 0 -0.0029895945747812876 -0.0036712313625500465 0 -0.0064789733619458213 -0.0025900518031863632 0 -0.0036750175328559105 -0.004198159240289291 0 -0.011660166522101246 -0.00031055730901936618 0 -0.010265352656214937 -0.0013901189775602839 0 -0.0082076255403682411 -0.00049535942726133071 0 -0.0074707179313234307 -0.00063666708570011871 0 -0.0071074227241463492 -7.0685237364825662e-05 0 -0.0081281665204778232 -0.0013501406869573229 0 -0.0082076255403682411 -0.00049535942726133071 0 -0.0074707179313234307 -0.00063666708570011871 0 -0.014313834743824886 -3.7107132795092321e-05 0 -0.014291859866594866 -5.8462694036334761e-05 0 -0.014215476890136225 -8.7164016798997124e-05 0 -0.014244305796933247 7.7965897279933669e-06 0 -0.014291859866594866 -5.8462694036334761e-05 0 -0.014215476890136225 -8.7164016798997124e-05 0 -0.015290219648062597 -0.00093869193789901124 0 -0.010265352656214937 -0.0013901189775602839 0 -0.014085959664471126 -0.0022030954761156785 0 -0.014193341565898219 -0.0033485236967216669 0 -0.01404774532220637 -0.0032881944664239749 0 -0.012151459230971438 -0.0023553015292351698 0 -0.0087053030674004838 -0.0026358271038600303 0 -0.0098236552911054372 -0.002293891195295039 0 -0.0098098204759429902 -0.0038397050304406089 0 -0.0085217399370822334 -0.0033158133024986719 0 -0.0076977134061667583 -0.0020264496575303497 0 -0.0075829379237734463 -0.0022197249089523424 0 -0.0077048871167422353 -0.0022715010009766432 0 -0.0064789733619458213 -0.0025900518031863632 0 -0.010265352656214937 -0.0013901189775602839 0 -0.010265352656214937 -0.0013901189775602839 0 -0.0087053030674004838 -0.0026358271038600303 0 -0.0025885881028580963 -0.0036224128167867834 0 -0.0025973325049366944 -0.0038220981416916787 0 -0.0029895945747812876 -0.0036712313625500465 0 -0.0064789733619458213 -0.0025900518031863632 0 -0.0087053030674004838 -0.0026358271038600303 0 -0.0032068333053253306 -0.0041024806704305552 0 -0.0029895945747812876 -0.0036712313625500465 0 -0.0036454803380600951 -0.0038092387785321718 0 -0.0087053030674004838 -0.0026358271038600303 0 -0.0052855249361095204 -0.0035661511441634989 0 -0.0025973325049366944 -0.0038220981416916787 0 -0.0032068333053253306 -0.0041024806704305552 0 -0.0029895945747812876 -0.0036712313625500465 0 -0.0027425632970829298 -0.0033371845288256191 0 -0.0029895945747812876 -0.0036712313625500465 0 -0.0032083010479471569 -0.0033213848044030903 0 -0.0029895945747812876 -0.0036712313625500465 0 -0.0032083010479471569 -0.0033213848044030903 0 -0.0036454803380600951 -0.0038092387785321718 0 -0.0027425632970829298 -0.0033371845288256191 0 -0.0032083010479471569 -0.0033213848044030903 0 -0.0028580007469782265 -0.003002632582069543 0 -0.0032083010479471569 -0.0033213848044030903 0 -0.0037792542053814143 -0.003253985238482728 0 -0.0036454803380600951 -0.0038092387785321718 0 -0.0070730997632281849 -0.0035485582316212602 0 -0.0052855249361095204 -0.0035661511441634989 0 -0.0038433037283101021 -0.0043785135298858597 0 -0.0032068333053253306 -0.0041024806704305552 0 -0.0036454803380600951 -0.0038092387785321718 0 -0.0081414185515080971 -0.0034268889481925981 0 -0.0084867346286534029 -0.0035550699531528445 0 -0.0084587137661844627 -0.00312621029781893 0 -0.0038433037283101021 -0.0043785135298858597 0 -0.0036454803380600951 -0.0038092387785321718 0 -0.0046037975425806928 -0.0038176671320179442 0 -0.0070730997632281849 -0.0035485582316212602 0 -0.0063183080498184271 -0.0035778536032878994 0 -0.0084867346286534029 -0.0035550699531528445 0 -0.0084587137661844627 -0.00312621029781893 0 -0.0086005541166611892 -0.0033539948761895865 0 -0.0084587137661844627 -0.00312621029781893 0 -0.0086005541166611892 -0.0033539948761895865 0 -0.0088136719465268139 -0.0031809624899314373 0 -0.0046037975425806928 -0.0038176671320179442 0 -0.0044991638017571629 -0.0029500979672917329 0 -0.0054579355132666424 -0.0032593162530109359 0 -0.0063183080498184271 -0.0035778536032878994 0 -0.0071483614693266077 -0.0029817628871731459 0 -0.0037792542053814143 -0.003253985238482728 0 -0.0036454803380600951 -0.0038092387785321718 0 -0.0046037975425806928 -0.0038176671320179442 0 -0.0037792542053814143 -0.003253985238482728 0 -0.0046037975425806928 -0.0038176671320179442 0 -0.0044991638017571629 -0.0029500979672917329 0 -0.0037792542053814143 -0.003253985238482728 0 -0.0044991638017571629 -0.0029500979672917329 0 -0.0039127223280324289 -0.0024977485710298789 0 -0.0044991638017571629 -0.0029500979672917329 0 -0.0047185106855949727 -0.0021150776898702156 0 -0.0054579355132666424 -0.0032593162530109359 0 -0.0044991638017571629 -0.0029500979672917329 0 -0.0047185106855949727 -0.0021150776898702156 0 -0.0039127223280324289 -0.0024977485710298789 0 -0.0047185106855949727 -0.0021150776898702156 0 -0.0039127223280324289 -0.0024977485710298789 0 -0.0039358071600362528 -0.0016042338783461702 0 -0.0039127223280324289 -0.0024977485710298789 0 -0.0033799780181159242 -0.0021336438260805284 0 -0.0032465175932447268 -0.0028132837790270436 0 -0.0039127223280324289 -0.0024977485710298789 0 -0.0033799780181159242 -0.0021336438260805284 0 -0.0039358071600362528 -0.0016042338783461702 0 -0.0025437228257190717 -0.0025022962758616991 0 -0.0033799780181159242 -0.0021336438260805284 0 -0.0032465175932447268 -0.0028132837790270436 0 -0.0021267057479794887 -0.0014867067444069696 0 -0.0021534149608362502 -0.0025247843106819944 0 -0.0033799780181159242 -0.0021336438260805284 0 -0.0036678897588361724 -0.00096798085049212281 0 -0.0027136393814894571 -0.002662231963731573 0 -0.0025437228257190717 -0.0025022962758616991 0 -0.0032465175932447268 -0.0028132837790270436 0 -0.0028580007469782265 -0.003002632582069543 0 -0.0032083010479471569 -0.0033213848044030903 0 -0.0032465175932447268 -0.0028132837790270436 0 -0.0028580007469782265 -0.003002632582069543 0 -0.0032083010479471569 -0.0033213848044030903 0 -0.0037792542053814143 -0.003253985238482728 0 -0.0032465175932447268 -0.0028132837790270436 0 -0.0037792542053814143 -0.003253985238482728 0 -0.0039127223280324289 -0.0024977485710298789 0 -0.0032465175932447268 -0.0028132837790270436 0 -0.0094472146454460185 -0.0030242089542131603 0 -0.0093680298176731045 -0.0025325012179954363 0 -0.0099175288262854291 -0.0030043879085557474 0 -0.00967883395079756 -0.003369090014019977 0 -0.0094472146454460185 -0.0030242089542131603 0 -0.0099175288262854291 -0.0030043879085557474 0 -0.00967883395079756 -0.003369090014019977 0 -0.0092809635893315156 -0.0033080862711804037 0 -0.0094472146454460185 -0.0030242089542131603 0 -0.0092809635893315156 -0.0033080862711804037 0 -0.0094472146454460185 -0.0030242089542131603 0 -0.0090626278202002343 -0.0028834638261339379 0 -0.0094472146454460185 -0.0030242089542131603 0 -0.0090626278202002343 -0.0028834638261339379 0 -0.0093680298176731045 -0.0025325012179954363 0 -0.0092809635893315156 -0.0033080862711804037 0 -0.0090626278202002343 -0.0028834638261339379 0 -0.0088136719465268139 -0.0031809624899314373 0 -0.0090117015081917096 -0.0035053426806613015 0 -0.0092809635893315156 -0.0033080862711804037 0 -0.0088136719465268139 -0.0031809624899314373 0 -0.008749776794121077 -0.0034346850191234895 0 -0.0086005541166611892 -0.0033539948761895865 0 -0.0088136719465268139 -0.0031809624899314373 0 -0.0090626278202002343 -0.0028834638261339379 0 -0.0088136719465268139 -0.0031809624899314373 0 -0.0087284733840860343 -0.0027794781975067208 0 -0.0084587137661844627 -0.00312621029781893 0 -0.0088136719465268139 -0.0031809624899314373 0 -0.0087284733840860343 -0.0027794781975067208 0 -0.0054579355132666424 -0.0032593162530109359 0 -0.0064104695157317969 -0.0026506884229519339 0 -0.005700889242617419 -0.0019258681144206174 0 -0.0047185106855949727 -0.0021150776898702156 0 -0.0054579355132666424 -0.0032593162530109359 0 -0.005700889242617419 -0.0019258681144206174 0 -0.0064104695157317969 -0.0026506884229519339 0 -0.0065044687656400898 -0.0016512206432507249 0 -0.005700889242617419 -0.0019258681144206174 0 -0.0090626278202002343 -0.0028834638261339379 0 -0.0087284733840860343 -0.0027794781975067208 0 -0.0089870239537360765 -0.0023739007827101102 0 -0.0071483614693266077 -0.0029817628871731459 0 -0.0076993667582956693 -0.0025108387647355263 0 -0.0090626278202002343 -0.0028834638261339379 0 -0.0089870239537360765 -0.0023739007827101102 0 -0.0093680298176731045 -0.0025325012179954363 0 -0.0089870239537360765 -0.0023739007827101102 0 -0.0093680298176731045 -0.0025325012179954363 0 -0.0091429977859792087 -0.0018624586976845707 0 -0.0076993667582956693 -0.0025108387647355263 0 -0.0083682803686426308 -0.0018928617187007183 0 -0.0064104695157317969 -0.0026506884229519339 0 -0.0075320112675370332 -0.0020203053770132492 0 -0.0065044687656400898 -0.0016512206432507249 0 -0.0093680298176731045 -0.0025325012179954363 0 -0.0091429977859792087 -0.0018624586976845707 0 -0.0096055722071660167 -0.0022221280131939241 0 -0.0075320112675370332 -0.0020203053770132492 0 -0.0079806112614843154 -0.00025802806937203366 0 -0.0090472549332716555 -0.0011034896764906903 0 -0.0075320112675370332 -0.0020203053770132492 0 -0.0068547816648141732 -0.00069605938654037757 0 -0.0079806112614843154 -0.00025802806937203366 0 -0.0083682803686426308 -0.0018928617187007183 0 -0.0090588722193853024 -0.0011457968705531072 0 -0.0075320112675370332 -0.0020203053770132492 0 -0.0068547816648141732 -0.00069605938654037757 0 -0.0065044687656400898 -0.0016512206432507249 0 -0.0068547816648141732 -0.00069605938654037757 0 -0.0065044687656400898 -0.0016512206432507249 0 -0.0056565599448664414 -0.00091067744980622507 0 -0.0065044687656400898 -0.0016512206432507249 0 -0.005700889242617419 -0.0019258681144206174 0 -0.0056565599448664414 -0.00091067744980622507 0 -0.005700889242617419 -0.0019258681144206174 0 -0.0056565599448664414 -0.00091067744980622507 0 -0.0045622049611095811 -0.00097422677614957356 0 -0.0056565599448664414 -0.00091067744980622507 0 -0.005313334602248314 0.00039327344121101128 0 -0.0045622049611095811 -0.00097422677614957356 0 -0.005313334602248314 0.00039327344121101128 0 -0.0063159861467157507 9.088195341223909e-05 0 -0.006423200322424996 0.0010506437833142262 0 -0.0056565599448664414 -0.00091067744980622507 0 -0.005313334602248314 0.00039327344121101128 0 -0.0063159861467157507 9.088195341223909e-05 0 -0.0068547816648141732 -0.00069605938654037757 0 -0.0056565599448664414 -0.00091067744980622507 0 -0.0063159861467157507 9.088195341223909e-05 0 -0.0068547816648141732 -0.00069605938654037757 0 -0.0063159861467157507 9.088195341223909e-05 0 -0.0074003691333441157 0.00058655830591104231 0 -0.0063159861467157507 9.088195341223909e-05 0 -0.0074003691333441157 0.00058655830591104231 0 -0.006423200322424996 0.0010506437833142262 0 -0.0074003691333441157 0.00058655830591104231 0 -0.0082221876742236931 0.0012690145865375635 0 -0.0083969958406531001 0.00064266209569731716 0 -0.0074003691333441157 0.00058655830591104231 0 -0.0079806112614843154 -0.00025802806937203366 0 -0.0083969958406531001 0.00064266209569731716 0 -0.0068547816648141732 -0.00069605938654037757 0 -0.0074003691333441157 0.00058655830591104231 0 -0.0079806112614843154 -0.00025802806937203366 0 -0.0020866983280774312 -0.00049287897483491286 0 -0.0021267057479794887 -0.0014867067444069696 0 -0.0032810604504907781 -0.00088052669974750546 0 -0.0021267057479794887 -0.0014867067444069696 0 -0.0033799780181159242 -0.0021336438260805284 0 -0.0032810604504907781 -0.00088052669974750546 0 -0.0033799780181159242 -0.0021336438260805284 0 -0.0032810604504907781 -0.00088052669974750546 0 -0.0039358071600362528 -0.0016042338783461702 0 -0.0047185106855949727 -0.0021150776898702156 0 -0.0039358071600362528 -0.0016042338783461702 0 -0.0045622049611095811 -0.00097422677614957356 0 -0.0047185106855949727 -0.0021150776898702156 0 -0.005700889242617419 -0.0019258681144206174 0 -0.0045622049611095811 -0.00097422677614957356 0 -0.0032810604504907781 -0.00088052669974750546 0 -0.0039358071600362528 -0.0016042338783461702 0 -0.0045622049611095811 -0.00097422677614957356 0 -0.005313334602248314 0.00039327344121101128 0 -0.0045622049611095811 -0.00097422677614957356 0 -0.0039172952454305937 9.3237205702186786e-05 0 -0.005313334602248314 0.00039327344121101128 0 -0.0039172952454305937 9.3237205702186786e-05 0 -0.0042133149826176844 0.0011742261865980495 0 -0.0032810604504907781 -0.00088052669974750546 0 -0.0045622049611095811 -0.00097422677614957356 0 -0.0039172952454305937 9.3237205702186786e-05 0 -0.0039172952454305937 9.3237205702186786e-05 0 -0.0028048830569517534 0.00018829099743821097 0 -0.0032265154142369222 0.0007706887137003929 0 -0.0032810604504907781 -0.00088052669974750546 0 -0.0039172952454305937 9.3237205702186786e-05 0 -0.0028048830569517534 0.00018829099743821097 0 -0.0020866983280774312 -0.00049287897483491286 0 -0.0032810604504907781 -0.00088052669974750546 0 -0.0028048830569517534 0.00018829099743821097 0 -0.0020546328765840274 0.00057152229911075882 0 -0.0028048830569517534 0.00018829099743821097 0 -0.00240630418639494 0.00081024786899390217 0 -0.0028048830569517534 0.00018829099743821097 0 -0.00240630418639494 0.00081024786899390217 0 -0.0032265154142369222 0.0007706887137003929 0 -0.00240630418639494 0.00081024786899390217 0 -0.0027244124968778291 0.0012358617010820815 0 -0.0032265154142369222 0.0007706887137003929 0 -0.00240630418639494 0.00081024786899390217 0 -0.0027244124968778291 0.0012358617010820815 0 -0.0020100011633535282 0.001075069232105744 0 -0.0027244124968778291 0.0012358617010820815 0 -0.0025142208047598327 0.0016441940611728271 0 -0.0020100011633535282 0.001075069232105744 0 -0.0027244124968778291 0.0012358617010820815 0 -0.0025142208047598327 0.0016441940611728271 0 -0.003020649942150263 0.0017533740996895407 0 -0.0027244124968778291 0.0012358617010820815 0 -0.0033694328918950655 0.0013457197036175607 0 -0.0032265154142369222 0.0007706887137003929 0 -0.0033694328918950655 0.0013457197036175607 0 -0.0037379413076722001 0.0017497782467339926 0 -0.003020649942150263 0.0017533740996895407 0 -0.0027244124968778291 0.0012358617010820815 0 -0.0033694328918950655 0.0013457197036175607 0 -0.003020649942150263 0.0017533740996895407 0 -0.0033694328918950655 0.0013457197036175607 0 -0.0032265154142369222 0.0007706887137003929 0 -0.0042133149826176844 0.0011742261865980495 0 -0.0039172952454305937 9.3237205702186786e-05 0 -0.0032265154142369222 0.0007706887137003929 0 -0.0042133149826176844 0.0011742261865980495 0 -0.0042133149826176844 0.0011742261865980495 0 -0.004489498243399114 0.002030670167982401 0 -0.0055363832589171089 0.0016141612063960123 0 -0.0042133149826176844 0.0011742261865980495 0 -0.0037379413076722001 0.0017497782467339926 0 -0.004489498243399114 0.002030670167982401 0 -0.0033694328918950655 0.0013457197036175607 0 -0.0042133149826176844 0.0011742261865980495 0 -0.0037379413076722001 0.0017497782467339926 0 -0.0037379413076722001 0.0017497782467339926 0 -0.004489498243399114 0.002030670167982401 0 -0.0038193230288858094 0.0022489525557501046 0 -0.004489498243399114 0.002030670167982401 0 -0.0040974568763009348 0.0026058754739936222 0 -0.0051159957801254503 0.002363788321915747 0 -0.0040974568763009348 0.0026058754739936222 0 -0.0038193230288858094 0.0022489525557501046 0 -0.0035219400829189528 0.0028021395950716013 0 -0.004489498243399114 0.002030670167982401 0 -0.0040974568763009348 0.0026058754739936222 0 -0.0038193230288858094 0.0022489525557501046 0 -0.0038193230288858094 0.0022489525557501046 0 -0.0032463239415969304 0.0023830538597853254 0 -0.0035219400829189528 0.0028021395950716013 0 -0.0032463239415969304 0.0023830538597853254 0 -0.0027075131591526424 0.0021939668064219616 0 -0.002588122377111124 0.0027552964349823834 0 -0.0032463239415969304 0.0023830538597853254 0 -0.0027075131591526424 0.0021939668064219616 0 -0.003020649942150263 0.0017533740996895407 0 -0.0027075131591526424 0.0021939668064219616 0 -0.0025142208047598327 0.0016441940611728271 0 -0.003020649942150263 0.0017533740996895407 0 -0.0037379413076722001 0.0017497782467339926 0 -0.0032463239415969304 0.0023830538597853254 0 -0.003020649942150263 0.0017533740996895407 0 -0.0037379413076722001 0.0017497782467339926 0 -0.0038193230288858094 0.0022489525557501046 0 -0.0032463239415969304 0.0023830538597853254 0 -0.0074663728933139425 0.0015601704877317383 0 -0.0076670656840523693 0.0021444705295287567 0 -0.0083352396603689986 0.0017700797281302431 0 -0.0074663728933139425 0.0015601704877317383 0 -0.0076670656840523693 0.0021444705295287567 0 -0.0066883529013763111 0.0021704850843137138 0 -0.0074003691333441157 0.00058655830591104231 0 -0.0074663728933139425 0.0015601704877317383 0 -0.0082221876742236931 0.0012690145865375635 0 -0.0074003691333441157 0.00058655830591104231 0 -0.0074663728933139425 0.0015601704877317383 0 -0.006423200322424996 0.0010506437833142262 0 -0.0074663728933139425 0.0015601704877317383 0 -0.006423200322424996 0.0010506437833142262 0 -0.0066883529013763111 0.0021704850843137138 0 -0.005313334602248314 0.00039327344121101128 0 -0.0042133149826176844 0.0011742261865980495 0 -0.0055363832589171089 0.0016141612063960123 0 -0.006423200322424996 0.0010506437833142262 0 -0.0055363832589171089 0.0016141612063960123 0 -0.0066883529013763111 0.0021704850843137138 0 -0.005313334602248314 0.00039327344121101128 0 -0.006423200322424996 0.0010506437833142262 0 -0.0055363832589171089 0.0016141612063960123 0 -0.004489498243399114 0.002030670167982401 0 -0.0055363832589171089 0.0016141612063960123 0 -0.0051159957801254503 0.002363788321915747 0 -0.005514550052568238 0.0016357456937868961 0 -0.0054031372769937618 0.0025551362214597494 0 -0.0056746728238460716 0.0028172606292423204 0 -0.0067423814417194132 0.0029312661766689643 0 -0.0062631990037769255 0.0034317516729824049 0 -0.0055363832589171089 0.0016141612063960123 0 -0.0056746728238460716 0.0028172606292423204 0 -0.0066883529013763111 0.0021704850843137138 0 -0.0066883529013763111 0.0021704850843137138 0 -0.0067423814417194132 0.0029312661766689643 0 -0.0073032549187586095 0.0025965908582553372 0 -0.0056746728238460716 0.0028172606292423204 0 -0.0066883529013763111 0.0021704850843137138 0 -0.0067423814417194132 0.0029312661766689643 0 -0.0067423814417194132 0.0029312661766689643 0 -0.0074812376684805686 0.0030408988672098298 0 -0.0073032549187586095 0.0025965908582553372 0 -0.0076670656840523693 0.0021444705295287567 0 -0.0066883529013763111 0.0021704850843137138 0 -0.0073032549187586095 0.0025965908582553372 0 -0.0076670656840523693 0.0021444705295287567 0 -0.0073032549187586095 0.0025965908582553372 0 -0.0081118131070694946 0.0026611498698582516 0 -0.0069273958913282979 0.0038672822309692187 0 -0.0071983745536927431 0.0042142842319381722 0 -0.0073719696926691589 0.0038010491075842843 0 -0.0069273958913282979 0.0038672822309692187 0 -0.0064823941045123387 0.0038085996807670818 0 -0.0066097456365272582 0.0040766996795822685 0 -0.0069273958913282979 0.0038672822309692187 0 -0.0070175566943085736 0.003455527651875076 0 -0.0064823941045123387 0.0038085996807670818 0 -0.0069273958913282979 0.0038672822309692187 0 -0.0070175566943085736 0.003455527651875076 0 -0.0073719696926691589 0.0038010491075842843 0 -0.0070175566943085736 0.003455527651875076 0 -0.0076798831432998765 0.0034514822483314904 0 -0.0073719696926691589 0.0038010491075842843 0 -0.0067423814417194132 0.0029312661766689643 0 -0.0074812376684805686 0.0030408988672098298 0 -0.0070175566943085736 0.003455527651875076 0 -0.0074812376684805686 0.0030408988672098298 0 -0.0070175566943085736 0.003455527651875076 0 -0.0076798831432998765 0.0034514822483314904 0 -0.0067423814417194132 0.0029312661766689643 0 -0.0070175566943085736 0.003455527651875076 0 -0.0062631990037769255 0.0034317516729824049 0 -0.0062631990037769255 0.0034317516729824049 0 -0.0064823941045123387 0.0038085996807670818 0 -0.0059120184482236273 0.0038922314417425669 0 -0.0070175566943085736 0.003455527651875076 0 -0.0062631990037769255 0.0034317516729824049 0 -0.0064823941045123387 0.0038085996807670818 0 -0.0062631990037769255 0.0034317516729824049 0 -0.0056306122310711562 0.0036111051226611905 0 -0.0059120184482236273 0.0038922314417425669 0 -0.0056746728238460716 0.0028172606292423204 0 -0.0062631990037769255 0.0034317516729824049 0 -0.0056306122310711562 0.0036111051226611905 0 -0.0054031372769937618 0.0025551362214597494 0 -0.0052942029784689461 0.003369132337954244 0 -0.0051159957801254503 0.002363788321915747 0 -0.0049737941299580011 0.0030743598356313012 0 -0.0045126508829985562 0.0028920478524504033 0 -0.0049737941299580011 0.0030743598356313012 0 -0.0045126508829985562 0.0028920478524504033 0 -0.0044266739962790843 0.0034578990434046709 0 -0.0051596544580489595 0.0041269542947684409 0 -0.0044266739962790843 0.0034578990434046709 0 -0.0043431801357356001 0.004160750722532457 0 -0.0049737941299580011 0.0030743598356313012 0 -0.0051596544580489595 0.0041269542947684409 0 -0.0044266739962790843 0.0034578990434046709 0 -0.0052942029784689461 0.003369132337954244 0 -0.005181882118473099 0.0041233465980001329 0 -0.0051596544580489595 0.0041269542947684409 0 -0.0043431801357356001 0.004160750722532457 0 -0.0049029612668882849 0.0046772809165976622 0 -0.0051596544580489595 0.0041269542947684409 0 -0.0049029612668882849 0.0046772809165976622 0 -0.0055087691277521311 0.0046952563436445131 0 -0.0051596544580489595 0.0041269542947684409 0 -0.0058002547762945967 0.0042764819405730695 0 -0.0055087691277521311 0.0046952563436445131 0 -0.0058002547762945967 0.0042764819405730695 0 -0.006021936707290244 0.0046011230799013871 0 -0.0055087691277521311 0.0046952563436445131 0 -0.0051596544580489595 0.0041269542947684409 0 -0.0058002547762945967 0.0042764819405730695 0 -0.0059120184482236273 0.0038922314417425669 0 -0.0056306122310711562 0.0036111051226611905 0 -0.0051596544580489595 0.0041269542947684409 0 -0.0059120184482236273 0.0038922314417425669 0 -0.0058002547762945967 0.0042764819405730695 0 -0.0059120184482236273 0.0038922314417425669 0 -0.0061899315888719122 0.0041152518195422616 0 -0.0064823941045123387 0.0038085996807670818 0 -0.0059120184482236273 0.0038922314417425669 0 -0.0061899315888719122 0.0041152518195422616 0 -0.0064823941045123387 0.0038085996807670818 0 -0.0061899315888719122 0.0041152518195422616 0 -0.0066097456365272582 0.0040766996795822685 0 -0.0061899315888719122 0.0041152518195422616 0 -0.0063412094776218505 0.0043377205736819541 0 -0.0066097456365272582 0.0040766996795822685 0 -0.0061899315888719122 0.0041152518195422616 0 -0.0060985991003703168 0.0043506452267267374 0 -0.0063412094776218505 0.0043377205736819541 0 -0.0058002547762945967 0.0042764819405730695 0 -0.0061899315888719122 0.0041152518195422616 0 -0.0060985991003703168 0.0043506452267267374 0 -0.0058002547762945967 0.0042764819405730695 0 -0.0060985991003703168 0.0043506452267267374 0 -0.006021936707290244 0.0046011230799013871 0 -0.006021936707290244 0.0046011230799013871 0 -0.0062999041731920634 0.0045685088523663084 0 -0.0062334334733820931 0.0047743610651562341 0 -0.006021936707290244 0.0046011230799013871 0 -0.006207963489712507 0.0044850890278865015 0 -0.0062999041731920634 0.0045685088523663084 0 -0.0060985991003703168 0.0043506452267267374 0 -0.006021936707290244 0.0046011230799013871 0 -0.006207963489712507 0.0044850890278865015 0 -0.0060985991003703168 0.0043506452267267374 0 -0.006207963489712507 0.0044850890278865015 0 -0.0063412094776218505 0.0043377205736819541 0 -0.006207963489712507 0.0044850890278865015 0 -0.0063412094776218505 0.0043377205736819541 0 -0.006859107600174259 0.0044195593282183449 0 -0.0061402907065278402 0.0044908732466540204 0 -0.0070992580496088073 0.0040148157682849536 0 -0.006207963489712507 0.0044850890278865015 0 -0.0064577461811026029 0.004484965020022184 0 -0.0064869987240927431 0.0042997279067443902 0 -0.006207963489712507 0.0044850890278865015 0 -0.0062999041731920634 0.0045685088523663084 0 -0.0064577461811026029 0.004484965020022184 0 -0.0062999041731920634 0.0045685088523663084 0 -0.0064577461811026029 0.004484965020022184 0 -0.0062334334733820931 0.0047743610651562341 0 -0.0064577461811026029 0.004484965020022184 0 -0.0064869987240927431 0.0042997279067443902 0 -0.0066918367674502774 0.0041805850988526887 0 -0.006452302821823787 0.0043220729086249901 0 -0.0070970437583821678 0.0039830518600480992 0 -0.0063412094776218505 0.0043377205736819541 0 -0.0066097456365272582 0.0040766996795822685 0 -0.0071983745536927431 0.0042142842319381722 0 -0.0063412094776218505 0.0043377205736819541 0 -0.006859107600174259 0.0044195593282183449 0 -0.0069745740236849046 0.0037992868319485316 0 -0.0069273958913282979 0.0038672822309692187 0 -0.0066097456365272582 0.0040766996795822685 0 -0.0071983745536927431 0.0042142842319381722 0 -0.0032891602785027861 0.0032207210878241444 0 -0.0029270394118757867 0.0033815796440580664 0 -0.0031145023903245356 0.0029249536182091277 0 -0.0032891602785027861 0.0032207210878241444 0 -0.0028519047648480583 0.0033214599301575479 0 -0.003356365372656584 0.0035340921889892205 0 -0.0032930564089335887 0.0030970217704582702 0 -0.0020610825520705417 0.0021864529199848923 0 -0.0020610825520705417 0.0021864529199848923 0 -0.0020967140406599159 0.0023321033355717595 0 -0.0015592105118370904 0.0017681527930970907 0 -0.001488895330180948 0.0015895310848284686 0 -0.0014041637380835157 0.0016169552329222989 0 -0.0032463239415969304 0.0023830538597853254 0 -0.002588122377111124 0.0027552964349823834 0 -0.0031145023903245356 0.0029249536182091277 0 -0.0029270394118757867 0.0033815796440580664 0 -0.002588122377111124 0.0027552964349823834 0 -0.0031145023903245356 0.0029249536182091277 0 -0.0032891602785027861 0.0032207210878241444 0 -0.0035219400829189528 0.0028021395950716013 0 -0.0031145023903245356 0.0029249536182091277 0 -0.0032463239415969304 0.0023830538597853254 0 -0.0035219400829189528 0.0028021395950716013 0 -0.0031145023903245356 0.0029249536182091277 0 -0.0040974568763009348 0.0026058754739936222 0 -0.0035219400829189528 0.0028021395950716013 0 -0.0038683689483104658 0.0031678446082821711 0 -0.0040974568763009348 0.0026058754739936222 0 -0.0051159957801254503 0.002363788321915747 0 -0.0045126508829985562 0.0028920478524504033 0 -0.0040974568763009348 0.0026058754739936222 0 -0.0045126508829985562 0.0028920478524504033 0 -0.0038683689483104658 0.0031678446082821711 0 -0.0038683689483104658 0.0031678446082821711 0 -0.0044266739962790843 0.0034578990434046709 0 -0.0038895903497421732 0.0036536290625197657 0 -0.0045126508829985562 0.0028920478524504033 0 -0.0038683689483104658 0.0031678446082821711 0 -0.0044266739962790843 0.0034578990434046709 0 -0.0032891602785027861 0.0032207210878241444 0 -0.0038683689483104658 0.0031678446082821711 0 -0.003356365372656584 0.0035340921889892205 0 -0.0032891602785027861 0.0032207210878241444 0 -0.0035219400829189528 0.0028021395950716013 0 -0.0038683689483104658 0.0031678446082821711 0 -0.0038683689483104658 0.0031678446082821711 0 -0.003356365372656584 0.0035340921889892205 0 -0.0038895903497421732 0.0036536290625197657 0 -0.003356365372656584 0.0035340921889892205 0 -0.0038895903497421732 0.0036536290625197657 0 -0.0034182069711483284 0.0039444695894343884 0 -0.0044266739962790843 0.0034578990434046709 0 -0.0038895903497421732 0.0036536290625197657 0 -0.0043431801357356001 0.004160750722532457 0 -0.0038895903497421732 0.0036536290625197657 0 -0.0043431801357356001 0.004160750722532457 0 -0.0034182069711483284 0.0039444695894343884 0 -0.0043431801357356001 0.004160750722532457 0 -0.0034182069711483284 0.0039444695894343884 0 -0.0038704242016739778 0.0045760322204407931 0 -0.0027934136707188349 0.0039053016665943521 0 -0.0021351747950268036 0.0017746804690635229 0 -0.000772924221931527 0.0032730355186258906 0 -0.0028163113272466483 0.003777597221397401 0 -0.0024873522683888857 0.0026868901271344097 0 -0.0034182069711483284 0.0039444695894343884 0 -0.0027934136707188349 0.0039053016665943521 0 -0.0029381881612643742 0.0036901100452486082 0 -0.003356365372656584 0.0035340921889892205 0 -0.0034182069711483284 0.0039444695894343884 0 -0.0029381881612643742 0.0036901100452486082 0 -0.0028519047648480583 0.0033214599301575479 0 -0.003356365372656584 0.0035340921889892205 0 -0.0029381881612643742 0.0036901100452486082 0 -0.0020610825520705417 0.0021864529199848923 0 -0.0024873522683888857 0.0026868901271344097 0 -0.0013955241078206187 -6.2885522451543255e-05 0 -0.00038193888349335927 0.0016181331794781289 0 0.0011745575195513643 0.00081916095357745559 0 -0.0020610825520705417 0.0021864529199848923 0 -9.2855973233819277e-05 0.0012398372787477407 0 -0.0013955241078206187 -6.2885522451543255e-05 0 -0.0021351747950268036 0.0017746804690635229 0 -0.00038193888349335927 0.0016181331794781289 0 -0.0021351747950268036 0.0017746804690635229 0 -0.00038193888349335927 0.0016181331794781289 0 -0.000772924221931527 0.0032730355186258906 0 -0.000772924221931527 0.0032730355186258906 0 0.00069855162653581937 0.0034107407939646776 0 0.0012725563053555928 0.0021354475529227024 0 -0.00038193888349335927 0.0016181331794781289 0 -0.000772924221931527 0.0032730355186258906 0 0.0012725563053555928 0.0021354475529227024 0 0.00069855162653581937 0.0034107407939646776 0 0.0022664764875685159 0.0023006800856568001 0 0.0013121282282494825 0.0047648773738449834 0 0.00069855162653581937 0.0034107407939646776 0 0.0012725563053555928 0.0021354475529227024 0 0.0022664764875685159 0.0023006800856568001 0 0.0022664764875685159 0.0023006800856568001 0 0.0035732044561920945 0.0020834693750796012 0 0.0013121282282494825 0.0047648773738449834 0 0.0022664764875685159 0.0023006800856568001 0 0.0034223498767744932 0.0018742735266611655 0 0.0035732044561920945 0.0020834693750796012 0 -0.00056138819921354433 0.0015238585905291825 0 -0.00073501783818569395 0.001094699628623047 0 -0.0011432549997643928 0.001142699722814951 0 0.0013830091165153045 0.0016263790199425054 0 -9.2855973233819277e-05 0.0012398372787477407 0 0.0022664764875685159 0.0023006800856568001 0 0.0034223498767744932 0.0018742735266611655 0 0.0013103053685549768 0.00081633317746190653 0 -0.00056138819921354433 0.0015238585905291825 0 -0.00073501783818569395 0.001094699628623047 0 -0.00031334893368874413 0.00091619129588994667 0 -0.00038193888349335927 0.0016181331794781289 0 0.0012725563053555928 0.0021354475529227024 0 0.0011745575195513643 0.00081916095357745559 0 0.0012725563053555928 0.0021354475529227024 0 0.0022664764875685159 0.0023006800856568001 0 0.0013103053685549768 0.00081633317746190653 0 0.00097444262209679352 0.0018372116476124988 0 -9.2855973233819277e-05 0.0012398372787477407 0 -9.2855973233819277e-05 0.0012398372787477407 0 -0.0014268067990909805 0.0011162619540048689 0 -0.0015592105118370904 0.0017681527930970907 0 -0.0013847239579670354 0.001823307475115502 0 -0.0014041637380835157 0.0016169552329222989 0 -0.0011432549997643928 0.001142699722814951 0 -0.00075797212973934512 0.00077096142437336817 0 -0.0011735959529917811 0.00059829748323005571 0 -0.00073501783818569395 0.001094699628623047 0 -0.0011432549997643928 0.001142699722814951 0 -0.00075797212973934512 0.00077096142437336817 0 -0.00073501783818569395 0.001094699628623047 0 -0.00075797212973934512 0.00077096142437336817 0 -0.00031334893368874413 0.00091619129588994667 0 -0.0011735959529917811 0.00059829748323005571 0 -0.0010221715841904314 0.00060284202460260318 0 -0.001321489238991167 0.00067305940844201116 0 -0.00075797212973934512 0.00077096142437336817 0 -0.0011735959529917811 0.00059829748323005571 0 -0.0010221715841904314 0.00060284202460260318 0 -0.00030795103208659596 0.00067221707048789148 0 -0.00081279521694941595 0.00053227686511536957 0 -0.00129517993950206 0.00061164835010331169 0 -0.00075797212973934512 0.00077096142437336817 0 -0.0010221715841904314 0.00060284202460260318 0 -0.00030795103208659596 0.00067221707048789148 0 -0.0010221715841904314 0.00060284202460260318 0 -0.00030795103208659596 0.00067221707048789148 0 -0.00129517993950206 0.00061164835010331169 0 -0.00075797212973934512 0.00077096142437336817 0 -0.00030795103208659596 0.00067221707048789148 0 -0.00031334893368874413 0.00091619129588994667 0 -0.00030795103208659596 0.00067221707048789148 0 -0.00031334893368874413 0.00091619129588994667 0 0.00043904537299890574 0.001094790127209901 0 -0.00030795103208659596 0.00067221707048789148 0 0.0006842437000510517 0.0010813285530442689 0 -5.3183634606569519e-05 0.00077940280251378167 0 -0.00030795103208659596 0.00067221707048789148 0 -5.3183634606569519e-05 0.00077940280251378167 0 -0.00081279521694941595 0.00053227686511536957 0 -0.00030795103208659596 0.00067221707048789148 0 0.0006842437000510517 0.0010813285530442689 0 0.00043904537299890574 0.001094790127209901 0 0.0006842437000510517 0.0010813285530442689 0 0.0017728242167675619 0.0017576065611959485 0 0.0011823993990991268 0.0011605954996165189 0 0.0006842437000510517 0.0010813285530442689 0 0.00043904537299890574 0.001094790127209901 0 0.0017728242167675619 0.0017576065611959485 0 -0.00056138819921354433 0.0015238585905291825 0 0.00043904537299890574 0.001094790127209901 0 0.0017728242167675619 0.0017576065611959485 0 -0.00056138819921354433 0.0015238585905291825 0 -0.00031334893368874413 0.00091619129588994667 0 0.00043904537299890574 0.001094790127209901 0 0.0035732044561920945 0.0020834693750796012 0 0.0017728242167675619 0.0017576065611959485 0 0.003369702042261574 0.0011403693459888147 0 0.0013830091165153045 0.0016263790199425054 0 0.0016768943481772084 0.0017456575528591557 0 0.0034223498767744932 0.0018742735266611655 0 0.0035732044561920945 0.0020834693750796012 0 0.0017728242167675619 0.0017576065611959485 0 0.0035732044561920945 0.0020834693750796012 0 0.0044994444198519007 0.0012541634341830404 0 0.003369702042261574 0.0011403693459888147 0 0.0017728242167675619 0.0017576065611959485 0 0.0011823993990991268 0.0011605954996165189 0 0.0023827821700205137 0.0011404718277844407 0 0.0017728242167675619 0.0017576065611959485 0 0.003369702042261574 0.0011403693459888147 0 0.0023827821700205137 0.0011404718277844407 0 0.0011823993990991268 0.0011605954996165189 0 0.00092085112364781961 0.00092041162253456502 0 7.9664764573816478e-05 0.00076306431981043588 0 0.0011823993990991268 0.0011605954996165189 0 0.00092085112364781961 0.00092041162253456502 0 0.0020804750369774927 0.0008290171177331052 0 0.0011823993990991268 0.0011605954996165189 0 0.0023827821700205137 0.0011404718277844407 0 0.0020804750369774927 0.0008290171177331052 0 0.00092085112364781961 0.00092041162253456502 0 0.0001429407179266488 0.00072974818599906858 0 0.0011519528128085238 0.00060293813190566274 0 0.00092085112364781961 0.00092041162253456502 0 7.9664764573816478e-05 0.00076306431981043588 0 0.0001429407179266488 0.00072974818599906858 0 7.9664764573816478e-05 0.00076306431981043588 0 0.0001429407179266488 0.00072974818599906858 0 -0.0013117435149159185 0.00019374205611031225 0 0.0006842437000510517 0.0010813285530442689 0 7.9664764573816478e-05 0.00076306431981043588 0 -5.3183634606569519e-05 0.00077940280251378167 0 0.0006842437000510517 0.0010813285530442689 0 0.0011823993990991268 0.0011605954996165189 0 7.9664764573816478e-05 0.00076306431981043588 0 5.2784959907777134e-05 -6.7055886597371759e-05 0 -0.0015061312047033783 2.1836497905402264e-07 0 0.00057436850359009574 -5.1960191873944075e-07 0 3.8908830352354496e-05 0.00031500908562413869 0 -0.0010286232310751978 0.00027308420392816493 0 5.2784959907777134e-05 -6.7055886597371759e-05 0 -0.0015061312047033783 2.1836497905402264e-07 0 -0.0013117435149159185 0.00019374205611031225 0 -0.0015061312047033783 2.1836497905402264e-07 0 -0.0013117435149159185 0.00019374205611031225 0 -0.0035884702426670768 -5.4535835117335155e-07 0 -0.0027752016727690459 0.00014775668464067231 0 -0.0013032846230982412 0.00034772302983880176 0 -0.0020006139518463821 0.00038950940680110139 0 -0.0013117435149159185 0.00019374205611031225 0 -0.0027752016727690459 0.00014775668464067231 0 -0.0013032846230982412 0.00034772302983880176 0 -0.0013117435149159185 0.00019374205611031225 0 -0.0027752016727690459 0.00014775668464067231 0 -0.0035884702426670768 -5.4535835117335155e-07 0 7.9664764573816478e-05 0.00076306431981043588 0 -5.3183634606569519e-05 0.00077940280251378167 0 -0.00081279521694941595 0.00053227686511536957 0 7.9664764573816478e-05 0.00076306431981043588 0 -0.0013117435149159185 0.00019374205611031225 0 -0.0013032846230982412 0.00034772302983880176 0 7.9664764573816478e-05 0.00076306431981043588 0 -0.0013032846230982412 0.00034772302983880176 0 -0.00081279521694941595 0.00053227686511536957 0 -0.0013032846230982412 0.00034772302983880176 0 -0.00081279521694941595 0.00053227686511536957 0 -0.0020006139518463821 0.00038950940680110139 0 -0.00081279521694941595 0.00053227686511536957 0 -0.0014840216734083218 0.000551189835214831 0 -0.0020006139518463821 0.00038950940680110139 0 -0.00081279521694941595 0.00053227686511536957 0 -0.0014840216734083218 0.000551189835214831 0 -0.00129517993950206 0.00061164835010331169 0 -0.0014840216734083218 0.000551189835214831 0 -0.0021574581586434349 0.00065972811373266689 0 -0.00129517993950206 0.00061164835010331169 0 -0.0014840216734083218 0.000551189835214831 0 -0.0020006139518463821 0.00038950940680110139 0 -0.0021574581586434349 0.00065972811373266689 0 -0.0020006139518463821 0.00038950940680110139 0 -0.0021574581586434349 0.00065972811373266689 0 -0.0033380217953495237 0.00046201522524451957 0 -0.0021574581586434349 0.00065972811373266689 0 -0.0019707733718537239 0.00095630266877033969 0 -0.00129517993950206 0.00061164835010331169 0 -0.0027752016727690459 0.00014775668464067231 0 -0.0033380217953495237 0.00046201522524451957 0 -0.0056644171667866033 2.7807614661692112e-06 0 -0.0027752016727690459 0.00014775668464067231 0 -0.0035884702426670768 -5.4535835117335155e-07 0 -0.0056644171667866033 2.7807614661692112e-06 0 -0.0027752016727690459 0.00014775668464067231 0 -0.0020006139518463821 0.00038950940680110139 0 -0.0033380217953495237 0.00046201522524451957 0 -0.0021574581586434349 0.00065972811373266689 0 -0.0033380217953495237 0.00046201522524451957 0 -0.0038214090599896946 0.0010860776703825598 0 -0.0033380217953495237 0.00046201522524451957 0 -0.0041920387516183417 0.00076391069143055183 0 -0.0038214090599896946 0.0010860776703825598 0 -0.0056644171667866033 2.7807614661692112e-06 0 -0.0041920387516183417 0.00076391069143055183 0 -0.0042563878483815997 0.0011238145773946192 0 -0.0033380217953495237 0.00046201522524451957 0 -0.0056644171667866033 2.7807614661692112e-06 0 -0.0041920387516183417 0.00076391069143055183 0 -0.0056700380723872963 -2.8541794858618745e-07 0 -0.0061381090628892772 0.00039552717832938485 0 -0.0056702998947753 2.0474779972862424e-07 0 -0.0073702275724883953 1.2274523614353351e-07 0 -0.0078351166810086779 5.5643084451699252e-06 0 -0.0041920387516183417 0.00076391069143055183 0 -0.0042563878483815997 0.0011238145773946192 0 -0.0038214090599896946 0.0010860776703825598 0 -0.0042563878483815997 0.0011238145773946192 0 -0.0038214090599896946 0.0010860776703825598 0 -0.0048839515132187237 0.00045392356180834785 0 -0.0038214090599896946 0.0010860776703825598 0 -0.0048839515132187237 0.00045392356180834785 0 -0.0059467657769524474 4.5670662089852339e-05 0 -0.0053306392412454965 -0.00036550253763010252 0 -0.0042563878483815997 0.0011238145773946192 0 -0.0048839515132187237 0.00045392356180834785 0 -0.0092997143026518955 -0.00032729669418889938 0 -0.0090691040346168907 -6.0575118687260481e-07 0 -0.0078351166810086779 5.5643084451699252e-06 0 -0.0090691040346168907 -6.0575118687260481e-07 0 -0.0073702275724883953 1.2274523614353351e-07 0 -0.0078351166810086779 5.5643084451699252e-06 0 -0.007255709893314889 -0.00023119569809927664 0 -0.0061381090628892772 0.00039552717832938485 0 -0.0019707733718537239 0.00095630266877033969 0 -0.0023960923171572196 0.001117877234616196 0 -0.0023093318392990499 0.0011393215689605013 0 -0.0021574581586434349 0.00065972811373266689 0 -0.0019707733718537239 0.00095630266877033969 0 -0.0023960923171572196 0.001117877234616196 0 -0.0021574581586434349 0.00065972811373266689 0 -0.0038214090599896946 0.0010860776703825598 0 -0.0023960923171572196 0.001117877234616196 0 -0.0039359121037810156 0.00098101311039249634 0 -0.0041970207529811662 0.00063686338598946629 0 -0.0038214090599896946 0.0010860776703825598 0 -0.0023960923171572196 0.001117877234616196 0 -0.0025005085956743929 0.0013616381322587479 0 -0.0056107910346213496 -0.00014329335712800004 0 -0.0048839515132187237 0.00045392356180834785 0 -0.0059467657769524474 4.5670662089852339e-05 0 -0.0023960923171572196 0.001117877234616196 0 -0.0025005085956743929 0.0013616381322587479 0 -0.0023093318392990499 0.0011393215689605013 0 -0.0025158275654851114 0.00093229475509911785 0 -0.0023093318392990499 0.0011393215689605013 0 -0.0020934631009188139 0.00092352743310436839 0 -0.0019707733718537239 0.00095630266877033969 0 -0.0023093318392990499 0.0011393215689605013 0 -0.0020934631009188139 0.00092352743310436839 0 -0.0019707733718537239 0.00095630266877033969 0 -0.0017567638733655899 0.00086834744510445481 0 -0.0020934631009188139 0.00092352743310436839 0 -0.0017567638733655899 0.00086834744510445481 0 -0.0020934631009188139 0.00092352743310436839 0 -0.0018796884084136872 0.00089080115518989326 0 -0.0017567638733655899 0.00086834744510445481 0 -0.0018796884084136872 0.00089080115518989326 0 -0.0016692479396324684 0.0008731512115234258 0 -0.0020934631009188139 0.00092352743310436839 0 -0.002102118559582583 0.00078926593387595751 0 -0.0018796884084136872 0.00089080115518989326 0 -0.0025158275654851114 0.00093229475509911785 0 -0.0020934631009188139 0.00092352743310436839 0 -0.002102118559582583 0.00078926593387595751 0 -0.0020546328765840274 0.00057152229911075882 0 -0.002102118559582583 0.00078926593387595751 0 -0.0019712710362144951 0.0008376856685352209 0 -0.002102118559582583 0.00078926593387595751 0 -0.0019712710362144951 0.0008376856685352209 0 -0.0018796884084136872 0.00089080115518989326 0 -0.0020546328765840274 0.00057152229911075882 0 -0.00240630418639494 0.00081024786899390217 0 -0.0019712710362144951 0.0008376856685352209 0 -0.00240630418639494 0.00081024786899390217 0 -0.0019712710362144951 0.0008376856685352209 0 -0.0020100011633535282 0.001075069232105744 0 -0.0020100011633535282 0.001075069232105744 0 -0.0017321727175733115 0.00097571180910744216 0 -0.0015852522354732313 0.00093289722418507613 0 -0.0019712710362144951 0.0008376856685352209 0 -0.0020100011633535282 0.001075069232105744 0 -0.0018287265839361413 0.00095248955538820054 0 -0.0020100011633535282 0.001075069232105744 0 -0.0017321727175733115 0.00097571180910744216 0 -0.0018287265839361413 0.00095248955538820054 0 -0.0019712710362144951 0.0008376856685352209 0 -0.0018796884084136872 0.00089080115518989326 0 -0.0018287265839361413 0.00095248955538820054 0 -0.0017321727175733115 0.00097571180910744216 0 -0.0018287265839361413 0.00095248955538820054 0 -0.0016692479396324684 0.0008731512115234258 0 -0.0018796884084136872 0.00089080115518989326 0 -0.0018287265839361413 0.00095248955538820054 0 -0.0016692479396324684 0.0008731512115234258 0 -0.0016692479396324684 0.0008731512115234258 0 -0.0015305706610730745 0.0008040375667101692 0 -0.001422562837469878 0.00072425451015397757 0 -0.0017321727175733115 0.00097571180910744216 0 -0.0016692479396324684 0.0008731512115234258 0 -0.0015305706610730745 0.0008040375667101692 0 -0.0015305706610730745 0.0008040375667101692 0 -0.0014130773386140248 0.00077183258784618131 0 -0.001321489238991167 0.00067305940844201116 0 -0.0015305706610730745 0.0008040375667101692 0 -0.001321489238991167 0.00067305940844201116 0 -0.001422562837469878 0.00072425451015397757 0 -0.0019811065442745753 0.0011172312699823234 0 -0.0016482738981854345 0.0012818738846923322 0 -0.0025142208047598327 0.0016441940611728271 0 -0.0020100011633535282 0.001075069232105744 0 -0.0020980703248284645 0.0019642522364276302 0 -0.0015905911265002273 0.00089288766347497047 0 -0.0016482738981854345 0.0012818738846923322 0 -0.0017321727175733115 0.00097571180910744216 0 -0.0015305706610730745 0.0008040375667101692 0 -0.0014130773386140248 0.00077183258784618131 0 -0.0027075131591526424 0.0021939668064219616 0 -0.0025142208047598327 0.0016441940611728271 0 -0.0020980703248284645 0.0019642522364276302 0 -0.0027075131591526424 0.0021939668064219616 0 -0.002588122377111124 0.0027552964349823834 0 -0.0020980703248284645 0.0019642522364276302 0 -0.001488895330180948 0.0015895310848284686 0 -0.0014041637380835157 0.0016169552329222989 0 -0.0014196673156684249 0.0014092566910723977 0 -0.0014268067990909805 0.0011162619540048689 0 -0.0016482738981854345 0.0012818738846923322 0 -0.0011735959529917811 0.00059829748323005571 0 -0.0014130773386140248 0.00077183258784618131 0 -0.001321489238991167 0.00067305940844201116 0 -0.0020967140406599159 0.0023321033355717595 0 -0.0016482738981854345 0.0012818738846923322 0 -0.0010221715841904314 0.00060284202460260318 0 -0.001321489238991167 0.00067305940844201116 0 -0.001422562837469878 0.00072425451015397757 0 -0.0010221715841904314 0.00060284202460260318 0 -0.00129517993950206 0.00061164835010331169 0 -0.001422562837469878 0.00072425451015397757 0 -0.0019707733718537239 0.00095630266877033969 0 -0.0017567638733655899 0.00086834744510445481 0 -0.00129517993950206 0.00061164835010331169 0 -0.0017567638733655899 0.00086834744510445481 0 -0.00129517993950206 0.00061164835010331169 0 -0.001422562837469878 0.00072425451015397757 0 -0.0017567638733655899 0.00086834744510445481 0 -0.0016692479396324684 0.0008731512115234258 0 -0.001422562837469878 0.00072425451015397757 0 0.00074153626134869095 0.0022275650636797736 0 0.00096230899572839735 0.0021513924801653795 0 0.00017274947915519931 0.0017977595954844832 0 0.00074153626134869095 0.0022275650636797736 0 0.00034388082444386004 0.0021334237002486839 0 0.00017274947915519931 0.0017977595954844832 0 0.00066577866520647129 0.0016908248170811218 0 -7.0685690594216895e-05 0.001751467005166445 0 -0.00018882503820782064 0.0019605078450317453 0 0.00034388082444386004 0.0021334237002486839 0 -0.00032592407109154677 0.0024924608807031833 0 -0.00018882503820782064 0.0019605078450317453 0 0.00034388082444386004 0.0021334237002486839 0 0.00017274947915519931 0.0017977595954844832 0 0.000895108793477043 0.0024036790373342708 0 0.0019953610459230654 0.0024918173034410261 0 0.0016649962452591357 0.0019797996595150879 0 0.00034388082444386004 0.0021334237002486839 0 0.000895108793477043 0.0024036790373342708 0 -0.00032592407109154677 0.0024924608807031833 0 0.00088977537451368524 0.0024246672877818276 0 0.0007356802229542402 0.0024777260752298904 0 0.00074153626134869095 0.0022275650636797736 0 0.00034388082444386004 0.0021334237002486839 0 0.000895108793477043 0.0024036790373342708 0 0.00074153626134869095 0.0022275650636797736 0 0.000895108793477043 0.0024036790373342708 0 0.00093463263051369878 0.0021811874619796193 0 0.000895108793477043 0.0024036790373342708 0 0.00093463263051369878 0.0021811874619796193 0 0.0011406913199676959 0.0019846476141095726 0 0.00093463263051369878 0.0021811874619796193 0 0.00084898139490039944 0.0021445056771318654 0 0.00086041523463269804 0.0020050668630625279 0 0.00093463263051369878 0.0021811874619796193 0 0.00088842176498611484 0.0021968462767088547 0 0.00084898139490039944 0.0021445056771318654 0 0.00088842176498611484 0.0021968462767088547 0 0.00084898139490039944 0.0021445056771318654 0 0.00096230899572839735 0.0021513924801653795 0 0.00074153626134869095 0.0022275650636797736 0 0.00093463263051369878 0.0021811874619796193 0 0.00088842176498611484 0.0021968462767088547 0 0.00084898139490039944 0.0021445056771318654 0 0.00074473537901906879 0.0021548774595247667 0 0.00096230899572839735 0.0021513924801653795 0 0.00074974744169853478 0.0020776934456996866 0 0.00084898139490039944 0.0021445056771318654 0 0.00074473537901906879 0.0021548774595247667 0 0.00074974744169853478 0.0020776934456996866 0 0.00084898139490039944 0.0021445056771318654 0 0.00086041523463269804 0.0020050668630625279 0 -0.001248663678148746 0.0014919781367703996 0 -0.00074672645092634018 0.0012355687319663734 0 -0.0019912522552032698 0.000744640221400384 0 0.00066577866520647129 0.0016908248170811218 0 -0.0033281631577375048 0.0020808496899538602 0 0.00074473537901906879 0.0021548774595247667 0 0.00096230899572839735 0.0021513924801653795 0 0.00064437313670779228 0.0022060835907554135 0 -0.001248663678148746 0.0014919781367703996 0 -0.0019912522552032698 0.000744640221400384 0 -0.0016765208847723614 0.0015937684341224305 0 0.00074153626134869095 0.0022275650636797736 0 0.00088842176498611484 0.0021968462767088547 0 0.00096230899572839735 0.0021513924801653795 0 -0.00074672645092634018 0.0012355687319663734 0 -0.00093677123489222208 0.0017653257207197266 0 -0.00023641288275994918 0.001754825427041904 0 -0.00093677123489222208 0.0017653257207197266 0 -0.0012471081687794184 0.0023679796034380401 0 -0.00023641288275994918 0.001754825427041904 0 -0.00025804355430480725 0.0017231108586595451 0 -0.00024255973441532277 0.0017379824618532897 0 -0.00023641288275994918 0.001754825427041904 0 -0.0019686591593813117 0.001348169607940366 0 0.00015716158926141509 0.0018907697699315751 0 -0.0012900257980025781 0.001938725599964219 0 -0.0013695689968311075 0.0024348935246737125 0 -0.0016765208847723614 0.0015937684341224305 0 -0.006429419774567853 0.0019930951057487568 0 -0.0053500472250171214 0.002155893165741996 0 -0.001248663678148746 0.0014919781367703996 0 -0.0012900257980025781 0.001938725599964219 0 -0.0016765208847723614 0.0015937684341224305 0 -0.001248663678148746 0.0014919781367703996 0 -0.00074672645092634018 0.0012355687319663734 0 -0.00093677123489222208 0.0017653257207197266 0 -0.001248663678148746 0.0014919781367703996 0 -0.00093677123489222208 0.0017653257207197266 0 -0.0012900257980025781 0.001938725599964219 0 -0.00093677123489222208 0.0017653257207197266 0 -0.0012900257980025781 0.001938725599964219 0 -0.0012471081687794184 0.0023679796034380401 0 -0.0012900257980025781 0.001938725599964219 0 -0.0013695689968311075 0.0024348935246737125 0 -0.0012471081687794184 0.0023679796034380401 0 -0.006429419774567853 0.0019930951057487568 0 -0.0019686591593813117 0.001348169607940366 0 -0.00030903589089300166 0.0017170597562584954 0 -0.0002937044062463451 0.0017128542890418391 0 -0.00029632806920224338 0.001737532169093706 0 -0.0002937044062463451 0.0017128542890418391 0 -0.00024930417568882096 0.0017246669545284323 0 -0.00029632806920224338 0.001737532169093706 0 -0.006429419774567853 0.0019930951057487568 0 -0.0064255739858975298 0.001444854258095513 0 -0.0096687974150996212 7.21612659736239e-07 0 -0.0095504760708846909 0.00035891269048466274 0 -0.0096182071082397454 0.0003304257555977284 0 -0.0002937044062463451 0.0017128542890418391 0 -0.00024255973441532277 0.0017379824618532897 0 -0.00024930417568882096 0.0017246669545284323 0 -0.0019686591593813117 0.001348169607940366 0 0.00018059742929783771 0.0015677576752228439 0 -0.00024255973441532277 0.0017379824618532897 0 -0.00024930417568882096 0.0017246669545284323 0 -0.00020760641599732723 0.0017324441997505235 0 -0.00024255973441532277 0.0017379824618532897 0 -0.00020760641599732723 0.0017324441997505235 0 -0.00014958731774548304 0.0017945675668063451 0 -0.00020760641599732723 0.0017324441997505235 0 -0.0002068041149536249 0.0017423834714290244 0 -0.00026011933091248405 0.0016693409242040298 0 -0.0002068041149536249 0.0017423834714290244 0 -0.00014958731774548304 0.0017945675668063451 0 -0.00017647028909353993 0.0017585381303907477 0 -0.00020760641599732723 0.0017324441997505235 0 -0.0002068041149536249 0.0017423834714290244 0 -0.00014958731774548304 0.0017945675668063451 0 -0.00074672645092634018 0.0012355687319663734 0 -0.00023641288275994918 0.001754825427041904 0 0.00017274947915519931 0.0017977595954844832 0 -0.00024255973441532277 0.0017379824618532897 0 -0.00014958731774548304 0.0017945675668063451 0 -0.00023641288275994918 0.001754825427041904 0 -0.00014958731774548304 0.0017945675668063451 0 0.00017274947915519931 0.0017977595954844832 0 -0.00017647028909353993 0.0017585381303907477 0 -0.00014958731774548304 0.0017945675668063451 0 -0.00023641288275994918 0.001754825427041904 0 0.00017274947915519931 0.0017977595954844832 0 -0.00018882503820782064 0.0019605078450317453 0 0.00017274947915519931 0.0017977595954844832 0 -0.00031797098798977115 0.0017765124115623006 0 0.00017274947915519931 0.0017977595954844832 0 -0.00031797098798977115 0.0017765124115623006 0 -0.00017647028909353993 0.0017585381303907477 0 -0.00031797098798977115 0.0017765124115623006 0 -0.00017647028909353993 0.0017585381303907477 0 -0.00038639488294421728 0.0016868531575431425 0 -0.0002068041149536249 0.0017423834714290244 0 -0.00017647028909353993 0.0017585381303907477 0 -0.00038639488294421728 0.0016868531575431425 0 -0.0002068041149536249 0.0017423834714290244 0 -0.00038639488294421728 0.0016868531575431425 0 -0.00026011933091248405 0.0016693409242040298 0 -0.00031797098798977115 0.0017765124115623006 0 -0.00038639488294421728 0.0016868531575431425 0 -0.00064019834962829531 0.0016833259669805996 0 -0.00064019834962829531 0.0016833259669805996 0 -0.00090777703331893791 0.0016497253604888652 0 -0.00055516118197730712 0.0018127921489909081 0 -0.00031797098798977115 0.0017765124115623006 0 -0.00064019834962829531 0.0016833259669805996 0 -0.00055516118197730712 0.0018127921489909081 0 -0.00064019834962829531 0.0016833259669805996 0 -0.00090777703331893791 0.0016497253604888652 0 -0.0010452204916993751 0.0015661727739886412 0 -0.00090777703331893791 0.0016497253604888652 0 -0.00083457254269533269 0.0017975039391474809 0 -0.0010555493652491944 0.0016773182441167593 0 -0.00090777703331893791 0.0016497253604888652 0 -0.0010555493652491944 0.0016773182441167593 0 -0.0010450371973010147 0.0015457628184530913 0 -0.00090777703331893791 0.0016497253604888652 0 -0.00083457254269533269 0.0017975039391474809 0 -0.00055516118197730712 0.0018127921489909081 0 -0.00083457254269533269 0.0017975039391474809 0 -0.001092008565618946 0.0020150750901960141 0 -0.00086993262311939421 0.002044124532803563 0 -0.00083457254269533269 0.0017975039391474809 0 -0.00061679388721060601 0.0020741203138338691 0 -0.00086993262311939421 0.002044124532803563 0 -0.00018882503820782064 0.0019605078450317453 0 -0.00055516118197730712 0.0018127921489909081 0 -0.00061679388721060601 0.0020741203138338691 0 -0.00083457254269533269 0.0017975039391474809 0 -0.00055516118197730712 0.0018127921489909081 0 -0.00061679388721060601 0.0020741203138338691 0 -0.00018882503820782064 0.0019605078450317453 0 -0.00031797098798977115 0.0017765124115623006 0 -0.00055516118197730712 0.0018127921489909081 0 -0.002831892014054658 0.00096513078862028824 0 -0.0023610054974537173 0.0017519075703630203 0 -0.0033252335765580573 0.0016771467379952526 0 -0.0049497146006420526 0.001930275255547196 0 -0.0010622973333092069 0.0016547415923654999 0 -0.00083457254269533269 0.0017975039391474809 0 -0.0010555493652491944 0.0016773182441167593 0 -0.0012216810717911525 0.0018148620131960113 0 -0.0013361217277684133 0.0016232705650031541 0 -0.0010555493652491944 0.0016773182441167593 0 -0.0012216810717911525 0.0018148620131960113 0 -0.00083457254269533269 0.0017975039391474809 0 -0.0011700067766048446 0.0018360762878569243 0 -0.0012267748982446383 0.0017775479190627944 0 -0.00092418165963574993 0.0018294427388128244 0 -0.0010622973333092069 0.0016547415923654999 0 -0.00083457254269533269 0.0017975039391474809 0 -0.001092008565618946 0.0020150750901960141 0 -0.0011700067766048446 0.0018360762878569243 0 1.9692877987861309e-05 0.001383599293600524 0 -0.0010622973333092069 0.0016547415923654999 0 0.0012188524438568053 0.00089138498319041477 0 0.00079629513145961645 0.00013871304204938055 0 0.0007321202118743958 0.00078992650185959678 0 -0.001092008565618946 0.0020150750901960141 0 -0.0011700067766048446 0.0018360762878569243 0 -0.0012278355345369998 0.0017734301427349906 0 -0.0010846603442566992 0.0017013450807701468 0 -0.0010622973333092069 0.0016547415923654999 0 -0.0010622973333092069 0.0016547415923654999 0 -0.0013510516874221667 0.00086186810101880162 0 0.00079629513145961645 0.00013871304204938055 0 0.00026212693350637404 0.0007105746916032656 0 -0.00012761297088604093 3.4645836197617907e-05 0 0.00079629513145961645 0.00013871304204938055 0 0.0007321202118743958 0.00078992650185959678 0 0.00026212693350637404 0.0007105746916032656 0 0.00026212693350637404 0.0007105746916032656 0 0.00065182040802593433 0.00141230525244347 0 -0.00034542707110983225 0.0012275161619173442 0 0.00095919075114621897 0.001472695918945832 0 -0.00029389915464955583 0.0012325685225177095 0 0.0010299048907086213 0.0014968214299625542 0 0.00053243727544371306 0.0026145953753984948 0 -0.00034542707110983225 0.0012275161619173442 0 0.0007321202118743958 0.00078992650185959678 0 0.00026212693350637404 0.0007105746916032656 0 0.00065182040802593433 0.00141230525244347 0 0.0010299048907086213 0.0014968214299625542 0 0.0017665228303551112 0.0020682805371650915 0 0.0022868438858343739 0.0018577318058691917 0 0.0012188524438568053 0.00089138498319041477 0 0.00065182040802593433 0.00141230525244347 0 0.001637376108084498 0.0016231391404524682 0 0.00095919075114621897 0.001472695918945832 0 0.0012030401352290006 0.0018814168028174517 0 0.0012188524438568053 0.00089138498319041477 0 0.0007321202118743958 0.00078992650185959678 0 0.00065182040802593433 0.00141230525244347 0 1.9692877987861309e-05 0.001383599293600524 0 0.0012030401352290006 0.0018814168028174517 0 0.0017665228303551112 0.0020682805371650915 0 0.00053243727544371306 0.0026145953753984948 0 0.002431800334024872 0.0023016122692806236 0 0.0030510469964572951 0.0019972363627058834 0 0.002431800334024872 0.0023016122692806236 0 0.0026425496545204089 0.002025876534602308 0 0.0017931698593380439 0.0023078248013007224 0 0.0023837736168938442 0.0022967675313959835 0 0.0010299048907086213 0.0014968214299625542 0 0.0017665228303551112 0.0020682805371650915 0 0.00053243727544371306 0.0026145953753984948 0 -0.00018882503820782064 0.0019605078450317453 0 -0.00061679388721060601 0.0020741203138338691 0 -0.00032592407109154677 0.0024924608807031833 0 -0.00061679388721060601 0.0020741203138338691 0 -0.00093934757395017763 0.0023548901819025847 0 -0.00032592407109154677 0.0024924608807031833 0 -0.00061679388721060601 0.0020741203138338691 0 -0.00086993262311939421 0.002044124532803563 0 -0.00093934757395017763 0.0023548901819025847 0 -0.001092008565618946 0.0020150750901960141 0 -0.00086993262311939421 0.002044124532803563 0 -0.00093934757395017763 0.0023548901819025847 0 0.0012030401352290006 0.0018814168028174517 0 0.0007356802229542402 0.0024777260752298904 0 0.0022350248793226051 0.0022964378489517216 0 0.0024301031940542252 0.0022019212777633205 0 0.002431800334024872 0.0023016122692806236 0 0.002482711599506169 0.0022493721043463483 0 0.0022350248793226051 0.0022964378489517216 0 0.0019953610459230654 0.0024918173034410261 0 0.002482711599506169 0.0022493721043463483 0 0.0022350248793226051 0.0022964378489517216 0 0.0024301031940542252 0.0022019212777633205 0 0.0017665228303551112 0.0020682805371650915 0 0.0024301031940542252 0.0022019212777633205 0 0.002431800334024872 0.0023016122692806236 0 0.0017665228303551112 0.0020682805371650915 0 0.0022868438858343739 0.0018577318058691917 0 0.0024301031940542252 0.0022019212777633205 0 0.0012030401352290006 0.0018814168028174517 0 0.0016296168004000771 0.0022205047052044563 0 0.002431800334024872 0.0023016122692806236 0 0.0023770598609334993 0.0021417392249025325 0 0.0026425496545204089 0.002025876534602308 0 0.0022350248793226051 0.0022964378489517216 0 0.002431800334024872 0.0023016122692806236 0 0.0023770598609334993 0.0021417392249025325 0 0.0022350248793226051 0.0022964378489517216 0 0.0023770598609334993 0.0021417392249025325 0 0.0021785375473799143 0.0020611606228363027 0 0.0022350248793226051 0.0022964378489517216 0 0.0019953610459230654 0.0024918173034410261 0 0.0021785375473799143 0.0020611606228363027 0 0.0019953610459230654 0.0024918173034410261 0 0.0021785375473799143 0.0020611606228363027 0 0.0016649962452591357 0.0019797996595150879 0 0.0021785375473799143 0.0020611606228363027 0 0.0020729247344432786 0.0017092666309222149 0 0.0016649962452591357 0.0019797996595150879 0 0.0021785375473799143 0.0020611606228363027 0 0.0023530050355954875 0.0018201211822663776 0 0.0020729247344432786 0.0017092666309222149 0 0.0021785375473799143 0.0020611606228363027 0 0.0024249457319180032 0.0019786313924118606 0 0.0023530050355954875 0.0018201211822663776 0 0.0023770598609334993 0.0021417392249025325 0 0.0021785375473799143 0.0020611606228363027 0 0.0024249457319180032 0.0019786313924118606 0 0.0023770598609334993 0.0021417392249025325 0 0.0024249457319180032 0.0019786313924118606 0 0.0026425496545204089 0.002025876534602308 0 0.0024249457319180032 0.0019786313924118606 0 0.0025622334760813069 0.0017512940894281528 0 0.0023530050355954875 0.0018201211822663776 0 0.0024249457319180032 0.0019786313924118606 0 0.0025622334760813069 0.0017512940894281528 0 0.0026472207481014788 0.0018553832374087777 0 0.0023530050355954875 0.0018201211822663776 0 0.0025141372091328222 0.0015722783449506372 0 0.0020729247344432786 0.0017092666309222149 0 0.0025622334760813069 0.0017512940894281528 0 0.0025141372091328222 0.0015722783449506372 0 0.0027709141290486474 0.00162065950772988 0 0.0025622334760813069 0.0017512940894281528 0 0.0023530050355954875 0.0018201211822663776 0 0.0025141372091328222 0.0015722783449506372 0 0.0025141372091328222 0.0015722783449506372 0 0.0027037965393121948 0.0014542874090875131 0 0.0026321035003009454 0.0012932532923457289 0 0.0025141372091328222 0.0015722783449506372 0 0.0020729247344432786 0.0017092666309222149 0 0.002233179366086992 0.0014030910459514809 0 0.0020729247344432786 0.0017092666309222149 0 0.002233179366086992 0.0014030910459514809 0 0.0018456231153876296 0.0014069442847528058 0 0.0030510469964572951 0.0019972363627058834 0 0.0029245643060232694 0.0018106306148257662 0 0.0026425496545204089 0.002025876534602308 0 0.0030510469964572951 0.0019972363627058834 0 0.0029245643060232694 0.0018106306148257662 0 0.0031622911189352659 0.0016012305144320145 0 0.0029245643060232694 0.0018106306148257662 0 0.0026472207481014788 0.0018553832374087777 0 0.0027709141290486474 0.00162065950772988 0 0.0029245643060232694 0.0018106306148257662 0 0.0026425496545204089 0.002025876534602308 0 0.0026472207481014788 0.0018553832374087777 0 0.0024249457319180032 0.0019786313924118606 0 0.0026425496545204089 0.002025876534602308 0 0.0026472207481014788 0.0018553832374087777 0 0.0025622334760813069 0.0017512940894281528 0 0.0026472207481014788 0.0018553832374087777 0 0.0027709141290486474 0.00162065950772988 0 0.0027709141290486474 0.00162065950772988 0 0.0027037965393121948 0.0014542874090875131 0 0.0028859630260716657 0.0013407509480179978 0 0.0027709141290486474 0.00162065950772988 0 0.0029714564100130781 0.0015177437519328396 0 0.0028859630260716657 0.0013407509480179978 0 0.0029245643060232694 0.0018106306148257662 0 0.0027709141290486474 0.00162065950772988 0 0.0029714564100130781 0.0015177437519328396 0 0.0025141372091328222 0.0015722783449506372 0 0.0027709141290486474 0.00162065950772988 0 0.0027037965393121948 0.0014542874090875131 0 0.0029245643060232694 0.0018106306148257662 0 0.0029714564100130781 0.0015177437519328396 0 0.0031622911189352659 0.0016012305144320145 0 0.0029714564100130781 0.0015177437519328396 0 0.0030810222198851401 0.0012552506013074332 0 0.0031622911189352659 0.0016012305144320145 0 0.0029714564100130781 0.0015177437519328396 0 0.0030810222198851401 0.0012552506013074332 0 0.0028859630260716657 0.0013407509480179978 0 0.0030810222198851401 0.0012552506013074332 0 0.0028859630260716657 0.0013407509480179978 0 0.0030050724752908355 0.0011665439049362131 0 0.0028859630260716657 0.0013407509480179978 0 0.0029428649526695022 0.0011111720050841205 0 0.0030050724752908355 0.0011665439049362131 0 0.0027037965393121948 0.0014542874090875131 0 0.0028859630260716657 0.0013407509480179978 0 0.0026321035003009454 0.0012932532923457289 0 0.0028859630260716657 0.0013407509480179978 0 0.0029428649526695022 0.0011111720050841205 0 0.0026321035003009454 0.0012932532923457289 0 0.0029428649526695022 0.0011111720050841205 0 0.0026321035003009454 0.0012932532923457289 0 0.0027243407388571764 0.00091709990280791881 0 0.0029428649526695022 0.0011111720050841205 0 0.0027243407388571764 0.00091709990280791881 0 0.0029952008027492598 0.000840874215108923 0 0.0029428649526695022 0.0011111720050841205 0 0.0032372982725051092 0.0008619325052519884 0 0.0029952008027492598 0.000840874215108923 0 0.0030463914666816003 0.001055728260118783 0 0.0032692974589429999 0.0012698514512837419 0 0.00306695517078158 0.001008265539781919 0 0.0030810222198851401 0.0012552506013074332 0 0.0030463914666816003 0.001055728260118783 0 0.0032692974589429999 0.0012698514512837419 0 0.0030810222198851401 0.0012552506013074332 0 0.0030050724752908355 0.0011665439049362131 0 0.0030463914666816003 0.001055728260118783 0 0.0029428649526695022 0.0011111720050841205 0 0.0030050724752908355 0.0011665439049362131 0 0.0030463914666816003 0.001055728260118783 0 0.0029428649526695022 0.0011111720050841205 0 0.0030463914666816003 0.001055728260118783 0 0.0030464458847393587 0.0010415221581371672 0 0.0029327755052696003 0.0011587047476978277 0 0.003756694331741113 0.0012485939412985926 0 0.0037227884353551173 0.0012089605811340244 0 0.003756694331741113 0.0012485939412985926 0 0.002233179366086992 0.0014030910459514809 0 0.0021021436351370878 0.0011167274988800159 0 0.0018456231153876296 0.0014069442847528058 0 0.002233179366086992 0.0014030910459514809 0 0.0024248553132501559 0.0011082156837568806 0 0.0021021436351370878 0.0011167274988800159 0 0.002233179366086992 0.0014030910459514809 0 0.0026321035003009454 0.0012932532923457289 0 0.0024248553132501559 0.0011082156837568806 0 0.0025141372091328222 0.0015722783449506372 0 0.002233179366086992 0.0014030910459514809 0 0.0026321035003009454 0.0012932532923457289 0 0.0027243407388571764 0.00091709990280791881 0 0.0024177284627108875 0.00083237446120960337 0 0.0024248553132501559 0.0011082156837568806 0 0.0026321035003009454 0.0012932532923457289 0 0.0027243407388571764 0.00091709990280791881 0 0.0024248553132501559 0.0011082156837568806 0 0.0024177284627108875 0.00083237446120960337 0 0.0024248553132501559 0.0011082156837568806 0 0.0021021436351370878 0.0011167274988800159 0 0.0024177284627108875 0.00083237446120960337 0 0.0021021436351370878 0.0011167274988800159 0 0.0020484073314233834 0.0007058653415141148 0 0.0021021436351370878 0.0011167274988800159 0 0.0016420634436014529 0.0012266357002463995 0 0.0020484073314233834 0.0007058653415141148 0 0.0016207956738171518 0.00085343125065612225 0 0.0016420634436014529 0.0012266357002463995 0 0.0020484073314233834 0.0007058653415141148 0 0.0016420634436014529 0.0012266357002463995 0 0.0013766485581206212 0.0016164528386609707 0 0.0012097626392239813 0.0014359542469198931 0 0.0016420634436014529 0.0012266357002463995 0 0.0018456231153876296 0.0014069442847528058 0 0.0013766485581206212 0.0016164528386609707 0 0.0016207956738171518 0.00085343125065612225 0 0.0016420634436014529 0.0012266357002463995 0 0.0012097626392239813 0.0014359542469198931 0 0.0021021436351370878 0.0011167274988800159 0 0.0016420634436014529 0.0012266357002463995 0 0.0018456231153876296 0.0014069442847528058 0 0.0020729247344432786 0.0017092666309222149 0 0.0018456231153876296 0.0014069442847528058 0 0.0015937125175354463 0.0017230171080556487 0 0.0018456231153876296 0.0014069442847528058 0 0.0015937125175354463 0.0017230171080556487 0 0.0013766485581206212 0.0016164528386609707 0 0.0015937125175354463 0.0017230171080556487 0 0.0013766485581206212 0.0016164528386609707 0 0.0011406913199676959 0.0019846476141095726 0 0.0013766485581206212 0.0016164528386609707 0 0.0011406913199676959 0.0019846476141095726 0 0.0010470083348695623 0.0018553383797387656 0 0.00093463263051369878 0.0021811874619796193 0 0.0011406913199676959 0.0019846476141095726 0 0.0010470083348695623 0.0018553383797387656 0 0.000895108793477043 0.0024036790373342708 0 0.0011406913199676959 0.0019846476141095726 0 0.0016649962452591357 0.0019797996595150879 0 0.0015937125175354463 0.0017230171080556487 0 0.0011406913199676959 0.0019846476141095726 0 0.0016649962452591357 0.0019797996595150879 0 0.0020729247344432786 0.0017092666309222149 0 0.0015937125175354463 0.0017230171080556487 0 0.0016649962452591357 0.0019797996595150879 0 0.00086041523463269804 0.0020050668630625279 0 0.00090216218137876896 0.0017563266688817502 0 0.00067181015129113392 0.0019343911643234298 0 0.00074974744169853478 0.0020776934456996866 0 0.00086041523463269804 0.0020050668630625279 0 0.00067181015129113392 0.0019343911643234298 0 0.00093463263051369878 0.0021811874619796193 0 0.00086041523463269804 0.0020050668630625279 0 0.0010470083348695623 0.0018553383797387656 0 0.00086041523463269804 0.0020050668630625279 0 0.0010470083348695623 0.0018553383797387656 0 0.00090216218137876896 0.0017563266688817502 0 0.0010470083348695623 0.0018553383797387656 0 0.00090216218137876896 0.0017563266688817502 0 0.0012097626392239813 0.0014359542469198931 0 0.0013766485581206212 0.0016164528386609707 0 0.0010470083348695623 0.0018553383797387656 0 0.0012097626392239813 0.0014359542469198931 0 0.001170779522588138 0.0012504483360403298 0 0.0016826991717049104 0.0015052979773946295 0 0.00090216218137876896 0.0017563266688817502 0 0.00080077362990681059 0.0014534897300709402 0 0.00067181015129113392 0.0019343911643234298 0 0.00090216218137876896 0.0017563266688817502 0 0.00080077362990681059 0.0014534897300709402 0 0.0012097626392239813 0.0014359542469198931 0 0.00168245913612174 0.00092102281790924854 0 0.00149926280484365 0.001457528233516441 0 0.0013956085923904889 0.0010805444633721767 0 0.00080077362990681059 0.0014534897300709402 0 0.0012097626392239813 0.0014359542469198931 0 0.0011597904403429279 0.00086439825741522081 0 0.001170779522588138 0.0012504483360403298 0 0.0014831641946861875 0.00068082712642440985 0 0.0016207956738171518 0.00085343125065612225 0 0.0012097626392239813 0.0014359542469198931 0 0.0011597904403429279 0.00086439825741522081 0 0.00168245913612174 0.00092102281790924854 0 0.0017668961354196887 0.00049142563729762871 0 0.0014886805815536393 0.00057710814970802441 0 0.001533500191400083 0.00090141712781612276 0 0.0013471936515974761 0.0011141494960066355 0 0.0013084007171377241 0.00092702425076735386 0 0.001533500191400083 0.00090141712781612276 0 0.0013471936515974761 0.0011141494960066355 0 0.0014136969805886924 0.0012690440718168389 0 0.0015119088885439164 0.00073901595360062054 0 0.0014071630781795231 0.001180177245642281 0 0.00168245913612174 0.00092102281790924854 0 0.0014886805815536393 0.00057710814970802441 0 0.0013956085923904889 0.0010805444633721767 0 0.0013471936515974761 0.0011141494960066355 0 0.00115294273401841 0.0010907782542656217 0 0.0012093927435197758 0.0014521007229636425 0 0.0013471936515974761 0.0011141494960066355 0 0.00115294273401841 0.0010907782542656217 0 0.0013084007171377241 0.00092702425076735386 0 0.00115294273401841 0.0010907782542656217 0 0.0010134791906837731 0.00065959949187366601 0 0.0012336841026976957 0.00073510556072978574 0 0.001533500191400083 0.00090141712781612276 0 0.0013084007171377241 0.00092702425076735386 0 0.0012336841026976957 0.00073510556072978574 0 0.00115294273401841 0.0010907782542656217 0 0.0013084007171377241 0.00092702425076735386 0 0.0012336841026976957 0.00073510556072978574 0 -0.0091340262453554599 0.0039872075990397705 0 -0.0088533344821040798 0.0043611307882817875 0 -0.0092158896036269693 0.0045689696279612281 0 -0.0092072298988708952 0.0040180173508103578 0 -0.0051135215009419617 0.0028893363188998316 0 -0.0091908865188142421 0.003228831581544969 0 -0.0090485163182786391 0.0033158648785074568 0 -0.0090460328155551016 0.0034474834388946722 0 -0.0038921683046503034 0.0019945974880162579 0 -0.0051135215009419617 0.0028893363188998316 0 -0.0091340262453554599 0.0039872075990397705 0 -0.0085249372700053495 0.0040014606529300287 0 -0.0088533344821040798 0.0043611307882817875 0 -0.0085249372700053495 0.0040014606529300287 0 -0.0088533344821040798 0.0043611307882817875 0 -0.0083746275678784256 0.0045522805967115219 0 -0.0085249372700053495 0.0040014606529300287 0 -0.0090130985308350293 0.0032555926907165372 0 -0.008054869127840817 0.0034309718489785573 0 -0.0091340262453554599 0.0039872075990397705 0 -0.0085249372700053495 0.0040014606529300287 0 -0.0090130985308350293 0.0032555926907165372 0 -0.0090130985308350293 0.0032555926907165372 0 -0.0090108839961360824 0.0030151997021129117 0 -0.008054869127840817 0.0034309718489785573 0 -0.0092072298988708952 0.0040180173508103578 0 -0.0089707509767336224 0.0031684298142251642 0 -0.0090485163182786391 0.0033158648785074568 0 -0.0090929004942577746 0.0032425027603410197 0 -0.0090130985308350293 0.0032555926907165372 0 -0.0091908865188142421 0.003228831581544969 0 -0.0090485163182786391 0.0033158648785074568 0 -0.0090929004942577746 0.0032425027603410197 0 -0.0090929004942577746 0.0032425027603410197 0 -0.0090130985308350293 0.0032555926907165372 0 -0.0091031084725648401 0.0031073798018580374 0 -0.0091908865188142421 0.003228831581544969 0 -0.0090929004942577746 0.0032425027603410197 0 -0.0091031084725648401 0.0031073798018580374 0 -0.0091908865188142421 0.003228831581544969 0 -0.0091031084725648401 0.0031073798018580374 0 -0.0091631880091050666 0.0029698606195458113 0 -0.0091031084725648401 0.0031073798018580374 0 -0.0090739947858396574 0.0029208438581973914 0 -0.0091631880091050666 0.0029698606195458113 0 -0.0091031084725648401 0.0031073798018580374 0 -0.0090739947858396574 0.0029208438581973914 0 -0.0090108839961360824 0.0030151997021129117 0 -0.0090130985308350293 0.0032555926907165372 0 -0.0091031084725648401 0.0031073798018580374 0 -0.0090108839961360824 0.0030151997021129117 0 -0.0090739947858396574 0.0029208438581973914 0 -0.0091631880091050666 0.0029698606195458113 0 -0.009132792338258245 0.0028722186935487815 0 -0.0090108839961360824 0.0030151997021129117 0 -0.0090440629546453509 0.0029073365787892548 0 -0.0090045407267173704 0.0029122733286707529 0 -0.0089876482697804575 0.00303991386473148 0 -0.0085159333293301862 0.003252265678801295 0 -0.0090108839961360824 0.0030151997021129117 0 -0.0089532060975136864 0.0030758886965226088 0 -0.0090045407267173704 0.0029122733286707529 0 -0.0090739947858396574 0.0029208438581973914 0 -0.0090108839961360824 0.0030151997021129117 0 -0.0090440629546453509 0.0029073365787892548 0 -0.0090739947858396574 0.0029208438581973914 0 -0.0090440629546453509 0.0029073365787892548 0 -0.0090816425387634635 0.0028490799222126236 0 -0.0090512756176926792 0.0028164777072743172 0 -0.0090624271705222487 0.0028403853024468614 0 -0.0090045407267173704 0.0029122733286707529 0 -0.0090440629546453509 0.0029073365787892548 0 -0.0090624271705222487 0.0028403853024468614 0 -0.0090045407267173704 0.0029122733286707529 0 -0.0090512756176926792 0.0028164777072743172 0 -0.0090624271705222487 0.0028403853024468614 0 -0.0090876518119613059 0.0027769251254110439 0 -0.0090816425387634635 0.0028490799222126236 0 -0.0091018166827830545 0.0027825596640811234 0 -0.0091186656044864867 0.0028067147884238385 0 -0.0090624271705222487 0.0028403853024468614 0 -0.0090816425387634635 0.0028490799222126236 0 -0.0091018166827830545 0.0027825596640811234 0 -0.0090440629546453509 0.0029073365787892548 0 -0.0090624271705222487 0.0028403853024468614 0 -0.0090816425387634635 0.0028490799222126236 0 -0.0091342426873009339 0.0027308504467336882 0 -0.0091018166827830545 0.0027825596640811234 0 -0.0091345074955341572 0.0027024552528419491 0 -0.0091342426873009339 0.0027308504467336882 0 -0.0091018166827830545 0.0027825596640811234 0 -0.0091186656044864867 0.0028067147884238385 0 -0.0091018166827830545 0.0027825596640811234 0 -0.0090876518119613059 0.0027769251254110439 0 -0.0091345074955341572 0.0027024552528419491 0 -0.0090624271705222487 0.0028403853024468614 0 -0.0091018166827830545 0.0027825596640811234 0 -0.0090876518119613059 0.0027769251254110439 0 -0.0090876518119613059 0.0027769251254110439 0 -0.0090839222254046129 0.002746778316748712 0 -0.0091345074955341572 0.0027024552528419491 0 -0.0090512756176926792 0.0028164777072743172 0 -0.0090876518119613059 0.0027769251254110439 0 -0.0090839222254046129 0.002746778316748712 0 -0.009132792338258245 0.0028722186935487815 0 -0.0091186656044864867 0.0028067147884238385 0 -0.0091759005865446851 0.0027956898150138291 0 -0.0091631880091050666 0.0029698606195458113 0 -0.009132792338258245 0.0028722186935487815 0 -0.0091759005865446851 0.0027956898150138291 0 -0.0090739947858396574 0.0029208438581973914 0 -0.009132792338258245 0.0028722186935487815 0 -0.0091186656044864867 0.0028067147884238385 0 -0.0090739947858396574 0.0029208438581973914 0 -0.0090816425387634635 0.0028490799222126236 0 -0.0091186656044864867 0.0028067147884238385 0 -0.0091342426873009339 0.0027308504467336882 0 -0.0091186656044864867 0.0028067147884238385 0 -0.0091535766673884085 0.0027077850269158535 0 -0.0091186656044864867 0.0028067147884238385 0 -0.0091759005865446851 0.0027956898150138291 0 -0.0091535766673884085 0.0027077850269158535 0 -0.0091759005865446851 0.0027956898150138291 0 -0.0092120292946177452 0.0027322964929703463 0 -0.0091628471854853892 0.0026573087609010433 0 -0.0091631880091050666 0.0029698606195458113 0 -0.0091759005865446851 0.0027956898150138291 0 -0.0092676160663261696 0.0028567511970348345 0 -0.0091759005865446851 0.0027956898150138291 0 -0.0092676160663261696 0.0028567511970348345 0 -0.0092120292946177452 0.0027322964929703463 0 -0.0092676160663261696 0.0028567511970348345 0 -0.0092120292946177452 0.0027322964929703463 0 -0.0092446654478451334 0.0026181234634260787 0 -0.0039923216665441637 0.0022443467571398043 0 -0.0042820724849830082 0.0020760198135314758 0 0.0012093927435197758 0.0014521007229636425 0 0.0013375184176726246 0.0016452179838510061 0 0.0014136969805886924 0.0012690440718168389 0 0.0013375184176726246 0.0016452179838510061 0 0.00149926280484365 0.001457528233516441 0 0.0013956085923904889 0.0010805444633721767 0 0.0013375184176726246 0.0016452179838510061 0 0.00149926280484365 0.001457528233516441 0 0.0012584565405704081 0.0019134172535648455 0 0.0012093927435197758 0.0014521007229636425 0 0.0013375184176726246 0.0016452179838510061 0 0.0012584565405704081 0.0019134172535648455 0 0.0013479100751218941 0.0016157849160662991 0 0.0014071630781795231 0.001180177245642281 0 0.0013471936515974761 0.0011141494960066355 0 0.0012093927435197758 0.0014521007229636425 0 0.0014136969805886924 0.0012690440718168389 0 -0.0038921683046503034 0.0019945974880162579 0 -0.0039923216665441637 0.0022443467571398043 0 -0.0091908865188142421 0.003228831581544969 0 -0.0091631880091050666 0.0029698606195458113 0 -0.0092676160663261696 0.0028567511970348345 0 -0.0080424493553347947 0.0034409644303791567 0 -0.0082167253927798462 0.0033946504925547005 0 -0.0083778384928639548 0.0030660126093123674 0 -0.0070992580496088073 0.0040148157682849536 0 -0.0080206038011783557 0.0032714570098233706 0 -0.006859107600174259 0.0044195593282183449 0 -0.0069745740236849046 0.0037992868319485316 0 -0.0076041433572215751 0.0035608926857615911 0 -0.0070992580496088073 0.0040148157682849536 0 -0.0074708865314821 0.0038007169929916004 0 -0.0064577461811026029 0.004484965020022184 0 -0.0066918367674502774 0.0041805850988526887 0 -0.0067764723987691951 0.0045447566233489311 0 -0.0066918367674502774 0.0041805850988526887 0 -0.0067764723987691951 0.0045447566233489311 0 -0.0069811193865272261 0.0042622500823850861 0 -0.0066918367674502774 0.0041805850988526887 0 -0.0069811193865272261 0.0042622500823850861 0 -0.0073192154935284434 0.0038244109314808468 0 -0.0069811193865272261 0.0042622500823850861 0 -0.0071529839504370345 0.0044840663527365883 0 -0.0073192154935284434 0.0038244109314808468 0 -0.0067764723987691951 0.0045447566233489311 0 -0.0069811193865272261 0.0042622500823850861 0 -0.0071529839504370345 0.0044840663527365883 0 -0.0086452864329949058 0.0032414106805514946 0 -0.0086184962978093759 0.0030042096191423028 0 -0.0083778384928639548 0.0030660126093123674 0 -0.0074708865314821 0.0038007169929916004 0 -0.0079846062226731213 0.003527601161839171 0 -0.0082167253927798462 0.0033946504925547005 0 -0.0086452864329949058 0.0032414106805514946 0 -0.0083778384928639548 0.0030660126093123674 0 -0.0073192154935284434 0.0038244109314808468 0 -0.0077379021348173939 0.0043105549419554141 0 -0.008054869127840817 0.0034309718489785573 0 -0.0086452864329949058 0.0032414106805514946 0 -0.0089532060975136864 0.0030758886965226088 0 -0.0087809159231297656 0.0029643967795232188 0 -0.0079846062226731213 0.003527601161839171 0 -0.0085159333293301862 0.003252265678801295 0 -0.0071529839504370345 0.0044840663527365883 0 -0.0073192154935284434 0.0038244109314808468 0 -0.0077379021348173939 0.0043105549419554141 0 -0.0085249372700053495 0.0040014606529300287 0 -0.0077379021348173939 0.0043105549419554141 0 -0.008054869127840817 0.0034309718489785573 0 -0.0085249372700053495 0.0040014606529300287 0 -0.0077379021348173939 0.0043105549419554141 0 -0.0083746275678784256 0.0045522805967115219 0 -0.0089532060975136864 0.0030758886965226088 0 -0.0090045407267173704 0.0029122733286707529 0 -0.0089115073827429597 0.0028734719493660617 0 -0.0090045407267173704 0.0029122733286707529 0 -0.0090065622186734032 0.0028089752928460053 0 -0.0089115073827429597 0.0028734719493660617 0 -0.0090512756176926792 0.0028164777072743172 0 -0.0090045407267173704 0.0029122733286707529 0 -0.0090065622186734032 0.0028089752928460053 0 -0.0090512756176926792 0.0028164777072743172 0 -0.0090065622186734032 0.0028089752928460053 0 -0.0090839222254046129 0.002746778316748712 0 -0.0090065622186734032 0.0028089752928460053 0 -0.0090517551347886194 0.0027242139834575902 0 -0.0090839222254046129 0.002746778316748712 0 -0.0089456812897432455 0.0027787218761412902 0 -0.0088680661177584514 0.002685071777048137 0 -0.0089972710257291613 0.002712126759800264 0 -0.0090517551347886194 0.0027242139834575902 0 -0.0089456812897432455 0.0027787218761412902 0 -0.0089972710257291613 0.002712126759800264 0 -0.0090065622186734032 0.0028089752928460053 0 -0.0090517551347886194 0.0027242139834575902 0 -0.0089456812897432455 0.0027787218761412902 0 -0.0090065622186734032 0.0028089752928460053 0 -0.0089456812897432455 0.0027787218761412902 0 -0.0089115073827429597 0.0028734719493660617 0 -0.0089456812897432455 0.0027787218761412902 0 -0.0089115073827429597 0.0028734719493660617 0 -0.0088353288784127747 0.0028149603744625686 0 -0.0087641981466048957 0.0034861654838633255 0 -0.0089464044169903188 0.0029097527947155957 0 -0.0091846207744420132 0.0030591139107071807 0 -0.0089115073827429597 0.0028734719493660617 0 -0.0088353288784127747 0.0028149603744625686 0 -0.0087809159231297656 0.0029643967795232188 0 -0.0089456812897432455 0.0027787218761412902 0 -0.0088353288784127747 0.0028149603744625686 0 -0.0088680661177584514 0.002685071777048137 0 -0.0088353288784127747 0.0028149603744625686 0 -0.0086737187262725529 0.0028028133697975978 0 -0.0088680661177584514 0.002685071777048137 0 -0.0087595470816387352 0.0028831634936607956 0 -0.0092985152900232088 0.0027499943469957663 0 -0.0094727193597335495 0.0024669582925781089 0 -0.0094159979509400773 0.0024916642662392284 0 -0.0094380236908263391 0.0024980697793686533 0 -0.0087595470816387352 0.0028831634936607956 0 -0.0091951392333479726 0.0025567157183701058 0 -0.0088353288784127747 0.0028149603744625686 0 -0.0087809159231297656 0.0029643967795232188 0 -0.0086737187262725529 0.0028028133697975978 0 -0.0089532060975136864 0.0030758886965226088 0 -0.0089115073827429597 0.0028734719493660617 0 -0.0087809159231297656 0.0029643967795232188 0 -0.0086452864329949058 0.0032414106805514946 0 -0.0087809159231297656 0.0029643967795232188 0 -0.0086184962978093759 0.0030042096191423028 0 -0.0087809159231297656 0.0029643967795232188 0 -0.0086184962978093759 0.0030042096191423028 0 -0.0086737187262725529 0.0028028133697975978 0 -0.0086184962978093759 0.0030042096191423028 0 -0.0086737187262725529 0.0028028133697975978 0 -0.0083778384928639548 0.0030660126093123674 0 -0.0087595470816387352 0.0028831634936607956 0 -0.0080206038011783557 0.0032714570098233706 0 -0.0083796381152657692 0.0026980615986120448 0 -0.0076041433572215751 0.0035608926857615911 0 -0.0076671337111092076 0.0032510542917207237 0 -0.0087595470816387352 0.0028831634936607956 0 -0.0078094865586969759 0.0035983703382851135 0 -0.0087641981466048957 0.0034861654838633255 0 -0.0082306919280779704 0.0034086585789999289 0 -0.008530383085671743 0.0029357510364663845 0 -0.0087641981466048957 0.0034861654838633255 0 -0.0082306919280779704 0.0034086585789999289 0 -0.0080196838575480305 0.0039048157805774567 0 -0.0082306919280779704 0.0034086585789999289 0 -0.0080510099638575888 0.0031466996386656149 0 -0.008530383085671743 0.0029357510364663845 0 -0.0082306919280779704 0.0034086585789999289 0 -0.0076798831432998765 0.0034514822483314904 0 -0.0080196838575480305 0.0039048157805774567 0 -0.0082306919280779704 0.0034086585789999289 0 -0.0080510099638575888 0.0031466996386656149 0 -0.0076798831432998765 0.0034514822483314904 0 -0.0074812376684805686 0.0030408988672098298 0 -0.0080510099638575888 0.0031466996386656149 0 -0.0076798831432998765 0.0034514822483314904 0 -0.0071983745536927431 0.0042142842319381722 0 -0.0073719696926691589 0.0038010491075842843 0 -0.0080196838575480305 0.0039048157805774567 0 -0.0069745740236849046 0.0037992868319485316 0 -0.0076041433572215751 0.0035608926857615911 0 -0.0076671337111092076 0.0032510542917207237 0 -0.0070970437583821678 0.0039830518600480992 0 -0.0078094865586969759 0.0035983703382851135 0 -0.0076798831432998765 0.0034514822483314904 0 -0.0073719696926691589 0.0038010491075842843 0 -0.0080196838575480305 0.0039048157805774567 0 -0.0081118131070694946 0.0026611498698582516 0 -0.0085790488937638153 0.0024488447609418234 0 -0.0083161518143434962 0.0021785522620950313 0 -0.0076670656840523693 0.0021444705295287567 0 -0.0081118131070694946 0.0026611498698582516 0 -0.0083161518143434962 0.0021785522620950313 0 -0.0080510099638575888 0.0031466996386656149 0 -0.0081118131070694946 0.0026611498698582516 0 -0.008530383085671743 0.0029357510364663845 0 -0.0074812376684805686 0.0030408988672098298 0 -0.0080510099638575888 0.0031466996386656149 0 -0.0081118131070694946 0.0026611498698582516 0 -0.0074812376684805686 0.0030408988672098298 0 -0.0073032549187586095 0.0025965908582553372 0 -0.0081118131070694946 0.0026611498698582516 0 -0.0087641981466048957 0.0034861654838633255 0 -0.008530383085671743 0.0029357510364663845 0 -0.0089464044169903188 0.0029097527947155957 0 -0.0081118131070694946 0.0026611498698582516 0 -0.008530383085671743 0.0029357510364663845 0 -0.0085790488937638153 0.0024488447609418234 0 -0.008530383085671743 0.0029357510364663845 0 -0.0089709944786465542 0.0025672937176589336 0 -0.0089464044169903188 0.0029097527947155957 0 -0.0089709944786465542 0.0025672937176589336 0 -0.0085790488937638153 0.0024488447609418234 0 -0.0089321458077016962 0.0021094430410003202 0 -0.0089709944786465542 0.0025672937176589336 0 -0.0092335390512329283 0.0023721965394185619 0 -0.0089321458077016962 0.0021094430410003202 0 -0.008530383085671743 0.0029357510364663845 0 -0.0089709944786465542 0.0025672937176589336 0 -0.0085790488937638153 0.0024488447609418234 0 -0.0085790488937638153 0.0024488447609418234 0 -0.0089321458077016962 0.0021094430410003202 0 -0.0083161518143434962 0.0021785522620950313 0 -0.0089709944786465542 0.0025672937176589336 0 -0.0092335390512329283 0.0023721965394185619 0 -0.0093523758059413098 0.0025502268901338673 0 -0.0092335390512329283 0.0023721965394185619 0 -0.0093523758059413098 0.0025502268901338673 0 -0.0095654572804399051 0.0024475661136062316 0 -0.0093523758059413098 0.0025502268901338673 0 -0.0091857511447305529 0.0027103514529349688 0 -0.0093419339395598468 0.0026380633444623553 0 -0.0089709944786465542 0.0025672937176589336 0 -0.0093523758059413098 0.0025502268901338673 0 -0.0091857511447305529 0.0027103514529349688 0 -0.0089709944786465542 0.0025672937176589336 0 -0.0089464044169903188 0.0029097527947155957 0 -0.0091857511447305529 0.0027103514529349688 0 -0.0089464044169903188 0.0029097527947155957 0 -0.0091879018325430328 0.0028277602065646178 0 -0.0091857511447305529 0.0027103514529349688 0 -0.0089464044169903188 0.0029097527947155957 0 -0.0091846207744420132 0.0030591139107071807 0 -0.0091879018325430328 0.0028277602065646178 0 -0.0094159979509400773 0.0024916642662392284 0 -0.0094380236908263391 0.0024980697793686533 0 -0.0093419339395598468 0.0026380633444623553 0 -0.0091846207744420132 0.0030591139107071807 0 -0.0091879018325430328 0.0028277602065646178 0 -0.0093419339395598468 0.0026380633444623553 0 -0.0091879018325430328 0.0028277602065646178 0 -0.0091857511447305529 0.0027103514529349688 0 -0.0093419339395598468 0.0026380633444623553 0 -0.0092985152900232088 0.0027499943469957663 0 -0.0093346689003451413 0.0026835162042565725 0 -0.0094159979509400773 0.0024916642662392284 0 -0.0093419339395598468 0.0026380633444623553 0 -0.0092180568789296639 0.0026047354018401189 0 -0.0091951392333479726 0.0025567157183701058 0 -0.0091708693683513528 0.0026172218488591469 0 -0.0088680661177584514 0.002685071777048137 0 -0.0090812812713361758 0.0026727407004637385 0 -0.0092180568789296639 0.0026047354018401189 0 -0.0088680661177584514 0.002685071777048137 0 -0.0090812812713361758 0.0026727407004637385 0 -0.0089972710257291613 0.002712126759800264 0 -0.0090517551347886194 0.0027242139834575902 0 -0.0090812812713361758 0.0026727407004637385 0 -0.0089972710257291613 0.002712126759800264 0 -0.0090517551347886194 0.0027242139834575902 0 -0.0090839222254046129 0.002746778316748712 0 -0.0091448249101283817 0.0026638839464873708 0 -0.0090517551347886194 0.0027242139834575902 0 -0.0090812812713361758 0.0026727407004637385 0 -0.0091448249101283817 0.0026638839464873708 0 -0.0090812812713361758 0.0026727407004637385 0 -0.0091448249101283817 0.0026638839464873708 0 -0.0092180568789296639 0.0026047354018401189 0 -0.0091448249101283817 0.0026638839464873708 0 -0.0092180568789296639 0.0026047354018401189 0 -0.0091984296886914504 0.0026208224010296297 0 -0.0093419339395598468 0.0026380633444623553 0 -0.0092180568789296639 0.0026047354018401189 0 -0.0093704746017135576 0.0025566499685263731 0 -0.0092180568789296639 0.0026047354018401189 0 -0.0093704746017135576 0.0025566499685263731 0 -0.0092597796382418562 0.0025897632455026695 0 -0.0093523758059413098 0.0025502268901338673 0 -0.0093419339395598468 0.0026380633444623553 0 -0.0093704746017135576 0.0025566499685263731 0 -0.0093523758059413098 0.0025502268901338673 0 -0.0093704746017135576 0.0025566499685263731 0 -0.0095654572804399051 0.0024475661136062316 0 -0.0093704746017135576 0.0025566499685263731 0 -0.0093290746756377555 0.0025953624757525332 0 -0.0095654572804399051 0.0024475661136062316 0 -0.0096451735457637952 0.0024178046577165639 0 -0.0098341305284331045 0.0023026416239794382 0 -0.0095654572804399051 0.0024475661136062316 0 -0.01048173999571078 0.0017701398235411858 0 -0.0098651187417943716 0.0017703199113724409 0 -0.0093290746756377555 0.0025953624757525332 0 -0.0095654572804399051 0.0024475661136062316 0 -0.0093397669669544048 0.0027693809558068886 0 -0.01048173999571078 0.0017701398235411858 0 -0.010389125417375281 0.0014396057638600874 0 -0.010129365405611893 0.0014515656924806342 0 -0.010389125417375281 0.0014396057638600874 0 -0.010129365405611893 0.0014515656924806342 0 -0.010304179552465802 0.0012748488855334761 0 -0.01048173999571078 0.0017701398235411858 0 -0.010129365405611893 0.0014515656924806342 0 -0.0098651187417943716 0.0017703199113724409 0 -0.010129365405611893 0.0014515656924806342 0 -0.0098651187417943716 0.0017703199113724409 0 -0.0098003949705427768 0.0015481922955222084 0 -0.0098651187417943716 0.0017703199113724409 0 -0.0098003949705427768 0.0015481922955222084 0 -0.0094183009689044611 0.0018478353628131146 0 -0.010129365405611893 0.0014515656924806342 0 -0.0098003949705427768 0.0015481922955222084 0 -0.010001027945368753 0.0013130662259475524 0 -0.0098003949705427768 0.0015481922955222084 0 -0.0095489393783193301 0.0013808828432532113 0 -0.010001027945368753 0.0013130662259475524 0 -0.0098003949705427768 0.0015481922955222084 0 -0.0095489393783193301 0.0013808828432532113 0 -0.0094183009689044611 0.0018478353628131146 0 -0.0092335390512329283 0.0023721965394185619 0 -0.0095654572804399051 0.0024475661136062316 0 -0.0094183009689044611 0.0018478353628131146 0 -0.0092335390512329283 0.0023721965394185619 0 -0.0094183009689044611 0.0018478353628131146 0 -0.0089321458077016962 0.0021094430410003202 0 -0.0095654572804399051 0.0024475661136062316 0 -0.0098651187417943716 0.0017703199113724409 0 -0.0094183009689044611 0.0018478353628131146 0 -0.0089321458077016962 0.0021094430410003202 0 -0.0089718736325552339 0.001562336663030112 0 -0.0083352396603689986 0.0017700797281302431 0 -0.0089321458077016962 0.0021094430410003202 0 -0.0083352396603689986 0.0017700797281302431 0 -0.0083161518143434962 0.0021785522620950313 0 -0.0094183009689044611 0.0018478353628131146 0 -0.0089321458077016962 0.0021094430410003202 0 -0.0089718736325552339 0.001562336663030112 0 -0.0089718736325552339 0.001562336663030112 0 -0.0082221876742236931 0.0012690145865375635 0 -0.0091705048944480255 0.00091197253739797263 0 -0.0095489393783193301 0.0013808828432532113 0 -0.0094183009689044611 0.0018478353628131146 0 -0.0089718736325552339 0.001562336663030112 0 -0.0095489393783193301 0.0013808828432532113 0 -0.0089718736325552339 0.001562336663030112 0 -0.0091705048944480255 0.00091197253739797263 0 -0.0074663728933139425 0.0015601704877317383 0 -0.0082221876742236931 0.0012690145865375635 0 -0.0083352396603689986 0.0017700797281302431 0 -0.0089718736325552339 0.001562336663030112 0 -0.0082221876742236931 0.0012690145865375635 0 -0.0083352396603689986 0.0017700797281302431 0 -0.0076670656840523693 0.0021444705295287567 0 -0.0083352396603689986 0.0017700797281302431 0 -0.0083161518143434962 0.0021785522620950313 0 -0.0091172809710018989 0.0026632510268494443 0 -0.0091677200823528059 0.0026666264370217249 0 -0.0090728836485898783 0.0027143849371964765 0 -0.0091172809710018989 0.0026632510268494443 0 -0.0090369933082683103 0.0026519545951599549 0 -0.0090728836485898783 0.0027143849371964765 0 -0.0091101273493561299 0.0026490440777236883 0 -0.0091172809710018989 0.0026632510268494443 0 -0.0090369933082683103 0.0026519545951599549 0 -0.0091101273493561299 0.0026490440777236883 0 -0.0091172809710018989 0.0026632510268494443 0 -0.0091606564636830066 0.0026450229744145646 0 -0.0090369933082683103 0.0026519545951599549 0 -0.0090728836485898783 0.0027143849371964765 0 -0.0089617852222523275 0.0027012677026760521 0 -0.0033281631577375048 0.0020808496899538602 0 -0.0053500472250171214 0.002155893165741996 0 -0.0090369933082683103 0.0026519545951599549 0 -0.0089992382320748365 0.0026113254614467145 0 -0.0089617852222523275 0.0027012677026760521 0 -0.0091101273493561299 0.0026490440777236883 0 -0.0090369933082683103 0.0026519545951599549 0 -0.0090293116776074354 0.0026172392651771224 0 -0.0090369933082683103 0.0026519545951599549 0 -0.0089976744961887314 0.0026013724696641264 0 -0.0089992382320748365 0.0026113254614467145 0 -0.0071266038955019846 0.0033277639658148336 0 -0.0042820724849830082 0.0020760198135314758 0 0.00074974744169853478 0.0020776934456996866 0 0.00067181015129113392 0.0019343911643234298 0 0.00063692386697330951 0.0021881002297142594 0 0.0016826991717049104 0.0015052979773946295 0 -0.0042820724849830082 0.0020760198135314758 0 -0.0042820724849830082 0.0020760198135314758 0 -0.0033281631577375048 0.0020808496899538602 0 0.00074473537901906879 0.0021548774595247667 0 0.00063692386697330951 0.0021881002297142594 0 0.00064437313670779228 0.0022060835907554135 0 0.00074974744169853478 0.0020776934456996866 0 0.00074473537901906879 0.0021548774595247667 0 0.00063692386697330951 0.0021881002297142594 0 -0.0091759005865446851 0.0027956898150138291 0 -0.0091628471854853892 0.0026573087609010433 0 -0.0091535766673884085 0.0027077850269158535 0 -0.0092120292946177452 0.0027322964929703463 0 -0.0092446654478451334 0.0026181234634260787 0 -0.0091628471854853892 0.0026573087609010433 0 -0.0091101273493561299 0.0026490440777236883 0 -0.0090293116776074354 0.0026172392651771224 0 -0.0091628471854853892 0.0026573087609010433 0 -0.0042820724849830082 0.0020760198135314758 0 -0.010467436797065409 0.0021486497601648905 0 -0.0091101273493561299 0.0026490440777236883 0 -0.0091628471854853892 0.0026573087609010433 0 -0.0091606564636830066 0.0026450229744145646 0 -0.0091342426873009339 0.0027308504467336882 0 -0.0091535766673884085 0.0027077850269158535 0 -0.0091643492509270747 0.0026688262231626464 0 -0.0091535766673884085 0.0027077850269158535 0 -0.0091643492509270747 0.0026688262231626464 0 -0.0091606564636830066 0.0026450229744145646 0 -0.0091643492509270747 0.0026688262231626464 0 -0.0091873679966410094 0.002631869575265042 0 -0.0091606564636830066 0.0026450229744145646 0 -0.0091628471854853892 0.0026573087609010433 0 -0.0091535766673884085 0.0027077850269158535 0 -0.0091606564636830066 0.0026450229744145646 0 -0.0090839222254046129 0.002746778316748712 0 -0.0091448249101283817 0.0026638839464873708 0 -0.0091345074955341572 0.0027024552528419491 0 -0.0091448249101283817 0.0026638839464873708 0 -0.0091345074955341572 0.0027024552528419491 0 -0.0091984296886914504 0.0026208224010296297 0 -0.0091342426873009339 0.0027308504467336882 0 -0.0091643492509270747 0.0026688262231626464 0 -0.0091345074955341572 0.0027024552528419491 0 -0.0091643492509270747 0.0026688262231626464 0 -0.0091345074955341572 0.0027024552528419491 0 -0.0091984296886914504 0.0026208224010296297 0 -0.0091643492509270747 0.0026688262231626464 0 -0.0091984296886914504 0.0026208224010296297 0 -0.0091873679966410094 0.002631869575265042 0 -0.0092180568789296639 0.0026047354018401189 0 -0.0091984296886914504 0.0026208224010296297 0 -0.0092597796382418562 0.0025897632455026695 0 -0.0092348130724666539 0.0026120293465041024 0 -0.0091677200823528059 0.0026666264370217249 0 -0.0092455551337687434 0.0026641435277601519 0 -0.0091984296886914504 0.0026208224010296297 0 -0.0092597796382418562 0.0025897632455026695 0 -0.0092348130724666539 0.0026120293465041024 0 -0.0093704746017135576 0.0025566499685263731 0 -0.0092597796382418562 0.0025897632455026695 0 -0.0092348130724666539 0.0026120293465041024 0 -0.0091984296886914504 0.0026208224010296297 0 -0.0091873679966410094 0.002631869575265042 0 -0.0092348130724666539 0.0026120293465041024 0 -0.0093704746017135576 0.0025566499685263731 0 -0.0093290746756377555 0.0025953624757525332 0 -0.0092348130724666539 0.0026120293465041024 0 -0.0091873679966410094 0.002631869575265042 0 -0.0092348130724666539 0.0026120293465041024 0 -0.0091677200823528059 0.0026666264370217249 0 -0.0091873679966410094 0.002631869575265042 0 -0.0091606564636830066 0.0026450229744145646 0 -0.0091677200823528059 0.0026666264370217249 0 -0.0091172809710018989 0.0026632510268494443 0 -0.0091606564636830066 0.0026450229744145646 0 -0.0091677200823528059 0.0026666264370217249 0 -0.0091677200823528059 0.0026666264370217249 0 -0.0092129083933177817 0.0027387097929500248 0 -0.0092455551337687434 0.0026641435277601519 0 -0.0091677200823528059 0.0026666264370217249 0 -0.0092129083933177817 0.0027387097929500248 0 -0.0091328205139959619 0.0027452673725756513 0 -0.0093397669669544048 0.0027693809558068886 0 -0.0092129083933177817 0.0027387097929500248 0 -0.0092455551337687434 0.0026641435277601519 0 -0.0093290746756377555 0.0025953624757525332 0 -0.0092348130724666539 0.0026120293465041024 0 -0.0092455551337687434 0.0026641435277601519 0 -0.0093290746756377555 0.0025953624757525332 0 -0.0093397669669544048 0.0027693809558068886 0 -0.0092455551337687434 0.0026641435277601519 0 -0.0098341305284331045 0.0023026416239794382 0 -0.010430775131935648 0.0019664633712633841 0 -0.01048173999571078 0.0017701398235411858 0 -0.010389125417375281 0.0014396057638600874 0 -0.010849556821893945 0.0013088732801554421 0 -0.0093397669669544048 0.0027693809558068886 0 -0.0092129083933177817 0.0027387097929500248 0 -0.0092468433578760719 0.0028524599192540686 0 -0.0096802426859653873 0.0021915870482484777 0 -0.010430775131935648 0.0019664633712633841 0 -0.0090849558023118164 0.0028228601477045135 0 -0.0091328205139959619 0.0027452673725756513 0 -0.0092468433578760719 0.0028524599192540686 0 -0.0092129083933177817 0.0027387097929500248 0 -0.0091328205139959619 0.0027452673725756513 0 -0.0092468433578760719 0.0028524599192540686 0 -0.0090849558023118164 0.0028228601477045135 0 -0.0090728836485898783 0.0027143849371964765 0 -0.0090062288565690794 0.0027581564369423351 0 -0.0090849558023118164 0.0028228601477045135 0 -0.0090728836485898783 0.0027143849371964765 0 -0.0091328205139959619 0.0027452673725756513 0 -0.0091677200823528059 0.0026666264370217249 0 -0.0090728836485898783 0.0027143849371964765 0 -0.0091328205139959619 0.0027452673725756513 0 -0.0090728836485898783 0.0027143849371964765 0 -0.0090062288565690794 0.0027581564369423351 0 -0.0089617852222523275 0.0027012677026760521 0 -0.0089043841942627565 0.0028013231755184115 0 -0.0090062288565690794 0.0027581564369423351 0 -0.0089617852222523275 0.0027012677026760521 0 -0.0096687974150996212 7.21612659736239e-07 0 -0.010527153873021835 0.00046651691607782134 0 -0.0096182071082397454 0.0003304257555977284 0 -0.006429419774567853 0.0019930951057487568 0 -0.0100899427270013 0.0011226577071876292 0 -0.006429419774567853 0.0019930951057487568 0 -0.0096802426859653873 0.0021915870482484777 0 -0.0089043841942627565 0.0028013231755184115 0 -0.0090849558023118164 0.0028228601477045135 0 -0.0090062288565690794 0.0027581564369423351 0 -0.0077217531490064604 0.0011138412455623694 0 -0.0095326130842058338 0.0014220908346539033 0 -0.0091312932932156258 0.0019094459376672601 0 -0.010527153873021835 0.00046651691607782134 0 -0.0099911849132562642 0.0007061775617492258 0 -0.0096182071082397454 0.0003304257555977284 0 -0.010527153873021835 0.00046651691607782134 0 -0.0099911849132562642 0.0007061775617492258 0 -0.010338330800443796 0.0010768742292909688 0 -0.0099911849132562642 0.0007061775617492258 0 -0.010338330800443796 0.0010768742292909688 0 -0.009679876794563844 0.001026065044729579 0 -0.010338330800443796 0.0010768742292909688 0 -0.011093637389703637 0.0012682148542623184 0 -0.01016396298642923 0.0017107419403946012 0 -0.010338330800443796 0.0010768742292909688 0 -0.01016396298642923 0.0017107419403946012 0 -0.009679876794563844 0.001026065044729579 0 -0.010527153873021835 0.00046651691607782134 0 -0.010338330800443796 0.0010768742292909688 0 -0.011093637389703637 0.0012682148542623184 0 -0.010527153873021835 0.00046651691607782134 0 -0.011093637389703637 0.0012682148542623184 0 -0.01137153110323743 0.00094441955130782486 0 -0.0095326130842058338 0.0014220908346539033 0 -0.0091312932932156258 0.0019094459376672601 0 -0.010492072375028468 0.0026827908119262094 0 -0.0100899427270013 0.0011226577071876292 0 -0.011505264979162414 0.0014368981789921638 0 -0.0095326130842058338 0.0014220908346539033 0 -0.011249288224066565 0.0017872541464843189 0 -0.010492072375028468 0.0026827908119262094 0 -0.011492366671222786 0.0018548226058612586 0 -0.011912007371017658 0.0013656403968975727 0 -0.011759098402390609 0.0012754601948329464 0 -0.010430775131935648 0.0019664633712633841 0 -0.011505264979162414 0.0014368981789921638 0 -0.012918997331858219 0.0013559899124506438 0 -0.010926343670527071 0.001505994150549399 0 -0.011492366671222786 0.0018548226058612586 0 -0.011759098402390609 0.0012754601948329464 0 -0.010861656520445389 0.001719491462983104 0 -0.010430775131935648 0.0019664633712633841 0 -0.010926343670527071 0.001505994150549399 0 -0.010389125417375281 0.0014396057638600874 0 -0.010849556821893945 0.0013088732801554421 0 -0.010377126541266881 0.0012233982972718006 0 -0.01261637644966295 0.00051897030247807601 0 -0.013683438302715269 0.00093694310426269915 0 -0.011383433793193294 0.0017371298472355278 0 -0.013683438302715269 0.00093694310426269915 0 -0.014058018710616382 0.0011799659425924974 0 -0.011383433793193294 0.0017371298472355278 0 -0.01261637644966295 0.00051897030247807601 0 -0.013683438302715269 0.00093694310426269915 0 -0.013805488485077656 0.0002547642786995387 0 -0.01261637644966295 0.00051897030247807601 0 -0.012121438995886547 -0.00059291587426849946 0 -0.011712383953006725 0.00031101742608822337 0 -0.013411437471279004 0.0012527473959120599 0 -0.011505264979162414 0.0014368981789921638 0 -0.01299661964351112 0.0010805614107524629 0 -0.012507045373605691 0.0016549827232923556 0 -0.012201900571411295 0.0014762266501843913 0 -0.013411437471279004 0.0012527473959120599 0 -0.012918997331858219 0.0013559899124506438 0 -0.011505264979162414 0.0014368981789921638 0 -0.012918997331858219 0.0013559899124506438 0 -0.01327686277783364 0.0013963998117863651 0 -0.012918997331858219 0.0013559899124506438 0 -0.013683438302715269 0.00093694310426269915 0 -0.014058009008678162 0.0011442840128404839 0 -0.01427618277889019 0.00064422715279022181 0 -0.013683438302715269 0.00093694310426269915 0 -0.01427618277889019 0.00064422715279022181 0 -0.013805488485077656 0.0002547642786995387 0 -0.01483461865372702 0.00079005210410927943 0 -0.014058009008678162 0.0011442840128404839 0 -0.01427618277889019 0.00064422715279022181 0 -0.01483461865372702 0.00079005210410927943 0 -0.01427618277889019 0.00064422715279022181 0 -0.014780403865931338 0.00036283764311004837 0 -0.014780403865931338 0.00036283764311004837 0 -0.013805488485077656 0.0002547642786995387 0 -0.014929456764057766 0.00012296876027900278 0 -0.01427618277889019 0.00064422715279022181 0 -0.014780403865931338 0.00036283764311004837 0 -0.013805488485077656 0.0002547642786995387 0 -0.013823824543905343 0.00029359846394237411 0 -0.013686186017263279 -0.00077096646849939584 0 -0.013805488485077656 0.0002547642786995387 0 -0.012121438995886547 -0.00059291587426849946 0 -0.012501679294694706 -0.001784774812232914 0 -0.01261637644966295 0.00051897030247807601 0 -0.013805488485077656 0.0002547642786995387 0 -0.012121438995886547 -0.00059291587426849946 0 -0.012121438995886547 -0.00059291587426849946 0 -0.012501679294694706 -0.001784774812232914 0 -0.011415065936743789 -0.0014156430488943877 0 -0.013805488485077656 0.0002547642786995387 0 -0.014873976930150652 5.6112844206023108e-05 0 -0.014929456764057766 0.00012296876027900278 0 -0.014873976930150652 5.6112844206023108e-05 0 -0.014929456764057766 0.00012296876027900278 0 -0.015205306213834072 -6.8957404974028891e-05 0 -0.015303208068897423 0.00026444477790213313 0 -0.015924679728294682 0.00040966068168598609 0 -0.01541506108513873 7.6833224892883681e-05 0 -0.014929456764057766 0.00012296876027900278 0 -0.015303208068897423 0.00026444477790213313 0 -0.01541506108513873 7.6833224892883681e-05 0 -0.015924679728294682 0.00040966068168598609 0 -0.01588963043550639 0.0011404725155585397 0 -0.016324259365788744 0.00048098510605887687 0 -0.015303208068897423 0.00026444477790213313 0 -0.015924679728294682 0.00040966068168598609 0 -0.01540616370272547 0.00044970688392041881 0 -0.015811274933607417 0.00044212405291213562 0 -0.015525739201030142 0.00062915279191946415 0 -0.015924679728294682 0.00040966068168598609 0 -0.01588963043550639 0.0011404725155585397 0 -0.01531753954614155 0.001029720960443352 0 -0.013411437471279004 0.0012527473959120599 0 -0.012733547489019489 0.0012932932864741513 0 -0.01469912515642687 0.001738910848856894 0 -0.01588963043550639 0.0011404725155585397 0 -0.01531753954614155 0.001029720960443352 0 -0.01483461865372702 0.00079005210410927943 0 -0.014780403865931338 0.00036283764311004837 0 -0.01540616370272547 0.00044970688392041881 0 -0.013411437471279004 0.0012527473959120599 0 -0.015525739201030142 0.00062915279191946415 0 -0.014780403865931338 0.00036283764311004837 0 -0.015303208068897423 0.00026444477790213313 0 -0.01540616370272547 0.00044970688392041881 0 -0.014780403865931338 0.00036283764311004837 0 -0.014929456764057766 0.00012296876027900278 0 -0.015303208068897423 0.00026444477790213313 0 -0.0079806112614843154 -0.00025802806937203366 0 -0.0088325791855147218 -3.336990870483749e-05 0 -0.0083969958406531001 0.00064266209569731716 0 -0.0082221876742236931 0.0012690145865375635 0 -0.0083969958406531001 0.00064266209569731716 0 -0.0091705048944480255 0.00091197253739797263 0 -0.0088325791855147218 -3.336990870483749e-05 0 -0.0083969958406531001 0.00064266209569731716 0 -0.0091705048944480255 0.00091197253739797263 0 -0.0095489393783193301 0.0013808828432532113 0 -0.0091705048944480255 0.00091197253739797263 0 -0.0098255757076902966 0.0011564342069942299 0 -0.0091705048944480255 0.00091197253739797263 0 -0.0096207012861678973 0.00024208329543225524 0 -0.0099384843939907888 0.00079235923524149888 0 -0.0088325791855147218 -3.336990870483749e-05 0 -0.0091705048944480255 0.00091197253739797263 0 -0.0096207012861678973 0.00024208329543225524 0 -0.0088325791855147218 -3.336990870483749e-05 0 -0.0096207012861678973 0.00024208329543225524 0 -0.0099047492323043711 -0.00088457565404927532 0 -0.0096207012861678973 0.00024208329543225524 0 -0.010494701206763211 0.00026057074802248738 0 -0.0099047492323043711 -0.00088457565404927532 0 -0.010494701206763211 0.00026057074802248738 0 -0.0099384843939907888 0.00079235923524149888 0 -0.010436650740702333 0.00088684386893318073 0 -0.010494701206763211 0.00026057074802248738 0 -0.010436650740702333 0.00088684386893318073 0 -0.01099635226725719 0.00082171007361404478 0 -0.0096207012861678973 0.00024208329543225524 0 -0.010494701206763211 0.00026057074802248738 0 -0.0099384843939907888 0.00079235923524149888 0 -0.0091705048944480255 0.00091197253739797263 0 -0.0099384843939907888 0.00079235923524149888 0 -0.0098255757076902966 0.0011564342069942299 0 -0.0099384843939907888 0.00079235923524149888 0 -0.0098255757076902966 0.0011564342069942299 0 -0.010182072330732449 0.0011637986833390355 0 -0.0095489393783193301 0.0013808828432532113 0 -0.0098255757076902966 0.0011564342069942299 0 -0.010001027945368753 0.0013130662259475524 0 -0.010129365405611893 0.0014515656924806342 0 -0.010243041255658383 0.0012953537201560443 0 -0.010001027945368753 0.0013130662259475524 0 -0.0098255757076902966 0.0011564342069942299 0 -0.010001027945368753 0.0013130662259475524 0 -0.010182072330732449 0.0011637986833390355 0 -0.010243041255658383 0.0012953537201560443 0 -0.010001027945368753 0.0013130662259475524 0 -0.010182072330732449 0.0011637986833390355 0 -0.010243041255658383 0.0012953537201560443 0 -0.010182072330732449 0.0011637986833390355 0 -0.010500290169970344 0.0013529236587627568 0 -0.0099384843939907888 0.00079235923524149888 0 -0.010182072330732449 0.0011637986833390355 0 -0.010436650740702333 0.00088684386893318073 0 -0.010182072330732449 0.0011637986833390355 0 -0.010436650740702333 0.00088684386893318073 0 -0.010500290169970344 0.0013529236587627568 0 -0.010436650740702333 0.00088684386893318073 0 -0.010500290169970344 0.0013529236587627568 0 -0.01099635226725719 0.00082171007361404478 0 -0.010500290169970344 0.0013529236587627568 0 -0.011383433793193294 0.0017371298472355278 0 -0.01099635226725719 0.00082171007361404478 0 -0.010243041255658383 0.0012953537201560443 0 -0.010500290169970344 0.0013529236587627568 0 -0.010304179552465802 0.0012748488855334761 0 -0.010500290169970344 0.0013529236587627568 0 -0.010304179552465802 0.0012748488855334761 0 -0.010126243055972248 0.001365577816449917 0 -0.010617236903487278 0.0014337269885299332 0 -0.010926343670527071 0.001505994150549399 0 -0.010552454465362331 0.0015329701845904634 0 -0.010926343670527071 0.001505994150549399 0 -0.010129365405611893 0.0014515656924806342 0 -0.010243041255658383 0.0012953537201560443 0 -0.010304179552465802 0.0012748488855334761 0 -0.010389125417375281 0.0014396057638600874 0 -0.010304179552465802 0.0012748488855334761 0 -0.010377126541266881 0.0012233982972718006 0 -0.011383433793193294 0.0017371298472355278 0 -0.01099635226725719 0.00082171007361404478 0 -0.011712383953006725 0.00031101742608822337 0 -0.010494701206763211 0.00026057074802248738 0 -0.011712383953006725 0.00031101742608822337 0 -0.010989491051121989 -0.00073351327560739344 0 -0.010494701206763211 0.00026057074802248738 0 -0.01099635226725719 0.00082171007361404478 0 -0.011712383953006725 0.00031101742608822337 0 -0.01261637644966295 0.00051897030247807601 0 -0.011383433793193294 0.0017371298472355278 0 -0.011712383953006725 0.00031101742608822337 0 -0.012121438995886547 -0.00059291587426849946 0 -0.011712383953006725 0.00031101742608822337 0 -0.010989491051121989 -0.00073351327560739344 0 -0.012121438995886547 -0.00059291587426849946 0 -0.010989491051121989 -0.00073351327560739344 0 -0.011415065936743789 -0.0014156430488943877 0 -0.011415065936743789 -0.0014156430488943877 0 -0.010589515594219773 -0.0014593364345992159 0 -0.011037318887346765 -0.0022334547840368222 0 -0.012501679294694706 -0.001784774812232914 0 -0.011415065936743789 -0.0014156430488943877 0 -0.011037318887346765 -0.0022334547840368222 0 -0.010989491051121989 -0.00073351327560739344 0 -0.011415065936743789 -0.0014156430488943877 0 -0.010589515594219773 -0.0014593364345992159 0 -0.010589515594219773 -0.0014593364345992159 0 -0.0099047492323043711 -0.00088457565404927532 0 -0.010142829815355931 -0.0019560946394869996 0 -0.010989491051121989 -0.00073351327560739344 0 -0.010589515594219773 -0.0014593364345992159 0 -0.0099047492323043711 -0.00088457565404927532 0 -0.010494701206763211 0.00026057074802248738 0 -0.010989491051121989 -0.00073351327560739344 0 -0.0099047492323043711 -0.00088457565404927532 0 -0.0090472549332716555 -0.0011034896764906903 0 -0.0096055722071660167 -0.0022221280131939241 0 -0.010142829815355931 -0.0019560946394869996 0 -0.0091429977859792087 -0.0018624586976845707 0 -0.0090472549332716555 -0.0011034896764906903 0 -0.0096055722071660167 -0.0022221280131939241 0 -0.0088325791855147218 -3.336990870483749e-05 0 -0.0099047492323043711 -0.00088457565404927532 0 -0.0090472549332716555 -0.0011034896764906903 0 -0.0099047492323043711 -0.00088457565404927532 0 -0.0090472549332716555 -0.0011034896764906903 0 -0.010142829815355931 -0.0019560946394869996 0 -0.0079806112614843154 -0.00025802806937203366 0 -0.0088325791855147218 -3.336990870483749e-05 0 -0.0090472549332716555 -0.0011034896764906903 0 -0.0096055722071660167 -0.0022221280131939241 0 -0.010139588888573449 -0.0025987994754030071 0 -0.0099175288262854291 -0.0030043879085557474 0 -0.0093680298176731045 -0.0025325012179954363 0 -0.0096055722071660167 -0.0022221280131939241 0 -0.0099175288262854291 -0.0030043879085557474 0 -0.0096055722071660167 -0.0022221280131939241 0 -0.010142829815355931 -0.0019560946394869996 0 -0.010139588888573449 -0.0025987994754030071 0 -0.010142829815355931 -0.0019560946394869996 0 -0.010139588888573449 -0.0025987994754030071 0 -0.010664663797999978 -0.0026242873441377338 0 -0.010139588888573449 -0.0025987994754030071 0 -0.010664663797999978 -0.0026242873441377338 0 -0.010480378861114999 -0.003027741134099652 0 -0.010664663797999978 -0.0026242873441377338 0 -0.011037318887346765 -0.0022334547840368222 0 -0.011189202226640181 -0.0027230614551518968 0 -0.010664663797999978 -0.0026242873441377338 0 -0.011189202226640181 -0.0027230614551518968 0 -0.010970601750769138 -0.0030162166719700317 0 -0.010142829815355931 -0.0019560946394869996 0 -0.010664663797999978 -0.0026242873441377338 0 -0.011037318887346765 -0.0022334547840368222 0 -0.010589515594219773 -0.0014593364345992159 0 -0.010142829815355931 -0.0019560946394869996 0 -0.011037318887346765 -0.0022334547840368222 0 -0.011189202226640181 -0.0027230614551518968 0 -0.011361045747008091 -0.0030172866176877804 0 -0.011902951199762837 -0.0026967163522153073 0 -0.011037318887346765 -0.0022334547840368222 0 -0.011189202226640181 -0.0027230614551518968 0 -0.011902951199762837 -0.0026967163522153073 0 -0.011189202226640181 -0.0027230614551518968 0 -0.011361045747008091 -0.0030172866176877804 0 -0.010970601750769138 -0.0030162166719700317 0 -0.011361045747008091 -0.0030172866176877804 0 -0.011139539757030964 -0.0032741633594442149 0 -0.010970601750769138 -0.0030162166719700317 0 -0.011361045747008091 -0.0030172866176877804 0 -0.011139539757030964 -0.0032741633594442149 0 -0.011530633710881488 -0.0033630410872569688 0 -0.011139539757030964 -0.0032741633594442149 0 -0.011530633710881488 -0.0033630410872569688 0 -0.011024274504654628 -0.0036228236222737571 0 -0.011139539757030964 -0.0032741633594442149 0 -0.010798173601747891 -0.0033416314105565326 0 -0.011024274504654628 -0.0036228236222737571 0 -0.010798173601747891 -0.0033416314105565326 0 -0.01075739808208393 -0.0036089771494876356 0 -0.011024274504654628 -0.0036228236222737571 0 -0.010798173601747891 -0.0033416314105565326 0 -0.010450156065230759 -0.0034187743514572347 0 -0.01075739808208393 -0.0036089771494876356 0 -0.010798173601747891 -0.0033416314105565326 0 -0.010970601750769138 -0.0030162166719700317 0 -0.010480378861114999 -0.003027741134099652 0 -0.010664663797999978 -0.0026242873441377338 0 -0.010970601750769138 -0.0030162166719700317 0 -0.010480378861114999 -0.003027741134099652 0 -0.011139539757030964 -0.0032741633594442149 0 -0.010798173601747891 -0.0033416314105565326 0 -0.010970601750769138 -0.0030162166719700317 0 -0.010139588888573449 -0.0025987994754030071 0 -0.010480378861114999 -0.003027741134099652 0 -0.0099175288262854291 -0.0030043879085557474 0 -0.010480378861114999 -0.003027741134099652 0 -0.010450156065230759 -0.0034187743514572347 0 -0.0099175288262854291 -0.0030043879085557474 0 -0.010798173601747891 -0.0033416314105565326 0 -0.010480378861114999 -0.003027741134099652 0 -0.010450156065230759 -0.0034187743514572347 0 -0.010450156065230759 -0.0034187743514572347 0 -0.0099175288262854291 -0.0030043879085557474 0 -0.010149339156632216 -0.0036292398927451103 0 -0.00967883395079756 -0.003369090014019977 0 -0.0099175288262854291 -0.0030043879085557474 0 -0.010149339156632216 -0.0036292398927451103 0 -0.015535608277954898 -0.0001836337545725622 0 -0.015873071449571698 -0.00030791274671685358 0 -0.015925124210981259 -6.0811969170494554e-05 0 -0.015535608277954898 -0.0001836337545725622 0 -0.015873071449571698 -0.00030791274671685358 0 -0.015713113323505268 -0.00043675544302873635 0 -0.015873071449571698 -0.00030791274671685358 0 -0.016227736416346956 -0.00032666958522090442 0 -0.015925124210981259 -6.0811969170494554e-05 0 -0.016227736416346956 -0.00032666958522090442 0 -0.015925124210981259 -6.0811969170494554e-05 0 -0.016452047302439484 -0.00014576276468800239 0 -0.015924679728294682 0.00040966068168598609 0 -0.015925124210981259 -6.0811969170494554e-05 0 -0.016356133905462533 0.00012653069775255048 0 -0.015924679728294682 0.00040966068168598609 0 -0.015925124210981259 -6.0811969170494554e-05 0 -0.01541506108513873 7.6833224892883681e-05 0 -0.015925124210981259 -6.0811969170494554e-05 0 -0.016452047302439484 -0.00014576276468800239 0 -0.016356133905462533 0.00012653069775255048 0 -0.015535608277954898 -0.0001836337545725622 0 -0.01541506108513873 7.6833224892883681e-05 0 -0.015205306213834072 -6.8957404974028891e-05 0 -0.015535608277954898 -0.0001836337545725622 0 -0.015925124210981259 -6.0811969170494554e-05 0 -0.01541506108513873 7.6833224892883681e-05 0 -0.014929456764057766 0.00012296876027900278 0 -0.01541506108513873 7.6833224892883681e-05 0 -0.015205306213834072 -6.8957404974028891e-05 0 -0.012501679294694706 -0.001784774812232914 0 -0.011037318887346765 -0.0022334547840368222 0 -0.011902951199762837 -0.0026967163522153073 0 -0.013686186017263279 -0.00077096646849939584 0 -0.013532516642826346 -0.0014709892633904039 0 -0.014873976930150652 5.6112844206023108e-05 0 -0.015205306213834072 -6.8957404974028891e-05 0 -0.015115956481656409 -0.00023843705663559821 0 -0.015205306213834072 -6.8957404974028891e-05 0 -0.015115956481656409 -0.00023843705663559821 0 -0.015418330192974755 -0.00033472588405935309 0 -0.015535608277954898 -0.0001836337545725622 0 -0.015205306213834072 -6.8957404974028891e-05 0 -0.015418330192974755 -0.00033472588405935309 0 -0.015535608277954898 -0.0001836337545725622 0 -0.015418330192974755 -0.00033472588405935309 0 -0.015713113323505268 -0.00043675544302873635 0 -0.015418330192974755 -0.00033472588405935309 0 -0.015577735240738716 -0.00063318498362432908 0 -0.015272857525426188 -0.00072735498447269232 0 -0.015418330192974755 -0.00033472588405935309 0 -0.015577735240738716 -0.00063318498362432908 0 -0.015713113323505268 -0.00043675544302873635 0 -0.015115956481656409 -0.00023843705663559821 0 -0.015272857525426188 -0.00072735498447269232 0 -0.015045409866785819 -0.00092446184453414142 0 -0.011361045747008091 -0.0030172866176877804 0 -0.011902951199762837 -0.0026967163522153073 0 -0.011530633710881488 -0.0033630410872569688 0 -0.015115956481656409 -0.00023843705663559821 0 -0.015418330192974755 -0.00033472588405935309 0 -0.015272857525426188 -0.00072735498447269232 0 -0.013532516642826346 -0.0014709892633904039 0 -0.013114740376090568 -0.0020639375332518876 0 -0.015316070734238536 -0.00076278884157762435 0 -0.015740317848369146 -0.0016836376422204931 0 -0.015272857525426188 -0.00072735498447269232 0 -0.015045409866785819 -0.00092446184453414142 0 -0.015715776401396472 -0.0018615078852560951 0 -0.015577735240738716 -0.00063318498362432908 0 -0.015783556034132933 -0.00105858547492127 0 -0.016435672326095122 -0.0012791779697074515 0 -0.015272857525426188 -0.00072735498447269232 0 -0.015783556034132933 -0.00105858547492127 0 -0.015748831831041189 -0.0015160316517125341 0 -0.015650016722697186 -0.00066954865705193473 0 -0.016120478069929705 -0.0011910254252924302 0 -0.015577735240738716 -0.00063318498362432908 0 -0.015272857525426188 -0.00072735498447269232 0 -0.015783556034132933 -0.00105858547492127 0 -0.015577735240738716 -0.00063318498362432908 0 -0.015983848624880944 -0.0006147341871260753 0 -0.015820077234585922 -0.0010662624152144244 0 -0.015983848624880944 -0.0006147341871260753 0 -0.016414930792715325 -0.00091871811960566284 0 -0.015820077234585922 -0.0010662624152144244 0 -0.015873071449571698 -0.00030791274671685358 0 -0.015983848624880944 -0.0006147341871260753 0 -0.015713113323505268 -0.00043675544302873635 0 -0.015577735240738716 -0.00063318498362432908 0 -0.015983848624880944 -0.0006147341871260753 0 -0.015713113323505268 -0.00043675544302873635 0 -0.015873071449571698 -0.00030791274671685358 0 -0.016227736416346956 -0.00032666958522090442 0 -0.015983848624880944 -0.0006147341871260753 0 -0.016227736416346956 -0.00032666958522090442 0 -0.015983848624880944 -0.0006147341871260753 0 -0.016450125612946717 -0.00057136363731240941 0 -0.015983848624880944 -0.0006147341871260753 0 -0.016450125612946717 -0.00057136363731240941 0 -0.016414930792715325 -0.00091871811960566284 0 -0.016414930792715325 -0.00091871811960566284 0 -0.016839164219188105 -0.00068086154593867984 0 -0.01706263708700954 -0.0010319539401764052 0 -0.016450125612946717 -0.00057136363731240941 0 -0.016414930792715325 -0.00091871811960566284 0 -0.016839164219188105 -0.00068086154593867984 0 -0.016839164219188105 -0.00068086154593867984 0 -0.01731781610759171 -0.00069067703667741013 0 -0.01706263708700954 -0.0010319539401764052 0 -0.01731781610759171 -0.00069067703667741013 0 -0.017621296949202041 -0.00066812670908882651 0 -0.017555671853553435 -0.00089455995058249158 0 -0.017621296949202041 -0.00066812670908882651 0 -0.017924316145506221 -0.00080027871304543289 0 -0.017555671853553435 -0.00089455995058249158 0 -0.01731781610759171 -0.00069067703667741013 0 -0.017621296949202041 -0.00066812670908882651 0 -0.017432605068865639 -0.00056369110767496395 0 -0.017432605068865639 -0.00056369110767496395 0 -0.017096451189191775 -0.00053393437991246945 0 -0.017342246586789456 -0.0004230186042893912 0 -0.017621296949202041 -0.00066812670908882651 0 -0.017432605068865639 -0.00056369110767496395 0 -0.017752953334426225 -0.00052548892235036845 0 -0.017432605068865639 -0.00056369110767496395 0 -0.017342246586789456 -0.0004230186042893912 0 -0.017752953334426225 -0.00052548892235036845 0 -0.01731781610759171 -0.00069067703667741013 0 -0.017432605068865639 -0.00056369110767496395 0 -0.017096451189191775 -0.00053393437991246945 0 -0.016839164219188105 -0.00068086154593867984 0 -0.01731781610759171 -0.00069067703667741013 0 -0.017096451189191775 -0.00053393437991246945 0 -0.017096451189191775 -0.00053393437991246945 0 -0.017342246586789456 -0.0004230186042893912 0 -0.016814587288472158 -0.00035515498615739733 0 -0.017342246586789456 -0.0004230186042893912 0 -0.016814587288472158 -0.00035515498615739733 0 -0.017280684221605933 -0.00020953019037083499 0 -0.016839164219188105 -0.00068086154593867984 0 -0.017096451189191775 -0.00053393437991246945 0 -0.016814587288472158 -0.00035515498615739733 0 -0.016227736416346956 -0.00032666958522090442 0 -0.016450125612946717 -0.00057136363731240941 0 -0.016814587288472158 -0.00035515498615739733 0 -0.016450125612946717 -0.00057136363731240941 0 -0.016839164219188105 -0.00068086154593867984 0 -0.016814587288472158 -0.00035515498615739733 0 -0.022169893802196364 0.0027621733107617346 0 -0.022932877206403402 0.0035776064030474779 0 -0.023133252772630852 0.0025782166163576216 0 -0.022169893802196364 0.0027621733107617346 0 -0.023133252772630852 0.0025782166163576216 0 -0.022353797925185104 0.0021823931305461463 0 -0.022169893802196364 0.0027621733107617346 0 -0.021719993175584366 0.0025174045213302724 0 -0.022353797925185104 0.0021823931305461463 0 -0.022169893802196364 0.0027621733107617346 0 -0.021719993175584366 0.0025174045213302724 0 -0.021576214489291021 0.0032499392117188407 0 -0.022169893802196364 0.0027621733107617346 0 -0.021576214489291021 0.0032499392117188407 0 -0.022932877206403402 0.0035776064030474779 0 -0.019968228593384776 0.0023311158968833284 0 -0.02050937041496647 0.0031830777456222717 0 -0.019352981895657029 -0.00056352867428942062 0 -0.020373223638576698 0.0031661004274800373 0 -0.020597858870568926 0.00076748165199569461 0 -0.021719993175584366 0.0025174045213302724 0 -0.02050937041496647 0.0031830777456222717 0 -0.021810270362029632 0.001823066805090989 0 -0.021719993175584366 0.0025174045213302724 0 -0.021576214489291021 0.0032499392117188407 0 -0.02050937041496647 0.0031830777456222717 0 -0.017752953334426225 -0.00052548892235036845 0 -0.018184480523618887 -0.00083899187781689922 0 -0.017924316145506221 -0.00080027871304543289 0 -0.017621296949202041 -0.00066812670908882651 0 -0.017752953334426225 -0.00052548892235036845 0 -0.017924316145506221 -0.00080027871304543289 0 -0.017342246586789456 -0.0004230186042893912 0 -0.017752953334426225 -0.00052548892235036845 0 -0.017280684221605933 -0.00020953019037083499 0 -0.02050937041496647 0.0031830777456222717 0 -0.020698319906561687 0.0047714354700402802 0 -0.019981745307173143 0.0048335299544075404 0 -0.02050937041496647 0.0031830777456222717 0 -0.021380343796750766 0.0039656146489620361 0 -0.020698319906561687 0.0047714354700402802 0 -0.018857695358739934 0.00074255975798585242 0 -0.018594249310624322 0.0022709624260041535 0 -0.019968228593384776 0.0023311158968833284 0 -0.02050937041496647 0.0031830777456222717 0 -0.019981745307173143 0.0048335299544075404 0 -0.021576214489291021 0.0032499392117188407 0 -0.02050937041496647 0.0031830777456222717 0 -0.021380343796750766 0.0039656146489620361 0 -0.022263354969768015 0.0041824736778275327 0 -0.023180243641203559 0.0049889348890985539 0 -0.022932877206403402 0.0035776064030474779 0 -0.021576214489291021 0.0032499392117188407 0 -0.021380343796750766 0.0039656146489620361 0 -0.022263354969768015 0.0041824736778275327 0 -0.021380343796750766 0.0039656146489620361 0 -0.022263354969768015 0.0041824736778275327 0 -0.022047690053874813 0.0049745241973137583 0 -0.021576214489291021 0.0032499392117188407 0 -0.022263354969768015 0.0041824736778275327 0 -0.022932877206403402 0.0035776064030474779 0 -0.0067112959640464164 -0.0032544084781241786 0 -0.0061990347317664044 -0.0033780463126945538 0 -0.006223598691647088 -0.0031816769758820315 0 -0.022039838137361229 0.0048326011621846214 0 -0.018059112720130145 0.0040856301538237487 0 -0.022047690053874813 0.0049745241973137583 0 -0.021527725392132643 0.0060320583934169421 0 -0.023180243641203559 0.0049889348890985539 0 -0.021380343796750766 0.0039656146489620361 0 -0.022047690053874813 0.0049745241973137583 0 -0.021527725392132643 0.0060320583934169421 0 -0.018059112720130145 0.0040856301538237487 0 -0.013457976525955087 0.00077362105219784278 0 -0.022263354969768015 0.0041824736778275327 0 -0.022047690053874813 0.0049745241973137583 0 -0.023180243641203559 0.0049889348890985539 0 -0.021380343796750766 0.0039656146489620361 0 -0.020698319906561687 0.0047714354700402802 0 -0.021018526535962218 0.0058157670802307087 0 -0.020698319906561687 0.0047714354700402802 0 -0.020368883379564284 0.0054919581246389276 0 -0.021018526535962218 0.0058157670802307087 0 -0.020698319906561687 0.0047714354700402802 0 -0.020368883379564284 0.0054919581246389276 0 -0.019981745307173143 0.0048335299544075404 0 -0.020495295469638179 0.0059507216540458157 0 -0.019744616837339031 0.0060119032606679073 0 -0.020112251292974379 0.00662984372042084 0 -0.020495295469638179 0.0059507216540458157 0 -0.020735981587870211 0.0062929887673830809 0 -0.020112251292974379 0.00662984372042084 0 -0.020368883379564284 0.0054919581246389276 0 -0.020495295469638179 0.0059507216540458157 0 -0.019744616837339031 0.0060119032606679073 0 -0.020368883379564284 0.0054919581246389276 0 -0.020495295469638179 0.0059507216540458157 0 -0.021018526535962218 0.0058157670802307087 0 -0.020495295469638179 0.0059507216540458157 0 -0.02073235978752835 0.0057828365315832804 0 -0.020735981587870211 0.0062929887673830809 0 -0.019852167423401845 0.0046015689907029176 0 -0.018059112720130145 0.0040856301538237487 0 -0.0067112959640464164 -0.0032544084781241786 0 -0.0067040570768620977 -0.0035011104354078395 0 -0.0061990347317664044 -0.0033780463126945538 0 -0.0029658122355843081 -0.0018197758193081205 0 -0.0037441165170706567 -0.0017258034690267807 0 -0.004126559162912961 -0.0025454461445763559 0 -0.008809461852973717 0.00028643059349825803 0 -0.0045216605726255184 -0.0031451730393203619 0 -0.018059112720130145 0.0040856301538237487 0 -0.008809461852973717 0.00028643059349825803 0 -0.016814587288472158 -0.00035515498615739733 0 -0.016452047302439484 -0.00014576276468800239 0 -0.016781631312684356 -6.4999036676317926e-05 0 -0.016227736416346956 -0.00032666958522090442 0 -0.016814587288472158 -0.00035515498615739733 0 -0.016452047302439484 -0.00014576276468800239 0 -0.016452047302439484 -0.00014576276468800239 0 -0.016781631312684356 -6.4999036676317926e-05 0 -0.016356133905462533 0.00012653069775255048 0 -0.018594249310624322 0.0022709624260041535 0 -0.018676878598907744 0.0031097338138653553 0 -0.020368883379564284 0.0054919581246389276 0 -0.019981745307173143 0.0048335299544075404 0 -0.019744616837339031 0.0060119032606679073 0 -0.017280684221605933 -0.00020953019037083499 0 -0.016781631312684356 -6.4999036676317926e-05 0 -0.016958897562447034 0.00015489136725121242 0 -0.016814587288472158 -0.00035515498615739733 0 -0.017280684221605933 -0.00020953019037083499 0 -0.016781631312684356 -6.4999036676317926e-05 0 -0.016781631312684356 -6.4999036676317926e-05 0 -0.016958897562447034 0.00015489136725121242 0 -0.016632362498283607 0.00032075620766130168 0 -0.016781631312684356 -6.4999036676317926e-05 0 -0.016632362498283607 0.00032075620766130168 0 -0.016356133905462533 0.00012653069775255048 0 -0.016632362498283607 0.00032075620766130168 0 -0.016356133905462533 0.00012653069775255048 0 -0.016324259365788744 0.00048098510605887687 0 -0.015924679728294682 0.00040966068168598609 0 -0.016356133905462533 0.00012653069775255048 0 -0.016324259365788744 0.00048098510605887687 0 -0.01588963043550639 0.0011404725155585397 0 -0.016324259365788744 0.00048098510605887687 0 -0.016781743874838554 0.00067803847612629058 0 -0.016632362498283607 0.00032075620766130168 0 -0.016324259365788744 0.00048098510605887687 0 -0.016781743874838554 0.00067803847612629058 0 -0.01016396298642923 0.0017107419403946012 0 -0.0093535981876616565 0.0018043533792725993 0 -0.009279616411960994 0.0021440161151079725 0 -0.01016396298642923 0.0017107419403946012 0 -0.0093535981876616565 0.0018043533792725993 0 -0.0095958806351922315 0.0014526471238649713 0 -0.012733547489019489 0.0012932932864741513 0 -0.014230045035441259 0.0030149861543525176 0 -0.0091015835338590159 0.0015089692309753695 0 -0.0089347785612313522 0.0018702477038442954 0 -0.0086055264001931638 0.0014554090111663547 0 -0.0091015835338590159 0.0015089692309753695 0 -0.0093535981876616565 0.0018043533792725993 0 -0.0089347785612313522 0.0018702477038442954 0 -0.0091015835338590159 0.0015089692309753695 0 -0.0093535981876616565 0.0018043533792725993 0 -0.0095958806351922315 0.0014526471238649713 0 -0.0093535981876616565 0.0018043533792725993 0 -0.0089347785612313522 0.0018702477038442954 0 -0.0092680522460549808 0.0021417500101352446 0 -0.011361894568011271 0.0024857337220438053 0 -0.014230045035441259 0.0030149861543525176 0 -0.016958897562447034 0.00015489136725121242 0 -0.016632362498283607 0.00032075620766130168 0 -0.016781743874838554 0.00067803847612629058 0 -0.018676878598907744 0.0031097338138653553 0 -0.014230045035441259 0.0030149861543525176 0 -0.0089347785612313522 0.0018702477038442954 0 -0.0092680522460549808 0.0021417500101352446 0 -0.0087343001808532408 0.0023865022668889688 0 -0.019744616837339031 0.0060119032606679073 0 -0.019445486872825858 0.00691226989659791 0 -0.020112251292974379 0.00662984372042084 0 -0.014230045035441259 0.0030149861543525176 0 -0.01471107898102517 0.0041518932238213306 0 -0.0089347785612313522 0.0018702477038442954 0 -0.0087343001808532408 0.0023865022668889688 0 -0.0081370192618471174 0.0018063846388959453 0 -0.0082102854739201734 0.0026264451542345768 0 -0.0087343001808532408 0.0023865022668889688 0 -0.0081370192618471174 0.0018063846388959453 0 -0.008809461852973717 0.00028643059349825803 0 -0.01471107898102517 0.0041518932238213306 0 -0.008809461852973717 0.00028643059349825803 0 -0.0055332438083694124 0.0005917680357840939 0 -0.0029658122355843081 -0.0018197758193081205 0 -0.0035793526512417923 -0.0011611971544950178 0 -0.0030565512764347551 -0.00062564190626804273 0 -0.0029658122355843081 -0.0018197758193081205 0 -0.0035793526512417923 -0.0011611971544950178 0 -0.0037441165170706567 -0.0017258034690267807 0 -0.0035793526512417923 -0.0011611971544950178 0 -0.0030565512764347551 -0.00062564190626804273 0 -0.0038527896898505236 -0.00053932119598183899 0 -0.0030565512764347551 -0.00062564190626804273 0 -0.0035457639877494668 -0.00016602332077187424 0 -0.0038527896898505236 -0.00053932119598183899 0 -0.0089347785612313522 0.0018702477038442954 0 -0.0081370192618471174 0.0018063846388959453 0 -0.0086055264001931638 0.0014554090111663547 0 -0.0086055264001931638 0.0014554090111663547 0 -0.0087737091336946311 0.0011114604555283356 0 -0.0080556762614446276 0.00097025794815861171 0 -0.0081370192618471174 0.0018063846388959453 0 -0.0086055264001931638 0.0014554090111663547 0 -0.0080556762614446276 0.00097025794815861171 0 -0.0087737091336946311 0.0011114604555283356 0 -0.0080556762614446276 0.00097025794815861171 0 -0.0088102452633303241 0.00066673017187819953 0 -0.0001775680312379125 0.0012997417455904081 0 -0.00087580312611708767 0.0013974460608021857 0 -0.0013408160789070481 0.00057677981830254511 0 -0.0030565512764347551 -0.00062564190626804273 0 -0.0035457639877494668 -0.00016602332077187424 0 -0.0031184871771879783 0.00048267982026465163 0 -0.0055332438083694124 0.0005917680357840939 0 -0.0030770591883907245 0.00078507732674313105 0 -0.0030770591883907245 0.00078507732674313105 0 -0.0025226936924474248 0.00039792917556724324 0 -0.0035457639877494668 -0.00016602332077187424 0 -0.0031184871771879783 0.00048267982026465163 0 -0.0041369734734690022 1.6025801409167814e-05 0 -0.00053906583188666863 0.0015148008856568603 0 -0.00047804132037830555 0.001627706599918367 0 -0.00081015879257219565 0.0015753024906979959 0 -0.0001775680312379125 0.0012997417455904081 0 -0.00053906583188666863 0.0015148008856568603 0 -0.00087580312611708767 0.0013974460608021857 0 -0.00053906583188666863 0.0015148008856568603 0 -0.00081015879257219565 0.0015753024906979959 0 -0.00087580312611708767 0.0013974460608021857 0 -0.00053906583188666863 0.0015148008856568603 0 -0.00032259631535896027 0.0015680278092061587 0 -0.00047804132037830555 0.001627706599918367 0 -0.0001775680312379125 0.0012997417455904081 0 -0.00053906583188666863 0.0015148008856568603 0 -0.00032259631535896027 0.0015680278092061587 0 -0.0030770591883907245 0.00078507732674313105 0 -0.0019833294615775134 0.0013532395699766611 0 -0.00038639488294421728 0.0016868531575431425 0 -0.00047804132037830555 0.001627706599918367 0 -0.00026011933091248405 0.0016693409242040298 0 -0.00032259631535896027 0.0015680278092061587 0 -0.00047804132037830555 0.001627706599918367 0 -0.00026011933091248405 0.0016693409242040298 0 -0.00064019834962829531 0.0016833259669805996 0 -0.00047804132037830555 0.001627706599918367 0 -0.00081015879257219565 0.0015753024906979959 0 -0.00038639488294421728 0.0016868531575431425 0 -0.00064019834962829531 0.0016833259669805996 0 -0.00047804132037830555 0.001627706599918367 0 -0.00032259631535896027 0.0015680278092061587 0 -0.00026011933091248405 0.0016693409242040298 0 -0.0002233088995406803 0.0016729869694385676 0 -0.00033148166259603311 0.0015229911744958149 0 -0.00032259631535896027 0.0015680278092061587 0 -0.0002233088995406803 0.0016729869694385676 0 -0.0030770591883907245 0.00078507732674313105 0 -0.0044537536179637145 0.0011889532780188449 0 -0.00020760641599732723 0.0017324441997505235 0 -0.00026011933091248405 0.0016693409242040298 0 -0.0002233088995406803 0.0016729869694385676 0 -0.0044537536179637145 0.0011889532780188449 0 -0.0064255739858975298 0.001444854258095513 0 -0.0088102452633303241 0.00066673017187819953 0 -0.0092996899788171852 0.0008641620578214536 0 -0.0094780371299079541 0.00059444011281383283 0 -0.0088102452633303241 0.00066673017187819953 0 -0.0095495258643117642 0.00036882706898560386 0 -0.0094780371299079541 0.00059444011281383283 0 -0.00024930417568882096 0.0017246669545284323 0 -0.0002233088995406803 0.0016729869694385676 0 -0.00029632806920224338 0.001737532169093706 0 -0.00024930417568882096 0.0017246669545284323 0 -0.00020760641599732723 0.0017324441997505235 0 -0.0002233088995406803 0.0016729869694385676 0 -0.009554052508465723 0.00035747789377009269 0 -0.0096182071082397454 0.0003304257555977284 0 -0.0096707760104955617 0.00054708811302593371 0 -0.0064255739858975298 0.001444854258095513 0 -0.0068304667920328138 0.0012829375804393819 0 -0.0064255739858975298 0.001444854258095513 0 -0.0077960552274714805 0.00027648441695718082 0 -0.009554052508465723 0.00035747789377009269 0 -0.0094780371299079541 0.00059444011281383283 0 -0.0096707760104955617 0.00054708811302593371 0 -0.0099911849132562642 0.0007061775617492258 0 -0.0096182071082397454 0.0003304257555977284 0 -0.0096707760104955617 0.00054708811302593371 0 -0.0099911849132562642 0.0007061775617492258 0 -0.0096707760104955617 0.00054708811302593371 0 -0.009679876794563844 0.001026065044729579 0 -0.0092996899788171852 0.0008641620578214536 0 -0.0094780371299079541 0.00059444011281383283 0 -0.009679876794563844 0.001026065044729579 0 -0.0094780371299079541 0.00059444011281383283 0 -0.0096707760104955617 0.00054708811302593371 0 -0.009679876794563844 0.001026065044729579 0 -0.0092996899788171852 0.0008641620578214536 0 -0.009679876794563844 0.001026065044729579 0 -0.009233892321555864 0.0011709149428794118 0 -0.01016396298642923 0.0017107419403946012 0 -0.009679876794563844 0.001026065044729579 0 -0.0095958806351922315 0.0014526471238649713 0 -0.009679876794563844 0.001026065044729579 0 -0.0095958806351922315 0.0014526471238649713 0 -0.009233892321555864 0.0011709149428794118 0 -0.0091015835338590159 0.0015089692309753695 0 -0.0095958806351922315 0.0014526471238649713 0 -0.009233892321555864 0.0011709149428794118 0 -0.0091015835338590159 0.0015089692309753695 0 -0.0086055264001931638 0.0014554090111663547 0 -0.0087737091336946311 0.0011114604555283356 0 -0.0091015835338590159 0.0015089692309753695 0 -0.0087737091336946311 0.0011114604555283356 0 -0.009233892321555864 0.0011709149428794118 0 -0.0087737091336946311 0.0011114604555283356 0 -0.0088102452633303241 0.00066673017187819953 0 -0.009233892321555864 0.0011709149428794118 0 -0.0088102452633303241 0.00066673017187819953 0 -0.0092996899788171852 0.0008641620578214536 0 -0.009233892321555864 0.0011709149428794118 0 -0.0065745269895473449 0.001454817884335523 0 -0.0047114691611102565 0.0028298165216236082 0 -0.0036798432359750311 0.0010494942104524621 0 -0.0065745269895473449 0.001454817884335523 0 -0.0036798432359750311 0.0010494942104524621 0 -0.0048753226272745262 -0.0002969174621958615 0 -0.0065745269895473449 0.001454817884335523 0 -0.006811830793695065 -0.00040039460751194113 0 -0.0076880758972599477 0.00045258798846949518 0 -0.0065745269895473449 0.001454817884335523 0 -0.0076880758972599477 0.00045258798846949518 0 -0.0081531603274382358 0.0016237981636357326 0 -0.0065745269895473449 0.001454817884335523 0 -0.0075255626647089228 0.002847452298629568 0 -0.0081531603274382358 0.0016237981636357326 0 -0.0070818683906728594 0.003676331967770841 0 -0.0065745269895473449 0.001454817884335523 0 -0.0075255626647089228 0.002847452298629568 0 -0.0049497146006420526 0.001930275255547196 0 -0.0070994192553612183 0.0016838600642774971 0 -0.0049497146006420526 0.001930275255547196 0 -0.0027247061224143776 0.0022109670349919749 0 -0.0013361217277684133 0.0016232705650031541 0 -0.0010555493652491944 0.0016773182441167593 0 -0.0010450371973010147 0.0015457628184530913 0 -0.0070818683906728594 0.003676331967770841 0 -0.0065745269895473449 0.001454817884335523 0 -0.0047114691611102565 0.0028298165216236082 0 -0.0027247061224143776 0.0022109670349919749 0 -0.0015020433043772075 0.0015340737708487351 0 -0.00090777703331893791 0.0016497253604888652 0 -0.0010450371973010147 0.0015457628184530913 0 -0.0010452204916993751 0.0015661727739886412 0 -0.0010450371973010147 0.0015457628184530913 0 -0.0010452204916993751 0.0015661727739886412 0 -0.0013790856997075312 0.0014912189105713311 0 -0.00064019834962829531 0.0016833259669805996 0 -0.0010452204916993751 0.0015661727739886412 0 -0.00081015879257219565 0.0015753024906979959 0 -0.0010452204916993751 0.0015661727739886412 0 -0.0010490581671909712 0.0015257317124422111 0 -0.0013790856997075312 0.0014912189105713311 0 -0.0010452204916993751 0.0015661727739886412 0 -0.0010490581671909712 0.0015257317124422111 0 -0.00081015879257219565 0.0015753024906979959 0 -0.0010490581671909712 0.0015257317124422111 0 -0.00081015879257219565 0.0015753024906979959 0 -0.00087580312611708767 0.0013974460608021857 0 -0.00087580312611708767 0.0013974460608021857 0 -0.0013790856997075312 0.0014912189105713311 0 -0.0013408160789070481 0.00057677981830254511 0 -0.0010490581671909712 0.0015257317124422111 0 -0.00087580312611708767 0.0013974460608021857 0 -0.0013790856997075312 0.0014912189105713311 0 -0.0013790856997075312 0.0014912189105713311 0 -0.0013408160789070481 0.00057677981830254511 0 -0.0036798432359750311 0.0010494942104524621 0 -0.0013408160789070481 0.00057677981830254511 0 -0.0036798432359750311 0.0010494942104524621 0 -0.0048753226272745262 -0.0002969174621958615 0 -0.0047114691611102565 0.0028298165216236082 0 -0.0013790856997075312 0.0014912189105713311 0 -0.0036798432359750311 0.0010494942104524621 0 -0.0025226936924474248 0.00039792917556724324 0 -0.0047687084690379985 -0.00031985316477974328 0 -0.0041369734734690022 1.6025801409167814e-05 0 -0.0048753226272745262 -0.0002969174621958615 0 -0.0044289649075912249 -0.00058158070169969992 0 -0.0048753226272745262 -0.0002969174621958615 0 -0.0049412636905295263 -0.0011523231127579885 0 -0.0058697328642909408 -0.0012062800642445362 0 -0.0048753226272745262 -0.0002969174621958615 0 -0.0044289649075912249 -0.00058158070169969992 0 -0.0049412636905295263 -0.0011523231127579885 0 -0.0035457639877494668 -0.00016602332077187424 0 -0.0041369734734690022 1.6025801409167814e-05 0 -0.0038527896898505236 -0.00053932119598183899 0 -0.0041369734734690022 1.6025801409167814e-05 0 -0.0044289649075912249 -0.00058158070169969992 0 -0.0038527896898505236 -0.00053932119598183899 0 -0.0044289649075912249 -0.00058158070169969992 0 -0.0038527896898505236 -0.00053932119598183899 0 -0.004281734498878898 -0.0011182425545348538 0 -0.0035793526512417923 -0.0011611971544950178 0 -0.0038527896898505236 -0.00053932119598183899 0 -0.004281734498878898 -0.0011182425545348538 0 -0.004281734498878898 -0.0011182425545348538 0 -0.0037441165170706567 -0.0017258034690267807 0 -0.0045383339923798513 -0.0018189595867427705 0 -0.0035793526512417923 -0.0011611971544950178 0 -0.004281734498878898 -0.0011182425545348538 0 -0.0037441165170706567 -0.0017258034690267807 0 -0.0044289649075912249 -0.00058158070169969992 0 -0.004281734498878898 -0.0011182425545348538 0 -0.0049412636905295263 -0.0011523231127579885 0 -0.004281734498878898 -0.0011182425545348538 0 -0.0049412636905295263 -0.0011523231127579885 0 -0.0045383339923798513 -0.0018189595867427705 0 -0.0049412636905295263 -0.0011523231127579885 0 -0.0045383339923798513 -0.0018189595867427705 0 -0.0054171513921986939 -0.0020680314484905239 0 -0.0049412636905295263 -0.0011523231127579885 0 -0.0058697328642909408 -0.0012062800642445362 0 -0.0054171513921986939 -0.0020680314484905239 0 -0.0058697328642909408 -0.0012062800642445362 0 -0.0071913553166969048 -0.001612178933419034 0 -0.006484156447851286 -0.0024834934827138388 0 -0.0048753226272745262 -0.0002969174621958615 0 -0.0058697328642909408 -0.0012062800642445362 0 -0.006811830793695065 -0.00040039460751194113 0 -0.0065745269895473449 0.001454817884335523 0 -0.0048753226272745262 -0.0002969174621958615 0 -0.006811830793695065 -0.00040039460751194113 0 -0.006811830793695065 -0.00040039460751194113 0 -0.0076880758972599477 0.00045258798846949518 0 -0.0081464233727597587 -0.00073091827771624312 0 -0.006811830793695065 -0.00040039460751194113 0 -0.0071913553166969048 -0.001612178933419034 0 -0.0081464233727597587 -0.00073091827771624312 0 -0.0058697328642909408 -0.0012062800642445362 0 -0.006811830793695065 -0.00040039460751194113 0 -0.0071913553166969048 -0.001612178933419034 0 -0.0071913553166969048 -0.001612178933419034 0 -0.0076166260764016771 -0.0026624712492895877 0 -0.006484156447851286 -0.0024834934827138388 0 -0.006484156447851286 -0.0024834934827138388 0 -0.0054171513921986939 -0.0020680314484905239 0 -0.0058704246502457192 -0.0032573440362855788 0 -0.0058697328642909408 -0.0012062800642445362 0 -0.006484156447851286 -0.0024834934827138388 0 -0.0054171513921986939 -0.0020680314484905239 0 -0.006484156447851286 -0.0024834934827138388 0 -0.0058704246502457192 -0.0032573440362855788 0 -0.0069648773181837957 -0.0036820946634472671 0 -0.0076166260764016771 -0.0026624712492895877 0 -0.006484156447851286 -0.0024834934827138388 0 -0.0069648773181837957 -0.0036820946634472671 0 -0.0037441165170706567 -0.0017258034690267807 0 -0.0045383339923798513 -0.0018189595867427705 0 -0.004126559162912961 -0.0025454461445763559 0 -0.0045383339923798513 -0.0018189595867427705 0 -0.004126559162912961 -0.0025454461445763559 0 -0.0049904767758834406 -0.0024134062925691506 0 -0.0049904767758834406 -0.0024134062925691506 0 -0.0054171513921986939 -0.0020680314484905239 0 -0.0058704246502457192 -0.0032573440362855788 0 -0.0045383339923798513 -0.0018189595867427705 0 -0.0049904767758834406 -0.0024134062925691506 0 -0.0054171513921986939 -0.0020680314484905239 0 -0.0045216605726255184 -0.0031451730393203619 0 -0.0060401784085623161 -0.0032482785370000636 0 -0.004126559162912961 -0.0025454461445763559 0 -0.0049904767758834406 -0.0024134062925691506 0 -0.0058704246502457192 -0.0032573440362855788 0 -0.0058704246502457192 -0.0032573440362855788 0 -0.006223598691647088 -0.0031816769758820315 0 -0.0059287203253634065 -0.0034366900210819362 0 -0.0061990347317664044 -0.0033780463126945538 0 -0.0058704246502457192 -0.0032573440362855788 0 -0.006223598691647088 -0.0031816769758820315 0 -0.023180243641203559 0.0049889348890985539 0 -0.022932877206403402 0.0035776064030474779 0 -0.02451693015713912 0.0041263650205730805 0 -0.025188842007407401 0.0043285859627746996 0 -0.019723970044394187 0.0020933206087199513 0 -0.013457976525955087 0.00077362105219784278 0 -0.019723970044394187 0.0020933206087199513 0 -0.025089591409505178 0.0039450675193473004 0 -0.025393612135918415 0.0029137072311788636 0 -0.024334943348555016 0.0028844777533897858 0 -0.025393612135918415 0.0029137072311788636 0 -0.025809241271484398 0.0024232393124250435 0 -0.025025681356328346 0.0024140564322411382 0 -0.025393612135918415 0.0029137072311788636 0 -0.024334943348555016 0.0028844777533897858 0 -0.025025681356328346 0.0024140564322411382 0 -0.022932877206403402 0.0035776064030474779 0 -0.025089591409505178 0.0039450675193473004 0 -0.024334943348555016 0.0028844777533897858 0 -0.024334943348555016 0.0028844777533897858 0 -0.023133252772630852 0.0025782166163576216 0 -0.024229566248254713 0.0021474717195480507 0 -0.022932877206403402 0.0035776064030474779 0 -0.024334943348555016 0.0028844777533897858 0 -0.023133252772630852 0.0025782166163576216 0 -0.026062353764723895 0.0018695130399378668 0 -0.026191571950585465 0.0026638709468431599 0 -0.025824059754982691 0.0022165768901373671 0 -0.019723970044394187 0.0020933206087199513 0 -0.028073491843906444 0.0022974225283475514 0 -0.0058704246502457192 -0.0032573440362855788 0 -0.0059287203253634065 -0.0034366900210819362 0 -0.0069648773181837957 -0.0036820946634472671 0 -0.019723970044394187 0.0020933206087199513 0 -0.01569810482879674 -0.0013716040753732691 0 -0.026726543851602582 0.0022633064958517031 0 -0.026062353764723895 0.0018695130399378668 0 -0.026191571950585465 0.0026638709468431599 0 -0.026191571950585465 0.0026638709468431599 0 -0.026239677455721408 0.0026410611498623757 0 -0.025809241271484398 0.0024232393124250435 0 -0.025393612135918415 0.0029137072311788636 0 -0.026191571950585465 0.0026638709468431599 0 -0.025809241271484398 0.0024232393124250435 0 -0.025089591409505178 0.0039450675193473004 0 -0.025393612135918415 0.0029137072311788636 0 -0.026191571950585465 0.0026638709468431599 0 -0.026191571950585465 0.0026638709468431599 0 -0.026239677455721408 0.0026410611498623757 0 -0.025824059754982691 0.0022165768901373671 0 -0.026239677455721408 0.0026410611498623757 0 -0.026111884013925755 0.0019935076402417735 0 -0.026459615211280738 0.0029338451971814435 0 -0.026239677455721408 0.0026410611498623757 0 -0.025809241271484398 0.0024232393124250435 0 -0.026111884013925755 0.0019935076402417735 0 -0.025809241271484398 0.0024232393124250435 0 -0.026111884013925755 0.0019935076402417735 0 -0.025303586355887552 0.0019231822151711613 0 -0.026111884013925755 0.0019935076402417735 0 -0.025466440249354225 0.0015013998163705168 0 -0.025303586355887552 0.0019231822151711613 0 -0.026111884013925755 0.0019935076402417735 0 -0.026459615211280738 0.0029338451971814435 0 -0.027002724212473517 0.0016731463688730124 0 -0.026111884013925755 0.0019935076402417735 0 -0.02645761653758413 0.001356208328076749 0 -0.027002724212473517 0.0016731463688730124 0 -0.026111884013925755 0.0019935076402417735 0 -0.025915620964923596 0.0014188833743777876 0 -0.025466440249354225 0.0015013998163705168 0 -0.026111884013925755 0.0019935076402417735 0 -0.025915620964923596 0.0014188833743777876 0 -0.02645761653758413 0.001356208328076749 0 -0.02645761653758413 0.001356208328076749 0 -0.026916396732248708 0.00081549910518088572 0 -0.026107168906812164 0.00092062657246447667 0 -0.025915620964923596 0.0014188833743777876 0 -0.02645761653758413 0.001356208328076749 0 -0.026107168906812164 0.00092062657246447667 0 -0.02645761653758413 0.001356208328076749 0 -0.026994231782047528 0.0011727854051185511 0 -0.027002724212473517 0.0016731463688730124 0 -0.02645761653758413 0.001356208328076749 0 -0.026994231782047528 0.0011727854051185511 0 -0.026916396732248708 0.00081549910518088572 0 -0.024337499271526265 -0.0023171895167026406 0 -0.025125701928837407 -0.00063930479588087525 0 -0.02363541285103244 -0.00070043011821172463 0 -0.024337499271526265 -0.0023171895167026406 0 -0.02363541285103244 -0.00070043011821172463 0 -0.022977105877498332 -0.0019357826273723577 0 -0.026553021250927868 -0.00028523480128850895 0 -0.026974965238318719 0.00068392113989833748 0 -0.027358810383728241 -0.00037616066530728724 0 -0.025743524645892121 0.00052528137808868346 0 -0.026764343911516046 0.00037424962465338208 0 -0.025711740250070378 -0.0011331068809891656 0 -0.025743524645892121 0.00052528137808868346 0 -0.025915620964923596 0.0014188833743777876 0 -0.02564032652373498 0.0013869533842372362 0 -0.026107168906812164 0.00092062657246447667 0 -0.025743524645892121 0.00052528137808868346 0 -0.025630508435806602 0.0015375597802630425 0 -0.025915620964923596 0.0014188833743777876 0 -0.02564032652373498 0.0013869533842372362 0 -0.025466440249354225 0.0015013998163705168 0 -0.025125701928837407 -0.00063930479588087525 0 -0.02363541285103244 -0.00070043011821172463 0 -0.023577061970204292 0.00038404823380933052 0 -0.023577061970204292 0.00038404823380933052 0 -0.024440748195730607 0.001520939942116013 0 -0.022590701095635143 0.0011650668612114808 0 -0.025125701928837407 -0.00063930479588087525 0 -0.023577061970204292 0.00038404823380933052 0 -0.024440748195730607 0.001520939942116013 0 -0.02527885806953898 0.0009992148714653001 0 -0.024440748195730607 0.001520939942116013 0 -0.025466440249354225 0.0015013998163705168 0 -0.025743524645892121 0.00052528137808868346 0 -0.024402020286818479 0.0014022590534199433 0 -0.024440748195730607 0.001520939942116013 0 -0.025466440249354225 0.0015013998163705168 0 -0.025303586355887552 0.0019231822151711613 0 -0.024440748195730607 0.001520939942116013 0 -0.025303586355887552 0.0019231822151711613 0 -0.024229566248254713 0.0021474717195480507 0 -0.024334943348555016 0.0028844777533897858 0 -0.025025681356328346 0.0024140564322411382 0 -0.024229566248254713 0.0021474717195480507 0 -0.025303586355887552 0.0019231822151711613 0 -0.025025681356328346 0.0024140564322411382 0 -0.024229566248254713 0.0021474717195480507 0 -0.025809241271484398 0.0024232393124250435 0 -0.025303586355887552 0.0019231822151711613 0 -0.025025681356328346 0.0024140564322411382 0 -0.024440748195730607 0.001520939942116013 0 -0.023167914230287617 0.0019382101872446938 0 -0.022590701095635143 0.0011650668612114808 0 -0.024440748195730607 0.001520939942116013 0 -0.023167914230287617 0.0019382101872446938 0 -0.024229566248254713 0.0021474717195480507 0 -0.023133252772630852 0.0025782166163576216 0 -0.023167914230287617 0.0019382101872446938 0 -0.024229566248254713 0.0021474717195480507 0 -0.023133252772630852 0.0025782166163576216 0 -0.023167914230287617 0.0019382101872446938 0 -0.022353797925185104 0.0021823931305461463 0 -0.023167914230287617 0.0019382101872446938 0 -0.022360974002631963 0.001832139531114997 0 -0.022353797925185104 0.0021823931305461463 0 -0.023167914230287617 0.0019382101872446938 0 -0.022360974002631963 0.001832139531114997 0 -0.022590701095635143 0.0011650668612114808 0 -0.022360974002631963 0.001832139531114997 0 -0.021810270362029632 0.001823066805090989 0 -0.022590701095635143 0.0011650668612114808 0 -0.021719993175584366 0.0025174045213302724 0 -0.022061936100865206 0.0020849330217250013 0 -0.021810270362029632 0.001823066805090989 0 -0.022360974002631963 0.001832139531114997 0 -0.022061936100865206 0.0020849330217250013 0 -0.021810270362029632 0.001823066805090989 0 -0.022360974002631963 0.001832139531114997 0 -0.022061936100865206 0.0020849330217250013 0 -0.022353797925185104 0.0021823931305461463 0 -0.021719993175584366 0.0025174045213302724 0 -0.022061936100865206 0.0020849330217250013 0 -0.022353797925185104 0.0021823931305461463 0 -0.017752953334426225 -0.00052548892235036845 0 -0.018184480523618887 -0.00083899187781689922 0 -0.018872076759667601 -0.0010148576221827158 0 -0.018857695358739934 0.00074255975798585242 0 -0.018996078410269745 -0.001017614605233865 0 -0.019968228593384776 0.0023311158968833284 0 -0.018872076759667601 -0.0010148576221827158 0 -0.019352981895657029 -0.00056352867428942062 0 -0.018184480523618887 -0.00083899187781689922 0 -0.017924316145506221 -0.00080027871304543289 0 -0.018112338276686051 -0.0010992691372194352 0 -0.017924316145506221 -0.00080027871304543289 0 -0.018112338276686051 -0.0010992691372194352 0 -0.017555671853553435 -0.00089455995058249158 0 -0.018112338276686051 -0.0010992691372194352 0 -0.018872076759667601 -0.0010148576221827158 0 -0.018296271742642353 -0.0015998761176222913 0 -0.018112338276686051 -0.0010992691372194352 0 -0.018296271742642353 -0.0015998761176222913 0 -0.017588768017091611 -0.0012559659078393124 0 -0.018184480523618887 -0.00083899187781689922 0 -0.018112338276686051 -0.0010992691372194352 0 -0.018872076759667601 -0.0010148576221827158 0 -0.018872076759667601 -0.0010148576221827158 0 -0.019352981895657029 -0.00056352867428942062 0 -0.01880376396295837 -0.0018086364610249591 0 -0.01880376396295837 -0.0018086364610249591 0 -0.018296271742642353 -0.0015998761176222913 0 -0.018267737562271166 -0.0027141795974957275 0 -0.018872076759667601 -0.0010148576221827158 0 -0.01880376396295837 -0.0018086364610249591 0 -0.018296271742642353 -0.0015998761176222913 0 -0.01880376396295837 -0.0018086364610249591 0 -0.019456989831502968 -0.0027054310409503853 0 -0.018267737562271166 -0.0027141795974957275 0 -0.018296271742642353 -0.0015998761176222913 0 -0.017588768017091611 -0.0012559659078393124 0 -0.018267737562271166 -0.0027141795974957275 0 -0.020597858870568926 0.00076748165199569461 0 -0.020924755372933326 -0.0012346935038150837 0 -0.021810270362029632 0.001823066805090989 0 -0.022590701095635143 0.0011650668612114808 0 -0.022385677034732904 0.00013841619192957335 0 -0.019352981895657029 -0.00056352867428942062 0 -0.01880376396295837 -0.0018086364610249591 0 -0.019456989831502968 -0.0027054310409503853 0 -0.023577061970204292 0.00038404823380933052 0 -0.022590701095635143 0.0011650668612114808 0 -0.022385677034732904 0.00013841619192957335 0 -0.016414930792715325 -0.00091871811960566284 0 -0.016684911286843077 -0.0013746763587496982 0 -0.01706263708700954 -0.0010319539401764052 0 -0.016684911286843077 -0.0013746763587496982 0 -0.01706263708700954 -0.0010319539401764052 0 -0.017184805897937801 -0.0015072500247669462 0 -0.01706263708700954 -0.0010319539401764052 0 -0.017588768017091611 -0.0012559659078393124 0 -0.017184805897937801 -0.0015072500247669462 0 -0.01706263708700954 -0.0010319539401764052 0 -0.017555671853553435 -0.00089455995058249158 0 -0.017588768017091611 -0.0012559659078393124 0 -0.01731781610759171 -0.00069067703667741013 0 -0.01706263708700954 -0.0010319539401764052 0 -0.017555671853553435 -0.00089455995058249158 0 -0.018112338276686051 -0.0010992691372194352 0 -0.017555671853553435 -0.00089455995058249158 0 -0.017588768017091611 -0.0012559659078393124 0 -0.017588768017091611 -0.0012559659078393124 0 -0.017184805897937801 -0.0015072500247669462 0 -0.017997628143653122 -0.0020016094061864145 0 -0.017643741688293926 -0.001328228181306422 0 -0.018126176883783287 -0.0023390532411961405 0 -0.017184805897937801 -0.0015072500247669462 0 -0.017079699769921585 -0.0019923901302438514 0 -0.017997628143653122 -0.0020016094061864145 0 -0.016684911286843077 -0.0013746763587496982 0 -0.017184805897937801 -0.0015072500247669462 0 -0.017079699769921585 -0.0019923901302438514 0 -0.017079699769921585 -0.0019923901302438514 0 -0.017721610335252332 -0.0025635411427688843 0 -0.017188892069178372 -0.0024793886381337528 0 -0.017079699769921585 -0.0019923901302438514 0 -0.017188892069178372 -0.0024793886381337528 0 -0.016643549140607741 -0.0024838982224166875 0 -0.017079699769921585 -0.0019923901302438514 0 -0.017721610335252332 -0.0025635411427688843 0 -0.017997628143653122 -0.0020016094061864145 0 -0.017721610335252332 -0.0025635411427688843 0 -0.017499384223127277 -0.0028444016149232402 0 -0.017880607612473762 -0.0031210845111648302 0 -0.017721610335252332 -0.0025635411427688843 0 -0.017499384223127277 -0.0028444016149232402 0 -0.017188892069178372 -0.0024793886381337528 0 -0.017862641855917329 -0.0032641538348323921 0 -0.017538764866870837 -0.0030964123371425298 0 -0.017597888239173107 -0.002763207610681607 0 -0.017189458027553721 -0.0029648627728398142 0 -0.017147513567061786 -0.0032963329946569509 0 -0.016643549140607741 -0.0024838982224166875 0 -0.017336560535870547 -0.0033078309820692071 0 -0.017135966658895687 -0.0026230298196932376 0 -0.017499384223127277 -0.0028444016149232402 0 -0.017188892069178372 -0.0024793886381337528 0 -0.017189458027553721 -0.0029648627728398142 0 -0.017499384223127277 -0.0028444016149232402 0 -0.017189458027553721 -0.0029648627728398142 0 -0.017484867663799596 -0.0031362379086895278 0 -0.017188892069178372 -0.0024793886381337528 0 -0.017189458027553721 -0.0029648627728398142 0 -0.016643549140607741 -0.0024838982224166875 0 -0.02363541285103244 -0.00070043011821172463 0 -0.022385677034732904 0.00013841619192957335 0 -0.022977105877498332 -0.0019357826273723577 0 -0.020924755372933326 -0.0012346935038150837 0 -0.021340502511809842 -0.0031476466058937423 0 -0.02363541285103244 -0.00070043011821172463 0 -0.023577061970204292 0.00038404823380933052 0 -0.022385677034732904 0.00013841619192957335 0 -0.019456989831502968 -0.0027054310409503853 0 -0.018267737562271166 -0.0027141795974957275 0 -0.018877965958906111 -0.0038959561233870717 0 -0.017721610335252332 -0.0025635411427688843 0 -0.017997628143653122 -0.0020016094061864145 0 -0.018427987737510743 -0.0027600920249594282 0 -0.018126176883783287 -0.0023390532411961405 0 -0.018646362937472651 -0.0033165640235324322 0 -0.017721610335252332 -0.0025635411427688843 0 -0.018427987737510743 -0.0027600920249594282 0 -0.017880607612473762 -0.0031210845111648302 0 -0.019456989831502968 -0.0027054310409503853 0 -0.018877965958906111 -0.0038959561233870717 0 -0.019722483215093026 -0.0039228180576925623 0 -0.019722483215093026 -0.0039228180576925623 0 -0.019314424108724072 -0.0047959082205861507 0 -0.019991981530883371 -0.0049204767776370086 0 -0.018877965958906111 -0.0038959561233870717 0 -0.019722483215093026 -0.0039228180576925623 0 -0.019314424108724072 -0.0047959082205861507 0 -0.018646362937472651 -0.0033165640235324322 0 -0.019114335610011243 -0.0042427804595638989 0 -0.018427987737510743 -0.0027600920249594282 0 -0.018882650850699914 -0.0035548807434649327 0 -0.018328474381323342 -0.0034057435526658486 0 -0.018427987737510743 -0.0027600920249594282 0 -0.018328474381323342 -0.0034057435526658486 0 -0.017880607612473762 -0.0031210845111648302 0 -0.018328474381323342 -0.0034057435526658486 0 -0.017880607612473762 -0.0031210845111648302 0 -0.017999643088049161 -0.0036796472228970453 0 -0.018882650850699914 -0.0035548807434649327 0 -0.018328474381323342 -0.0034057435526658486 0 -0.018453965646800366 -0.0039266044723093169 0 -0.018882650850699914 -0.0035548807434649327 0 -0.018453965646800366 -0.0039266044723093169 0 -0.018913311370417088 -0.0040514121818850729 0 -0.018328474381323342 -0.0034057435526658486 0 -0.018453965646800366 -0.0039266044723093169 0 -0.017999643088049161 -0.0036796472228970453 0 -0.018453965646800366 -0.0039266044723093169 0 -0.017936922140946637 -0.0042513869959728409 0 -0.018582216268334645 -0.0042933796705036239 0 -0.018453965646800366 -0.0039266044723093169 0 -0.017999643088049161 -0.0036796472228970453 0 -0.017936922140946637 -0.0042513869959728409 0 -0.018453965646800366 -0.0039266044723093169 0 -0.018913311370417088 -0.0040514121818850729 0 -0.018582216268334645 -0.0042933796705036239 0 -0.019114335610011243 -0.0042427804595638989 0 -0.019396503295618824 -0.0047018406090625457 0 -0.019314424108724072 -0.0047959082205861507 0 -0.019659362911345294 -0.0056396296946913645 0 -0.019991981530883371 -0.0049204767776370086 0 -0.018882650850699914 -0.0035548807434649327 0 -0.018913311370417088 -0.0040514121818850729 0 -0.019291146801292427 -0.0043694217599474202 0 -0.017862641855917329 -0.0032641538348323921 0 -0.017809364062242521 -0.0035990087454952058 0 -0.017578727028596662 -0.0033532440143488568 0 -0.017189458027553721 -0.0029648627728398142 0 -0.017175076834531906 -0.0032813381323080703 0 -0.017484867663799596 -0.0031362379086895278 0 -0.017271114481033221 -0.0030785899761935484 0 -0.017336560535870547 -0.0033078309820692071 0 -0.017175076834531906 -0.0032813381323080703 0 -0.017631715777557767 -0.0034331170219991081 0 -0.017606559674269308 -0.0039266698582196089 0 -0.017175076834531906 -0.0032813381323080703 0 -0.017631715777557767 -0.0034331170219991081 0 -0.017484867663799596 -0.0031362379086895278 0 -0.017631715777557767 -0.0034331170219991081 0 -0.017484867663799596 -0.0031362379086895278 0 -0.017880607612473762 -0.0031210845111648302 0 -0.017499384223127277 -0.0028444016149232402 0 -0.017484867663799596 -0.0031362379086895278 0 -0.017880607612473762 -0.0031210845111648302 0 -0.017631715777557767 -0.0034331170219991081 0 -0.017880607612473762 -0.0031210845111648302 0 -0.017999643088049161 -0.0036796472228970453 0 -0.017606559674269308 -0.0039266698582196089 0 -0.017102179021136869 -0.0039436895732330862 0 -0.017936922140946637 -0.0042513869959728409 0 -0.017999643088049161 -0.0036796472228970453 0 -0.017606559674269308 -0.0039266698582196089 0 -0.017936922140946637 -0.0042513869959728409 0 -0.017631715777557767 -0.0034331170219991081 0 -0.017999643088049161 -0.0036796472228970453 0 -0.017606559674269308 -0.0039266698582196089 0 -0.017336560535870547 -0.0033078309820692071 0 -0.017533588652982171 -0.0038302269914213534 0 -0.01721624783520664 -0.0032051757308559164 0 -0.017606559674269308 -0.0039266698582196089 0 -0.017102179021136869 -0.0039436895732330862 0 -0.017336560535870547 -0.0033078309820692071 0 -0.017943728155105709 -0.0035002057192985736 0 -0.017943728155105709 -0.0035002057192985736 0 -0.017501483901306712 -0.0032840907266706173 0 -0.019822107060539891 -0.0030314889743337475 0 -0.019421445981756151 -0.0025892918548110389 0 -0.019924231138278355 -0.0024583397375918963 0 -0.017943728155105709 -0.0035002057192985736 0 -0.021057785457033761 -0.001504790363879952 0 -0.017943728155105709 -0.0035002057192985736 0 -0.020044732394966781 -0.0031308259622667496 0 -0.017102179021136869 -0.0039436895732330862 0 -0.017936922140946637 -0.0042513869959728409 0 -0.017936068802381831 -0.0048304274864217015 0 -0.023390805812140439 -8.2313425025383984e-05 0 -0.023389447045579385 -1.4230485166668157e-05 0 -0.023214224861785961 2.6449046592618595e-05 0 -0.023390805812140439 -8.2313425025383984e-05 0 -0.023389447045579385 -1.4230485166668157e-05 0 -0.023445885316911941 -0.00010626958017631946 0 -0.020044732394966781 -0.0031308259622667496 0 -0.021057785457033761 -0.001504790363879952 0 -0.023390805812140439 -8.2313425025383984e-05 0 -0.023214224861785961 2.6449046592618595e-05 0 -0.023365514828824187 -0.00011202619564388914 0 -0.019098744320690784 -0.004478877695113387 0 -0.019291146801292427 -0.0043694217599474202 0 -0.019232210916685071 -0.0046238806880577223 0 -0.01952221557597375 -0.0040143792129399636 0 -0.019713369193252183 -0.0045707518822534036 0 -0.019803111036310328 -0.004224154095752883 0 -0.019396503295618824 -0.0047018406090625457 0 -0.01955315029530803 -0.0043785859144042597 0 -0.019491612532583344 -0.0040181712795025809 0 -0.019232210916685071 -0.0046238806880577223 0 -0.019713369193252183 -0.0045707518822534036 0 -0.019396503295618824 -0.0047018406090625457 0 -0.01933657530908545 -0.0044716904521325757 0 -0.018913311370417088 -0.0040514121818850729 0 -0.019291146801292427 -0.0043694217599474202 0 -0.019012750269201736 -0.0042873659049807956 0 -0.018913311370417088 -0.0040514121818850729 0 -0.019012750269201736 -0.0042873659049807956 0 -0.018582216268334645 -0.0042933796705036239 0 -0.019098744320690784 -0.004478877695113387 0 -0.019012750269201736 -0.0042873659049807956 0 -0.018582216268334645 -0.0042933796705036239 0 -0.019098744320690784 -0.004478877695113387 0 -0.019291146801292427 -0.0043694217599474202 0 -0.019012750269201736 -0.0042873659049807956 0 -0.017936068802381831 -0.0048304274864217015 0 -0.019098744320690784 -0.004478877695113387 0 -0.018582216268334645 -0.0042933796705036239 0 -0.020044732394966781 -0.0031308259622667496 0 -0.01824159701696813 -0.0049516229463710121 0 -0.017936922140946637 -0.0042513869959728409 0 -0.017936068802381831 -0.0048304274864217015 0 -0.018582216268334645 -0.0042933796705036239 0 -0.018555436721551157 -0.0046032164349406289 0 -0.019077201028398858 -0.0047597095527928106 0 -0.018894462839662719 -0.0050454204112949036 0 -0.018555436721551157 -0.0046032164349406289 0 -0.019098744320690784 -0.004478877695113387 0 -0.019077201028398858 -0.0047597095527928106 0 -0.020044732394966781 -0.0031308259622667496 0 -0.021141348907116424 -0.0026325121852740574 0 -0.019077201028398858 -0.0047597095527928106 0 -0.019441198283463194 -0.0051477188173329911 0 -0.018894462839662719 -0.0050454204112949036 0 -0.019077201028398858 -0.0047597095527928106 0 -0.019491301212903885 -0.0048464738020352971 0 -0.019441198283463194 -0.0051477188173329911 0 -0.019077201028398858 -0.0047597095527928106 0 -0.019232210916685071 -0.0046238806880577223 0 -0.019491301212903885 -0.0048464738020352971 0 -0.019098744320690784 -0.004478877695113387 0 -0.019077201028398858 -0.0047597095527928106 0 -0.019232210916685071 -0.0046238806880577223 0 -0.019232210916685071 -0.0046238806880577223 0 -0.019491301212903885 -0.0048464738020352971 0 -0.019713369193252183 -0.0045707518822534036 0 -0.019491301212903885 -0.0048464738020352971 0 -0.020009985475957493 -0.0050926635938760966 0 -0.019441198283463194 -0.0051477188173329911 0 -0.027367299070607504 -0.0026214657621122473 0 -0.031642727621921399 -0.0024478225758632699 0 -0.024105033291801317 -0.0046699403635221109 0 -0.027367299070607504 -0.0026214657621122473 0 -0.019491301212903885 -0.0048464738020352971 0 -0.020009985475957493 -0.0050926635938760966 0 -0.019713369193252183 -0.0045707518822534036 0 -0.028774142628930337 -0.0029675069191318171 0 -0.028890343641666698 -0.0023571601930485481 0 -0.029127165850089533 -0.0030428735259270751 0 -0.020009985475957493 -0.0050926635938760966 0 -0.019971377667306677 -0.0044927438983720161 0 -0.020253323838381798 -0.0043520791972272771 0 -0.020009985475957493 -0.0050926635938760966 0 -0.019971377667306677 -0.0044927438983720161 0 -0.019713369193252183 -0.0045707518822534036 0 -0.019803111036310328 -0.004224154095752883 0 -0.020153072704707065 -0.0042900021908125249 0 -0.019947892997227313 -0.0031252135084496573 0 -0.020153072704707065 -0.0042900021908125249 0 -0.020251717036887655 -0.0042797468286734728 0 -0.019947892997227313 -0.0031252135084496573 0 -0.01952221557597375 -0.0040143792129399636 0 -0.019803111036310328 -0.004224154095752883 0 -0.019947892997227313 -0.0031252135084496573 0 -0.019971377667306677 -0.0044927438983720161 0 -0.019713369193252183 -0.0045707518822534036 0 -0.019803111036310328 -0.004224154095752883 0 -0.019971377667306677 -0.0044927438983720161 0 -0.019803111036310328 -0.004224154095752883 0 -0.020153072704707065 -0.0042900021908125249 0 -0.02659190783225009 -0.0024097199540626456 0 -0.026572100774809874 -0.0023446938227740604 0 -0.026883681025684249 -0.002040226646521408 0 -0.019971377667306677 -0.0044927438983720161 0 -0.020253323838381798 -0.0043520791972272771 0 -0.020153072704707065 -0.0042900021908125249 0 -0.027367299070607504 -0.0026214657621122473 0 -0.026029988443246398 -0.0022944864200064312 0 -0.020278919657721127 -0.0043504850292720564 0 -0.020153072704707065 -0.0042900021908125249 0 -0.020251717036887655 -0.0042797468286734728 0 -0.027367299070607504 -0.0026214657621122473 0 -0.026362439175295127 -0.0024973256900483608 0 -0.026362439175295127 -0.0024973256900483608 0 -0.026631198299686097 -0.0017138832037419934 0 -0.026572100774809874 -0.0023446938227740604 0 -0.026883681025684249 -0.002040226646521408 0 -0.026678029464591729 -0.0016486002501503796 0 -0.02659190783225009 -0.0024097199540626456 0 -0.027323707203291869 -0.0021153992058935305 0 -0.026883681025684249 -0.002040226646521408 0 -0.02659190783225009 -0.0024097199540626456 0 -0.027323707203291869 -0.0021153992058935305 0 -0.02752643467500418 -0.0028793973159443442 0 -0.027323707203291869 -0.0021153992058935305 0 -0.026883681025684249 -0.002040226646521408 0 -0.027113826652422499 -0.0014344268907516093 0 -0.033756699989774694 -0.0018557104208339309 0 -0.033769481100046336 -0.0018517574979178314 0 -0.033827683877874125 -0.0018005948808245778 0 -0.027367299070607504 -0.0026214657621122473 0 -0.031261250206089664 -0.0025624662277275324 0 -0.031261250206089664 -0.0025624662277275324 0 -0.030292663735222266 -0.0019026968609444173 0 -0.02752643467500418 -0.0028793973159443442 0 -0.028091081408937336 -0.002367734675224649 0 -0.028463142101069858 -0.0033412456074063111 0 -0.027457767508302755 2.8115671910274057e-05 0 -0.027959885750179849 -0.0005625708884437079 0 -0.028718621825183852 -9.6244436773912619e-05 0 -0.027558807927251603 -0.0010808484006931563 0 -0.030292663735222266 -0.0019026968609444173 0 -0.027457767508302755 2.8115671910274057e-05 0 -0.028143143351727844 4.3650914204401147e-06 0 -0.028718621825183852 -9.6244436773912619e-05 0 -0.027457767508302755 2.8115671910274057e-05 0 -0.027459198039054077 0.00037919815952892633 0 -0.028143143351727844 4.3650914204401147e-06 0 -0.027323707203291869 -0.0021153992058935305 0 -0.028091081408937336 -0.002367734675224649 0 -0.027724105216398481 -0.0013971704292026859 0 -0.027323707203291869 -0.0021153992058935305 0 -0.02752643467500418 -0.0028793973159443442 0 -0.028091081408937336 -0.002367734675224649 0 -0.027558807927251603 -0.0010808484006931563 0 -0.02726088634540489 -0.00051260629873578272 0 -0.027457767508302755 2.8115671910274057e-05 0 -0.026763055648857694 0.00037607273892852278 0 -0.027459198039054077 0.00037919815952892633 0 -0.026763055648857694 0.00037607273892852278 0 -0.027459198039054077 0.00037919815952892633 0 -0.026916396732248708 0.00081549910518088572 0 -0.027459198039054077 0.00037919815952892633 0 -0.026916396732248708 0.00081549910518088572 0 -0.027473710235844204 0.00072562883938799691 0 -0.026994231782047528 0.0011727854051185511 0 -0.026916396732248708 0.00081549910518088572 0 -0.027473710235844204 0.00072562883938799691 0 -0.026763055648857694 0.00037607273892852278 0 -0.026916396732248708 0.00081549910518088572 0 -0.026107168906812164 0.00092062657246447667 0 -0.02726088634540489 -0.00051260629873578272 0 -0.026764343911516046 0.00037424962465338208 0 -0.026553021250927868 -0.00028523480128850895 0 -0.027358810383728241 -0.00037616066530728724 0 -0.026753247516265569 -0.00095005862096193383 0 -0.027724105216398481 -0.0013971704292026859 0 -0.027358810383728241 -0.00037616066530728724 0 -0.027113826652422499 -0.0014344268907516093 0 -0.027358810383728241 -0.00037616066530728724 0 -0.026753247516265569 -0.00095005862096193383 0 -0.027113826652422499 -0.0014344268907516093 0 -0.026553021250927868 -0.00028523480128850895 0 -0.026753247516265569 -0.00095005862096193383 0 -0.026045189557255186 -0.0013298375183412861 0 -0.021340502511809842 -0.0031476466058937423 0 -0.02215510448286559 -0.0033256340696261387 0 -0.025711740250070378 -0.0011331068809891656 0 -0.02215510448286559 -0.0033256340696261387 0 -0.024337499271526265 -0.0023171895167026406 0 -0.022977105877498332 -0.0019357826273723577 0 -0.023573032542268099 -0.003987501128707484 0 -0.026753247516265569 -0.00095005862096193383 0 -0.026045189557255186 -0.0013298375183412861 0 -0.026594223840054682 -0.0018216474091113412 0 -0.019396503295618824 -0.0047018406090625457 0 -0.02215510448286559 -0.0033256340696261387 0 -0.026426576586442655 -0.0026974667142950852 0 -0.026045189557255186 -0.0013298375183412861 0 -0.026594223840054682 -0.0018216474091113412 0 -0.026362439175295127 -0.0024973256900483608 0 -0.02215510448286559 -0.0033256340696261387 0 -0.02674229112855029 -0.0010570117708314502 0 -0.026631198299686097 -0.0017138832037419934 0 -0.027323707203291869 -0.0021153992058935305 0 -0.027724105216398481 -0.0013971704292026859 0 -0.027113826652422499 -0.0014344268907516093 0 -0.026883681025684249 -0.002040226646521408 0 -0.026678029464591729 -0.0016486002501503796 0 -0.027113826652422499 -0.0014344268907516093 0 -0.026753247516265569 -0.00095005862096193383 0 -0.026678029464591729 -0.0016486002501503796 0 -0.027113826652422499 -0.0014344268907516093 0 -0.010472508004231168 -0.0044189279371324407 0 -0.01060410022912381 -0.0042118499954483983 0 -0.010705859994854837 -0.0041341169696684776 0 -0.010472508004231168 -0.0044189279371324407 0 -0.01060410022912381 -0.0042118499954483983 0 -0.010503844715495741 -0.0042134230069538533 0 -0.01060410022912381 -0.0042118499954483983 0 -0.0106113521509392 -0.0041648177219606808 0 -0.010637025493085487 -0.0042138217558108674 0 -0.01060410022912381 -0.0042118499954483983 0 -0.010637025493085487 -0.0042138217558108674 0 -0.010653813155075293 -0.004092845358092039 0 -0.01060410022912381 -0.0042118499954483983 0 -0.0106113521509392 -0.0041648177219606808 0 -0.010503844715495741 -0.0042134230069538533 0 -0.0106113521509392 -0.0041648177219606808 0 -0.010505278092726864 -0.0039990202450440309 0 -0.010840077929710822 -0.0039991674743384059 0 -0.0106113521509392 -0.0041648177219606808 0 -0.010503844715495741 -0.0042134230069538533 0 -0.010505278092726864 -0.0039990202450440309 0 -0.010210573546671767 -0.004049049290839879 0 -0.010503844715495741 -0.0042134230069538533 0 -0.010505278092726864 -0.0039990202450440309 0 -0.010210573546671767 -0.004049049290839879 0 -0.010472508004231168 -0.0044189279371324407 0 -0.010503844715495741 -0.0042134230069538533 0 -0.010210573546671767 -0.004049049290839879 0 -0.010149339156632216 -0.0036292398927451103 0 -0.010505278092726864 -0.0039990202450440309 0 -0.010450156065230759 -0.0034187743514572347 0 -0.010149339156632216 -0.0036292398927451103 0 -0.010617518440295223 -0.0037727706820234329 0 -0.010450156065230759 -0.0034187743514572347 0 -0.010617518440295223 -0.0037727706820234329 0 -0.01075739808208393 -0.0036089771494876356 0 -0.010617518440295223 -0.0037727706820234329 0 -0.010505278092726864 -0.0039990202450440309 0 -0.010840077929710822 -0.0039991674743384059 0 -0.010149339156632216 -0.0036292398927451103 0 -0.010617518440295223 -0.0037727706820234329 0 -0.010505278092726864 -0.0039990202450440309 0 -0.010617518440295223 -0.0037727706820234329 0 -0.010840077929710822 -0.0039991674743384059 0 -0.010874654445819086 -0.0038050078042866152 0 -0.010617518440295223 -0.0037727706820234329 0 -0.010874654445819086 -0.0038050078042866152 0 -0.01075739808208393 -0.0036089771494876356 0 -0.010874654445819086 -0.0038050078042866152 0 -0.01075739808208393 -0.0036089771494876356 0 -0.011024274504654628 -0.0036228236222737571 0 -0.010874654445819086 -0.0038050078042866152 0 -0.011024274504654628 -0.0036228236222737571 0 -0.011023669300228578 -0.003862705846434708 0 -0.010398578277997854 -0.0033323651237429411 0 -0.014523239892544334 -0.003631338946200856 0 -0.011530633710881488 -0.0033630410872569688 0 -0.011024274504654628 -0.0036228236222737571 0 -0.011404616882404702 -0.0041087561643888774 0 -0.010840077929710822 -0.0039991674743384059 0 -0.011023669300228578 -0.003862705846434708 0 -0.010835113784936012 -0.0039618439420731968 0 -0.014523239892544334 -0.003631338946200856 0 -0.015441517248291127 -0.004318186623502732 0 -0.010840077929710822 -0.0039991674743384059 0 -0.010874654445819086 -0.0038050078042866152 0 -0.011023669300228578 -0.003862705846434708 0 -0.01083784144763815 -0.0039880574533731842 0 -0.010820129136383019 -0.0039815841773346156 0 -0.010840077929710822 -0.0039991674743384059 0 -0.010835113784936012 -0.0039618439420731968 0 -0.010997768098259576 -0.0037931366863342107 0 -0.0106113521509392 -0.0041648177219606808 0 -0.010840077929710822 -0.0039991674743384059 0 -0.010637025493085487 -0.0042138217558108674 0 -0.010835113784936012 -0.0039618439420731968 0 -0.010997768098259576 -0.0037931366863342107 0 -0.0107378690232594 -0.0036059174019364049 0 -0.015441517248291127 -0.004318186623502732 0 -0.015423191705955096 -0.003660786083861904 0 -0.019873892073487977 -0.0044310446359504914 0 -0.019667580033323764 -0.0042633252516480575 0 -0.020120603779549034 -0.0038175622904009416 0 -0.019667580033323764 -0.0042633252516480575 0 -0.019592041182194139 -0.0039884180341823398 0 -0.020120603779549034 -0.0038175622904009416 0 -0.019667580033323764 -0.0042633252516480575 0 -0.019410961148446062 -0.0041926775706967335 0 -0.019462817284493287 -0.0044800406744829706 0 -0.019667580033323764 -0.0042633252516480575 0 -0.019592041182194139 -0.0039884180341823398 0 -0.019410961148446062 -0.0041926775706967335 0 -0.019592041182194139 -0.0039884180341823398 0 -0.019341392335549802 -0.0039823832227911101 0 -0.019410961148446062 -0.0041926775706967335 0 -0.019341392335549802 -0.0039823832227911101 0 -0.019026779950354192 -0.0039823780831834575 0 -0.019410961148446062 -0.0041926775706967335 0 -0.017667123015066101 -0.0038444906882459189 0 -0.018006064544322162 -0.0041213810346341102 0 -0.017667123015066101 -0.0038444906882459189 0 -0.016086469046205771 -0.002766108338095354 0 -0.016845673009544586 -0.0031426089816236533 0 -0.01631705582698726 -0.0024232013320544116 0 -0.016994725267477247 -0.0028884382937027623 0 -0.019026779950354192 -0.0039823780831834575 0 -0.019410961148446062 -0.0041926775706967335 0 -0.019462817284493287 -0.0044800406744829706 0 -0.016508292897107427 -0.004548929384437247 0 -0.016119702755499808 -0.0031907052626378254 0 -0.015649917756497024 -0.0033913583516016138 0 -0.016119702755499808 -0.0031907052626378254 0 -0.015649917756497024 -0.0033913583516016138 0 -0.015579805498164071 -0.0026143795703030223 0 -0.019873892073487977 -0.0044310446359504914 0 -0.019667580033323764 -0.0042633252516480575 0 -0.019462817284493287 -0.0044800406744829706 0 -0.019721072503488399 -0.0048872920474370357 0 -0.019873892073487977 -0.0044310446359504914 0 -0.019462817284493287 -0.0044800406744829706 0 -0.014523239892544334 -0.003631338946200856 0 -0.018006064544322162 -0.0041213810346341102 0 -0.014837897567263988 -0.0022504845847528343 0 -0.015649917756497024 -0.0033913583516016138 0 -0.015579805498164071 -0.0026143795703030223 0 -0.014837897567263988 -0.0022504845847528343 0 -0.015579805498164071 -0.0026143795703030223 0 -0.015715776401396472 -0.0018615078852560951 0 -0.013114740376090568 -0.0020639375332518876 0 -0.014523239892544334 -0.003631338946200856 0 -0.015045409866785819 -0.00092446184453414142 0 -0.014837897567263988 -0.0022504845847528343 0 -0.015715776401396472 -0.0018615078852560951 0 -0.015748831831041189 -0.0015160316517125341 0 -0.016419322574590521 -0.0018760161795414478 0 -0.016435672326095122 -0.0012791779697074515 0 -0.015783556034132933 -0.00105858547492127 0 -0.015748831831041189 -0.0015160316517125341 0 -0.016435672326095122 -0.0012791779697074515 0 -0.01631705582698726 -0.0024232013320544116 0 -0.015748831831041189 -0.0015160316517125341 0 -0.016419322574590521 -0.0018760161795414478 0 -0.016119702755499808 -0.0031907052626378254 0 -0.015579805498164071 -0.0026143795703030223 0 -0.015715776401396472 -0.0018615078852560951 0 -0.01631705582698726 -0.0024232013320544116 0 -0.016419322574590521 -0.0018760161795414478 0 -0.016717418197733563 -0.0022493878126054268 0 -0.016086469046205771 -0.002766108338095354 0 -0.015740317848369146 -0.0016836376422204931 0 -0.016419322574590521 -0.0018760161795414478 0 -0.016717418197733563 -0.0022493878126054268 0 -0.017119663701436985 -0.0020600077136857962 0 -0.016419322574590521 -0.0018760161795414478 0 -0.016435672326095122 -0.0012791779697074515 0 -0.017119663701436985 -0.0020600077136857962 0 -0.015820077234585922 -0.0010662624152144244 0 -0.016269641755145246 -0.0012618976838315882 0 -0.016174457232534412 -0.0017235667678653474 0 -0.016120478069929705 -0.0011910254252924302 0 -0.016645751825895554 -0.0018981825341937081 0 -0.016414930792715325 -0.00091871811960566284 0 -0.016684911286843077 -0.0013746763587496982 0 -0.016269641755145246 -0.0012618976838315882 0 -0.016414930792715325 -0.00091871811960566284 0 -0.015820077234585922 -0.0010662624152144244 0 -0.016269641755145246 -0.0012618976838315882 0 -0.016684911286843077 -0.0013746763587496982 0 -0.017079699769921585 -0.0019923901302438514 0 -0.016174457232534412 -0.0017235667678653474 0 -0.016684911286843077 -0.0013746763587496982 0 -0.016269641755145246 -0.0012618976838315882 0 -0.016174457232534412 -0.0017235667678653474 0 -0.017119663701436985 -0.0020600077136857962 0 -0.017020090772214006 -0.0026111354980944651 0 -0.017597888239173107 -0.002763207610681607 0 -0.017079699769921585 -0.0019923901302438514 0 -0.016174457232534412 -0.0017235667678653474 0 -0.016643549140607741 -0.0024838982224166875 0 -0.016645751825895554 -0.0018981825341937081 0 -0.017135966658895687 -0.0026230298196932376 0 -0.01631705582698726 -0.0024232013320544116 0 -0.017020090772214006 -0.0026111354980944651 0 -0.016994725267477247 -0.0028884382937027623 0 -0.01631705582698726 -0.0024232013320544116 0 -0.016717418197733563 -0.0022493878126054268 0 -0.017020090772214006 -0.0026111354980944651 0 -0.016717418197733563 -0.0022493878126054268 0 -0.017119663701436985 -0.0020600077136857962 0 -0.017020090772214006 -0.0026111354980944651 0 -0.017020090772214006 -0.0026111354980944651 0 -0.016994725267477247 -0.0028884382937027623 0 -0.017300473395636558 -0.002917709187675299 0 -0.016845673009544586 -0.0031426089816236533 0 -0.016994725267477247 -0.0028884382937027623 0 -0.017323160354870741 -0.0031584327850407035 0 -0.016994725267477247 -0.0028884382937027623 0 -0.017300473395636558 -0.002917709187675299 0 -0.017323160354870741 -0.0031584327850407035 0 -0.017020090772214006 -0.0026111354980944651 0 -0.017597888239173107 -0.002763207610681607 0 -0.017300473395636558 -0.002917709187675299 0 -0.017538764866870837 -0.0030964123371425298 0 -0.017300473395636558 -0.002917709187675299 0 -0.017323160354870741 -0.0031584327850407035 0 -0.017538764866870837 -0.0030964123371425298 0 -0.017597888239173107 -0.002763207610681607 0 -0.017300473395636558 -0.002917709187675299 0 -0.017578727028596662 -0.0033532440143488568 0 -0.017323160354870741 -0.0031584327850407035 0 -0.017413719525487988 -0.0033655928750031634 0 -0.017862641855917329 -0.0032641538348323921 0 -0.017538764866870837 -0.0030964123371425298 0 -0.017578727028596662 -0.0033532440143488568 0 -0.017538764866870837 -0.0030964123371425298 0 -0.017578727028596662 -0.0033532440143488568 0 -0.017323160354870741 -0.0031584327850407035 0 -0.019019047024024405 -0.0040552678267849031 0 -0.018897893291338865 -0.0037175138839079694 0 -0.018573321177468287 -0.0036115475425945428 0 -0.017667123015066101 -0.0038444906882459189 0 -0.017964034058408875 -0.0034136394852497176 0 -0.016845673009544586 -0.0031426089816236533 0 -0.017323160354870741 -0.0031584327850407035 0 -0.017413719525487988 -0.0033655928750031634 0 -0.017667123015066101 -0.0038444906882459189 0 -0.018598970929596687 -0.0039544549632389318 0 -0.018897893291338865 -0.0037175138839079694 0 -0.018845602866830204 -0.0034699559310668962 0 -0.019167014146453998 -0.0034955350923757326 0 -0.018897893291338865 -0.0037175138839079694 0 -0.018573321177468287 -0.0036115475425945428 0 -0.018845602866830204 -0.0034699559310668962 0 -0.018573321177468287 -0.0036115475425945428 0 -0.018601298611414591 -0.0032510584697876188 0 -0.017874098563799172 -0.0030713976002666797 0 -0.018573321177468287 -0.0036115475425945428 0 -0.018845602866830204 -0.0034699559310668962 0 -0.018601298611414591 -0.0032510584697876188 0 -0.018601298611414591 -0.0032510584697876188 0 -0.018649106594107755 -0.0028409693412292983 0 -0.018985857184391313 -0.0031827478071004087 0 -0.018845602866830204 -0.0034699559310668962 0 -0.018601298611414591 -0.0032510584697876188 0 -0.018985857184391313 -0.0031827478071004087 0 -0.018601298611414591 -0.0032510584697876188 0 -0.017874098563799172 -0.0030713976002666797 0 -0.018649106594107755 -0.0028409693412292983 0 -0.017578727028596662 -0.0033532440143488568 0 -0.017413719525487988 -0.0033655928750031634 0 -0.017874098563799172 -0.0030713976002666797 0 -0.01739534233474711 -0.0031988634461774398 0 -0.017578727028596662 -0.0033532440143488568 0 -0.017874098563799172 -0.0030713976002666797 0 -0.017964034058408875 -0.0034136394852497176 0 -0.017836760549364582 -0.0030916503625111839 0 -0.01739534233474711 -0.0031988634461774398 0 -0.017511690287786673 -0.0021576763810688903 0 -0.017874098563799172 -0.0030713976002666797 0 -0.017511690287786673 -0.0021576763810688903 0 -0.017874098563799172 -0.0030713976002666797 0 -0.018247690166613453 -0.0024517585210776416 0 -0.022384094021679284 -0.0014382491875701675 0 -0.021690935486582869 -0.0015294377409193483 0 -0.021918945743092232 -0.0019817000965947728 0 -0.021057785457033761 -0.001504790363879952 0 -0.019900222284842457 -0.0017733906666218991 0 -0.017511690287786673 -0.0021576763810688903 0 -0.018247690166613453 -0.0024517585210776416 0 -0.018654561090163325 -0.0018408070653743963 0 -0.018247690166613453 -0.0024517585210776416 0 -0.018654561090163325 -0.0018408070653743963 0 -0.018946887573627239 -0.0024353102676899206 0 -0.018946887573627239 -0.0024353102676899206 0 -0.018649106594107755 -0.0028409693412292983 0 -0.019292642859558205 -0.00281459165950433 0 -0.018247690166613453 -0.0024517585210776416 0 -0.018946887573627239 -0.0024353102676899206 0 -0.018649106594107755 -0.0028409693412292983 0 -0.017874098563799172 -0.0030713976002666797 0 -0.018247690166613453 -0.0024517585210776416 0 -0.018649106594107755 -0.0028409693412292983 0 -0.018649106594107755 -0.0028409693412292983 0 -0.019292642859558205 -0.00281459165950433 0 -0.018985857184391313 -0.0031827478071004087 0 -0.019292642859558205 -0.00281459165950433 0 -0.019733785405881575 -0.0029244169070395281 0 -0.019372797162335236 -0.0031678287942766429 0 -0.019292642859558205 -0.00281459165950433 0 -0.019671869837594395 -0.0026146583683867961 0 -0.019733785405881575 -0.0029244169070395281 0 -0.019292642859558205 -0.00281459165950433 0 -0.019662526240193878 -0.0022955332371389298 0 -0.019671869837594395 -0.0026146583683867961 0 -0.018946887573627239 -0.0024353102676899206 0 -0.019292642859558205 -0.00281459165950433 0 -0.019662526240193878 -0.0022955332371389298 0 -0.019900222284842457 -0.0017733906666218991 0 -0.020205235921042855 -0.0017656993940653237 0 -0.018654561090163325 -0.0018408070653743963 0 -0.018946887573627239 -0.0024353102676899206 0 -0.019662526240193878 -0.0022955332371389298 0 -0.018654561090163325 -0.0018408070653743963 0 -0.019662526240193878 -0.0022955332371389298 0 -0.020119253227268753 -0.0018127767264922092 0 -0.019662526240193878 -0.0022955332371389298 0 -0.020074829582751821 -0.0020691431660382702 0 -0.019952929416021423 -0.0024585707492904675 0 -0.019662526240193878 -0.0022955332371389298 0 -0.020074829582751821 -0.0020691431660382702 0 -0.020119253227268753 -0.0018127767264922092 0 -0.019662526240193878 -0.0022955332371389298 0 -0.019952929416021423 -0.0024585707492904675 0 -0.019671869837594395 -0.0026146583683867961 0 -0.019952929416021423 -0.0024585707492904675 0 -0.019671869837594395 -0.0026146583683867961 0 -0.019733785405881575 -0.0029244169070395281 0 -0.019952929416021423 -0.0024585707492904675 0 -0.019733785405881575 -0.0029244169070395281 0 -0.020059687770760188 -0.0027752721231944799 0 -0.019733785405881575 -0.0029244169070395281 0 -0.019936385955922641 -0.003277046969355039 0 -0.020059687770760188 -0.0027752721231944799 0 -0.019936385955922641 -0.003277046969355039 0 -0.019583217071105996 -0.0033949056338285514 0 -0.019713011967997317 -0.0036528602304979419 0 -0.019733785405881575 -0.0029244169070395281 0 -0.019583217071105996 -0.0033949056338285514 0 -0.019372797162335236 -0.0031678287942766429 0 -0.019733785405881575 -0.0029244169070395281 0 -0.019936385955922641 -0.003277046969355039 0 -0.019583217071105996 -0.0033949056338285514 0 -0.019292642859558205 -0.00281459165950433 0 -0.019372797162335236 -0.0031678287942766429 0 -0.018985857184391313 -0.0031827478071004087 0 -0.018845602866830204 -0.0034699559310668962 0 -0.018985857184391313 -0.0031827478071004087 0 -0.019167014146453998 -0.0034955350923757326 0 -0.019372797162335236 -0.0031678287942766429 0 -0.018985857184391313 -0.0031827478071004087 0 -0.019167014146453998 -0.0034955350923757326 0 -0.019583217071105996 -0.0033949056338285514 0 -0.019372797162335236 -0.0031678287942766429 0 -0.019167014146453998 -0.0034955350923757326 0 -0.019583217071105996 -0.0033949056338285514 0 -0.019167014146453998 -0.0034955350923757326 0 -0.019332811451970182 -0.0037632294683276274 0 -0.018897893291338865 -0.0037175138839079694 0 -0.019167014146453998 -0.0034955350923757326 0 -0.019332811451970182 -0.0037632294683276274 0 -0.019026779950354192 -0.0039823780831834575 0 -0.018897893291338865 -0.0037175138839079694 0 -0.019332811451970182 -0.0037632294683276274 0 -0.019341392335549802 -0.0039823832227911101 0 -0.019026779950354192 -0.0039823780831834575 0 -0.019332811451970182 -0.0037632294683276274 0 -0.019592041182194139 -0.0039884180341823398 0 -0.019341392335549802 -0.0039823832227911101 0 -0.019332811451970182 -0.0037632294683276274 0 -0.019592041182194139 -0.0039884180341823398 0 -0.019332811451970182 -0.0037632294683276274 0 -0.019713011967997317 -0.0036528602304979419 0 -0.019592041182194139 -0.0039884180341823398 0 -0.019713011967997317 -0.0036528602304979419 0 -0.020120603779549034 -0.0038175622904009416 0 -0.019583217071105996 -0.0033949056338285514 0 -0.019332811451970182 -0.0037632294683276274 0 -0.019713011967997317 -0.0036528602304979419 0 -0.019936385955922641 -0.003277046969355039 0 -0.019713011967997317 -0.0036528602304979419 0 -0.020120603779549034 -0.0038175622904009416 0 -0.010637025493085487 -0.0042138217558108674 0 -0.010574705259751316 -0.0039981174173483363 0 -0.010653813155075293 -0.004092845358092039 0 -0.010820129136383019 -0.0039815841773346156 0 -0.010839844691396426 -0.0036331478826880132 0 -0.010997768098259576 -0.0037931366863342107 0 -0.0107378690232594 -0.0036059174019364049 0 -0.011105928252001173 -0.0032717076554078408 0 -0.011105928252001173 -0.0032717076554078408 0 -0.010702116588217188 -0.0030167011187666667 0 -0.011155065524576723 -0.0025947008791824826 0 -0.0107378690232594 -0.0036059174019364049 0 -0.011105928252001173 -0.0032717076554078408 0 -0.010702116588217188 -0.0030167011187666667 0 -0.015423191705955096 -0.003660786083861904 0 -0.015528672274667879 -0.003025406520102158 0 -0.019936385955922641 -0.003277046969355039 0 -0.020120603779549034 -0.0038175622904009416 0 -0.020336915487533896 -0.0030051767213004274 0 -0.019936385955922641 -0.003277046969355039 0 -0.020336915487533896 -0.0030051767213004274 0 -0.020059687770760188 -0.0027752721231944799 0 -0.015528672274667879 -0.003025406520102158 0 -0.015350306309113859 -0.0022229552949160612 0 -0.020336915487533896 -0.0030051767213004274 0 -0.020059687770760188 -0.0027752721231944799 0 -0.020347194788515141 -0.002265830633466877 0 -0.019952929416021423 -0.0024585707492904675 0 -0.020059687770760188 -0.0027752721231944799 0 -0.020347194788515141 -0.002265830633466877 0 -0.020074829582751821 -0.0020691431660382702 0 -0.019952929416021423 -0.0024585707492904675 0 -0.020347194788515141 -0.002265830633466877 0 -0.020074829582751821 -0.0020691431660382702 0 -0.020347194788515141 -0.002265830633466877 0 -0.020158189192018412 -0.0020783634464101759 0 -0.010693400935529489 -0.0023352389752250599 0 -0.011155065524576723 -0.0025947008791824826 0 -0.010872536572349888 -0.0020231274598350273 0 -0.010839844691396426 -0.0036331478826880132 0 -0.01092055161935614 -0.0029819363347416352 0 -0.010702116588217188 -0.0030167011187666667 0 -0.010693400935529489 -0.0023352389752250599 0 -0.011155065524576723 -0.0025947008791824826 0 -0.010976346242971355 -0.0036845456727583009 0 -0.010661248249946659 -0.0034008259242598688 0 -0.011716969812953238 -0.0029032634065923268 0 -0.010574705259751316 -0.0039981174173483363 0 -0.010976346242971355 -0.0036845456727583009 0 -0.010661248249946659 -0.0034008259242598688 0 -0.01092055161935614 -0.0029819363347416352 0 -0.011108820870257309 -0.0020031399121415369 0 -0.010661248249946659 -0.0034008259242598688 0 -0.011482071086377997 -0.0023779389784720421 0 -0.011716969812953238 -0.0029032634065923268 0 -0.010661248249946659 -0.0034008259242598688 0 -0.011482071086377997 -0.0023779389784720421 0 -0.011135894404834876 -0.0019130563623612341 0 -0.011155065524576723 -0.0025947008791824826 0 -0.011135894404834876 -0.0019130563623612341 0 -0.010872536572349888 -0.0020231274598350273 0 -0.012643004291046865 -0.0026033849764822751 0 -0.011716969812953238 -0.0029032634065923268 0 -0.012193042618616569 -0.0021099102026854617 0 -0.011482071086377997 -0.0023779389784720421 0 -0.011716969812953238 -0.0029032634065923268 0 -0.012193042618616569 -0.0021099102026854617 0 -0.012643004291046865 -0.0026033849764822751 0 -0.011716969812953238 -0.0029032634065923268 0 -0.012469047958817184 -0.0033853314539424766 0 -0.010976346242971355 -0.0036845456727583009 0 -0.011716969812953238 -0.0029032634065923268 0 -0.012469047958817184 -0.0033853314539424766 0 -0.011090584710837136 -0.0036618040495229693 0 -0.011661764025828587 -0.0034836258099684644 0 -0.010976346242971355 -0.0036845456727583009 0 -0.01096142065027182 -0.0035591603163542484 0 -0.01091049647300046 -0.0037258603816984924 0 -0.010953068666851695 -0.0039002811173836794 0 -0.01091049647300046 -0.0037258603816984924 0 -0.010748885360875834 -0.0039972479652671334 0 -0.010976346242971355 -0.0036845456727583009 0 -0.01091049647300046 -0.0037258603816984924 0 -0.010775560461228283 -0.0039129174472183042 0 -0.01091049647300046 -0.0037258603816984924 0 -0.010775560461228283 -0.0039129174472183042 0 -0.010748885360875834 -0.0039972479652671334 0 -0.010574705259751316 -0.0039981174173483363 0 -0.010976346242971355 -0.0036845456727583009 0 -0.010775560461228283 -0.0039129174472183042 0 -0.010574705259751316 -0.0039981174173483363 0 -0.010775560461228283 -0.0039129174472183042 0 -0.010653813155075293 -0.004092845358092039 0 -0.01060410022912381 -0.0042118499954483983 0 -0.010653813155075293 -0.004092845358092039 0 -0.010748885360875834 -0.0039972479652671334 0 -0.010775560461228283 -0.0039129174472183042 0 -0.010653813155075293 -0.004092845358092039 0 -0.010748885360875834 -0.0039972479652671334 0 -0.01060410022912381 -0.0042118499954483983 0 -0.010705859994854837 -0.0041341169696684776 0 -0.010748885360875834 -0.0039972479652671334 0 -0.010953068666851695 -0.0039002811173836794 0 -0.010705859994854837 -0.0041341169696684776 0 -0.010748885360875834 -0.0039972479652671334 0 -0.019688485600027054 -0.0021587675272378521 0 -0.020394285107301409 -0.001969112646346242 0 -0.0197812238638202 -0.0028848773268680783 0 -0.019688485600027054 -0.0021587675272378521 0 -0.020394285107301409 -0.001969112646346242 0 -0.019622050821945736 -0.0014274077283771747 0 -0.018945493893323735 -0.0020883775940435689 0 -0.019688485600027054 -0.0021587675272378521 0 -0.019622050821945736 -0.0014274077283771747 0 -0.019053671393593218 -0.0027956380823030637 0 -0.018945493893323735 -0.0020883775940435689 0 -0.019688485600027054 -0.0021587675272378521 0 -0.020394285107301409 -0.001969112646346242 0 -0.021089124323123671 -0.002611165160028568 0 -0.020475223342982903 -0.0030507108141780361 0 -0.020394285107301409 -0.001969112646346242 0 -0.02046069157450869 -0.001232529731906626 0 -0.019622050821945736 -0.0014274077283771747 0 -0.020394285107301409 -0.001969112646346242 0 -0.02046069157450869 -0.001232529731906626 0 -0.021120480613609185 -0.0015588469159412181 0 -0.020606854831448904 -0.0018467074840091086 0 -0.020890190673983768 -0.0019610929706299495 0 -0.02046069157450869 -0.001232529731906626 0 -0.019622050821945736 -0.0014274077283771747 0 -0.019873359971003528 -0.00060407574425561659 0 -0.019249401744038688 -0.00068338393201652719 0 -0.016716552898922571 -0.0009692580157588316 0 -0.012906584988951968 -0.0011939198144029542 0 -0.011743932343395162 -0.00099909251754374292 0 -0.011673316105213495 -0.0016450604445077286 0 -0.019038017353366809 -0.00078335135243871835 0 -0.019622050821945736 -0.0014274077283771747 0 -0.019873359971003528 -0.00060407574425561659 0 -0.012906584988951968 -0.0011939198144029542 0 -0.011673316105213495 -0.0016450604445077286 0 -0.012193042618616569 -0.0021099102026854617 0 -0.011482071086377997 -0.0023779389784720421 0 -0.011673316105213495 -0.0016450604445077286 0 -0.012193042618616569 -0.0021099102026854617 0 -0.011482071086377997 -0.0023779389784720421 0 -0.011673316105213495 -0.0016450604445077286 0 -0.011135894404834876 -0.0019130563623612341 0 -0.011673316105213495 -0.0016450604445077286 0 -0.011135894404834876 -0.0019130563623612341 0 -0.011075925177705101 -0.0013873404764594929 0 -0.011135894404834876 -0.0019130563623612341 0 -0.011075925177705101 -0.0013873404764594929 0 -0.010936163681777238 -0.0017494604703699476 0 -0.02046069157450869 -0.001232529731906626 0 -0.019873359971003528 -0.00060407574425561659 0 -0.021252171242932969 -0.00060850786832700849 0 -0.01591208593858686 -0.0017399736538712188 0 -0.016558102545019833 -0.0015939436670138354 0 -0.017163918320395103 -0.0017426584191215437 0 -0.016716552898922571 -0.0009692580157588316 0 -0.019294425230176191 -0.0019419944169360333 0 -0.011743932343395162 -0.00099909251754374292 0 -0.011673316105213495 -0.0016450604445077286 0 -0.011075925177705101 -0.0013873404764594929 0 -0.016716552898922571 -0.0009692580157588316 0 -0.013035037809796767 -0.0017664689407944315 0 -0.019590320826211951 -0.0024504970275868307 0 -0.019709268354604348 -0.0025415911237918658 0 -0.019552477834219217 -0.0027674598578229658 0 -0.019294425230176191 -0.0019419944169360333 0 -0.017156833367167536 -0.0022812922424659556 0 -0.016558102545019833 -0.0015939436670138354 0 -0.017163918320395103 -0.0017426584191215437 0 -0.017206724184550992 -0.0014458381120236847 0 -0.013035037809796767 -0.0017664689407944315 0 -0.017156833367167536 -0.0022812922424659556 0 -0.015350306309113859 -0.0022229552949160612 0 -0.017156833367167536 -0.0022812922424659556 0 -0.011075925177705101 -0.0013873404764594929 0 -0.010936163681777238 -0.0017494604703699476 0 -0.010695856845417703 -0.0016278340627819857 0 -0.010936163681777238 -0.0017494604703699476 0 -0.010695856845417703 -0.0016278340627819857 0 -0.010872536572349888 -0.0020231274598350273 0 -0.010693400935529489 -0.0023352389752250599 0 -0.010695856845417703 -0.0016278340627819857 0 -0.010872536572349888 -0.0020231274598350273 0 -0.011135894404834876 -0.0019130563623612341 0 -0.010936163681777238 -0.0017494604703699476 0 -0.010872536572349888 -0.0020231274598350273 0 -0.017156833367167536 -0.0022812922424659556 0 -0.020940660550911622 -0.0018293158451792506 0 -0.020288111840676519 -0.0019060270099558537 0 -0.020158189192018412 -0.0020783634464101759 0 -0.020003089104054857 -0.0020421108545826826 0 -0.020347194788515141 -0.002265830633466877 0 -0.020288111840676519 -0.0019060270099558537 0 -0.020158189192018412 -0.0020783634464101759 0 -0.020074829582751821 -0.0020691431660382702 0 -0.020158189192018412 -0.0020783634464101759 0 -0.020003089104054857 -0.0020421108545826826 0 -0.019357984565950392 -0.0022057698189047229 0 -0.020003089104054857 -0.0020421108545826826 0 -0.019821772749323195 -0.0024258161016681001 0 -0.019294425230176191 -0.0019419944169360333 0 -0.019806075566554344 -0.0023653427587428315 0 -0.019321635251755398 -0.0024418833888159852 0 -0.019357984565950392 -0.0022057698189047229 0 -0.019821772749323195 -0.0024258161016681001 0 -0.019590320826211951 -0.0024504970275868307 0 -0.019821772749323195 -0.0024258161016681001 0 -0.019709268354604348 -0.0025415911237918658 0 -0.019821772749323195 -0.0024258161016681001 0 -0.019709268354604348 -0.0025415911237918658 0 -0.019843024697409142 -0.0026426891497008487 0 -0.021854458772797996 -0.0024585019675477408 0 -0.021862386479577299 -0.0024757398905866923 0 -0.0218382553940497 -0.0024694725949404362 0 -0.019709268354604348 -0.0025415911237918658 0 -0.019843024697409142 -0.0026426891497008487 0 -0.019552477834219217 -0.0027674598578229658 0 -0.020779209765684471 -0.0026170055975059505 0 -0.020890190673983768 -0.0019610929706299495 0 -0.021854458772797996 -0.0024585019675477408 0 -0.021862386479577299 -0.0024757398905866923 0 -0.021858211270871831 -0.0024547491850238122 0 -0.019294425230176191 -0.0019419944169360333 0 -0.020890190673983768 -0.0019610929706299495 0 -0.02046069157450869 -0.001232529731906626 0 -0.021252171242932969 -0.00060850786832700849 0 -0.021120480613609185 -0.0015588469159412181 0 -0.0218382553940497 -0.0024694725949404362 0 -0.021866168539875608 -0.0025082277011345454 0 -0.021845328470469348 -0.0025405128690845235 0 -0.020890190673983768 -0.0019610929706299495 0 -0.021537796771211391 -0.0024966423099214395 0 -0.021862386479577299 -0.0024757398905866923 0 -0.0218382553940497 -0.0024694725949404362 0 -0.021866168539875608 -0.0025082277011345454 0 -0.020394285107301409 -0.001969112646346242 0 -0.021241859407110226 -0.0015296066062047353 0 -0.021089124323123671 -0.002611165160028568 0 -0.021866168539875608 -0.0025082277011345454 0 -0.021885429200903087 -0.002504506658965267 0 -0.021901188660497107 -0.0025703957914886707 0 -0.021862386479577299 -0.0024757398905866923 0 -0.021885429200903087 -0.002504506658965267 0 -0.021858211270871831 -0.0024547491850238122 0 -0.021862386479577299 -0.0024757398905866923 0 -0.021866168539875608 -0.0025082277011345454 0 -0.021885429200903087 -0.002504506658965267 0 -0.021906418853355907 -0.0024980295152822311 0 -0.021930414235727037 -0.0024885682996902653 0 -0.021834448304730778 -0.002435359324206941 0 -0.021906418853355907 -0.0024980295152822311 0 -0.021834448304730778 -0.002435359324206941 0 -0.021858211270871831 -0.0024547491850238122 0 -0.021885429200903087 -0.002504506658965267 0 -0.021906418853355907 -0.0024980295152822311 0 -0.021858211270871831 -0.0024547491850238122 0 -0.021885429200903087 -0.002504506658965267 0 -0.021906418853355907 -0.0024980295152822311 0 -0.021936452184168016 -0.0025689120760060426 0 -0.021906418853355907 -0.0024980295152822311 0 -0.021930414235727037 -0.0024885682996902653 0 -0.021980234397007664 -0.0025505604363916896 0 -0.021930414235727037 -0.0024885682996902653 0 -0.022043648728624556 -0.0025176375657558689 0 -0.021980234397007664 -0.0025505604363916896 0 -0.021930414235727037 -0.0024885682996902653 0 -0.021834448304730778 -0.002435359324206941 0 -0.02190223402146832 -0.0024701697319972921 0 -0.021930414235727037 -0.0024885682996902653 0 -0.02190223402146832 -0.0024701697319972921 0 -0.022043648728624556 -0.0025176375657558689 0 -0.021834448304730778 -0.002435359324206941 0 -0.021771646872917143 -0.0024316978436101149 0 -0.021687727787433653 -0.0023895886196194207 0 -0.021834448304730778 -0.002435359324206941 0 -0.021687727787433653 -0.0023895886196194207 0 -0.02190223402146832 -0.0024701697319972921 0 -0.021834448304730778 -0.002435359324206941 0 -0.021858211270871831 -0.0024547491850238122 0 -0.021771646872917143 -0.0024316978436101149 0 -0.021854458772797996 -0.0024585019675477408 0 -0.021858211270871831 -0.0024547491850238122 0 -0.021771646872917143 -0.0024316978436101149 0 -0.020779209765684471 -0.0026170055975059505 0 -0.02106756242453707 -0.0024518108739925741 0 -0.019821772749323195 -0.0024258161016681001 0 -0.019843024697409142 -0.0026426891497008487 0 -0.02026294874265841 -0.0025379096381680385 0 -0.020003089104054857 -0.0020421108545826826 0 -0.019821772749323195 -0.0024258161016681001 0 -0.02026294874265841 -0.0025379096381680385 0 -0.020003089104054857 -0.0020421108545826826 0 -0.02026294874265841 -0.0025379096381680385 0 -0.020119253227268753 -0.0018127767264922092 0 -0.020074829582751821 -0.0020691431660382702 0 -0.020003089104054857 -0.0020421108545826826 0 -0.020119253227268753 -0.0018127767264922092 0 -0.021690935486582869 -0.0015294377409193483 0 -0.020119253227268753 -0.0018127767264922092 0 -0.021368941185907962 -0.0022857554230583002 0 -0.02026294874265841 -0.0025379096381680385 0 -0.020119253227268753 -0.0018127767264922092 0 -0.021368941185907962 -0.0022857554230583002 0 -0.02106756242453707 -0.0024518108739925741 0 -0.021366449184960442 -0.0022920113109629113 0 -0.021771646872917143 -0.0024316978436101149 0 -0.021368941185907962 -0.0022857554230583002 0 -0.021687727787433653 -0.0023895886196194207 0 -0.021368941185907962 -0.0022857554230583002 0 -0.021687727787433653 -0.0023895886196194207 0 -0.021840724606832552 -0.002355311864007685 0 -0.021368941185907962 -0.0022857554230583002 0 -0.021840724606832552 -0.002355311864007685 0 -0.021918945743092232 -0.0019817000965947728 0 -0.021690935486582869 -0.0015294377409193483 0 -0.021368941185907962 -0.0022857554230583002 0 -0.021918945743092232 -0.0019817000965947728 0 -0.022384094021679284 -0.0014382491875701675 0 -0.021918945743092232 -0.0019817000965947728 0 -0.022237578172959169 -0.0021018402099761417 0 -0.022819295894376635 -0.0010027438542026083 0 -0.022455863066254442 -0.0017696883378296501 0 -0.021840724606832552 -0.002355311864007685 0 -0.022237578172959169 -0.0021018402099761417 0 -0.022066100472689611 -0.0024646069232326811 0 -0.021840724606832552 -0.002355311864007685 0 -0.021918945743092232 -0.0019817000965947728 0 -0.022237578172959169 -0.0021018402099761417 0 -0.021687727787433653 -0.0023895886196194207 0 -0.021840724606832552 -0.002355311864007685 0 -0.02190223402146832 -0.0024701697319972921 0 -0.021840724606832552 -0.002355311864007685 0 -0.022066100472689611 -0.0024646069232326811 0 -0.02190223402146832 -0.0024701697319972921 0 -0.02190223402146832 -0.0024701697319972921 0 -0.022156160907508864 -0.0025173873839676908 0 -0.022043648728624556 -0.0025176375657558689 0 -0.022066100472689611 -0.0024646069232326811 0 -0.02190223402146832 -0.0024701697319972921 0 -0.022156160907508864 -0.0025173873839676908 0 -0.022861531370583655 -0.00099214571048616192 0 -0.022673982033677428 -0.0017730944367677851 0 -0.023312179020030105 -0.0016791863984421127 0 -0.022455863066254442 -0.0017696883378296501 0 -0.022425339388685416 -0.0021621389936253288 0 -0.022673982033677428 -0.0017730944367677851 0 -0.02245440005806067 -0.0026203042394831043 0 -0.023225824823298061 -0.002329053836290854 0 -0.022156160907508864 -0.0025173873839676908 0 -0.022204501424931175 -0.0025565379081222447 0 -0.02245440005806067 -0.0026203042394831043 0 -0.022425339388685416 -0.0021621389936253288 0 -0.022429802864352869 -0.0026108448083029651 0 -0.022204501424931175 -0.0025565379081222447 0 -0.022043648728624556 -0.0025176375657558689 0 -0.022103093839788472 -0.002628173154063199 0 -0.022156160907508864 -0.0025173873839676908 0 -0.022204501424931175 -0.0025565379081222447 0 -0.022043648728624556 -0.0025176375657558689 0 -0.022204501424931175 -0.0025565379081222447 0 -0.02245440005806067 -0.0026203042394831043 0 -0.022103093839788472 -0.002628173154063199 0 -0.02245440005806067 -0.0026203042394831043 0 -0.022228399375031911 -0.00287522318732356 0 -0.022103093839788472 -0.002628173154063199 0 -0.02245440005806067 -0.0026203042394831043 0 -0.022228399375031911 -0.00287522318732356 0 -0.022978876344575544 -0.002962188245742015 0 -0.02245440005806067 -0.0026203042394831043 0 -0.023225824823298061 -0.002329053836290854 0 -0.022978876344575544 -0.002962188245742015 0 -0.028670528185368065 -0.0014391128972971157 0 -0.029018835310940155 -0.0015152428633174015 0 -0.03496974178153487 -4.0938083306961142e-05 0 -0.034948328930496972 -3.8595049116023327e-05 0 -0.03494023085309704 -9.0339880021054228e-05 0 -0.03496974178153487 -4.0938083306961142e-05 0 -0.034999995756349093 -4.9484426713367672e-08 0 -0.034999998672575132 6.624810036307439e-09 0 -0.03496974178153487 -4.0938083306961142e-05 0 -0.034999998672575132 6.624810036307439e-09 0 -0.034948328930496972 -3.8595049116023327e-05 0 -0.028670528185368065 -0.0014391128972971157 0 -0.028157336403298591 -0.001476515674718993 0 -0.022228399375031911 -0.00287522318732356 0 -0.022089182159098893 -0.0027341125661908185 0 -0.022057759024684445 -0.0027494083543247753 0 -0.034999998672575132 6.624810036307439e-09 0 -0.034948328930496972 -3.8595049116023327e-05 0 -0.034965248548540377 1.1527413936993241e-06 0 -0.034999998672575132 6.624810036307439e-09 0 -0.034999714088884123 -8.7752262144529789e-08 0 -0.034965248548540377 1.1527413936993241e-06 0 -0.022057759024684445 -0.0027494083543247753 0 -0.022008354162620519 -0.0026638294092176497 0 -0.021995987551926867 -0.002698770488576275 0 -0.022089182159098893 -0.0027341125661908185 0 -0.022057759024684445 -0.0027494083543247753 0 -0.022008354162620519 -0.0026638294092176497 0 -0.022008354162620519 -0.0026638294092176497 0 -0.021936452184168016 -0.0025689120760060426 0 -0.021961644288599196 -0.0026473824471193977 0 -0.022008354162620519 -0.0026638294092176497 0 -0.021961644288599196 -0.0026473824471193977 0 -0.021995987551926867 -0.002698770488576275 0 -0.022089182159098893 -0.0027341125661908185 0 -0.022008354162620519 -0.0026638294092176497 0 -0.022103093839788472 -0.002628173154063199 0 -0.022228399375031911 -0.00287522318732356 0 -0.022089182159098893 -0.0027341125661908185 0 -0.022103093839788472 -0.002628173154063199 0 -0.022008354162620519 -0.0026638294092176497 0 -0.022103093839788472 -0.002628173154063199 0 -0.021980234397007664 -0.0025505604363916896 0 -0.022043648728624556 -0.0025176375657558689 0 -0.022103093839788472 -0.002628173154063199 0 -0.021980234397007664 -0.0025505604363916896 0 -0.022008354162620519 -0.0026638294092176497 0 -0.021980234397007664 -0.0025505604363916896 0 -0.021936452184168016 -0.0025689120760060426 0 -0.021906418853355907 -0.0024980295152822311 0 -0.021980234397007664 -0.0025505604363916896 0 -0.021936452184168016 -0.0025689120760060426 0 -0.021936452184168016 -0.0025689120760060426 0 -0.021901188660497107 -0.0025703957914886707 0 -0.021961644288599196 -0.0026473824471193977 0 -0.021885429200903087 -0.002504506658965267 0 -0.021936452184168016 -0.0025689120760060426 0 -0.021901188660497107 -0.0025703957914886707 0 -0.021901188660497107 -0.0025703957914886707 0 -0.021845328470469348 -0.0025405128690845235 0 -0.021885959457013444 -0.0026363692977378248 0 -0.021866168539875608 -0.0025082277011345454 0 -0.021901188660497107 -0.0025703957914886707 0 -0.021845328470469348 -0.0025405128690845235 0 -0.021537796771211391 -0.0024966423099214395 0 -0.02109854746521574 -0.0035033961039782299 0 -0.021885959457013444 -0.0026363692977378248 0 -0.021961644288599196 -0.0026473824471193977 0 -0.021959260774968022 -0.0026871194056151291 0 -0.021901188660497107 -0.0025703957914886707 0 -0.021885959457013444 -0.0026363692977378248 0 -0.021961644288599196 -0.0026473824471193977 0 -0.021995987551926867 -0.002698770488576275 0 -0.022006844213701155 -0.002724690585398243 0 -0.021959260774968022 -0.0026871194056151291 0 -0.022057759024684445 -0.0027494083543247753 0 -0.021995987551926867 -0.002698770488576275 0 -0.022006844213701155 -0.002724690585398243 0 -0.021961644288599196 -0.0026473824471193977 0 -0.021995987551926867 -0.002698770488576275 0 -0.021959260774968022 -0.0026871194056151291 0 -0.028157336403298591 -0.001476515674718993 0 -0.030001297042124214 -0.00087761470800758429 0 -0.035004315510893017 -1.5962630277059218e-06 0 -0.030001297042124214 -0.00087761470800758429 0 -0.034999995775101184 -2.6583842827538225e-09 0 -0.034999962899052058 -4.5724490386730025e-11 0 -0.034983737117964861 -1.4027030503961543e-06 0 -0.034999714088884123 -8.7752262144529789e-08 0 -0.034965248548540377 1.1527413936993241e-06 0 -0.034847046686188092 2.1785112418213744e-05 0 -0.034999962899052058 -4.5724490386730025e-11 0 -0.034999990366849719 1.7351841192296258e-09 0 -0.034993397083418719 6.8871251079456066e-07 0 -0.034999962899052058 -4.5724490386730025e-11 0 -0.034983737117964861 -1.4027030503961543e-06 0 -0.034993397083418719 6.8871251079456066e-07 0 -0.029484414423383638 -0.00099639004156553529 0 -0.030258168802782325 -0.0014634234536918839 0 -0.030380423680689616 -0.00077379901983391417 0 -0.030001297042124214 -0.00087761470800758429 0 -0.033896628340898037 0.0003203895776288146 0 -0.022006844213701155 -0.002724690585398243 0 -0.021959260774968022 -0.0026871194056151291 0 -0.021941265832215021 -0.0027035412354290047 0 -0.030001297042124214 -0.00087761470800758429 0 -0.026284849280254124 -0.002400094182525998 0 -0.021885959457013444 -0.0026363692977378248 0 -0.021959260774968022 -0.0026871194056151291 0 -0.021941265832215021 -0.0027035412354290047 0 -0.02109854746521574 -0.0035033961039782299 0 -0.026284849280254124 -0.002400094182525998 0 -0.034889223072187371 -8.7018948541398695e-06 0 -0.034954302692089392 1.255367914852921e-05 0 -0.034960128335934003 5.4257013744042436e-05 0 -0.026284849280254124 -0.002400094182525998 0 -0.027557027595463166 -0.0019894747781970062 0 -0.026284849280254124 -0.002400094182525998 0 -0.033896628340898037 0.0003203895776288146 0 -0.034889223072187371 -8.7018948541398695e-06 0 -0.03491507272000062 2.8015376376122192e-05 0 -0.034954302692089392 1.255367914852921e-05 0 -0.03491507272000062 2.8015376376122192e-05 0 -0.034992616580772573 8.3659376340901113e-06 0 -0.034954302692089392 1.255367914852921e-05 0 -0.034999964030692318 1.6088568402866397e-08 0 -0.034998311392878428 5.2533820450539487e-06 0 -0.034992616580772573 8.3659376340901113e-06 0 -0.033896628340898037 0.0003203895776288146 0 -0.0352692743222809 0.00010638213666219069 0 -0.034998559180430273 2.6836433019389689e-07 0 -0.033896628340898037 0.0003203895776288146 0 -0.034999961872625947 4.4514244339028897e-08 0 -0.034999964030692318 1.6088568402866397e-08 0 -0.034992616580772573 8.3659376340901113e-06 0 -0.034999961872625947 4.4514244339028897e-08 0 -0.034992616580772573 8.3659376340901113e-06 0 -0.034975878647306294 1.3658974396762353e-05 0 -0.034992616580772573 8.3659376340901113e-06 0 -0.034975878647306294 1.3658974396762353e-05 0 -0.034954302692089392 1.255367914852921e-05 0 -0.034975878647306294 1.3658974396762353e-05 0 -0.034954302692089392 1.255367914852921e-05 0 -0.034960128335934003 5.4257013744042436e-05 0 -0.020969672299388297 -0.0036609344609852975 0 -0.0208638274472858 -0.0047006216177087785 0 -0.019576406009978103 -0.0039794230113176397 0 -0.020969672299388297 -0.0036609344609852975 0 -0.019576406009978103 -0.0039794230113176397 0 -0.020475223342982903 -0.0030507108141780361 0 -0.021089124323123671 -0.002611165160028568 0 -0.020969672299388297 -0.0036609344609852975 0 -0.020475223342982903 -0.0030507108141780361 0 -0.020394285107301409 -0.001969112646346242 0 -0.020475223342982903 -0.0030507108141780361 0 -0.0197812238638202 -0.0028848773268680783 0 -0.019576406009978103 -0.0039794230113176397 0 -0.020475223342982903 -0.0030507108141780361 0 -0.0197812238638202 -0.0028848773268680783 0 -0.019053671393593218 -0.0027956380823030637 0 -0.019576406009978103 -0.0039794230113176397 0 -0.0197812238638202 -0.0028848773268680783 0 -0.019053671393593218 -0.0027956380823030637 0 -0.019688485600027054 -0.0021587675272378521 0 -0.0197812238638202 -0.0028848773268680783 0 -0.034615684494412775 -0.00094451982897793697 0 -0.034472424088767564 -0.00086464338830107782 0 -0.034586488513475636 -0.00069022775349654713 0 -0.034615684494412775 -0.00094451982897793697 0 -0.034472424088767564 -0.00086464338830107782 0 -0.034503341021571127 -0.0010685920607869097 0 -0.034472424088767564 -0.00086464338830107782 0 -0.034503341021571127 -0.0010685920607869097 0 -0.034241508098151067 -0.001056469620367882 0 -0.034503341021571127 -0.0010685920607869097 0 -0.034623354199015931 -0.0011580701931337037 0 -0.034533863058303305 -0.0013093281229498051 0 -0.034503341021571127 -0.0010685920607869097 0 -0.034241508098151067 -0.001056469620367882 0 -0.034533863058303305 -0.0013093281229498051 0 -0.034615684494412775 -0.00094451982897793697 0 -0.034623354199015931 -0.0011580701931337037 0 -0.034735666546829205 -0.0010167992114455064 0 -0.034615684494412775 -0.00094451982897793697 0 -0.034503341021571127 -0.0010685920607869097 0 -0.034623354199015931 -0.0011580701931337037 0 -0.034623354199015931 -0.0011580701931337037 0 -0.034735666546829205 -0.0010167992114455064 0 -0.034735931154437093 -0.0012030136455495608 0 -0.034735666546829205 -0.0010167992114455064 0 -0.034937620241123776 -0.00098728832390109563 0 -0.034735931154437093 -0.0012030136455495608 0 -0.034735666546829205 -0.0010167992114455064 0 -0.034937620241123776 -0.00098728832390109563 0 -0.034766740674975788 -0.0007927534313020815 0 -0.034615684494412775 -0.00094451982897793697 0 -0.034735666546829205 -0.0010167992114455064 0 -0.034766740674975788 -0.0007927534313020815 0 -0.034937620241123776 -0.00098728832390109563 0 -0.034766740674975788 -0.0007927534313020815 0 -0.034957514701779567 -0.00057798609310807036 0 -0.034766740674975788 -0.0007927534313020815 0 -0.03474172839138439 -0.0005505752156455731 0 -0.034957514701779567 -0.00057798609310807036 0 -0.03474172839138439 -0.0005505752156455731 0 -0.034586488513475636 -0.00069022775349654713 0 -0.034625544421029456 -0.00045949170226401378 0 -0.034766740674975788 -0.0007927534313020815 0 -0.03474172839138439 -0.0005505752156455731 0 -0.034586488513475636 -0.00069022775349654713 0 -0.034615684494412775 -0.00094451982897793697 0 -0.034766740674975788 -0.0007927534313020815 0 -0.034586488513475636 -0.00069022775349654713 0 -0.034472424088767564 -0.00086464338830107782 0 -0.034586488513475636 -0.00069022775349654713 0 -0.034394222094557621 -0.0005969804119813917 0 -0.034586488513475636 -0.00069022775349654713 0 -0.034394222094557621 -0.0005969804119813917 0 -0.034625544421029456 -0.00045949170226401378 0 -0.034394222094557621 -0.0005969804119813917 0 -0.033824421556686982 -0.00087559147488380752 0 -0.034207516601786898 -0.00032961955212500535 0 -0.033824421556686982 -0.00087559147488380752 0 -0.034241508098151067 -0.001056469620367882 0 -0.033760665829883706 -0.0013701042138070465 0 -0.033824421556686982 -0.00087559147488380752 0 -0.033760665829883706 -0.0013701042138070465 0 -0.033128749548473356 -0.0011304488275197607 0 -0.034394222094557621 -0.0005969804119813917 0 -0.033824421556686982 -0.00087559147488380752 0 -0.034241508098151067 -0.001056469620367882 0 -0.034472424088767564 -0.00086464338830107782 0 -0.034394222094557621 -0.0005969804119813917 0 -0.034241508098151067 -0.001056469620367882 0 -0.034241508098151067 -0.001056469620367882 0 -0.033760665829883706 -0.0013701042138070465 0 -0.034533863058303305 -0.0013093281229498051 0 -0.033760665829883706 -0.0013701042138070465 0 -0.034565509728599002 -0.0014131029288743189 0 -0.034533863058303305 -0.0013093281229498051 0 -0.033760665829883706 -0.0013701042138070465 0 -0.033657751359699541 -0.0016786468481557978 0 -0.033781652400254249 -0.0017226834521655297 0 -0.033760665829883706 -0.0013701042138070465 0 -0.033781652400254249 -0.0017226834521655297 0 -0.033872983221218067 -0.001632963714111559 0 -0.034123499270943949 -0.0011893485312237165 0 -0.03325182168662958 -0.0024393891778780193 0 -0.033760665829883706 -0.0013701042138070465 0 -0.033128749548473356 -0.0011304488275197607 0 -0.033096459462456748 -0.0014017566895840345 0 -0.033760665829883706 -0.0013701042138070465 0 -0.033460476395188794 -0.0016500562824282702 0 -0.033096459462456748 -0.0014017566895840345 0 -0.033760665829883706 -0.0013701042138070465 0 -0.033460476395188794 -0.0016500562824282702 0 -0.033657751359699541 -0.0016786468481557978 0 -0.033460476395188794 -0.0016500562824282702 0 -0.033569078277750596 -0.001863610072874387 0 -0.033105024439419393 -0.0018964880815236496 0 -0.033460476395188794 -0.0016500562824282702 0 -0.033657751359699541 -0.0016786468481557978 0 -0.033569078277750596 -0.001863610072874387 0 -0.033657751359699541 -0.0016786468481557978 0 -0.033569078277750596 -0.001863610072874387 0 -0.033689872698497304 -0.0017873678248414449 0 -0.033597304076432133 -0.0018600755303067641 0 -0.033569078277750596 -0.001863610072874387 0 -0.033689872698497304 -0.0017873678248414449 0 -0.030292663735222266 -0.0019026968609444173 0 -0.030846499709469618 -0.0021905770199812731 0 -0.027959885750179849 -0.0005625708884437079 0 -0.029469940079309708 -0.0013584796637254998 0 -0.028718621825183852 -9.6244436773912619e-05 0 -0.030292663735222266 -0.0019026968609444173 0 -0.031332929903477837 -0.0015331228822498101 0 -0.033610463806943811 -0.001947488443080512 0 -0.033569078277750596 -0.001863610072874387 0 -0.033105024439419393 -0.0018964880815236496 0 -0.033769481100046336 -0.0018517574979178314 0 -0.033781652400254249 -0.0017226834521655297 0 -0.033689872698497304 -0.0017873678248414449 0 -0.033769481100046336 -0.0018517574979178314 0 -0.033597304076432133 -0.0018600755303067641 0 -0.033689872698497304 -0.0017873678248414449 0 -0.033657751359699541 -0.0016786468481557978 0 -0.033781652400254249 -0.0017226834521655297 0 -0.033689872698497304 -0.0017873678248414449 0 -0.033769481100046336 -0.0018517574979178314 0 -0.033781652400254249 -0.0017226834521655297 0 -0.033827683877874125 -0.0018005948808245778 0 -0.033781652400254249 -0.0017226834521655297 0 -0.033827683877874125 -0.0018005948808245778 0 -0.033872983221218067 -0.001632963714111559 0 -0.031642727621921399 -0.0024478225758632699 0 -0.03325182168662958 -0.0024393891778780193 0 -0.034539779016297366 -0.0013414417451487839 0 -0.034649522440396804 -0.0012811072701014497 0 -0.034533863058303305 -0.0013093281229498051 0 -0.034623354199015931 -0.0011580701931337037 0 -0.034649522440396804 -0.0012811072701014497 0 -0.034533863058303305 -0.0013093281229498051 0 -0.034623354199015931 -0.0011580701931337037 0 -0.034649522440396804 -0.0012811072701014497 0 -0.034735931154437093 -0.0012030136455495608 0 -0.03325182168662958 -0.0024393891778780193 0 -0.033362691519570012 -0.0021084043808246478 0 -0.034539779016297366 -0.0013414417451487839 0 -0.034649522440396804 -0.0012811072701014497 0 -0.034829015609021803 -0.0014063205185890191 0 -0.025235913457854985 -0.0010810162207729238 0 -0.025348913199231778 -0.00038956614532499687 0 -0.02504397212544645 -0.00075975679008552521 0 -0.034937620241123776 -0.00098728832390109563 0 -0.034735931154437093 -0.0012030136455495608 0 -0.034829015609021803 -0.0014063205185890191 0 -0.03325182168662958 -0.0024393891778780193 0 -0.027366542267332934 -0.0025277245826216478 0 -0.030309932613987928 -0.00065351384374935575 0 -0.027366542267332934 -0.0025277245826216478 0 -0.034649522440396804 -0.0012811072701014497 0 -0.034735931154437093 -0.0012030136455495608 0 -0.034829015609021803 -0.0014063205185890191 0 -0.024105033291801317 -0.0046699403635221109 0 -0.027366542267332934 -0.0025277245826216478 0 -0.028774142628930337 -0.0029675069191318171 0 -0.029127165850089533 -0.0030428735259270751 0 -0.028667171123345755 -0.0035981767947477119 0 -0.029127165850089533 -0.0030428735259270751 0 -0.029370040228807383 -0.0037481871260768569 0 -0.028667171123345755 -0.0035981767947477119 0 -0.020009985475957493 -0.0050926635938760966 0 -0.019901916863357048 -0.0057281897836553514 0 -0.019702964537559941 -0.0054035596000184842 0 -0.020009985475957493 -0.0050926635938760966 0 -0.019441198283463194 -0.0051477188173329911 0 -0.019702964537559941 -0.0054035596000184842 0 -0.019901916863357048 -0.0057281897836553514 0 -0.019702964537559941 -0.0054035596000184842 0 -0.019455096960876241 -0.0056388279553965777 0 -0.019441198283463194 -0.0051477188173329911 0 -0.019702964537559941 -0.0054035596000184842 0 -0.019455096960876241 -0.0056388279553965777 0 -0.023072468648147139 -0.001335924708562657 0 -0.021141348907116424 -0.0026325121852740574 0 -0.019441198283463194 -0.0051477188173329911 0 -0.019455096960876241 -0.0056388279553965777 0 -0.018894462839662719 -0.0050454204112949036 0 -0.023488687213057916 -0.00017633309941393019 0 -0.023426237236178021 -0.00013818547416794206 0 -0.023445885316911941 -0.00010626958017631946 0 -0.023072468648147139 -0.001335924708562657 0 -0.023990877120217524 -9.562274501605296e-05 0 -0.023390805812140439 -8.2313425025383984e-05 0 -0.023426237236178021 -0.00013818547416794206 0 -0.023445885316911941 -0.00010626958017631946 0 -0.02493811183663746 -0.00028193699366752358 0 -0.024161216595762768 -0.00013551712777929451 0 -0.024357185823604008 -0.00052379344408306529 0 -0.024161216595762768 -0.00013551712777929451 0 -0.024357185823604008 -0.00052379344408306529 0 -0.023716075912818921 -0.00033094596266881394 0 -0.024357185823604008 -0.00052379344408306529 0 -0.023783514657494738 -0.00073411334777652296 0 -0.024346037862901754 -0.0009278811099735192 0 -0.024357185823604008 -0.00052379344408306529 0 -0.024686840016980797 -0.00076366504776112097 0 -0.024346037862901754 -0.0009278811099735192 0 -0.024357185823604008 -0.00052379344408306529 0 -0.024686840016980797 -0.00076366504776112097 0 -0.024825926105630908 -0.00055718035760082374 0 -0.024686840016980797 -0.00076366504776112097 0 -0.02504397212544645 -0.00075975679008552521 0 -0.024825926105630908 -0.00055718035760082374 0 -0.02493811183663746 -0.00028193699366752358 0 -0.024357185823604008 -0.00052379344408306529 0 -0.024825926105630908 -0.00055718035760082374 0 -0.02504397212544645 -0.00075975679008552521 0 -0.025101099428873345 -0.00045284530398978864 0 -0.024825926105630908 -0.00055718035760082374 0 -0.02493811183663746 -0.00028193699366752358 0 -0.025101099428873345 -0.00045284530398978864 0 -0.024825926105630908 -0.00055718035760082374 0 -0.025348913199231778 -0.00038956614532499687 0 -0.024946730732081774 -0.00030035688367928333 0 -0.025101099428873345 -0.00045284530398978864 0 -0.025348913199231778 -0.00038956614532499687 0 -0.02504397212544645 -0.00075975679008552521 0 -0.025101099428873345 -0.00045284530398978864 0 -0.027366542267332934 -0.0025277245826216478 0 -0.023072468648147139 -0.001335924708562657 0 -0.023072468648147139 -0.001335924708562657 0 -0.023917955910954115 -0.0012597637848108423 0 -0.021057785457033761 -0.001504790363879952 0 -0.022819295894376635 -0.0010027438542026083 0 -0.023054728724857445 -0.00029312262539310996 0 -0.023365514828824187 -0.00011202619564388914 0 -0.023375238944585052 -0.00057248584881881457 0 -0.023365514828824187 -0.00011202619564388914 0 -0.023716075912818921 -0.00033094596266881394 0 -0.023375238944585052 -0.00057248584881881457 0 -0.023214224861785961 2.6449046592618595e-05 0 -0.023054728724857445 -0.00029312262539310996 0 -0.023365514828824187 -0.00011202619564388914 0 -0.023990877120217524 -9.562274501605296e-05 0 -0.023340423587919344 -0.00010067887821183798 0 -0.024161216595762768 -0.00013551712777929451 0 -0.023365514828824187 -0.00011202619564388914 0 -0.023716075912818921 -0.00033094596266881394 0 -0.023390805812140439 -8.2313425025383984e-05 0 -0.023426237236178021 -0.00013818547416794206 0 -0.023365514828824187 -0.00011202619564388914 0 -0.023783514657494738 -0.00073411334777652296 0 -0.023375238944585052 -0.00057248584881881457 0 -0.023449408517834645 -0.0011283727595783452 0 -0.024357185823604008 -0.00052379344408306529 0 -0.023716075912818921 -0.00033094596266881394 0 -0.023783514657494738 -0.00073411334777652296 0 -0.023716075912818921 -0.00033094596266881394 0 -0.023783514657494738 -0.00073411334777652296 0 -0.023375238944585052 -0.00057248584881881457 0 -0.023054728724857445 -0.00029312262539310996 0 -0.022861531370583655 -0.00099214571048616192 0 -0.023375238944585052 -0.00057248584881881457 0 -0.022861531370583655 -0.00099214571048616192 0 -0.023375238944585052 -0.00057248584881881457 0 -0.023449408517834645 -0.0011283727595783452 0 -0.022861531370583655 -0.00099214571048616192 0 -0.023449408517834645 -0.0011283727595783452 0 -0.023312179020030105 -0.0016791863984421127 0 -0.023449408517834645 -0.0011283727595783452 0 -0.0239603954418879 -0.0011672922947674293 0 -0.023910742982755424 -0.001639614451733027 0 -0.023783514657494738 -0.00073411334777652296 0 -0.023449408517834645 -0.0011283727595783452 0 -0.0239603954418879 -0.0011672922947674293 0 -0.023783514657494738 -0.00073411334777652296 0 -0.0239603954418879 -0.0011672922947674293 0 -0.024346037862901754 -0.0009278811099735192 0 -0.023449408517834645 -0.0011283727595783452 0 -0.023910742982755424 -0.001639614451733027 0 -0.023312179020030105 -0.0016791863984421127 0 -0.023910742982755424 -0.001639614451733027 0 -0.023312179020030105 -0.0016791863984421127 0 -0.023956398481255792 -0.0021795195783581018 0 -0.025235913457854985 -0.0010810162207729238 0 -0.02481722175947081 -0.0011018853899871577 0 -0.025146711420956636 -0.0017750597249471438 0 -0.025235913457854985 -0.0010810162207729238 0 -0.02504397212544645 -0.00075975679008552521 0 -0.02481722175947081 -0.0011018853899871577 0 -0.024686840016980797 -0.00076366504776112097 0 -0.02504397212544645 -0.00075975679008552521 0 -0.02481722175947081 -0.0011018853899871577 0 -0.024686840016980797 -0.00076366504776112097 0 -0.02481722175947081 -0.0011018853899871577 0 -0.024346037862901754 -0.0009278811099735192 0 -0.02481722175947081 -0.0011018853899871577 0 -0.024346037862901754 -0.0009278811099735192 0 -0.024604857797513782 -0.0014560681699583406 0 -0.0239603954418879 -0.0011672922947674293 0 -0.024346037862901754 -0.0009278811099735192 0 -0.024604857797513782 -0.0014560681699583406 0 -0.023910742982755424 -0.001639614451733027 0 -0.024604857797513782 -0.0014560681699583406 0 -0.024469971193924678 -0.0019298432076999038 0 -0.0239603954418879 -0.0011672922947674293 0 -0.023910742982755424 -0.001639614451733027 0 -0.024604857797513782 -0.0014560681699583406 0 -0.024604857797513782 -0.0014560681699583406 0 -0.024760748908287375 -0.0018087601985406197 0 -0.024469971193924678 -0.0019298432076999038 0 -0.030309932613987928 -0.00065351384374935575 0 -0.029940625031720011 -0.0012419326078033153 0 -0.024604857797513782 -0.0014560681699583406 0 -0.024760748908287375 -0.0018087601985406197 0 -0.025146711420956636 -0.0017750597249471438 0 -0.02481722175947081 -0.0011018853899871577 0 -0.024604857797513782 -0.0014560681699583406 0 -0.025146711420956636 -0.0017750597249471438 0 -0.034957514701779567 -0.00057798609310807036 0 -0.034961867361271874 -0.00027282384172004485 0 -0.034776148410595072 -0.00030967228611495197 0 -0.025146711420956636 -0.0017750597249471438 0 -0.024819775991301377 -0.0020781092098341408 0 -0.025070870891119659 -0.0025077301027822832 0 -0.029940625031720011 -0.0012419326078033153 0 -0.031421162230586018 -0.0016730903865064799 0 -0.024819775991301377 -0.0020781092098341408 0 -0.024483292386274728 -0.0022942202716254019 0 -0.025070870891119659 -0.0025077301027822832 0 -0.024760748908287375 -0.0018087601985406197 0 -0.025146711420956636 -0.0017750597249471438 0 -0.024819775991301377 -0.0020781092098341408 0 -0.024760748908287375 -0.0018087601985406197 0 -0.024819775991301377 -0.0020781092098341408 0 -0.024469971193924678 -0.0019298432076999038 0 -0.024483292386274728 -0.0022942202716254019 0 -0.023956398481255792 -0.0021795195783581018 0 -0.024078295016556995 -0.002755027468334159 0 -0.024819775991301377 -0.0020781092098341408 0 -0.024469971193924678 -0.0019298432076999038 0 -0.024483292386274728 -0.0022942202716254019 0 -0.024469971193924678 -0.0019298432076999038 0 -0.024483292386274728 -0.0022942202716254019 0 -0.023956398481255792 -0.0021795195783581018 0 -0.034811401637418096 -0.00020131649383815133 0 -0.034779101902761109 -0.00026050331252643343 0 -0.034877746700551084 -0.00017998206830547906 0 -0.031421162230586018 -0.0016730903865064799 0 -0.029151879153587676 -0.0014594602149053354 0 -0.024483292386274728 -0.0022942202716254019 0 -0.025070870891119659 -0.0025077301027822832 0 -0.024078295016556995 -0.002755027468334159 0 -0.034811401637418096 -0.00020131649383815133 0 -0.034783051330572953 -0.00022302442933228974 0 -0.034783216231446333 -0.000251970330726707 0 -0.034811401637418096 -0.00020131649383815133 0 -0.034783051330572953 -0.00022302442933228974 0 -0.034788211256105019 -0.00018440613066744599 0 -0.034783216231446333 -0.000251970330726707 0 -0.034778575515422051 -0.00025520283173003277 0 -0.034783073983265349 -0.00025713340708763264 0 -0.034783051330572953 -0.00022302442933228974 0 -0.034783216231446333 -0.000251970330726707 0 -0.034778575515422051 -0.00025520283173003277 0 -0.031538451547964398 -0.0014870308841336405 0 -0.031421162230586018 -0.0016730903865064799 0 -0.034811401637418096 -0.00020131649383815133 0 -0.034783216231446333 -0.000251970330726707 0 -0.034779101902761109 -0.00026050331252643343 0 -0.022673982033677428 -0.0017730944367677851 0 -0.023312179020030105 -0.0016791863984421127 0 -0.023225824823298061 -0.002329053836290854 0 -0.023312179020030105 -0.0016791863984421127 0 -0.023225824823298061 -0.002329053836290854 0 -0.023956398481255792 -0.0021795195783581018 0 -0.023910742982755424 -0.001639614451733027 0 -0.024469971193924678 -0.0019298432076999038 0 -0.023956398481255792 -0.0021795195783581018 0 -0.023225824823298061 -0.002329053836290854 0 -0.023956398481255792 -0.0021795195783581018 0 -0.024078295016556995 -0.002755027468334159 0 -0.029151879153587676 -0.0014594602149053354 0 -0.029018835310940155 -0.0015152428633174015 0 -0.023225824823298061 -0.002329053836290854 0 -0.024078295016556995 -0.002755027468334159 0 -0.022978876344575544 -0.002962188245742015 0 -0.03496974178153487 -4.0938083306961142e-05 0 -0.03494023085309704 -9.0339880021054228e-05 0 -0.034952503568808448 -7.1157783065030987e-05 0 -0.034877746700551084 -0.00017998206830547906 0 -0.03494023085309704 -9.0339880021054228e-05 0 -0.034952503568808448 -7.1157783065030987e-05 0 -0.034877746700551084 -0.00017998206830547906 0 -0.034952503568808448 -7.1157783065030987e-05 0 -0.034892967820205234 -0.00011295691377583256 0 -0.034952503568808448 -7.1157783065030987e-05 0 -0.034999692528629604 -3.9134472640380238e-08 0 -0.034892967820205234 -0.00011295691377583256 0 -0.03496974178153487 -4.0938083306961142e-05 0 -0.034999995756349093 -4.9484426713367672e-08 0 -0.034952503568808448 -7.1157783065030987e-05 0 -0.034999995756349093 -4.9484426713367672e-08 0 -0.034952503568808448 -7.1157783065030987e-05 0 -0.034999692528629604 -3.9134472640380238e-08 0 -0.034811813746202985 -9.6455757166114933e-05 0 -0.034788211256105019 -0.00018440613066744599 0 -0.034745312745435422 -0.00020951216684346295 0 -0.034811401637418096 -0.00020131649383815133 0 -0.034811813746202985 -9.6455757166114933e-05 0 -0.034788211256105019 -0.00018440613066744599 0 -0.034916570461747537 -6.6800775836152793e-05 0 -0.034851766052458107 -0.00016682933701360725 0 -0.034811401637418096 -0.00020131649383815133 0 -0.034811813746202985 -9.6455757166114933e-05 0 -0.034892967820205234 -0.00011295691377583256 0 -0.034811401637418096 -0.00020131649383815133 0 -0.034877746700551084 -0.00017998206830547906 0 -0.034892967820205234 -0.00011295691377583256 0 -0.035000003216889071 9.7367599344756134e-09 0 -0.035016037915959523 -2.4984429985332442e-05 0 -0.035000053443862707 -3.8260728655164282e-08 0 -0.034999692528629604 -3.9134472640380238e-08 0 -0.034811813746202985 -9.6455757166114933e-05 0 -0.034892967820205234 -0.00011295691377583256 0 -0.034999971041022704 -1.6049300578479507e-08 0 -0.034916570461747537 -6.6800775836152793e-05 0 -0.035016037915959523 -2.4984429985332442e-05 0 -0.035000053443862707 -3.8260728655164282e-08 0 -0.03498689730110216 -3.8840181466183918e-05 0 -0.035000053443862707 -3.8260728655164282e-08 0 -0.03498689730110216 -3.8840181466183918e-05 0 -0.034999828105060742 -2.2040202494735104e-09 0 -0.03498689730110216 -3.8840181466183918e-05 0 -0.034999828105060742 -2.2040202494735104e-09 0 -0.034941672806482471 -7.2192864391153601e-05 0 -0.034999828105060742 -2.2040202494735104e-09 0 -0.034833611159543192 -0.00010410920229012989 0 -0.034941672806482471 -7.2192864391153601e-05 0 -0.034833611159543192 -0.00010410920229012989 0 -0.034941672806482471 -7.2192864391153601e-05 0 -0.034979080534435797 -0.00013463727309802583 0 -0.035016037915959523 -2.4984429985332442e-05 0 -0.03498689730110216 -3.8840181466183918e-05 0 -0.034979080534435797 -0.00013463727309802583 0 -0.03498689730110216 -3.8840181466183918e-05 0 -0.034941672806482471 -7.2192864391153601e-05 0 -0.034979080534435797 -0.00013463727309802583 0 -0.034783051330572953 -0.00022302442933228974 0 -0.034788211256105019 -0.00018440613066744599 0 -0.034745312745435422 -0.00020951216684346295 0 -0.034778575515422051 -0.00025520283173003277 0 -0.034745312745435422 -0.00020951216684346295 0 -0.034776148410595072 -0.00030967228611495197 0 -0.034783051330572953 -0.00022302442933228974 0 -0.034778575515422051 -0.00025520283173003277 0 -0.034745312745435422 -0.00020951216684346295 0 -0.031421162230586018 -0.0016730903865064799 0 -0.035768405799158319 -0.00013164065949822085 0 -0.034778575515422051 -0.00025520283173003277 0 -0.034783073983265349 -0.00025713340708763264 0 -0.034776148410595072 -0.00030967228611495197 0 -0.034745312745435422 -0.00020951216684346295 0 -0.034635783131010373 -0.00028722101464184171 0 -0.034776148410595072 -0.00030967228611495197 0 -0.034851766052458107 -0.00016682933701360725 0 -0.034657021097467627 -0.00028314087847237929 0 -0.034833611159543192 -0.00010410920229012989 0 -0.034979080534435797 -0.00013463727309802583 0 -0.034635783131010373 -0.00028722101464184171 0 -0.034394222094557621 -0.0005969804119813917 0 -0.034635783131010373 -0.00028722101464184171 0 -0.034625544421029456 -0.00045949170226401378 0 -0.034635783131010373 -0.00028722101464184171 0 -0.034625544421029456 -0.00045949170226401378 0 -0.034776148410595072 -0.00030967228611495197 0 -0.03474172839138439 -0.0005505752156455731 0 -0.034625544421029456 -0.00045949170226401378 0 -0.034776148410595072 -0.00030967228611495197 0 -0.03474172839138439 -0.0005505752156455731 0 -0.034957514701779567 -0.00057798609310807036 0 -0.034776148410595072 -0.00030967228611495197 0 -0.034207516601786898 -0.00032961955212500535 0 -0.034660837030853472 -0.00020288759319531314 0 -0.034532796111273564 -0.0003386025475937624 0 -0.034394222094557621 -0.0005969804119813917 0 -0.034635783131010373 -0.00028722101464184171 0 -0.034207516601786898 -0.00032961955212500535 0 -0.034635783131010373 -0.00028722101464184171 0 -0.034207516601786898 -0.00032961955212500535 0 -0.034660837030853472 -0.00020288759319531314 0 -0.034833611159543192 -0.00010410920229012989 0 -0.034635783131010373 -0.00028722101464184171 0 -0.034660837030853472 -0.00020288759319531314 0 -0.034833611159543192 -0.00010410920229012989 0 -0.034660837030853472 -0.00020288759319531314 0 -0.034999859122867745 -1.0222366162116427e-07 0 -0.034660837030853472 -0.00020288759319531314 0 -0.034999859122867745 -1.0222366162116427e-07 0 -0.034827363317347329 -0.00012470908526360409 0 -0.034999828105060742 -2.2040202494735104e-09 0 -0.034833611159543192 -0.00010410920229012989 0 -0.034999859122867745 -1.0222366162116427e-07 0 -0.034999859122867745 -1.0222366162116427e-07 0 -0.03499907340333689 -3.7855132049143872e-08 0 -0.034827363317347329 -0.00012470908526360409 0 -0.03499907340333689 -3.7855132049143872e-08 0 -0.034748074241429311 -0.00016067174997353256 0 -0.034827363317347329 -0.00012470908526360409 0 -0.03499907340333689 -3.7855132049143872e-08 0 -0.034748074241429311 -0.00016067174997353256 0 -0.034551279339938408 -0.00012504882441547501 0 -0.034748074241429311 -0.00016067174997353256 0 -0.034541651767532724 -0.00027760520489252747 0 -0.034665506331420591 -0.00025565862173868167 0 -0.034748074241429311 -0.00016067174997353256 0 -0.034827363317347329 -0.00012470908526360409 0 -0.034665506331420591 -0.00025565862173868167 0 -0.034660837030853472 -0.00020288759319531314 0 -0.034827363317347329 -0.00012470908526360409 0 -0.034665506331420591 -0.00025565862173868167 0 -0.035000069812260268 -3.3596364454094769e-08 0 -0.03499709916388772 -3.3201090555497118e-05 0 -0.035016257194018588 -2.0086952827968165e-05 0 -0.035000069812260268 -3.3596364454094769e-08 0 -0.03499709916388772 -3.3201090555497118e-05 0 -0.03499986682775387 -9.4835919458809786e-09 0 -0.034999920503274974 -1.8215453848330853e-08 0 -0.034786639422070713 -8.5179364640213551e-05 0 -0.034999987063012411 1.1499718817305108e-08 0 -0.035000069812260268 -3.3596364454094769e-08 0 -0.035016257194018588 -2.0086952827968165e-05 0 -0.034748074241429311 -0.00016067174997353256 0 -0.034551279339938408 -0.00012504882441547501 0 -0.034541651767532724 -0.00027760520489252747 0 -0.034551279339938408 -0.00012504882441547501 0 -0.034541651767532724 -0.00027760520489252747 0 -0.034418895639881895 -0.00028443838539108247 0 -0.03499709916388772 -3.3201090555497118e-05 0 -0.035016257194018588 -2.0086952827968165e-05 0 -0.034979879541675099 -0.00013465377561700347 0 -0.034786639422070713 -8.5179364640213551e-05 0 -0.034696971775662777 -0.00020217737367274764 0 -0.034541651767532724 -0.00027760520489252747 0 -0.034352690309804763 -0.00036687828122328382 0 -0.034418895639881895 -0.00028443838539108247 0 -0.034541651767532724 -0.00027760520489252747 0 -0.034560945550371855 -0.0003571623699975266 0 -0.034352690309804763 -0.00036687828122328382 0 -0.034660837030853472 -0.00020288759319531314 0 -0.034665506331420591 -0.00025565862173868167 0 -0.034532796111273564 -0.0003386025475937624 0 -0.034541651767532724 -0.00027760520489252747 0 -0.034560945550371855 -0.0003571623699975266 0 -0.034665506331420591 -0.00025565862173868167 0 -0.034560945550371855 -0.0003571623699975266 0 -0.034665506331420591 -0.00025565862173868167 0 -0.034532796111273564 -0.0003386025475937624 0 -0.034560945550371855 -0.0003571623699975266 0 -0.034532796111273564 -0.0003386025475937624 0 -0.034578643434369449 -0.00033320433795220011 0 -0.034207516601786898 -0.00032961955212500535 0 -0.034532796111273564 -0.0003386025475937624 0 -0.034578643434369449 -0.00033320433795220011 0 -0.033824421556686982 -0.00087559147488380752 0 -0.034207516601786898 -0.00032961955212500535 0 -0.03288459954722462 -0.00073570464511409463 0 -0.034165515529850782 -0.00034432552276601985 0 -0.033759016294608368 -0.0005559214504349797 0 -0.033824421556686982 -0.00087559147488380752 0 -0.033128749548473356 -0.0011304488275197607 0 -0.03288459954722462 -0.00073570464511409463 0 -0.033128749548473356 -0.0011304488275197607 0 -0.032615347020018129 -0.0011633484694669619 0 -0.033096459462456748 -0.0014017566895840345 0 -0.032615347020018129 -0.0011633484694669619 0 -0.03288459954722462 -0.00073570464511409463 0 -0.032905110287541638 -0.0012320404941637288 0 -0.033128749548473356 -0.0011304488275197607 0 -0.032615347020018129 -0.0011633484694669619 0 -0.03288459954722462 -0.00073570464511409463 0 -0.034560945550371855 -0.0003571623699975266 0 -0.034578643434369449 -0.00033320433795220011 0 -0.034486686542197546 -0.00055309031451320314 0 -0.033759016294608368 -0.0005559214504349797 0 -0.03370368773110239 -0.00085234123075081532 0 -0.034560945550371855 -0.0003571623699975266 0 -0.034352690309804763 -0.00036687828122328382 0 -0.034486686542197546 -0.00055309031451320314 0 -0.034352690309804763 -0.00036687828122328382 0 -0.034486686542197546 -0.00055309031451320314 0 -0.033992588018258343 -0.00076830778559696419 0 -0.03370368773110239 -0.00085234123075081532 0 -0.033964220850106204 -0.00079111624432758607 0 -0.032905110287541638 -0.0012320404941637288 0 -0.03291287236201549 -0.00098386337716109768 0 -0.033992588018258343 -0.00076830778559696419 0 -0.032615347020018129 -0.0011633484694669619 0 -0.032905110287541638 -0.0012320404941637288 0 -0.03291287236201549 -0.00098386337716109768 0 -0.03291287236201549 -0.00098386337716109768 0 -0.033258998706402206 -0.00053799224992107553 0 -0.032631350467778229 -0.00086750252895000676 0 -0.03291287236201549 -0.00098386337716109768 0 -0.033784339053818974 -0.00058430857034976857 0 -0.033992588018258343 -0.00076830778559696419 0 -0.03291287236201549 -0.00098386337716109768 0 -0.033258998706402206 -0.00053799224992107553 0 -0.033784339053818974 -0.00058430857034976857 0 -0.033258998706402206 -0.00053799224992107553 0 -0.033258176950071473 7.1979788917939394e-06 0 -0.033716089367555248 -0.00017013403138757365 0 -0.033258998706402206 -0.00053799224992107553 0 -0.033784339053818974 -0.00058430857034976857 0 -0.033716089367555248 -0.00017013403138757365 0 -0.033258998706402206 -0.00053799224992107553 0 -0.032631350467778229 -0.00086750252895000676 0 -0.032717072931056079 -0.00015290189760907934 0 -0.033258998706402206 -0.00053799224992107553 0 -0.032717072931056079 -0.00015290189760907934 0 -0.033258176950071473 7.1979788917939394e-06 0 -0.032631350467778229 -0.00086750252895000676 0 -0.031610622153723004 -0.00063639163515259278 0 -0.032717072931056079 -0.00015290189760907934 0 -0.032631350467778229 -0.00086750252895000676 0 -0.031610622153723004 -0.00063639163515259278 0 -0.032203199234127663 -0.0014942929415684852 0 -0.031610622153723004 -0.00063639163515259278 0 -0.029469940079309708 -0.0013584796637254998 0 -0.028718621825183852 -9.6244436773912619e-05 0 -0.031332929903477837 -0.0015331228822498101 0 -0.031941868209633441 -0.0015634083096950874 0 -0.031610622153723004 -0.00063639163515259278 0 -0.029469940079309708 -0.0013584796637254998 0 -0.032203199234127663 -0.0014942929415684852 0 -0.033105024439419393 -0.0018964880815236496 0 -0.033096459462456748 -0.0014017566895840345 0 -0.032203199234127663 -0.0014942929415684852 0 -0.033460476395188794 -0.0016500562824282702 0 -0.033105024439419393 -0.0018964880815236496 0 -0.033096459462456748 -0.0014017566895840345 0 -0.032615347020018129 -0.0011633484694669619 0 -0.03291287236201549 -0.00098386337716109768 0 -0.032203199234127663 -0.0014942929415684852 0 -0.03291287236201549 -0.00098386337716109768 0 -0.032631350467778229 -0.00086750252895000676 0 -0.032203199234127663 -0.0014942929415684852 0 -0.032615347020018129 -0.0011633484694669619 0 -0.033096459462456748 -0.0014017566895840345 0 -0.032203199234127663 -0.0014942929415684852 0 -0.034072514285436541 -0.00038973913644580702 0 -0.034127210740393744 -0.00053146399882204865 0 -0.034193431610664793 -0.00040680320613747868 0 -0.034072514285436541 -0.00038973913644580702 0 -0.034193431610664793 -0.00040680320613747868 0 -0.033982339612154432 -0.00039103631395390415 0 -0.034072514285436541 -0.00038973913644580702 0 -0.033982339612154432 -0.00039103631395390415 0 -0.033626662782684856 -0.00058228733066640627 0 -0.034072514285436541 -0.00038973913644580702 0 -0.034051268315945717 -0.00035938803862071116 0 -0.034053749203350483 -0.00039745030689916037 0 -0.034072514285436541 -0.00038973913644580702 0 -0.034051268315945717 -0.00035938803862071116 0 -0.034015629797733649 -0.0004235789525389206 0 -0.034051268315945717 -0.00035938803862071116 0 -0.034015629797733649 -0.0004235789525389206 0 -0.033971564842483509 -0.00023291883802717026 0 -0.034015629797733649 -0.0004235789525389206 0 -0.033716089367555248 -0.00017013403138757365 0 -0.033971564842483509 -0.00023291883802717026 0 -0.034015629797733649 -0.0004235789525389206 0 -0.033784339053818974 -0.00058430857034976857 0 -0.033716089367555248 -0.00017013403138757365 0 -0.033784339053818974 -0.00058430857034976857 0 -0.034127210740393744 -0.00053146399882204865 0 -0.033992588018258343 -0.00076830778559696419 0 -0.034015629797733649 -0.0004235789525389206 0 -0.033784339053818974 -0.00058430857034976857 0 -0.034127210740393744 -0.00053146399882204865 0 -0.034072514285436541 -0.00038973913644580702 0 -0.034015629797733649 -0.0004235789525389206 0 -0.034127210740393744 -0.00053146399882204865 0 -0.034127210740393744 -0.00053146399882204865 0 -0.033992588018258343 -0.00076830778559696419 0 -0.034277875573403858 -0.00046366976010176126 0 -0.034352690309804763 -0.00036687828122328382 0 -0.033992588018258343 -0.00076830778559696419 0 -0.034277875573403858 -0.00046366976010176126 0 -0.034277875573403858 -0.00046366976010176126 0 -0.034193431610664793 -0.00040680320613747868 0 -0.034390460883448118 -0.00032778862939057777 0 -0.034127210740393744 -0.00053146399882204865 0 -0.034277875573403858 -0.00046366976010176126 0 -0.034193431610664793 -0.00040680320613747868 0 -0.034277875573403858 -0.00046366976010176126 0 -0.034390460883448118 -0.00032778862939057777 0 -0.034495608037048597 -0.00030908433959288473 0 -0.034390460883448118 -0.00032778862939057777 0 -0.034495608037048597 -0.00030908433959288473 0 -0.034628310593669678 -0.00021420846935525669 0 -0.034277875573403858 -0.00046366976010176126 0 -0.034495608037048597 -0.00030908433959288473 0 -0.03456770814264809 -0.00029800502320257826 0 -0.034495608037048597 -0.00030908433959288473 0 -0.03456770814264809 -0.00029800502320257826 0 -0.034709065583572472 -0.00017314167270035153 0 -0.034495608037048597 -0.00030908433959288473 0 -0.034628310593669678 -0.00021420846935525669 0 -0.034709065583572472 -0.00017314167270035153 0 -0.034352690309804763 -0.00036687828122328382 0 -0.034277875573403858 -0.00046366976010176126 0 -0.03456770814264809 -0.00029800502320257826 0 -0.034352690309804763 -0.00036687828122328382 0 -0.03456770814264809 -0.00029800502320257826 0 -0.034418895639881895 -0.00028443838539108247 0 -0.034584522770800853 -0.00028837689462004614 0 -0.034696971775662777 -0.00020217737367274764 0 -0.03456770814264809 -0.00029800502320257826 0 -0.034979879541675099 -0.00013465377561700347 0 -0.0348617003156933 -7.6220316172294928e-05 0 -0.03499709916388772 -3.3201090555497118e-05 0 -0.034979879541675099 -0.00013465377561700347 0 -0.0348617003156933 -7.6220316172294928e-05 0 -0.03456770814264809 -0.00029800502320257826 0 -0.0348617003156933 -7.6220316172294928e-05 0 -0.034709065583572472 -0.00017314167270035153 0 -0.0348617003156933 -7.6220316172294928e-05 0 -0.03499986682775387 -9.4835919458809786e-09 0 -0.034999741375816296 -5.782430877333232e-08 0 -0.03499709916388772 -3.3201090555497118e-05 0 -0.0348617003156933 -7.6220316172294928e-05 0 -0.03499986682775387 -9.4835919458809786e-09 0 -0.034628310593669678 -0.00021420846935525669 0 -0.034818435612363766 -0.00010569012101268709 0 -0.034709065583572472 -0.00017314167270035153 0 -0.0348617003156933 -7.6220316172294928e-05 0 -0.034709065583572472 -0.00017314167270035153 0 -0.034999741375816296 -5.782430877333232e-08 0 -0.034818435612363766 -0.00010569012101268709 0 -0.034709065583572472 -0.00017314167270035153 0 -0.034999741375816296 -5.782430877333232e-08 0 -0.034818435612363766 -0.00010569012101268709 0 -0.034999741375816296 -5.782430877333232e-08 0 -0.034999695025208714 -8.313694569542625e-08 0 -0.034818435612363766 -0.00010569012101268709 0 -0.034999695025208714 -8.313694569542625e-08 0 -0.034787677002934898 -0.00011732704677345785 0 -0.034999695025208714 -8.313694569542625e-08 0 -0.034787677002934898 -0.00011732704677345785 0 -0.034999855711978424 -7.8241721931850486e-08 0 -0.034628310593669678 -0.00021420846935525669 0 -0.034818435612363766 -0.00010569012101268709 0 -0.034787677002934898 -0.00011732704677345785 0 -0.034787677002934898 -0.00011732704677345785 0 -0.034999855711978424 -7.8241721931850486e-08 0 -0.034694114113233081 -0.00015906721100580478 0 -0.034999855711978424 -7.8241721931850486e-08 0 -0.034999225014378514 -2.0754191433860644e-09 0 -0.034788486001368024 -9.6755828676570781e-05 0 -0.034999900124512831 -2.6354945566025296e-08 0 -0.034796618267954292 -5.9346794177665373e-05 0 -0.034999225014378514 -2.0754191433860644e-09 0 -0.034788486001368024 -9.6755828676570781e-05 0 -0.034616936618243901 -0.00010734340322560624 0 -0.034788486001368024 -9.6755828676570781e-05 0 -0.03455171961701136 -0.00021460523658826198 0 -0.034616936618243901 -0.00010734340322560624 0 -0.034788486001368024 -9.6755828676570781e-05 0 -0.034694114113233081 -0.00015906721100580478 0 -0.03455171961701136 -0.00021460523658826198 0 -0.034999855711978424 -7.8241721931850486e-08 0 -0.034788486001368024 -9.6755828676570781e-05 0 -0.034694114113233081 -0.00015906721100580478 0 -0.034694114113233081 -0.00015906721100580478 0 -0.03455171961701136 -0.00021460523658826198 0 -0.034463923635031278 -0.00025369017173523448 0 -0.034694114113233081 -0.00015906721100580478 0 -0.034463923635031278 -0.00025369017173523448 0 -0.034578575909991985 -0.00022066973968175736 0 -0.03455171961701136 -0.00021460523658826198 0 -0.034463923635031278 -0.00025369017173523448 0 -0.034413109960428248 -0.00024111079457142032 0 -0.034463923635031278 -0.00025369017173523448 0 -0.034578575909991985 -0.00022066973968175736 0 -0.034390466815545105 -0.00028924198560986448 0 -0.034390460883448118 -0.00032778862939057777 0 -0.034578575909991985 -0.00022066973968175736 0 -0.034390466815545105 -0.00028924198560986448 0 -0.034390460883448118 -0.00032778862939057777 0 -0.034628310593669678 -0.00021420846935525669 0 -0.034578575909991985 -0.00022066973968175736 0 -0.034628310593669678 -0.00021420846935525669 0 -0.034787677002934898 -0.00011732704677345785 0 -0.034578575909991985 -0.00022066973968175736 0 -0.034787677002934898 -0.00011732704677345785 0 -0.034694114113233081 -0.00015906721100580478 0 -0.034578575909991985 -0.00022066973968175736 0 -0.034906764833832711 2.2126364519290323e-05 0 -0.034999847195557564 3.4180207989318126e-08 0 -0.034999605754761243 8.9254052896198528e-08 0 -0.034906764833832711 2.2126364519290323e-05 0 -0.03479287437882185 2.803724782590006e-05 0 -0.034999605754761243 8.9254052896198528e-08 0 -0.03479287437882185 2.803724782590006e-05 0 -0.034999605754761243 8.9254052896198528e-08 0 -0.034772893580085423 6.76112658116248e-05 0 -0.03500001693779263 -7.855143119977162e-09 0 -0.034999847195557564 3.4180207989318126e-08 0 -0.034966873942506339 1.2736815142329481e-05 0 -0.034906764833832711 2.2126364519290323e-05 0 -0.034878751783607005 -1.7005911578967348e-06 0 -0.03479287437882185 2.803724782590006e-05 0 -0.034906764833832711 2.2126364519290323e-05 0 -0.034966873942506339 1.2736815142329481e-05 0 -0.034878751783607005 -1.7005911578967348e-06 0 -0.034906764833832711 2.2126364519290323e-05 0 -0.034999847195557564 3.4180207989318126e-08 0 -0.034966873942506339 1.2736815142329481e-05 0 -0.034796618267954292 -5.9346794177665373e-05 0 -0.034692432122463313 -9.7300998576304836e-05 0 -0.03455171961701136 -0.00021460523658826198 0 -0.034479066803066991 -0.00019980318791375381 0 -0.034503146947449062 -0.0002133623010914103 0 -0.03455171961701136 -0.00021460523658826198 0 -0.034616936618243901 -0.00010734340322560624 0 -0.034503146947449062 -0.0002133623010914103 0 -0.03455171961701136 -0.00021460523658826198 0 -0.034479066803066991 -0.00019980318791375381 0 -0.034413109960428248 -0.00024111079457142032 0 -0.034479066803066991 -0.00019980318791375381 0 -0.034472284512845917 -0.00018774743175953117 0 -0.034413109960428248 -0.00024111079457142032 0 -0.034479066803066991 -0.00019980318791375381 0 -0.034609884193336708 -0.00010128199003329072 0 -0.034472284512845917 -0.00018774743175953117 0 -0.034479066803066991 -0.00019980318791375381 0 -0.034503146947449062 -0.0002133623010914103 0 -0.034609884193336708 -0.00010128199003329072 0 -0.034878751783607005 -1.7005911578967348e-06 0 -0.03479287437882185 2.803724782590006e-05 0 -0.034746455701937462 -2.3075404689951352e-05 0 -0.034692432122463313 -9.7300998576304836e-05 0 -0.034630679427330946 -0.00010026206471160101 0 -0.034878751783607005 -1.7005911578967348e-06 0 -0.034746455701937462 -2.3075404689951352e-05 0 -0.034609884193336708 -0.00010128199003329072 0 -0.03479287437882185 2.803724782590006e-05 0 -0.034712311319351458 -9.1074520153370689e-06 0 -0.034710271970323427 3.7345919866600895e-05 0 -0.03479287437882185 2.803724782590006e-05 0 -0.034712311319351458 -9.1074520153370689e-06 0 -0.034746455701937462 -2.3075404689951352e-05 0 -0.034712311319351458 -9.1074520153370689e-06 0 -0.034746455701937462 -2.3075404689951352e-05 0 -0.034641599000371615 -6.9452794222079229e-05 0 -0.034641599000371615 -6.9452794222079229e-05 0 -0.034609884193336708 -0.00010128199003329072 0 -0.034433152391955345 -0.00021809241540785484 0 -0.034746455701937462 -2.3075404689951352e-05 0 -0.034641599000371615 -6.9452794222079229e-05 0 -0.034609884193336708 -0.00010128199003329072 0 -0.034641599000371615 -6.9452794222079229e-05 0 -0.034666521607641075 1.0462079416617057e-05 0 -0.034685125178366534 7.3169103493374812e-06 0 -0.034666521607641075 1.0462079416617057e-05 0 -0.034685125178366534 7.3169103493374812e-06 0 -0.034660118687494385 4.5646785688327749e-05 0 -0.034712311319351458 -9.1074520153370689e-06 0 -0.034641599000371615 -6.9452794222079229e-05 0 -0.034685125178366534 7.3169103493374812e-06 0 -0.034712311319351458 -9.1074520153370689e-06 0 -0.034685125178366534 7.3169103493374812e-06 0 -0.034710271970323427 3.7345919866600895e-05 0 -0.034685125178366534 7.3169103493374812e-06 0 -0.034661241358580896 5.3032417084219744e-05 0 -0.034710271970323427 3.7345919866600895e-05 0 -0.034685125178366534 7.3169103493374812e-06 0 -0.034661241358580896 5.3032417084219744e-05 0 -0.034660118687494385 4.5646785688327749e-05 0 -0.034661241358580896 5.3032417084219744e-05 0 -0.034605280975784046 8.194466178830951e-05 0 -0.034640260650302519 9.320049190819647e-05 0 -0.034661241358580896 5.3032417084219744e-05 0 -0.034710271970323427 3.7345919866600895e-05 0 -0.034640260650302519 9.320049190819647e-05 0 -0.03479287437882185 2.803724782590006e-05 0 -0.034710271970323427 3.7345919866600895e-05 0 -0.034772893580085423 6.76112658116248e-05 0 -0.034710271970323427 3.7345919866600895e-05 0 -0.034772893580085423 6.76112658116248e-05 0 -0.034640260650302519 9.320049190819647e-05 0 -0.034607921708940781 -1.7399036137517767e-05 0 -0.03453528803281801 -9.0506249045860679e-05 0 -0.03451594416307751 5.3196406270610832e-05 0 -0.034607921708940781 -1.7399036137517767e-05 0 -0.034614874983483583 4.6215520350606384e-05 0 -0.034654808942895507 2.5191197876529215e-05 0 -0.034607921708940781 -1.7399036137517767e-05 0 -0.034614874983483583 4.6215520350606384e-05 0 -0.03451594416307751 5.3196406270610832e-05 0 -0.034614874983483583 4.6215520350606384e-05 0 -0.034605280975784046 8.194466178830951e-05 0 -0.03451594416307751 5.3196406270610832e-05 0 -0.034661241358580896 5.3032417084219744e-05 0 -0.034605280975784046 8.194466178830951e-05 0 -0.034660118687494385 4.5646785688327749e-05 0 -0.034614874983483583 4.6215520350606384e-05 0 -0.034605280975784046 8.194466178830951e-05 0 -0.034660118687494385 4.5646785688327749e-05 0 -0.034614874983483583 4.6215520350606384e-05 0 -0.034660118687494385 4.5646785688327749e-05 0 -0.034654808942895507 2.5191197876529215e-05 0 -0.034660118687494385 4.5646785688327749e-05 0 -0.034665895045103624 5.3531932901720934e-05 0 -0.034654808942895507 2.5191197876529215e-05 0 -0.034619625414722882 -9.0463315583804983e-05 0 -0.034560429579197798 -8.9298033717010193e-05 0 -0.034641599000371615 -6.9452794222079229e-05 0 -0.034666521607641075 1.0462079416617057e-05 0 -0.034665895045103624 5.3531932901720934e-05 0 -0.034666521607641075 1.0462079416617057e-05 0 -0.034660118687494385 4.5646785688327749e-05 0 -0.034665895045103624 5.3531932901720934e-05 0 -0.034665895045103624 5.3531932901720934e-05 0 -0.034654808942895507 2.5191197876529215e-05 0 -0.034723274996796553 -2.386398814550098e-05 0 -0.034607921708940781 -1.7399036137517767e-05 0 -0.034654808942895507 2.5191197876529215e-05 0 -0.034658698338642741 -3.9648788218790046e-05 0 -0.034654808942895507 2.5191197876529215e-05 0 -0.034723274996796553 -2.386398814550098e-05 0 -0.034658698338642741 -3.9648788218790046e-05 0 -0.034560429579197798 -8.9298033717010193e-05 0 -0.03459369512671253 -0.00015308485087571114 0 -0.034378215088020213 -0.0002434259490064391 0 -0.034276356185895092 -0.00022833220841540005 0 -0.03437945984491627 -0.00024092804410050329 0 -0.034433152391955345 -0.00021809241540785484 0 -0.034378215088020213 -0.0002434259490064391 0 -0.03437945984491627 -0.00024092804410050329 0 -0.034433152391955345 -0.00021809241540785484 0 -0.034378215088020213 -0.0002434259490064391 0 -0.034472284512845917 -0.00018774743175953117 0 -0.034609884193336708 -0.00010128199003329072 0 -0.034433152391955345 -0.00021809241540785484 0 -0.034472284512845917 -0.00018774743175953117 0 -0.034378215088020213 -0.0002434259490064391 0 -0.034472284512845917 -0.00018774743175953117 0 -0.034413109960428248 -0.00024111079457142032 0 -0.034378215088020213 -0.0002434259490064391 0 -0.034242000909258725 -0.00026453064087204208 0 -0.034276356185895092 -0.00022833220841540005 0 -0.034378215088020213 -0.0002434259490064391 0 -0.034413109960428248 -0.00024111079457142032 0 -0.034242000909258725 -0.00026453064087204208 0 -0.034242000909258725 -0.00026453064087204208 0 -0.034276356185895092 -0.00022833220841540005 0 -0.034038522053242322 -0.00018609189712671264 0 -0.033577489013556498 -8.0970911533151849e-05 0 -0.034038522053242322 -0.00018609189712671264 0 -0.033778801563177842 -0.0002374792411422035 0 -0.034276356185895092 -0.00022833220841540005 0 -0.03437901911364933 -9.0519611165853364e-05 0 -0.034038522053242322 -0.00018609189712671264 0 -0.034078326605449467 -0.000139308048583311 0 -0.033986288140648788 -0.00015791612563689043 0 -0.033577489013556498 -8.0970911533151849e-05 0 -0.033579890182898704 -0.00023791123893988729 0 -0.033778801563177842 -0.0002374792411422035 0 -0.033563970138594766 -0.00011502664577041939 0 -0.033465824332722244 -0.00020430803106745736 0 -0.033579890182898704 -0.00023791123893988729 0 -0.034078326605449467 -0.000139308048583311 0 -0.033710832142662905 -0.00017629137592713545 0 -0.034836117080342156 -0.00027207263833167842 0 -0.034723274996796553 -2.386398814550098e-05 0 -0.034688190629144702 -0.00015752851325061365 0 -0.034078326605449467 -0.000139308048583311 0 -0.03459369512671253 -0.00015308485087571114 0 -0.034276356185895092 -0.00022833220841540005 0 -0.03437901911364933 -9.0519611165853364e-05 0 -0.03437945984491627 -0.00024092804410050329 0 -0.034723274996796553 -2.386398814550098e-05 0 -0.034671716711184505 -9.3882244119974594e-05 0 -0.034658698338642741 -3.9648788218790046e-05 0 -0.034671716711184505 -9.3882244119974594e-05 0 -0.034658698338642741 -3.9648788218790046e-05 0 -0.034625325137941948 -0.00013299302255433395 0 -0.034671716711184505 -9.3882244119974594e-05 0 -0.034688190629144702 -0.00015752851325061365 0 -0.034625325137941948 -0.00013299302255433395 0 -0.034723274996796553 -2.386398814550098e-05 0 -0.034671716711184505 -9.3882244119974594e-05 0 -0.034688190629144702 -0.00015752851325061365 0 -0.033563970138594766 -0.00011502664577041939 0 -0.033465824332722244 -0.00020430803106745736 0 -0.03333465100957194 -0.00015418301632442864 0 -0.034836117080342156 -0.00027207263833167842 0 -0.034688190629144702 -0.00015752851325061365 0 -0.034245267581008119 -0.00038743815107501316 0 -0.034078326605449467 -0.000139308048583311 0 -0.033810176630313681 -0.00026580214907033901 0 -0.03333465100957194 -0.00015418301632442864 0 -0.033223116241647296 -0.00027845771030173932 0 -0.033078198402586675 -0.00021683639062948477 0 -0.033810176630313681 -0.00026580214907033901 0 -0.03329048812283663 -0.00030955915799055011 0 -0.034688190629144702 -0.00015752851325061365 0 -0.034245267581008119 -0.00038743815107501316 0 -0.033760010542074274 -0.00013239369854278489 0 -0.034652068034671642 -0.00015701206282400521 0 -0.034148715979339501 -0.00020939718658908565 0 -0.034245267581008119 -0.00038743815107501316 0 -0.033760010542074274 -0.00013239369854278489 0 -0.033501840227625451 -0.00040419805448987852 0 -0.034688190629144702 -0.00015752851325061365 0 -0.034558383162982424 -0.00026643614386392663 0 -0.034625325137941948 -0.00013299302255433395 0 -0.034558383162982424 -0.00026643614386392663 0 -0.034625325137941948 -0.00013299302255433395 0 -0.03453528803281801 -9.0506249045860679e-05 0 -0.034607921708940781 -1.7399036137517767e-05 0 -0.034625325137941948 -0.00013299302255433395 0 -0.03453528803281801 -9.0506249045860679e-05 0 -0.034607921708940781 -1.7399036137517767e-05 0 -0.034658698338642741 -3.9648788218790046e-05 0 -0.034625325137941948 -0.00013299302255433395 0 -0.034202579347043606 -0.00034861055830820079 0 -0.034260613739734706 -0.00029527868183893362 0 -0.034039302314213815 -0.0003529518683547605 0 -0.034193431610664793 -0.00040680320613747868 0 -0.034202579347043606 -0.00034861055830820079 0 -0.033982339612154432 -0.00039103631395390415 0 -0.034193431610664793 -0.00040680320613747868 0 -0.034390460883448118 -0.00032778862939057777 0 -0.034202579347043606 -0.00034861055830820079 0 -0.034390460883448118 -0.00032778862939057777 0 -0.034202579347043606 -0.00034861055830820079 0 -0.034390466815545105 -0.00028924198560986448 0 -0.034202579347043606 -0.00034861055830820079 0 -0.034390466815545105 -0.00028924198560986448 0 -0.034260613739734706 -0.00029527868183893362 0 -0.034463923635031278 -0.00025369017173523448 0 -0.034390466815545105 -0.00028924198560986448 0 -0.034260613739734706 -0.00029527868183893362 0 -0.034463923635031278 -0.00025369017173523448 0 -0.034413109960428248 -0.00024111079457142032 0 -0.034260613739734706 -0.00029527868183893362 0 -0.034242000909258725 -0.00026453064087204208 0 -0.034260613739734706 -0.00029527868183893362 0 -0.034120148365808255 -0.00027674020790555083 0 -0.034413109960428248 -0.00024111079457142032 0 -0.034242000909258725 -0.00026453064087204208 0 -0.034260613739734706 -0.00029527868183893362 0 -0.034260613739734706 -0.00029527868183893362 0 -0.034120148365808255 -0.00027674020790555083 0 -0.034039302314213815 -0.0003529518683547605 0 -0.034242000909258725 -0.00026453064087204208 0 -0.034120148365808255 -0.00027674020790555083 0 -0.034038522053242322 -0.00018609189712671264 0 -0.034120148365808255 -0.00027674020790555083 0 -0.034038522053242322 -0.00018609189712671264 0 -0.03394535543252028 -0.00031787280739690668 0 -0.034120148365808255 -0.00027674020790555083 0 -0.034039302314213815 -0.0003529518683547605 0 -0.03394535543252028 -0.00031787280739690668 0 -0.033854656549484961 -0.00042154534370710277 0 -0.034039302314213815 -0.0003529518683547605 0 -0.033982339612154432 -0.00039103631395390415 0 -0.033854656549484961 -0.00042154534370710277 0 -0.034039302314213815 -0.0003529518683547605 0 -0.03394535543252028 -0.00031787280739690668 0 -0.034202579347043606 -0.00034861055830820079 0 -0.034039302314213815 -0.0003529518683547605 0 -0.033982339612154432 -0.00039103631395390415 0 -0.033854656549484961 -0.00042154534370710277 0 -0.033982339612154432 -0.00039103631395390415 0 -0.033626662782684856 -0.00058228733066640627 0 -0.033626662782684856 -0.00058228733066640627 0 -0.033279569497560745 -0.00027662426704099359 0 -0.033701672461952596 -0.00035799401492507511 0 -0.033854656549484961 -0.00042154534370710277 0 -0.033626662782684856 -0.00058228733066640627 0 -0.033701672461952596 -0.00035799401492507511 0 -0.033279569497560745 -0.00027662426704099359 0 -0.033701672461952596 -0.00035799401492507511 0 -0.033457326667098906 -4.9754563578920699e-05 0 -0.033747998257895463 -0.00019380486987638428 0 -0.033701672461952596 -0.00035799401492507511 0 -0.033457326667098906 -4.9754563578920699e-05 0 -0.033747998257895463 -0.00019380486987638428 0 -0.033701672461952596 -0.00035799401492507511 0 -0.03394535543252028 -0.00031787280739690668 0 -0.033854656549484961 -0.00042154534370710277 0 -0.033701672461952596 -0.00035799401492507511 0 -0.03394535543252028 -0.00031787280739690668 0 -0.034038522053242322 -0.00018609189712671264 0 -0.03394535543252028 -0.00031787280739690668 0 -0.033830547326961932 -0.00028704950765313778 0 -0.03394535543252028 -0.00031787280739690668 0 -0.033868523237755105 -0.00025843694000370548 0 -0.033830547326961932 -0.00028704950765313778 0 -0.033868523237755105 -0.00025843694000370548 0 -0.033830547326961932 -0.00028704950765313778 0 -0.033751738287667941 -0.000350572590598438 0 -0.033747998257895463 -0.00019380486987638428 0 -0.03394535543252028 -0.00031787280739690668 0 -0.033868523237755105 -0.00025843694000370548 0 -0.033747998257895463 -0.00019380486987638428 0 -0.033868523237755105 -0.00025843694000370548 0 -0.033837122991733005 -0.00015472365636161377 0 -0.033837122991733005 -0.00015472365636161377 0 -0.033474748636293759 0.00036930648736851221 0 -0.03352501182646192 0.00012487520969873726 0 -0.033868523237755105 -0.00025843694000370548 0 -0.033837122991733005 -0.00015472365636161377 0 -0.033751738287667941 -0.000350572590598438 0 -0.033837122991733005 -0.00015472365636161377 0 -0.033841012393825171 -0.00070259950521596416 0 -0.033751738287667941 -0.000350572590598438 0 -0.033842215894529216 -0.00016092651850917471 0 -0.033750397402094137 -0.0001750675413889935 0 -0.033837122991733005 -0.00015472365636161377 0 -0.033830569522540981 0.00045517833206534938 0 -0.033474748636293759 0.00036930648736851221 0 -0.033474748636293759 0.00036930648736851221 0 -0.033422294965009765 0.00056939350666353552 0 -0.033360452178417321 0.00043506161192761897 0 -0.033474748636293759 0.00036930648736851221 0 -0.033360452178417321 0.00043506161192761897 0 -0.03352501182646192 0.00012487520969873726 0 -0.033422294965009765 0.00056939350666353552 0 -0.033360452178417321 0.00043506161192761897 0 -0.03294365995250835 0.00074046641855814437 0 -0.033360452178417321 0.00043506161192761897 0 -0.033160551438369164 0.0002352193681866934 0 -0.03294365995250835 0.00074046641855814437 0 -0.033360452178417321 0.00043506161192761897 0 -0.033160551438369164 0.0002352193681866934 0 -0.03352501182646192 0.00012487520969873726 0 -0.033279569497560745 -0.00027662426704099359 0 -0.033457326667098906 -4.9754563578920699e-05 0 -0.033160551438369164 0.0002352193681866934 0 -0.033457326667098906 -4.9754563578920699e-05 0 -0.033160551438369164 0.0002352193681866934 0 -0.03352501182646192 0.00012487520969873726 0 -0.033747998257895463 -0.00019380486987638428 0 -0.033457326667098906 -4.9754563578920699e-05 0 -0.03352501182646192 0.00012487520969873726 0 -0.033747998257895463 -0.00019380486987638428 0 -0.033837122991733005 -0.00015472365636161377 0 -0.03352501182646192 0.00012487520969873726 0 -0.033218830669545632 -0.00039603000002195007 0 -0.033281817325408691 -0.00060068337176680438 0 -0.033047981240491256 -0.00048136110930550288 0 -0.033218830669545632 -0.00039603000002195007 0 -0.033383340988057349 -0.00031235978414828765 0 -0.033281817325408691 -0.00060068337176680438 0 -0.033218830669545632 -0.00039603000002195007 0 -0.033223116241647296 -0.00027845771030173932 0 -0.033099920650199677 -0.000355215603023918 0 -0.03333465100957194 -0.00015418301632442864 0 -0.033223116241647296 -0.00027845771030173932 0 -0.033383340988057349 -0.00031235978414828765 0 -0.033218830669545632 -0.00039603000002195007 0 -0.033223116241647296 -0.00027845771030173932 0 -0.033383340988057349 -0.00031235978414828765 0 -0.033383340988057349 -0.00031235978414828765 0 -0.033491952956591298 -0.00036704244549076487 0 -0.033579890182898704 -0.00023791123893988729 0 -0.033465824332722244 -0.00020430803106745736 0 -0.033383340988057349 -0.00031235978414828765 0 -0.033579890182898704 -0.00023791123893988729 0 -0.033465824332722244 -0.00020430803106745736 0 -0.03333465100957194 -0.00015418301632442864 0 -0.033383340988057349 -0.00031235978414828765 0 -0.033491952956591298 -0.00036704244549076487 0 -0.033488514210569517 -0.0003959680193044496 0 -0.033281817325408691 -0.00060068337176680438 0 -0.033383340988057349 -0.00031235978414828765 0 -0.033491952956591298 -0.00036704244549076487 0 -0.033281817325408691 -0.00060068337176680438 0 -0.033491952956591298 -0.00036704244549076487 0 -0.033637451273112608 -0.00031532467712528284 0 -0.033488514210569517 -0.0003959680193044496 0 -0.033491952956591298 -0.00036704244549076487 0 -0.033579890182898704 -0.00023791123893988729 0 -0.033637451273112608 -0.00031532467712528284 0 -0.033579890182898704 -0.00023791123893988729 0 -0.033637451273112608 -0.00031532467712528284 0 -0.033778801563177842 -0.0002374792411422035 0 -0.034038522053242322 -0.00018609189712671264 0 -0.033778801563177842 -0.0002374792411422035 0 -0.033830547326961932 -0.00028704950765313778 0 -0.033637451273112608 -0.00031532467712528284 0 -0.033778801563177842 -0.0002374792411422035 0 -0.033830547326961932 -0.00028704950765313778 0 -0.033637451273112608 -0.00031532467712528284 0 -0.033830547326961932 -0.00028704950765313778 0 -0.033488514210569517 -0.0003959680193044496 0 -0.033830547326961932 -0.00028704950765313778 0 -0.033751738287667941 -0.000350572590598438 0 -0.033488514210569517 -0.0003959680193044496 0 -0.033751738287667941 -0.000350572590598438 0 -0.033479112964881132 -0.0006722937243440971 0 -0.033488514210569517 -0.0003959680193044496 0 -0.033841012393825171 -0.00070259950521596416 0 -0.033751738287667941 -0.000350572590598438 0 -0.033479112964881132 -0.0006722937243440971 0 -0.033479112964881132 -0.0006722937243440971 0 -0.033083984345558974 -0.0007611219988504234 0 -0.033251935356551951 -0.00092081056032582381 0 -0.033479112964881132 -0.0006722937243440971 0 -0.033488514210569517 -0.0003959680193044496 0 -0.033083984345558974 -0.0007611219988504234 0 -0.033456251212976788 -0.00040924667407108936 0 -0.033061719511214033 -0.00048992036671092099 0 -0.033488514210569517 -0.0003959680193044496 0 -0.033083984345558974 -0.0007611219988504234 0 -0.032849288758095584 -0.00038015736027191598 0 -0.033083984345558974 -0.0007611219988504234 0 -0.032806526219375028 -0.0010250507408678378 0 -0.03260895747922362 -0.00078976831851218412 0 -0.033083984345558974 -0.0007611219988504234 0 -0.032849288758095584 -0.00038015736027191598 0 -0.03260895747922362 -0.00078976831851218412 0 -0.0327695878355738 -0.0013687057441903285 0 -0.032844165494809022 -0.0012568750375797904 0 -0.032550379283669599 -0.0012293606961612687 0 -0.032787059539131108 -0.0013271893068350805 0 -0.032844165494809022 -0.0012568750375797904 0 -0.032904144512843125 -0.0013120415519102756 0 -0.032787059539131108 -0.0013271893068350805 0 -0.032904144512843125 -0.0013120415519102756 0 -0.032917283767444086 -0.0014547327134550264 0 -0.029989789565152955 -0.0016218475328068063 0 -0.031679523282660521 -0.00072860912847989194 0 -0.029989789565152955 -0.0016218475328068063 0 -0.033083179686439271 -0.0016511892322446618 0 -0.032844165494809022 -0.0012568750375797904 0 -0.032806526219375028 -0.0010250507408678378 0 -0.032550379283669599 -0.0012293606961612687 0 -0.032806526219375028 -0.0010250507408678378 0 -0.03260895747922362 -0.00078976831851218412 0 -0.032550379283669599 -0.0012293606961612687 0 -0.032844165494809022 -0.0012568750375797904 0 -0.032806526219375028 -0.0010250507408678378 0 -0.033028387383112881 -0.0010547452278599292 0 -0.033083984345558974 -0.0007611219988504234 0 -0.033028387383112881 -0.0010547452278599292 0 -0.033251935356551951 -0.00092081056032582381 0 -0.033083984345558974 -0.0007611219988504234 0 -0.032806526219375028 -0.0010250507408678378 0 -0.033028387383112881 -0.0010547452278599292 0 -0.033028387383112881 -0.0010547452278599292 0 -0.032985009308413325 -0.0012031687248673397 0 -0.033210143299565613 -0.0011460751194324117 0 -0.033028387383112881 -0.0010547452278599292 0 -0.033210143299565613 -0.0011460751194324117 0 -0.033251935356551951 -0.00092081056032582381 0 -0.033011080687051872 -0.0013128786012964015 0 -0.033210143299565613 -0.0011460751194324117 0 -0.033104256020327023 -0.0013995962713957235 0 -0.032985009308413325 -0.0012031687248673397 0 -0.033011080687051872 -0.0013128786012964015 0 -0.033210143299565613 -0.0011460751194324117 0 -0.032844165494809022 -0.0012568750375797904 0 -0.032985009308413325 -0.0012031687248673397 0 -0.032904144512843125 -0.0013120415519102756 0 -0.032844165494809022 -0.0012568750375797904 0 -0.033028387383112881 -0.0010547452278599292 0 -0.032985009308413325 -0.0012031687248673397 0 -0.032985009308413325 -0.0012031687248673397 0 -0.032904144512843125 -0.0013120415519102756 0 -0.033011080687051872 -0.0013128786012964015 0 -0.032904144512843125 -0.0013120415519102756 0 -0.033011080687051872 -0.0013128786012964015 0 -0.032917283767444086 -0.0014547327134550264 0 -0.033167682182150965 -0.0011767506232297441 0 -0.032904358186511176 -0.0013734576378977316 0 -0.033344470441052404 -0.0012664548967494639 0 -0.033210143299565613 -0.0011460751194324117 0 -0.03309958897740068 -0.0014149548223171193 0 -0.033344470441052404 -0.0012664548967494639 0 -0.033210143299565613 -0.0011460751194324117 0 -0.033468363549803259 -0.000972124612157143 0 -0.033479112964881132 -0.0006722937243440971 0 -0.033251935356551951 -0.00092081056032582381 0 -0.033468363549803259 -0.000972124612157143 0 -0.033210143299565613 -0.0011460751194324117 0 -0.033251935356551951 -0.00092081056032582381 0 -0.033468363549803259 -0.000972124612157143 0 -0.033841012393825171 -0.00070259950521596416 0 -0.033468363549803259 -0.000972124612157143 0 -0.033631579453252791 -0.0011877423158974199 0 -0.033841012393825171 -0.00070259950521596416 0 -0.033479112964881132 -0.0006722937243440971 0 -0.033468363549803259 -0.000972124612157143 0 -0.033344470441052404 -0.0012664548967494639 0 -0.033631579453252791 -0.0011877423158974199 0 -0.033325681454929756 -0.0016272106647018311 0 -0.033344470441052404 -0.0012664548967494639 0 -0.033468363549803259 -0.000972124612157143 0 -0.033631579453252791 -0.0011877423158974199 0 -0.033822880006164908 0.00083615668762861205 0 -0.03378784175738872 0.00083202349220122562 0 -0.033748093995663843 0.00083962037187508489 0 -0.033822880006164908 0.00083615668762861205 0 -0.03378784175738872 0.00083202349220122562 0 -0.033667500780380312 0.00078077503162831384 0 -0.031314515303730084 0.00043328289730196174 0 -0.029786054760992293 0.00025680996827616589 0 -0.034198913016923717 -0.00014286984738961223 0 -0.029786054760992293 0.00025680996827616589 0 -0.028840201375589267 6.7236010381341855e-05 0 -0.026527587375646266 -0.00098654528358570214 0 -0.028905049644278799 -0.0011917761677306658 0 -0.014973709687304234 0.0025153618396731026 0 -0.019132695405825399 0.0013726149503959627 0 -0.0084076190674447528 0.0035245983574304107 0 -0.0086247137504919837 0.0043502866378463219 0 -0.008974030805671657 0.0037085793304422365 0 -0.0084076190674447528 0.0035245983574304107 0 -0.0077046688171257573 0.0036207142233381753 0 -0.0086247137504919837 0.0043502866378463219 0 -0.025735043488578285 -0.0027813325070892387 0 -0.026527587375646266 -0.00098654528358570214 0 -0.028905049644278799 -0.0011917761677306658 0 -0.018440642091800082 0.00092128883457364081 0 -0.029786054760992293 0.00025680996827616589 0 -0.025735043488578285 -0.0027813325070892387 0 -0.025525952746813175 -0.0025718411631712418 0 -0.026527587375646266 -0.00098654528358570214 0 -0.014548881097615245 0.0020266531877255606 0 -0.014973709687304234 0.0025153618396731026 0 -0.014548881097615245 0.0020266531877255606 0 -0.018440642091800082 0.00092128883457364081 0 -0.015492929359673054 0.0012874846036685765 0 -0.018050370348394417 0.0026265344840668042 0 -0.016913425318110228 0.0037621313202479589 0 -0.014973709687304234 0.0025153618396731026 0 -0.018440642091800082 0.00092128883457364081 0 -0.018064195633945873 0.0017768148075138004 0 -0.018185234961280588 0.0019840054648404097 0 -0.017933517138425597 0.001970859046197748 0 -0.018185234961280588 0.0019840054648404097 0 -0.017933517138425597 0.001970859046197748 0 -0.017928007166615505 0.0020861211523981573 0 -0.018064195633945873 0.0017768148075138004 0 -0.017933517138425597 0.001970859046197748 0 -0.017686345577776187 0.0020004713206534263 0 -0.017933517138425597 0.001970859046197748 0 -0.017928007166615505 0.0020861211523981573 0 -0.017802382277867412 0.0020333329995892834 0 -0.024100157040010665 -0.0012497973640784883 0 -0.02270061186452451 0.00015378047551861389 0 -0.025977708004886926 0.001970090338424743 0 -0.017928007166615505 0.0020861211523981573 0 -0.017836477743654201 0.002149871567653454 0 -0.017802382277867412 0.0020333329995892834 0 -0.033021113905562123 -0.0017774259067692411 0 -0.033325681454929756 -0.0016272106647018311 0 -0.032984173867273224 -0.0017359915757268198 0 -0.018440642091800082 0.00092128883457364081 0 -0.024720231762436474 0.00028242011952224656 0 -0.024720231762436474 0.00028242011952224656 0 -0.029786054760992293 0.00025680996827616589 0 -0.017928007166615505 0.0020861211523981573 0 -0.017881051481252228 0.002292667159460087 0 -0.017836477743654201 0.002149871567653454 0 -0.018185234961280588 0.0019840054648404097 0 -0.017928007166615505 0.0020861211523981573 0 -0.017881051481252228 0.002292667159460087 0 -0.033344470441052404 -0.0012664548967494639 0 -0.033325681454929756 -0.0016272106647018311 0 -0.03309958897740068 -0.0014149548223171193 0 -0.033325681454929756 -0.0016272106647018311 0 -0.03309958897740068 -0.0014149548223171193 0 -0.032984173867273224 -0.0017359915757268198 0 -0.032904358186511176 -0.0013734576378977316 0 -0.026553140291975409 -0.00062533622300272522 0 -0.033104256020327023 -0.0013995962713957235 0 -0.032917283767444086 -0.0014547327134550264 0 -0.033017256239102108 -0.0015721367709106893 0 -0.033011080687051872 -0.0013128786012964015 0 -0.033104256020327023 -0.0013995962713957235 0 -0.032917283767444086 -0.0014547327134550264 0 -0.023930462738845519 -0.0011497341158382393 0 -0.023913884720021147 -0.00055794141753641446 0 -0.024381330982711624 -0.00094429085212593131 0 -0.023930462738845519 -0.0011497341158382393 0 -0.023344627849880215 -0.00057479823435470628 0 -0.023913884720021147 -0.00055794141753641446 0 -0.02847105446901008 -0.0013471364024906544 0 -0.026553140291975409 -0.00062533622300272522 0 -0.023344627849880215 -0.00057479823435470628 0 -0.023366702129004265 -0.00040413522862185373 0 -0.023913884720021147 -0.00055794141753641446 0 -0.026553140291975409 -0.00062533622300272522 0 -0.0227742397012527 0.00061567695974617089 0 -0.024809452933728989 0.00088368739079854671 0 -0.024616655805520287 0.001076366645956385 0 -0.024560679878533203 0.00074575259600430811 0 -0.024720231762436474 0.00028242011952224656 0 -0.026553140291975409 -0.00062533622300272522 0 -0.024720231762436474 0.00028242011952224656 0 -0.0227742397012527 0.00061567695974617089 0 -0.017881051481252228 0.002292667159460087 0 -0.017742265557138894 0.0022150399037764753 0 -0.017836477743654201 0.002149871567653454 0 -0.0227742397012527 0.00061567695974617089 0 -0.017501786073845144 0.0031771455544158164 0 -0.017742265557138894 0.0022150399037764753 0 -0.017802382277867412 0.0020333329995892834 0 -0.017701056137086182 0.0020028771652173408 0 -0.017742265557138894 0.0022150399037764753 0 -0.017836477743654201 0.002149871567653454 0 -0.017802382277867412 0.0020333329995892834 0 -0.017933517138425597 0.001970859046197748 0 -0.017802382277867412 0.0020333329995892834 0 -0.017686345577776187 0.0020004713206534263 0 -0.012536221880408678 0.0060934093789722175 0 -0.010848238506035541 0.0056057481778896325 0 -0.012375932146476707 0.0051854808032465744 0 -0.020100997007305551 0.0029066079653819513 0 -0.019958096520186413 0.0020274162067192209 0 -0.016718718369645464 0.0010527516586066813 0 -0.017502951787790755 0.0031313987393026721 0 -0.017501786073845144 0.0031771455544158164 0 -0.018064195633945873 0.0017768148075138004 0 -0.017686345577776187 0.0020004713206534263 0 -0.01759345771254742 0.0015414584763516637 0 -0.017501786073845144 0.0031771455544158164 0 -0.012468775522573776 0.0031050576505167382 0 -0.014548881097615245 0.0020266531877255606 0 -0.012468775522573776 0.0031050576505167382 0 -0.0227742397012527 0.00061567695974617089 0 -0.015749127741680084 0.0029410655501780833 0 -0.017501786073845144 0.0031771455544158164 0 -0.015749127741680084 0.0029410655501780833 0 -0.023366702129004265 -0.00040413522862185373 0 -0.023913884720021147 -0.00055794141753641446 0 -0.02410842526666741 2.8950777898180511e-05 0 -0.023913884720021147 -0.00055794141753641446 0 -0.02410842526666741 2.8950777898180511e-05 0 -0.0245340631878538 -0.00038572163536878076 0 -0.024371327994073981 0.00011241101961115888 0 -0.0245340631878538 -0.00038572163536878076 0 -0.025481120541244347 -0.00010749773590978476 0 -0.023913884720021147 -0.00055794141753641446 0 -0.0245340631878538 -0.00038572163536878076 0 -0.024381330982711624 -0.00094429085212593131 0 -0.024371327994073981 0.00011241101961115888 0 -0.02410842526666741 2.8950777898180511e-05 0 -0.0245340631878538 -0.00038572163536878076 0 -0.016717996698178268 0.0025701540835422264 0 -0.015749127741680084 0.0029410655501780833 0 -0.0245340631878538 -0.00038572163536878076 0 -0.024381330982711624 -0.00094429085212593131 0 -0.024997427621134886 -0.00091050122071842149 0 -0.024528564086401521 -0.0017174408996187929 0 -0.023930462738845519 -0.0011497341158382393 0 -0.024381330982711624 -0.00094429085212593131 0 -0.029989789565152955 -0.0016218475328068063 0 -0.02847105446901008 -0.0013471364024906544 0 -0.029989789565152955 -0.0016218475328068063 0 -0.028861070270787256 -0.0013384605437093931 0 -0.024528564086401521 -0.0017174408996187929 0 -0.024381330982711624 -0.00094429085212593131 0 -0.024997427621134886 -0.00091050122071842149 0 -0.032000474705112081 0.0011353680877852349 0 -0.032057369016320753 0.0014411519976382586 0 -0.030889613090326461 0.00062239116806051648 0 -0.033566245991846273 0.00063353023775178049 0 -0.032846076687506616 0.00070446954911261616 0 -0.030889613090326461 0.00062239116806051648 0 -0.025746523379488323 0.0027620627730571717 0 -0.020587787210887287 0.0032214218818037272 0 -0.032000474705112081 0.0011353680877852349 0 -0.032254437974647984 0.0011159490514266617 0 -0.031295633860469754 0.0002280764102798579 0 -0.014214614162987978 0.0076107770365360823 0 -0.010873804403399608 0.0059477995245938373 0 -0.01294504783686979 0.0057522361012667641 0 -0.03071536483402303 0.0015832960565710188 0 -0.025746523379488323 0.0027620627730571717 0 -0.032000474705112081 0.0011353680877852349 0 -0.03204526087055571 0.0013257971479801677 0 -0.032054575386809323 0.0013301712254298948 0 -0.014214614162987978 0.0076107770365360823 0 -0.01294504783686979 0.0057522361012667641 0 -0.014066421256064204 0.0060712399526935664 0 -0.014214614162987978 0.0076107770365360823 0 -0.015519288234704101 0.0057776530910984801 0 -0.014066421256064204 0.0060712399526935664 0 -0.014214614162987978 0.0076107770365360823 0 -0.015519288234704101 0.0057776530910984801 0 -0.017568627733204667 0.0066573856390908072 0 -0.025746523379488323 0.0027620627730571717 0 -0.023943695696789256 0.0045772295619353094 0 -0.032119997770439591 0.0015955309181251063 0 -0.031912765533784714 0.0014826297782947321 0 -0.031592489792362573 0.0018994879959990459 0 -0.03204526087055571 0.0013257971479801677 0 -0.031991846322124325 0.0013964042642050083 0 -0.032054575386809323 0.0013301712254298948 0 -0.025746523379488323 0.0027620627730571717 0 -0.032495687845455118 0.0027446587279712454 0 -0.03204526087055571 0.0013257971479801677 0 -0.031991846322124325 0.0013964042642050083 0 -0.031912765533784714 0.0014826297782947321 0 -0.031991846322124325 0.0013964042642050083 0 -0.031912765533784714 0.0014826297782947321 0 -0.031832296126195682 0.0010895558395736514 0 -0.032728280426252872 0.0010762193829806069 0 -0.032353754986551755 0.00087668278964028582 0 -0.031991846322124325 0.0013964042642050083 0 -0.032057369016320753 0.0014411519976382586 0 -0.032054575386809323 0.0013301712254298948 0 -0.033422294965009765 0.00056939350666353552 0 -0.033566245991846273 0.00063353023775178049 0 -0.03294365995250835 0.00074046641855814437 0 -0.031991846322124325 0.0013964042642050083 0 -0.032057369016320753 0.0014411519976382586 0 -0.031832296126195682 0.0010895558395736514 0 -0.033422294965009765 0.00056939350666353552 0 -0.033566245991846273 0.00063353023775178049 0 -0.03321460103851382 0.0006149320434875431 0 -0.032000474705112081 0.0011353680877852349 0 -0.032057369016320753 0.0014411519976382586 0 -0.032054575386809323 0.0013301712254298948 0 -0.033566245991846273 0.00063353023775178049 0 -0.032846076687506616 0.00070446954911261616 0 -0.03321460103851382 0.0006149320434875431 0 -0.033474748636293759 0.00036930648736851221 0 -0.033422294965009765 0.00056939350666353552 0 -0.03321460103851382 0.0006149320434875431 0 -0.033830569522540981 0.00045517833206534938 0 -0.033474748636293759 0.00036930648736851221 0 -0.033506242916967334 0.00056562933106718961 0 -0.033474748636293759 0.00036930648736851221 0 -0.03321460103851382 0.0006149320434875431 0 -0.033506242916967334 0.00056562933106718961 0 -0.033506242916967334 0.00056562933106718961 0 -0.033537385182302842 0.00070905321814702992 0 -0.033704569975379656 0.00072286652681845568 0 -0.033506242916967334 0.00056562933106718961 0 -0.033537385182302842 0.00070905321814702992 0 -0.033319624248979059 0.00066546867421666742 0 -0.032846076687506616 0.00070446954911261616 0 -0.03321460103851382 0.0006149320434875431 0 -0.033319624248979059 0.00066546867421666742 0 -0.03321460103851382 0.0006149320434875431 0 -0.033506242916967334 0.00056562933106718961 0 -0.033319624248979059 0.00066546867421666742 0 -0.033830569522540981 0.00045517833206534938 0 -0.033822880006164908 0.00083615668762861205 0 -0.033704569975379656 0.00072286652681845568 0 -0.033750397402094137 -0.0001750675413889935 0 -0.034198913016923717 -0.00014286984738961223 0 -0.033830569522540981 0.00045517833206534938 0 -0.033506242916967334 0.00056562933106718961 0 -0.033704569975379656 0.00072286652681845568 0 -0.031314515303730084 0.00043328289730196174 0 -0.032209355686490665 0.00080501004887854346 0 -0.03378784175738872 0.00083202349220122562 0 -0.033748093995663843 0.00083962037187508489 0 -0.033637953670722406 0.00092422930679116272 0 -0.028840201375589267 6.7236010381341855e-05 0 -0.030889613090326461 0.00062239116806051648 0 -0.030856908688891238 0.00085960212777031787 0 -0.033822880006164908 0.00083615668762861205 0 -0.033704569975379656 0.00072286652681845568 0 -0.033748093995663843 0.00083962037187508489 0 -0.033704569975379656 0.00072286652681845568 0 -0.033748093995663843 0.00083962037187508489 0 -0.033637953670722406 0.00092422930679116272 0 -0.032846076687506616 0.00070446954911261616 0 -0.033319624248979059 0.00066546867421666742 0 -0.033637953670722406 0.00092422930679116272 0 -0.032728280426252872 0.0010762193829806069 0 -0.031112800032446195 0.00062087402947518747 0 -0.032000474705112081 0.0011353680877852349 0 -0.030889613090326461 0.00062239116806051648 0 -0.031295633860469754 0.0002280764102798579 0 -0.032846076687506616 0.00070446954911261616 0 -0.030889613090326461 0.00062239116806051648 0 -0.030856908688891238 0.00085960212777031787 0 -0.032680741435074961 0.00075827169846511033 0 -0.032209355686490665 0.00080501004887854346 0 -0.033537385182302842 0.00070905321814702992 0 -0.033704569975379656 0.00072286652681845568 0 -0.033637953670722406 0.00092422930679116272 0 -0.033537385182302842 0.00070905321814702992 0 -0.033319624248979059 0.00066546867421666742 0 -0.033637953670722406 0.00092422930679116272 0 -0.010873804403399608 0.0059477995245938373 0 -0.011734532093627242 0.004422112084321291 0 -0.01294504783686979 0.0057522361012667641 0 -0.010873804403399608 0.0059477995245938373 0 -0.010163938133495346 0.0046762434869820034 0 -0.011734532093627242 0.004422112084321291 0 -0.030889613090326461 0.00062239116806051648 0 -0.031295633860469754 0.0002280764102798579 0 -0.028905049644278799 -0.0011917761677306658 0 -0.020587787210887287 0.0032214218818037272 0 -0.019132695405825399 0.0013726149503959627 0 -0.028840201375589267 6.7236010381341855e-05 0 -0.030889613090326461 0.00062239116806051648 0 -0.028905049644278799 -0.0011917761677306658 0 -0.010873804403399608 0.0059477995245938373 0 -0.010163938133495346 0.0046762434869820034 0 -0.0086247137504919837 0.0043502866378463219 0 -0.0099062986807044 0.0038556043233441465 0 -0.0096765401343593647 0.0031688444602340328 0 -0.0090685537592619537 0.003229907304597246 0 -0.010163938133495346 0.0046762434869820034 0 -0.0086247137504919837 0.0043502866378463219 0 -0.0099062986807044 0.0038556043233441465 0 -0.0086247137504919837 0.0043502866378463219 0 -0.008974030805671657 0.0037085793304422365 0 -0.0099062986807044 0.0038556043233441465 0 -0.008974030805671657 0.0037085793304422365 0 -0.0099062986807044 0.0038556043233441465 0 -0.0090685537592619537 0.003229907304597246 0 -0.0084076190674447528 0.0035245983574304107 0 -0.008974030805671657 0.0037085793304422365 0 -0.0090685537592619537 0.003229907304597246 0 -0.011734532093627242 0.004422112084321291 0 -0.0099062986807044 0.0038556043233441465 0 -0.011882127298784682 0.0022926601493108607 0 -0.0099062986807044 0.0038556043233441465 0 -0.010136960456354932 0.0034612466304682929 0 -0.0096765401343593647 0.0031688444602340328 0 -0.010163938133495346 0.0046762434869820034 0 -0.011734532093627242 0.004422112084321291 0 -0.0099062986807044 0.0038556043233441465 0 -0.009988945778899954 0.0037344791231838669 0 -0.011066678378142982 0.0028689037909600235 0 -0.011734532093627242 0.004422112084321291 0 -0.013808821405521504 0.0029776314609224401 0 -0.013875646283413914 0.0048088788348364898 0 -0.011734532093627242 0.004422112084321291 0 -0.011882127298784682 0.0022926601493108607 0 -0.013808821405521504 0.0029776314609224401 0 -0.011734532093627242 0.004422112084321291 0 -0.013875646283413914 0.0048088788348364898 0 -0.01294504783686979 0.0057522361012667641 0 -0.013875646283413914 0.0048088788348364898 0 -0.01294504783686979 0.0057522361012667641 0 -0.014066421256064204 0.0060712399526935664 0 -0.013875646283413914 0.0048088788348364898 0 -0.015519288234704101 0.0057776530910984801 0 -0.014066421256064204 0.0060712399526935664 0 -0.013875646283413914 0.0048088788348364898 0 -0.015519288234704101 0.0057776530910984801 0 -0.015348265243463553 0.0040818600426718353 0 -0.015519288234704101 0.0057776530910984801 0 -0.015348265243463553 0.0040818600426718353 0 -0.017123261598187611 0.0044954658385181643 0 -0.013808821405521504 0.0029776314609224401 0 -0.015348265243463553 0.0040818600426718353 0 -0.016434178121634061 0.0020950401653922397 0 -0.013808821405521504 0.0029776314609224401 0 -0.013875646283413914 0.0048088788348364898 0 -0.015348265243463553 0.0040818600426718353 0 -0.018878747757578352 0.0032335605318576273 0 -0.017123261598187611 0.0044954658385181643 0 -0.016434178121634061 0.0020950401653922397 0 -0.015348265243463553 0.0040818600426718353 0 -0.017123261598187611 0.0044954658385181643 0 -0.016434178121634061 0.0020950401653922397 0 -0.018971778664266078 0.0034309362183047591 0 -0.017342332920348341 0.0025963527421228151 0 -0.018878747757578352 0.0032335605318576273 0 -0.018812588912762107 0.0051170644683683564 0 -0.017123261598187611 0.0044954658385181643 0 -0.018812588912762107 0.0051170644683683564 0 -0.017568627733204667 0.0066573856390908072 0 -0.020488077080940515 0.0056966263036151848 0 -0.018878747757578352 0.0032335605318576273 0 -0.018812588912762107 0.0051170644683683564 0 -0.020995322811439079 0.004256297821472463 0 -0.015519288234704101 0.0057776530910984801 0 -0.017123261598187611 0.0044954658385181643 0 -0.017568627733204667 0.0066573856390908072 0 -0.018812588912762107 0.0051170644683683564 0 -0.017123261598187611 0.0044954658385181643 0 -0.017568627733204667 0.0066573856390908072 0 -0.031912765533784714 0.0014826297782947321 0 -0.031592489792362573 0.0018994879959990459 0 -0.031696534309906259 0.0014555424778188652 0 -0.023943695696789256 0.0045772295619353094 0 -0.025716735082123802 0.0039580432582899091 0 -0.031592489792362573 0.0018994879959990459 0 -0.031054136516231318 0.0017625271629547988 0 -0.030731750517287756 0.0023261910967264411 0 -0.031592489792362573 0.0018994879959990459 0 -0.031054136516231318 0.0017625271629547988 0 -0.031426405420658207 0.0014116770181502032 0 -0.031054136516231318 0.0017625271629547988 0 -0.031426405420658207 0.0014116770181502032 0 -0.030860259522153884 0.0012807251016565429 0 -0.031426405420658207 0.0014116770181502032 0 -0.030860259522153884 0.0012807251016565429 0 -0.031353204631971429 0.00099229042702713853 0 -0.031912765533784714 0.0014826297782947321 0 -0.031696534309906259 0.0014555424778188652 0 -0.031832296126195682 0.0010895558395736514 0 -0.031592489792362573 0.0018994879959990459 0 -0.031426405420658207 0.0014116770181502032 0 -0.031696534309906259 0.0014555424778188652 0 -0.031426405420658207 0.0014116770181502032 0 -0.031696534309906259 0.0014555424778188652 0 -0.031832296126195682 0.0010895558395736514 0 -0.030267134230293636 0.0013370047572050388 0 -0.030072162645662905 0.0018187552406958459 0 -0.029634936976289432 0.0011555180728425461 0 -0.030267134230293636 0.0013370047572050388 0 -0.030604834486366965 0.0016982398575196794 0 -0.030072162645662905 0.0018187552406958459 0 -0.031054136516231318 0.0017625271629547988 0 -0.030860259522153884 0.0012807251016565429 0 -0.030604834486366965 0.0016982398575196794 0 -0.030267134230293636 0.0013370047572050388 0 -0.030860259522153884 0.0012807251016565429 0 -0.030604834486366965 0.0016982398575196794 0 -0.030604834486366965 0.0016982398575196794 0 -0.030072162645662905 0.0018187552406958459 0 -0.030731750517287756 0.0023261910967264411 0 -0.031054136516231318 0.0017625271629547988 0 -0.030604834486366965 0.0016982398575196794 0 -0.030731750517287756 0.0023261910967264411 0 -0.030072162645662905 0.0018187552406958459 0 -0.030731750517287756 0.0023261910967264411 0 -0.029576421593019816 0.0026399318957225477 0 -0.025716735082123802 0.0039580432582899091 0 -0.02611136847700456 0.0037480270420249466 0 -0.020488077080940515 0.0056966263036151848 0 -0.020995322811439079 0.004256297821472463 0 -0.022746556244892639 0.0048290636323993419 0 -0.018812588912762107 0.0051170644683683564 0 -0.020488077080940515 0.0056966263036151848 0 -0.020995322811439079 0.004256297821472463 0 -0.019212446856065844 0.0036754141319900241 0 -0.020995322811439079 0.004256297821472463 0 -0.021036609609158461 0.002758997094850097 0 -0.018971778664266078 0.0034309362183047591 0 -0.020861368237076489 0.0042012192137388348 0 -0.020995322811439079 0.004256297821472463 0 -0.022619174855662557 0.0034166890108106546 0 -0.022746556244892639 0.0048290636323993419 0 -0.020995322811439079 0.004256297821472463 0 -0.022619174855662557 0.0034166890108106546 0 -0.021036609609158461 0.002758997094850097 0 -0.022619174855662557 0.0034166890108106546 0 -0.02465481604892145 0.0040085348765865779 0 -0.023530057057962742 0.0025546646180724716 0 -0.02465481604892145 0.0040085348765865779 0 -0.024678476014885656 0.002365550646757854 0 -0.023530057057962742 0.0025546646180724716 0 -0.028290127153818748 0.0028775920437826511 0 -0.029576421593019816 0.0026399318957225477 0 -0.028689398535472383 0.0019167459407181755 0 -0.028290127153818748 0.0028775920437826511 0 -0.027833333053238242 0.0019978036571499328 0 -0.028689398535472383 0.0019167459407181755 0 -0.022619174855662557 0.0034166890108106546 0 -0.02465481604892145 0.0040085348765865779 0 -0.022746556244892639 0.0048290636323993419 0 -0.026452758010548 0.0034107077215212145 0 -0.02611136847700456 0.0037480270420249466 0 -0.026239677455721408 0.0026410611498623757 0 -0.026459615211280738 0.0029338451971814435 0 -0.025824059754982691 0.0022165768901373671 0 -0.026452758010548 0.0034107077215212145 0 -0.026461100514168171 0.0030297294982138479 0 -0.02465481604892145 0.0040085348765865779 0 -0.026459615211280738 0.0029338451971814435 0 -0.024678476014885656 0.002365550646757854 0 -0.028290127153818748 0.0028775920437826511 0 -0.026459615211280738 0.0029338451971814435 0 -0.027833333053238242 0.0019978036571499328 0 -0.026459615211280738 0.0029338451971814435 0 -0.027002724212473517 0.0016731463688730124 0 -0.027833333053238242 0.0019978036571499328 0 -0.027833333053238242 0.0019978036571499328 0 -0.028090871775625501 0.0013070069413942354 0 -0.028689398535472383 0.0019167459407181755 0 -0.027002724212473517 0.0016731463688730124 0 -0.027833333053238242 0.0019978036571499328 0 -0.028090871775625501 0.0013070069413942354 0 -0.028090871775625501 0.0013070069413942354 0 -0.027540084678200662 0.0010531983419640087 0 -0.027978280558365088 0.0007080894473758258 0 -0.027002724212473517 0.0016731463688730124 0 -0.028090871775625501 0.0013070069413942354 0 -0.027540084678200662 0.0010531983419640087 0 -0.026994231782047528 0.0011727854051185511 0 -0.027002724212473517 0.0016731463688730124 0 -0.027540084678200662 0.0010531983419640087 0 -0.026994231782047528 0.0011727854051185511 0 -0.027540084678200662 0.0010531983419640087 0 -0.027473710235844204 0.00072562883938799691 0 -0.029576421593019816 0.0026399318957225477 0 -0.029384929749914242 0.0016960092719519307 0 -0.028689398535472383 0.0019167459407181755 0 -0.030072162645662905 0.0018187552406958459 0 -0.029576421593019816 0.0026399318957225477 0 -0.029384929749914242 0.0016960092719519307 0 -0.028090871775625501 0.0013070069413942354 0 -0.028689398535472383 0.0019167459407181755 0 -0.028914834927160085 0.0011099405669129077 0 -0.028090871775625501 0.0013070069413942354 0 -0.028914834927160085 0.0011099405669129077 0 -0.028431454691633155 0.00078801854055876336 0 -0.029384929749914242 0.0016960092719519307 0 -0.028689398535472383 0.0019167459407181755 0 -0.028914834927160085 0.0011099405669129077 0 -0.029384929749914242 0.0016960092719519307 0 -0.028914834927160085 0.0011099405669129077 0 -0.029634936976289432 0.0011555180728425461 0 -0.030072162645662905 0.0018187552406958459 0 -0.029384929749914242 0.0016960092719519307 0 -0.029634936976289432 0.0011555180728425461 0 -0.028914834927160085 0.0011099405669129077 0 -0.028779724687945627 0.00050250904277181847 0 -0.029417529719440703 0.00050515150487607499 0 -0.028914834927160085 0.0011099405669129077 0 -0.029634936976289432 0.0011555180728425461 0 -0.029417529719440703 0.00050515150487607499 0 -0.028914834927160085 0.0011099405669129077 0 -0.028431454691633155 0.00078801854055876336 0 -0.028779724687945627 0.00050250904277181847 0 -0.028431454691633155 0.00078801854055876336 0 -0.028779724687945627 0.00050250904277181847 0 -0.028348850378686851 0.00034057722910657475 0 -0.028713563298706325 2.0245226996509322e-06 0 -0.028348850378686851 0.00034057722910657475 0 -0.028362269642210853 -1.0896980254100726e-05 0 -0.028779724687945627 0.00050250904277181847 0 -0.028713563298706325 2.0245226996509322e-06 0 -0.029417529719440703 0.00050515150487607499 0 -0.028779724687945627 0.00050250904277181847 0 -0.028713563298706325 2.0245226996509322e-06 0 -0.028348850378686851 0.00034057722910657475 0 -0.029417529719440703 0.00050515150487607499 0 -0.029642751089162502 -0.00041217560074633384 0 -0.030035765749915341 0.00021645839191476046 0 -0.028713563298706325 2.0245226996509322e-06 0 -0.029417529719440703 0.00050515150487607499 0 -0.029642751089162502 -0.00041217560074633384 0 -0.027540084678200662 0.0010531983419640087 0 -0.027473710235844204 0.00072562883938799691 0 -0.027978280558365088 0.0007080894473758258 0 -0.027473710235844204 0.00072562883938799691 0 -0.027978280558365088 0.0007080894473758258 0 -0.027973956215891355 0.00029965979980580695 0 -0.028090871775625501 0.0013070069413942354 0 -0.028431454691633155 0.00078801854055876336 0 -0.027978280558365088 0.0007080894473758258 0 -0.028431454691633155 0.00078801854055876336 0 -0.027978280558365088 0.0007080894473758258 0 -0.028348850378686851 0.00034057722910657475 0 -0.028348850378686851 0.00034057722910657475 0 -0.027973956215891355 0.00029965979980580695 0 -0.028362269642210853 -1.0896980254100726e-05 0 -0.027978280558365088 0.0007080894473758258 0 -0.028348850378686851 0.00034057722910657475 0 -0.027973956215891355 0.00029965979980580695 0 -0.027459198039054077 0.00037919815952892633 0 -0.027473710235844204 0.00072562883938799691 0 -0.027973956215891355 0.00029965979980580695 0 -0.027459198039054077 0.00037919815952892633 0 -0.027973956215891355 0.00029965979980580695 0 -0.028143143351727844 4.3650914204401147e-06 0 -0.027973956215891355 0.00029965979980580695 0 -0.028143143351727844 4.3650914204401147e-06 0 -0.028362269642210853 -1.0896980254100726e-05 0 -0.028362269642210853 -1.0896980254100726e-05 0 -0.028321785098958184 -0.0001341159860379884 0 -0.02867872818832173 -0.00017844435642804904 0 -0.028143143351727844 4.3650914204401147e-06 0 -0.028362269642210853 -1.0896980254100726e-05 0 -0.028321785098958184 -0.0001341159860379884 0 -0.029945592140659227 0.00021232901986251276 0 -0.030888226439757457 0.00024327741458139129 0 -0.031610622153723004 -0.00063639163515259278 0 -0.031738346853621792 0.00069470036660888726 0 -0.032717072931056079 -0.00015290189760907934 0 -0.029945592140659227 0.00021232901986251276 0 -0.028830565737897954 -8.0824419442417889e-05 0 -0.028143143351727844 4.3650914204401147e-06 0 -0.028321785098958184 -0.0001341159860379884 0 -0.028718621825183852 -9.6244436773912619e-05 0 -0.031610622153723004 -0.00063639163515259278 0 -0.031738346853621792 0.00069470036660888726 0 -0.028718621825183852 -9.6244436773912619e-05 0 -0.030692112044257092 -0.00011441795981520142 0 -0.030888226439757457 0.00024327741458139129 0 -0.028713563298706325 2.0245226996509322e-06 0 -0.029022252119934616 -7.9861011018908943e-05 0 -0.02867872818832173 -0.00017844435642804904 0 -0.028306696796171031 5.8535009907020789e-05 0 -0.030692112044257092 -0.00011441795981520142 0 -0.033521268046633662 0.0004450606983138713 0 -0.032923074514429662 0.00052697564355059221 0 -0.033258176950071473 7.1979788917939394e-06 0 -0.028713563298706325 2.0245226996509322e-06 0 -0.028362269642210853 -1.0896980254100726e-05 0 -0.02867872818832173 -0.00017844435642804904 0 -0.031738346853621792 0.00069470036660888726 0 -0.032923074514429662 0.00052697564355059221 0 -0.032717072931056079 -0.00015290189760907934 0 -0.032923074514429662 0.00052697564355059221 0 -0.032717072931056079 -0.00015290189760907934 0 -0.033258176950071473 7.1979788917939394e-06 0 -0.033521268046633662 0.0004450606983138713 0 -0.033258176950071473 7.1979788917939394e-06 0 -0.033716089367555248 -0.00017013403138757365 0 -0.033716089367555248 -0.00017013403138757365 0 -0.033961994266864588 2.4349527957323557e-05 0 -0.033971564842483509 -0.00023291883802717026 0 -0.030692112044257092 -0.00011441795981520142 0 -0.032583951473391264 -0.00035915449021776041 0 -0.02982524533130047 -0.00039509089241704268 0 -0.030873855441905809 -0.00072720361966060272 0 -0.030761464233057249 -2.1642919041095295e-05 0 -0.033521268046633662 0.0004450606983138713 0 -0.033716089367555248 -0.00017013403138757365 0 -0.033961994266864588 2.4349527957323557e-05 0 -0.030692112044257092 -0.00011441795981520142 0 -0.030320891645268855 -0.00017608017168358942 0 -0.032583951473391264 -0.00035915449021776041 0 -0.033070871460659373 -0.00058091741136912173 0 -0.030873855441905809 -0.00072720361966060272 0 -0.032248728341404624 -0.00087290859963309821 0 -0.03157227613831818 -0.00023956151089649702 0 -0.030873855441905809 -0.00072720361966060272 0 -0.03157227613831818 -0.00023956151089649702 0 -0.030761464233057249 -2.1642919041095295e-05 0 -0.033961994266864588 2.4349527957323557e-05 0 -0.033971564842483509 -0.00023291883802717026 0 -0.034053749203350483 -0.00039745030689916037 0 -0.034051268315945717 -0.00035938803862071116 0 -0.033971564842483509 -0.00023291883802717026 0 -0.034053749203350483 -0.00039745030689916037 0 -0.033626662782684856 -0.00058228733066640627 0 -0.033279569497560745 -0.00027662426704099359 0 -0.032248728341404624 -0.00087290859963309821 0 -0.034072514285436541 -0.00038973913644580702 0 -0.033626662782684856 -0.00058228733066640627 0 -0.034053749203350483 -0.00039745030689916037 0 -0.033547034045012518 -0.00060736210430399531 0 -0.033070871460659373 -0.00058091741136912173 0 -0.033279569497560745 -0.00027662426704099359 0 -0.032248728341404624 -0.00087290859963309821 0 -0.032484871542090274 2.4507077014076053e-05 0 -0.032248728341404624 -0.00087290859963309821 0 -0.03157227613831818 -0.00023956151089649702 0 -0.032484871542090274 2.4507077014076053e-05 0 -0.031463988147335968 0.00041062909706448484 0 -0.032484871542090274 2.4507077014076053e-05 0 -0.03294365995250835 0.00074046641855814437 0 -0.03157227613831818 -0.00023956151089649702 0 -0.031463988147335968 0.00041062909706448484 0 -0.032484871542090274 2.4507077014076053e-05 0 -0.033279569497560745 -0.00027662426704099359 0 -0.033160551438369164 0.0002352193681866934 0 -0.032484871542090274 2.4507077014076053e-05 0 -0.033160551438369164 0.0002352193681866934 0 -0.032484871542090274 2.4507077014076053e-05 0 -0.03294365995250835 0.00074046641855814437 0 -0.031426405420658207 0.0014116770181502032 0 -0.031832296126195682 0.0010895558395736514 0 -0.031353204631971429 0.00099229042702713853 0 -0.031476301466478028 0.0004110463839298716 0 -0.032353754986551755 0.00087668278964028582 0 -0.031463988147335968 0.00041062909706448484 0 -0.031832296126195682 0.0010895558395736514 0 -0.031353204631971429 0.00099229042702713853 0 -0.030860259522153884 0.0012807251016565429 0 -0.031353204631971429 0.00099229042702713853 0 -0.030961273128218964 0.00075762332854154382 0 -0.031463988147335968 0.00041062909706448484 0 -0.031353204631971429 0.00099229042702713853 0 -0.030961273128218964 0.00075762332854154382 0 -0.030267134230293636 0.0013370047572050388 0 -0.030860259522153884 0.0012807251016565429 0 -0.030275028550013228 0.00075307384263912519 0 -0.030860259522153884 0.0012807251016565429 0 -0.030961273128218964 0.00075762332854154382 0 -0.030275028550013228 0.00075307384263912519 0 -0.029634936976289432 0.0011555180728425461 0 -0.029417529719440703 0.00050515150487607499 0 -0.030275028550013228 0.00075307384263912519 0 -0.030267134230293636 0.0013370047572050388 0 -0.029634936976289432 0.0011555180728425461 0 -0.030275028550013228 0.00075307384263912519 0 -0.029417529719440703 0.00050515150487607499 0 -0.030275028550013228 0.00075307384263912519 0 -0.030035765749915341 0.00021645839191476046 0 -0.029642751089162502 -0.00041217560074633384 0 -0.030035765749915341 0.00021645839191476046 0 -0.030761464233057249 -2.1642919041095295e-05 0 -0.030275028550013228 0.00075307384263912519 0 -0.030035765749915341 0.00021645839191476046 0 -0.030761464233057249 -2.1642919041095295e-05 0 -0.031463988147335968 0.00041062909706448484 0 -0.030961273128218964 0.00075762332854154382 0 -0.030761464233057249 -2.1642919041095295e-05 0 -0.030961273128218964 0.00075762332854154382 0 -0.030275028550013228 0.00075307384263912519 0 -0.030761464233057249 -2.1642919041095295e-05 0 -0.03157227613831818 -0.00023956151089649702 0 -0.031463988147335968 0.00041062909706448484 0 -0.030761464233057249 -2.1642919041095295e-05 0 -0.027662643449756844 0.00020247221310322442 0 -0.027694650341069802 0.00014620954232008422 0 -0.028233900374712975 9.2142989389895275e-05 0 -0.027662643449756844 0.00020247221310322442 0 -0.028362363884196707 -3.4216857854315702e-08 0 -0.028233900374712975 9.2142989389895275e-05 0 -0.027662643449756844 0.00020247221310322442 0 -0.028362363884196707 -3.4216857854315702e-08 0 -0.026589026815451215 8.8780251221205661e-07 0 -0.027662643449756844 0.00020247221310322442 0 -0.026589026815451215 8.8780251221205661e-07 0 -0.026935282431744808 -0.00017488043096355267 0 -0.027662643449756844 0.00020247221310322442 0 -0.027625432777593346 9.4392902062866502e-05 0 -0.026935282431744808 -0.00017488043096355267 0 -0.027662643449756844 0.00020247221310322442 0 -0.027625432777593346 9.4392902062866502e-05 0 -0.027694650341069802 0.00014620954232008422 0 -0.02515763740018534 -0.00045117667293605531 0 -0.025808545644475746 0.00016262902220707151 0 -0.023016267033920689 -0.00077929439600480592 0 -0.022707864367468879 -0.00095819860892798817 0 -0.022799759975591017 -0.00048989951664573012 0 -0.027625432777593346 9.4392902062866502e-05 0 -0.027516607139294852 0.00016523383871449267 0 -0.027694650341069802 0.00014620954232008422 0 -0.027031534944944213 0.00055591595019499227 0 -0.027291030519528602 0.00035239427105178558 0 -0.027116330721613988 -7.1441556243904882e-05 0 -0.025808545644475746 0.00016262902220707151 0 -0.024620295125744766 -0.00049031845358002749 0 -0.027031534944944213 0.00055591595019499227 0 -0.027172935507747679 0.00064067056103430081 0 -0.027291030519528602 0.00035239427105178558 0 -0.025808545644475746 0.00016262902220707151 0 -0.026405303641576474 0.00046514194612800626 0 -0.027516607139294852 0.00016523383871449267 0 -0.027394138252428132 -3.4948041433155285e-06 0 -0.027694650341069802 0.00014620954232008422 0 -0.025808545644475746 0.00016262902220707151 0 -0.027409281873791495 0.00064505470316618364 0 -0.027025324822442607 0.00055487450432180818 0 -0.027172935507747679 0.00064067056103430081 0 -0.027243953605626415 0.0011328936237173237 0 -0.027394138252428132 -3.4948041433155285e-06 0 -0.027694650341069802 0.00014620954232008422 0 -0.027680237809244244 -0.00032559221857008833 0 -0.027694650341069802 0.00014620954232008422 0 -0.027680237809244244 -0.00032559221857008833 0 -0.028233900374712975 9.2142989389895275e-05 0 -0.027394138252428132 -3.4948041433155285e-06 0 -0.027680237809244244 -0.00032559221857008833 0 -0.027336186979587729 -0.00022452691438833351 0 -0.029632187069509625 -0.00071521253873529597 0 -0.030136662200153055 -0.00026036948228820453 0 -0.032117648605413864 -0.00034207503419722199 0 -0.033235018553506121 -0.00027583890117939661 0 -0.033177925461176191 -0.0010433497935812542 0 -0.031493846982554502 -0.0010279057844601266 0 -0.032117648605413864 -0.00034207503419722199 0 -0.033035235966893728 -0.0013424514331675866 0 -0.032117648605413864 -0.00034207503419722199 0 -0.033177925461176191 -0.0010433497935812542 0 -0.033035235966893728 -0.0013424514331675866 0 -0.031493846982554502 -0.0010279057844601266 0 -0.032117648605413864 -0.00034207503419722199 0 -0.030660086342758696 0.00014639176533314579 0 -0.031493846982554502 -0.0010279057844601266 0 -0.029416971163985856 -0.00025311306717825044 0 -0.030660086342758696 0.00014639176533314579 0 -0.027680237809244244 -0.00032559221857008833 0 -0.028233900374712975 9.2142989389895275e-05 0 -0.029416971163985856 -0.00025311306717825044 0 -0.029632187069509625 -0.00071521253873529597 0 -0.029433909499441416 -0.0003085494069864204 0 -0.028362363884196707 -3.4216857854315702e-08 0 -0.028233900374712975 9.2142989389895275e-05 0 -0.029416971163985856 -0.00025311306717825044 0 -0.028362363884196707 -3.4216857854315702e-08 0 -0.029416971163985856 -0.00025311306717825044 0 -0.030136289718628712 -4.668624155468331e-07 0 -0.029416971163985856 -0.00025311306717825044 0 -0.030136289718628712 -4.668624155468331e-07 0 -0.030660086342758696 0.00014639176533314579 0 -0.030136289718628712 -4.668624155468331e-07 0 -0.030660086342758696 0.00014639176533314579 0 -0.031905453130120838 4.1243186877551869e-07 0 -0.034995590649469548 1.630470397552272e-06 0 -0.034578652124942003 8.9533895833964909e-05 0 -0.035000368815224933 -1.8044080241037501e-07 0 -0.030660086342758696 0.00014639176533314579 0 -0.031012808003661727 0.00041085631921928672 0 -0.031905453130120838 4.1243186877551869e-07 0 -0.032642748323793901 0.00019115663477762797 0 -0.031909131513241519 5.9293387864130891e-08 0 -0.034215869839923307 -3.5051890761081731e-05 0 -0.034995590649469548 1.630470397552272e-06 0 -0.034578652124942003 8.9533895833964909e-05 0 -0.034215869839923307 -3.5051890761081731e-05 0 -0.031916589866784251 -2.5381905402797073e-06 0 -0.034995590649469548 1.630470397552272e-06 0 -0.032642748323793901 0.00019115663477762797 0 -0.033628427223182378 0.00032881071621790499 0 -0.032117648605413864 -0.00034207503419722199 0 -0.031012808003661727 0.00041085631921928672 0 -0.032698595771716819 0.00063191915801340129 0 -0.032117648605413864 -0.00034207503419722199 0 -0.030660086342758696 0.00014639176533314579 0 -0.031012808003661727 0.00041085631921928672 0 -0.032117648605413864 -0.00034207503419722199 0 -0.032698595771716819 0.00063191915801340129 0 -0.033235018553506121 -0.00027583890117939661 0 -0.032698595771716819 0.00063191915801340129 0 -0.033235018553506121 -0.00027583890117939661 0 -0.034543981097970078 0.00018211641376387892 0 -0.034189438556030918 -0.00034095360187875339 0 -0.034543981097970078 0.00018211641376387892 0 -0.034780003242094036 -6.7788099187522855e-05 0 -0.033235018553506121 -0.00027583890117939661 0 -0.034189438556030918 -0.00034095360187875339 0 -0.034543981097970078 0.00018211641376387892 0 -0.033628427223182378 0.00032881071621790499 0 -0.034472107639465621 0.00021991931803168628 0 -0.034578652124942003 8.9533895833964909e-05 0 -0.034543981097970078 0.00018211641376387892 0 -0.035000368815224933 -1.8044080241037501e-07 0 -0.034543981097970078 0.00018211641376387892 0 -0.035000368815224933 -1.8044080241037501e-07 0 -0.034890701411452417 7.4663500788241862e-05 0 -0.035000368815224933 -1.8044080241037501e-07 0 -0.034890701411452417 7.4663500788241862e-05 0 -0.034946631802148027 5.3892493453553353e-05 0 -0.034890701411452417 7.4663500788241862e-05 0 -0.035003544335694366 -4.4689956081937441e-05 0 -0.034780003242094036 -6.7788099187522855e-05 0 -0.034890701411452417 7.4663500788241862e-05 0 -0.035003544335694366 -4.4689956081937441e-05 0 -0.034946631802148027 5.3892493453553353e-05 0 -0.034543981097970078 0.00018211641376387892 0 -0.034890701411452417 7.4663500788241862e-05 0 -0.034780003242094036 -6.7788099187522855e-05 0 -0.034189438556030918 -0.00034095360187875339 0 -0.034780003242094036 -6.7788099187522855e-05 0 -0.03446890470575615 -0.00067367325679052847 0 -0.034780003242094036 -6.7788099187522855e-05 0 -0.0349422621963053 -0.00050516243871215512 0 -0.03446890470575615 -0.00067367325679052847 0 -0.034791113329877284 -1.9983386096926296e-05 0 -0.034595926772360494 -0.00019280619656822227 0 -0.034846481058311146 -0.00016385576220283144 0 -0.034867842144502954 -5.3852332862311836e-05 0 -0.035008148456829237 -0.00044540185866443269 0 -0.035003544335694366 -4.4689956081937441e-05 0 -0.034780003242094036 -6.7788099187522855e-05 0 -0.0349422621963053 -0.00050516243871215512 0 -0.032525991427813351 0.00096751162601721788 0 -0.034878344091215714 -0.00042483361901826298 0 -0.034595926772360494 -0.00019280619656822227 0 -0.034640798691396649 -0.00043455219444744772 0 -0.034846481058311146 -0.00016385576220283144 0 -0.034595926772360494 -0.00019280619656822227 0 -0.034640798691396649 -0.00043455219444744772 0 -0.034395388173484052 -0.00042223036589757385 0 -0.034168443060099106 -0.00060509574444630716 0 -0.034122640447290402 -0.00065802226035290999 0 -0.034556372571609234 -0.00041855363584518022 0 -0.030652497215394134 0.00070143475653827909 0 -0.030841746974575222 0.0005181004703966915 0 -0.031017077889605983 0.00068846824798988505 0 -0.02970383278548543 0.0025728532985894634 0 -0.029578872790535962 0.002383168239085744 0 -0.029200100037000264 0.0023605844923358303 0 -0.032525991427813351 0.00096751162601721788 0 -0.031158322175662799 0.00089480987045662019 0 -0.032525991427813351 0.00096751162601721788 0 -0.031535779278308668 0.00067368703936769722 0 -0.02970383278548543 0.0025728532985894634 0 -0.029200100037000264 0.0023605844923358303 0 -0.028722633345665282 0.0026204430128882869 0 -0.029578872790535962 0.002383168239085744 0 -0.029200100037000264 0.0023605844923358303 0 -0.028796358963026177 0.0018715037256656702 0 -0.029200100037000264 0.0023605844923358303 0 -0.028722633345665282 0.0026204430128882869 0 -0.028796358963026177 0.0018715037256656702 0 -0.031158322175662799 0.00089480987045662019 0 -0.028550560010919043 0.0017123180386729175 0 -0.035008148456829237 -0.00044540185866443269 0 -0.031535779278308668 0.00067368703936769722 0 -0.0349422621963053 -0.00050516243871215512 0 -0.034591115161609017 -0.0012490958883994089 0 -0.03446890470575615 -0.00067367325679052847 0 -0.034189438556030918 -0.00034095360187875339 0 -0.03446890470575615 -0.00067367325679052847 0 -0.033814333643041983 -0.00076556775184420764 0 -0.03446890470575615 -0.00067367325679052847 0 -0.033814333643041983 -0.00076556775184420764 0 -0.033919088869013091 -0.0012998579780616711 0 -0.033235018553506121 -0.00027583890117939661 0 -0.034189438556030918 -0.00034095360187875339 0 -0.033814333643041983 -0.00076556775184420764 0 -0.033235018553506121 -0.00027583890117939661 0 -0.033814333643041983 -0.00076556775184420764 0 -0.033177925461176191 -0.0010433497935812542 0 -0.033814333643041983 -0.00076556775184420764 0 -0.033177925461176191 -0.0010433497935812542 0 -0.033919088869013091 -0.0012998579780616711 0 -0.030136662200153055 -0.00026036948228820453 0 -0.031074721589226192 0.00019458157886460191 0 -0.027464246319358575 0.0017165805778352891 0 -0.028147259946154881 0.0016910415593322993 0 -0.027725046582155456 0.0012032196984720985 0 -0.033177925461176191 -0.0010433497935812542 0 -0.03307441117005426 -0.0013194640871219919 0 -0.033919088869013091 -0.0012998579780616711 0 -0.031081591619168559 -0.00046826682485289368 0 -0.030136662200153055 -0.00026036948228820453 0 -0.027409281873791495 0.00064505470316618364 0 -0.030136662200153055 -0.00026036948228820453 0 -0.027243953605626415 0.0011328936237173237 0 -0.027464246319358575 0.0017165805778352891 0 -0.027725046582155456 0.0012032196984720985 0 -0.034591115161609017 -0.0012490958883994089 0 -0.03446890470575615 -0.00067367325679052847 0 -0.033919088869013091 -0.0012998579780616711 0 -0.031535779278308668 0.00067368703936769722 0 -0.031074721589226192 0.00019458157886460191 0 -0.028854962395396262 0.0016551863747111858 0 -0.028147259946154881 0.0016910415593322993 0 -0.028210012096165929 0.00075785325255801938 0 -0.027888907036139755 0.0014517253981437685 0 -0.02801099605216548 0.0014019619222221461 0 -0.028796358963026177 0.0018715037256656702 0 -0.031535779278308668 0.00067368703936769722 0 -0.027694873842470286 0.0012716648020599341 0 -0.028147259946154881 0.0016910415593322993 0 -0.028210012096165929 0.00075785325255801938 0 -0.027725046582155456 0.0012032196984720985 0 -0.028210012096165929 0.00075785325255801938 0 -0.027725046582155456 0.0012032196984720985 0 -0.027569323444130708 0.00071988750880468198 0 -0.027243953605626415 0.0011328936237173237 0 -0.027725046582155456 0.0012032196984720985 0 -0.027569323444130708 0.00071988750880468198 0 -0.027172935507747679 0.00064067056103430081 0 -0.027243953605626415 0.0011328936237173237 0 -0.027569323444130708 0.00071988750880468198 0 -0.027694873842470286 0.0012716648020599341 0 -0.027566754455680992 0.00030955060041884861 0 -0.027569323444130708 0.00071988750880468198 0 -0.027291030519528602 0.00035239427105178558 0 -0.027572256126336365 -7.1798498216037185e-05 0 -0.028210012096165929 0.00075785325255801938 0 -0.027569323444130708 0.00071988750880468198 0 -0.027572256126336365 -7.1798498216037185e-05 0 -0.027172935507747679 0.00064067056103430081 0 -0.027569323444130708 0.00071988750880468198 0 -0.027291030519528602 0.00035239427105178558 0 -0.02801099605216548 0.0014019619222221461 0 -0.028507375546052437 0.0013987534002112133 0 -0.028006687512178711 0.0007789069044238868 0 -0.027888907036139755 0.0014517253981437685 0 -0.02801099605216548 0.0014019619222221461 0 -0.028006687512178711 0.0007789069044238868 0 -0.027888907036139755 0.0014517253981437685 0 -0.028006687512178711 0.0007789069044238868 0 -0.027378986790855708 0.00074479029158363761 0 -0.029310974301716475 0.00087564585209433431 0 -0.029177411294440566 0.00042004003402138884 0 -0.030407606506237635 0.00032986329919121023 0 -0.030425918662892459 2.3262812038103059e-05 0 -0.030178512605437875 -1.9437849275519451e-05 0 -0.030639387759154119 0.00017163293144369121 0 -0.030407606506237635 0.00032986329919121023 0 -0.030425918662892459 2.3262812038103059e-05 0 -0.030639387759154119 0.00017163293144369121 0 -0.030596229831178288 -8.728877406330634e-05 0 -0.030425918662892459 2.3262812038103059e-05 0 -0.030639387759154119 0.00017163293144369121 0 -0.030903551537574875 7.0252353523197659e-05 0 -0.030596229831178288 -8.728877406330634e-05 0 -0.030639387759154119 0.00017163293144369121 0 -0.030665771862305107 0.00041871688084969469 0 -0.030830992586048277 0.00031020047883563315 0 -0.030639387759154119 0.00017163293144369121 0 -0.030830992586048277 0.00031020047883563315 0 -0.030903551537574875 7.0252353523197659e-05 0 -0.030639387759154119 0.00017163293144369121 0 -0.030665771862305107 0.00041871688084969469 0 -0.030407606506237635 0.00032986329919121023 0 -0.030652497215394134 0.00070143475653827909 0 -0.030665771862305107 0.00041871688084969469 0 -0.030407606506237635 0.00032986329919121023 0 -0.030665771862305107 0.00041871688084969469 0 -0.030841746974575222 0.0005181004703966915 0 -0.030830992586048277 0.00031020047883563315 0 -0.030652497215394134 0.00070143475653827909 0 -0.030665771862305107 0.00041871688084969469 0 -0.030841746974575222 0.0005181004703966915 0 -0.031158322175662799 0.00089480987045662019 0 -0.029310974301716475 0.00087564585209433431 0 -0.028722633345665282 0.0026204430128882869 0 -0.027888907036139755 0.0014517253981437685 0 -0.028796358963026177 0.0018715037256656702 0 -0.029020913578887919 0.0020873636021534196 0 -0.028490008494055762 0.0017456713093712667 0 -0.028507375546052437 0.0013987534002112133 0 -0.02801099605216548 0.0014019619222221461 0 -0.028490008494055762 0.0017456713093712667 0 -0.028507375546052437 0.0013987534002112133 0 -0.028132196273735973 0.0014709087268946087 0 -0.028550560010919043 0.0017123180386729175 0 -0.031818848503642146 -8.5004538332912063e-05 0 -0.032155620460744133 0.00046633857370801757 0 -0.031058660041806237 0.00041995928107610713 0 -0.031279473606415642 0.00024042841500241706 0 -0.031429573179507293 0.0007761722038491087 0 -0.032332572861861211 -0.00034403650128901863 0 -0.032885033192079388 -0.00024612967672476774 0 -0.03312078107439341 0.00010941223784968837 0 -0.030841746974575222 0.0005181004703966915 0 -0.031058660041806237 0.00041995928107610713 0 -0.031017077889605983 0.00068846824798988505 0 -0.030841746974575222 0.0005181004703966915 0 -0.030830992586048277 0.00031020047883563315 0 -0.031058660041806237 0.00041995928107610713 0 -0.030903551537574875 7.0252353523197659e-05 0 -0.031279473606415642 0.00024042841500241706 0 -0.031121638067631432 -0.00027084360694216433 0 -0.031058660041806237 0.00041995928107610713 0 -0.030903551537574875 7.0252353523197659e-05 0 -0.031279473606415642 0.00024042841500241706 0 -0.030830992586048277 0.00031020047883563315 0 -0.031058660041806237 0.00041995928107610713 0 -0.030903551537574875 7.0252353523197659e-05 0 -0.033549854929626942 -0.00046716692355126588 0 -0.032885033192079388 -0.00024612967672476774 0 -0.032199610470139306 -0.00053965520850805522 0 -0.032332572861861211 -0.00034403650128901863 0 -0.032885033192079388 -0.00024612967672476774 0 -0.032199610470139306 -0.00053965520850805522 0 -0.032906440403063765 -0.00035479974426040405 0 -0.032300617153458458 -0.00053564579154584391 0 -0.032255593580096796 -0.000301858699632321 0 -0.032273392654672245 -0.00045584483859248864 0 -0.032199610470139306 -0.00053965520850805522 0 -0.033549854929626942 -0.00046716692355126588 0 -0.032885033192079388 -0.00024612967672476774 0 -0.033444271942165857 -1.6640212426045965e-05 0 -0.033549854929626942 -0.00046716692355126588 0 -0.033444271942165857 -1.6640212426045965e-05 0 -0.033820760497850058 -9.6455377157709385e-05 0 -0.032885033192079388 -0.00024612967672476774 0 -0.033444271942165857 -1.6640212426045965e-05 0 -0.03312078107439341 0.00010941223784968837 0 -0.033444271942165857 -1.6640212426045965e-05 0 -0.033676507059248351 0.00020104281282006404 0 -0.03312078107439341 0.00010941223784968837 0 -0.033444271942165857 -1.6640212426045965e-05 0 -0.033945138154757352 0.00018394625398475886 0 -0.033820760497850058 -9.6455377157709385e-05 0 -0.033444271942165857 -1.6640212426045965e-05 0 -0.033945138154757352 0.00018394625398475886 0 -0.033676507059248351 0.00020104281282006404 0 -0.033945138154757352 0.00018394625398475886 0 -0.034089328695472071 0.00030189992634317697 0 -0.034285715048176894 0.00024779119447113334 0 -0.033945138154757352 0.00018394625398475886 0 -0.033676507059248351 0.00020104281282006404 0 -0.034089328695472071 0.00030189992634317697 0 -0.033676507059248351 0.00020104281282006404 0 -0.03312078107439341 0.00010941223784968837 0 -0.033763736973262196 0.00038770788055834715 0 -0.033676507059248351 0.00020104281282006404 0 -0.033763736973262196 0.00038770788055834715 0 -0.034089328695472071 0.00030189992634317697 0 -0.032155620460744133 0.00046633857370801757 0 -0.033475950263926635 0.00055002905304295507 0 -0.032970683371222186 0.00020602745777526587 0 -0.033475950263926635 0.00055002905304295507 0 -0.031429573179507293 0.0007761722038491087 0 -0.031102840404298181 0.0010152538686388306 0 -0.03157434874438448 0.0013316711901338943 0 -0.031429573179507293 0.0007761722038491087 0 -0.031017077889605983 0.00068846824798988505 0 -0.031102840404298181 0.0010152538686388306 0 -0.031058660041806237 0.00041995928107610713 0 -0.031429573179507293 0.0007761722038491087 0 -0.031017077889605983 0.00068846824798988505 0 -0.030652497215394134 0.00070143475653827909 0 -0.031017077889605983 0.00068846824798988505 0 -0.031102840404298181 0.0010152538686388306 0 -0.031158322175662799 0.00089480987045662019 0 -0.032970683371222186 0.00020602745777526587 0 -0.034168443060099106 -0.00060509574444630716 0 -0.034556372571609234 -0.00041855363584518022 0 -0.034480787423942026 -0.0002729586869650022 0 -0.034556372571609234 -0.00041855363584518022 0 -0.034480787423942026 -0.0002729586869650022 0 -0.034677877039188516 -0.00019292520329778628 0 -0.035000368815224933 -1.8044080241037501e-07 0 -0.034999131102351005 2.4731028080003762e-07 0 -0.03496297725526306 2.4914695072729322e-05 0 -0.035000368815224933 -1.8044080241037501e-07 0 -0.03496297725526306 2.4914695072729322e-05 0 -0.034947769259545056 3.3846191971251274e-05 0 -0.034878344091215714 -0.00042483361901826298 0 -0.034825993051948514 1.3143973509899956e-05 0 -0.034791113329877284 -1.9983386096926296e-05 0 -0.034846481058311146 -0.00016385576220283144 0 -0.034965575643722734 2.0358363122775014e-05 0 -0.034677877039188516 -0.00019292520329778628 0 -0.034741238339050746 -3.5314175747899924e-05 0 -0.034858614306750732 -0.00020121277491763406 0 -0.034556372571609234 -0.00041855363584518022 0 -0.034677877039188516 -0.00019292520329778628 0 -0.034858614306750732 -0.00020121277491763406 0 -0.034480787423942026 -0.0002729586869650022 0 -0.034677877039188516 -0.00019292520329778628 0 -0.034741238339050746 -3.5314175747899924e-05 0 -0.034867842144502954 -5.3852332862311836e-05 0 -0.034944824882822009 4.5102629581828534e-05 0 -0.034791113329877284 -1.9983386096926296e-05 0 -0.034965575643722734 2.0358363122775014e-05 0 -0.034946631802148027 5.3892493453553353e-05 0 -0.035000368815224933 -1.8044080241037501e-07 0 -0.034946631802148027 5.3892493453553353e-05 0 -0.034947769259545056 3.3846191971251274e-05 0 -0.034965575643722734 2.0358363122775014e-05 0 -0.034946631802148027 5.3892493453553353e-05 0 -0.034947769259545056 3.3846191971251274e-05 0 -0.034825993051948514 1.3143973509899956e-05 0 -0.034937994396541543 2.1424976667031236e-05 0 -0.034999131102351005 2.4731028080003762e-07 0 -0.03496297725526306 2.4914695072729322e-05 0 -0.034735483600034048 0.00012105122830738568 0 -0.03496297725526306 2.4914695072729322e-05 0 -0.034947769259545056 3.3846191971251274e-05 0 -0.034917221140939009 4.5997944817404002e-06 0 -0.03496297725526306 2.4914695072729322e-05 0 -0.034735483600034048 0.00012105122830738568 0 -0.03461247383171534 0.00016771626982392147 0 -0.034741238339050746 -3.5314175747899924e-05 0 -0.034947769259545056 3.3846191971251274e-05 0 -0.034917221140939009 4.5997944817404002e-06 0 -0.034893137666847471 3.5005245065023763e-05 0 -0.034899552504516922 1.3067063439169501e-05 0 -0.034999131102351005 2.4731028080003762e-07 0 -0.034735483600034048 0.00012105122830738568 0 -0.034673254269574773 0.00015293843065527075 0 -0.034735483600034048 0.00012105122830738568 0 -0.034528603128747413 0.00021812654663388282 0 -0.03461247383171534 0.00016771626982392147 0 -0.034735483600034048 0.00012105122830738568 0 -0.034528603128747413 0.00021812654663388282 0 -0.034673254269574773 0.00015293843065527075 0 -0.034528603128747413 0.00021812654663388282 0 -0.03440586212943321 0.0002763879255554133 0 -0.034673254269574773 0.00015293843065527075 0 -0.034528603128747413 0.00021812654663388282 0 -0.034305714329994658 0.00036343630953054244 0 -0.03440586212943321 0.0002763879255554133 0 -0.034899552504516922 1.3067063439169501e-05 0 -0.033475950263926635 0.00055002905304295507 0 -0.034741238339050746 -3.5314175747899924e-05 0 -0.034917221140939009 4.5997944817404002e-06 0 -0.034858614306750732 -0.00020121277491763406 0 -0.034305714329994658 0.00036343630953054244 0 -0.03461247383171534 0.00016771626982392147 0 -0.034517217091304453 0.00052564918109744628 0 -0.034528603128747413 0.00021812654663388282 0 -0.034305714329994658 0.00036343630953054244 0 -0.03461247383171534 0.00016771626982392147 0 -0.034305714329994658 0.00036343630953054244 0 -0.033763736973262196 0.00038770788055834715 0 -0.034089328695472071 0.00030189992634317697 0 -0.034334050439677501 0.00049905244867056765 0 -0.033475950263926635 0.00055002905304295507 0 -0.03440586212943321 0.0002763879255554133 0 -0.034089328695472071 0.00030189992634317697 0 -0.034285715048176894 0.00024779119447113334 0 -0.034305714329994658 0.00036343630953054244 0 -0.03440586212943321 0.0002763879255554133 0 -0.034089328695472071 0.00030189992634317697 0 -0.034285715048176894 0.00024779119447113334 0 -0.034458886969401192 0.00018954438187815441 0 -0.034537495621728989 0.00020563929425348296 0 -0.03440586212943321 0.0002763879255554133 0 -0.034285715048176894 0.00024779119447113334 0 -0.034537495621728989 0.00020563929425348296 0 -0.034458886969401192 0.00018954438187815441 0 -0.034537495621728989 0.00020563929425348296 0 -0.03460682238830895 0.00015385370611224446 0 -0.034537495621728989 0.00020563929425348296 0 -0.03476592573925031 0.00010796147426091368 0 -0.03460682238830895 0.00015385370611224446 0 -0.03440586212943321 0.0002763879255554133 0 -0.034537495621728989 0.00020563929425348296 0 -0.034673254269574773 0.00015293843065527075 0 -0.034999131102351005 2.4731028080003762e-07 0 -0.034673254269574773 0.00015293843065527075 0 -0.03476592573925031 0.00010796147426091368 0 -0.034999131102351005 2.4731028080003762e-07 0 -0.034999605754761243 8.9254052896198528e-08 0 -0.03476592573925031 0.00010796147426091368 0 -0.034537495621728989 0.00020563929425348296 0 -0.034673254269574773 0.00015293843065527075 0 -0.03476592573925031 0.00010796147426091368 0 -0.034999605754761243 8.9254052896198528e-08 0 -0.03476592573925031 0.00010796147426091368 0 -0.034772893580085423 6.76112658116248e-05 0 -0.034772893580085423 6.76112658116248e-05 0 -0.034677629822643913 0.00011714965393675736 0 -0.034640260650302519 9.320049190819647e-05 0 -0.03476592573925031 0.00010796147426091368 0 -0.034677629822643913 0.00011714965393675736 0 -0.03460682238830895 0.00015385370611224446 0 -0.03476592573925031 0.00010796147426091368 0 -0.034772893580085423 6.76112658116248e-05 0 -0.034677629822643913 0.00011714965393675736 0 -0.034458886969401192 0.00018954438187815441 0 -0.03460682238830895 0.00015385370611224446 0 -0.034518888459747342 0.00013623086832901082 0 -0.034677629822643913 0.00011714965393675736 0 -0.03460682238830895 0.00015385370611224446 0 -0.034518888459747342 0.00013623086832901082 0 -0.034518888459747342 0.00013623086832901082 0 -0.034640260650302519 9.320049190819647e-05 0 -0.034494476602085537 0.000115315831612244 0 -0.034677629822643913 0.00011714965393675736 0 -0.034518888459747342 0.00013623086832901082 0 -0.034640260650302519 9.320049190819647e-05 0 -0.034605280975784046 8.194466178830951e-05 0 -0.034494476602085537 0.000115315831612244 0 -0.03451594416307751 5.3196406270610832e-05 0 -0.034605280975784046 8.194466178830951e-05 0 -0.034640260650302519 9.320049190819647e-05 0 -0.034494476602085537 0.000115315831612244 0 -0.03451594416307751 5.3196406270610832e-05 0 -0.034314469866549679 0.00014304483935670488 0 -0.03432416014262029 -9.5775841618107369e-05 0 -0.034494476602085537 0.000115315831612244 0 -0.03451594416307751 5.3196406270610832e-05 0 -0.034314469866549679 0.00014304483935670488 0 -0.034518888459747342 0.00013623086832901082 0 -0.034494476602085537 0.000115315831612244 0 -0.034314469866549679 0.00014304483935670488 0 -0.034518888459747342 0.00013623086832901082 0 -0.034314469866549679 0.00014304483935670488 0 -0.034301872122409129 0.00014858203566962231 0 -0.034285715048176894 0.00024779119447113334 0 -0.034458886969401192 0.00018954438187815441 0 -0.034301872122409129 0.00014858203566962231 0 -0.034458886969401192 0.00018954438187815441 0 -0.034518888459747342 0.00013623086832901082 0 -0.034301872122409129 0.00014858203566962231 0 -0.033945138154757352 0.00018394625398475886 0 -0.034285715048176894 0.00024779119447113334 0 -0.034301872122409129 0.00014858203566962231 0 -0.033945138154757352 0.00018394625398475886 0 -0.034301872122409129 0.00014858203566962231 0 -0.03406492576823985 6.9206610366046931e-05 0 -0.03406492576823985 6.9206610366046931e-05 0 -0.034216313116520611 -0.00010296897662945421 0 -0.033820760497850058 -9.6455377157709385e-05 0 -0.034301872122409129 0.00014858203566962231 0 -0.03406492576823985 6.9206610366046931e-05 0 -0.034216313116520611 -0.00010296897662945421 0 -0.033945138154757352 0.00018394625398475886 0 -0.03406492576823985 6.9206610366046931e-05 0 -0.033820760497850058 -9.6455377157709385e-05 0 -0.034314469866549679 0.00014304483935670488 0 -0.034301872122409129 0.00014858203566962231 0 -0.034216313116520611 -0.00010296897662945421 0 -0.034226073924894254 0.00014229884295182985 0 -0.033682858059348071 -1.3956110552376364e-05 0 -0.033169446040243078 0.00013774631074481162 0 -0.033425685158301313 -0.00021675911705132834 0 -0.032647965857440862 -0.00042599957829508726 0 -0.034314469866549679 0.00014304483935670488 0 -0.033169446040243078 0.00013774631074481162 0 -0.033868820129188182 -9.2443633256058318e-05 0 -0.033169446040243078 0.00013774631074481162 0 -0.033425685158301313 -0.00021675911705132834 0 -0.033868820129188182 -9.2443633256058318e-05 0 -0.033549854929626942 -0.00046716692355126588 0 -0.034216313116520611 -0.00010296897662945421 0 -0.033820760497850058 -9.6455377157709385e-05 0 -0.032906440403063765 -0.00035479974426040405 0 -0.033682858059348071 -1.3956110552376364e-05 0 -0.032255593580096796 -0.000301858699632321 0 -0.033169446040243078 0.00013774631074481162 0 -0.032647965857440862 -0.00042599957829508726 0 -0.032647965857440862 -0.00042599957829508726 0 -0.03267026616465054 -0.00037760365688640975 0 -0.032483520832613466 -0.00044432849566614514 0 -0.032647965857440862 -0.00042599957829508726 0 -0.032483520832613466 -0.00044432849566614514 0 -0.032273392654672245 -0.00045584483859248864 0 -0.032255593580096796 -0.000301858699632321 0 -0.032647965857440862 -0.00042599957829508726 0 -0.032273392654672245 -0.00045584483859248864 0 -0.033425685158301313 -0.00021675911705132834 0 -0.032647965857440862 -0.00042599957829508726 0 -0.034001603497966389 -0.0005087735380107396 0 -0.032647965857440862 -0.00042599957829508726 0 -0.032821982766290038 -0.00019035787282171678 0 -0.03267026616465054 -0.00037760365688640975 0 -0.032717526043169819 -0.00042100791789889219 0 -0.033405555209689117 -0.00034233749544190041 0 -0.032822773817724978 -0.00034090626640099624 0 -0.032821982766290038 -0.00019035787282171678 0 -0.03267026616465054 -0.00037760365688640975 0 -0.032822773817724978 -0.00034090626640099624 0 -0.032821982766290038 -0.00019035787282171678 0 -0.033501840227625451 -0.00040419805448987852 0 -0.033760010542074274 -0.00013239369854278489 0 -0.032821982766290038 -0.00019035787282171678 0 -0.033501840227625451 -0.00040419805448987852 0 -0.032881138188160575 -0.00034016540374623129 0 -0.03329048812283663 -0.00030955915799055011 0 -0.034558383162982424 -0.00026643614386392663 0 -0.034001603497966389 -0.0005087735380107396 0 -0.03432416014262029 -9.5775841618107369e-05 0 -0.034148715979339501 -0.00020939718658908565 0 -0.033405555209689117 -0.00034233749544190041 0 -0.03453528803281801 -9.0506249045860679e-05 0 -0.03451594416307751 5.3196406270610832e-05 0 -0.03432416014262029 -9.5775841618107369e-05 0 -0.034558383162982424 -0.00026643614386392663 0 -0.03453528803281801 -9.0506249045860679e-05 0 -0.03432416014262029 -9.5775841618107369e-05 0 -0.034001603497966389 -0.0005087735380107396 0 -0.03432416014262029 -9.5775841618107369e-05 0 -0.033868820129188182 -9.2443633256058318e-05 0 -0.034314469866549679 0.00014304483935670488 0 -0.03432416014262029 -9.5775841618107369e-05 0 -0.033868820129188182 -9.2443633256058318e-05 0 -0.033425685158301313 -0.00021675911705132834 0 -0.034001603497966389 -0.0005087735380107396 0 -0.033868820129188182 -9.2443633256058318e-05 0 -0.033047981240491256 -0.00048136110930550288 0 -0.032775834352560818 -0.00049252565447055355 0 -0.032908349084241006 -0.00074492071767848797 0 -0.033281817325408691 -0.00060068337176680438 0 -0.033047981240491256 -0.00048136110930550288 0 -0.032908349084241006 -0.00074492071767848797 0 -0.032822773817724978 -0.00034090626640099624 0 -0.033078198402586675 -0.00021683639062948477 0 -0.032958305054975441 -0.00036821208829406523 0 -0.033047981240491256 -0.00048136110930550288 0 -0.033099920650199677 -0.000355215603023918 0 -0.032958305054975441 -0.00036821208829406523 0 -0.033218830669545632 -0.00039603000002195007 0 -0.033047981240491256 -0.00048136110930550288 0 -0.033099920650199677 -0.000355215603023918 0 -0.033223116241647296 -0.00027845771030173932 0 -0.033078198402586675 -0.00021683639062948477 0 -0.033099920650199677 -0.000355215603023918 0 -0.033078198402586675 -0.00021683639062948477 0 -0.033099920650199677 -0.000355215603023918 0 -0.032958305054975441 -0.00036821208829406523 0 -0.033047981240491256 -0.00048136110930550288 0 -0.032958305054975441 -0.00036821208829406523 0 -0.032775834352560818 -0.00049252565447055355 0 -0.032822773817724978 -0.00034090626640099624 0 -0.032958305054975441 -0.00036821208829406523 0 -0.032775834352560818 -0.00049252565447055355 0 -0.032822773817724978 -0.00034090626640099624 0 -0.032775834352560818 -0.00049252565447055355 0 -0.03267026616465054 -0.00037760365688640975 0 -0.032775834352560818 -0.00049252565447055355 0 -0.03267026616465054 -0.00037760365688640975 0 -0.032527228176859727 -0.0005073233656235623 0 -0.03267026616465054 -0.00037760365688640975 0 -0.032527228176859727 -0.0005073233656235623 0 -0.032483520832613466 -0.00044432849566614514 0 -0.032527228176859727 -0.0005073233656235623 0 -0.032483520832613466 -0.00044432849566614514 0 -0.032126668464682505 -0.00050504236202987681 0 -0.032483520832613466 -0.00044432849566614514 0 -0.032126668464682505 -0.00050504236202987681 0 -0.032273392654672245 -0.00045584483859248864 0 -0.032527228176859727 -0.0005073233656235623 0 -0.032458147943437238 -0.00083761944426582677 0 -0.032126668464682505 -0.00050504236202987681 0 -0.032458147943437238 -0.00083761944426582677 0 -0.031587007266556409 -0.00070035887367372483 0 -0.032126668464682505 -0.00050504236202987681 0 -0.032775834352560818 -0.00049252565447055355 0 -0.032458147943437238 -0.00083761944426582677 0 -0.032908349084241006 -0.00074492071767848797 0 -0.032775834352560818 -0.00049252565447055355 0 -0.032527228176859727 -0.0005073233656235623 0 -0.032458147943437238 -0.00083761944426582677 0 -0.032100652801253238 -0.00069274736188256988 0 -0.032592548002662834 -0.00059997224351640436 0 -0.031741379404675703 -0.00056677837765200633 0 -0.031452752205503622 -0.00090139415847517062 0 -0.031587007266556409 -0.00070035887367372483 0 -0.032100652801253238 -0.00069274736188256988 0 -0.031629217743304364 -0.00070518414376018418 0 -0.031741379404675703 -0.00056677837765200633 0 -0.03179340447015605 -0.00088049573784700888 0 -0.031452752205503622 -0.00090139415847517062 0 -0.031741379404675703 -0.00056677837765200633 0 -0.03179340447015605 -0.00088049573784700888 0 -0.032164743315861714 -0.00092417802692715582 0 -0.031741379404675703 -0.00056677837765200633 0 -0.032164743315861714 -0.00092417802692715582 0 -0.032280805593557206 -0.00045322459743783494 0 -0.033061719511214033 -0.00048992036671092099 0 -0.032592548002662834 -0.00059997224351640436 0 -0.032849288758095584 -0.00038015736027191598 0 -0.032280805593557206 -0.00045322459743783494 0 -0.03260895747922362 -0.00078976831851218412 0 -0.032164743315861714 -0.00092417802692715582 0 -0.032280805593557206 -0.00045322459743783494 0 -0.03260895747922362 -0.00078976831851218412 0 -0.032164743315861714 -0.00092417802692715582 0 -0.03260895747922362 -0.00078976831851218412 0 -0.032550379283669599 -0.0012293606961612687 0 -0.032164743315861714 -0.00092417802692715582 0 -0.032550379283669599 -0.0012293606961612687 0 -0.032211228958572154 -0.0013290930834471786 0 -0.032164743315861714 -0.00092417802692715582 0 -0.032211228958572154 -0.0013290930834471786 0 -0.031863423488571831 -0.0012703444919766977 0 -0.032211228958572154 -0.0013290930834471786 0 -0.03241382109243323 -0.0015874451627992691 0 -0.032084811139057888 -0.0016602767408589202 0 -0.032211228958572154 -0.0013290930834471786 0 -0.032084811139057888 -0.0016602767408589202 0 -0.031863423488571831 -0.0012703444919766977 0 -0.032550379283669599 -0.0012293606961612687 0 -0.032211228958572154 -0.0013290930834471786 0 -0.03241382109243323 -0.0015874451627992691 0 -0.032808895976542497 -0.0015457426640940108 0 -0.032550379283669599 -0.0012293606961612687 0 -0.03241382109243323 -0.0015874451627992691 0 -0.032808895976542497 -0.0015457426640940108 0 -0.03241382109243323 -0.0015874451627992691 0 -0.032579286688334257 -0.0018843862108598988 0 -0.03241382109243323 -0.0015874451627992691 0 -0.032579286688334257 -0.0018843862108598988 0 -0.032256142026027279 -0.0018937323447335704 0 -0.03241382109243323 -0.0015874451627992691 0 -0.032256142026027279 -0.0018937323447335704 0 -0.032084811139057888 -0.0016602767408589202 0 -0.032256142026027279 -0.0018937323447335704 0 -0.032084811139057888 -0.0016602767408589202 0 -0.031869697312249742 -0.0021314460891150655 0 -0.025456146745354378 -0.00041263040280420745 0 -0.02894733724083005 -0.002352566166021362 0 -0.032256142026027279 -0.0018937323447335704 0 -0.032347876402132054 -0.0021860371333591554 0 -0.031869697312249742 -0.0021314460891150655 0 -0.022299013516410966 -0.0015640819971127144 0 -0.025251880092616481 -0.0021441717854484353 0 -0.023179563212787052 -0.00013519027325481711 0 -0.016717996698178268 0.0025701540835422264 0 -0.025456146745354378 -0.00041263040280420745 0 -0.032579286688334257 -0.0018843862108598988 0 -0.032256142026027279 -0.0018937323447335704 0 -0.032347876402132054 -0.0021860371333591554 0 -0.0245340631878538 -0.00038572163536878076 0 -0.024997427621134886 -0.00091050122071842149 0 -0.025481120541244347 -0.00010749773590978476 0 -0.028861070270787256 -0.0013384605437093931 0 -0.025456146745354378 -0.00041263040280420745 0 -0.02894733724083005 -0.002352566166021362 0 -0.029769881166709287 -0.0024306602405006115 0 -0.026099368706625103 -0.0011302225815261011 0 -0.028421090496809957 -0.002183219616183541 0 -0.028035974879717058 -0.0026486747489742209 0 -0.027172375216150232 -0.0020325986731343929 0 -0.027094889089121138 -0.0021100881370797104 0 -0.026099368706625103 -0.0011302225815261011 0 -0.025251880092616481 -0.0021441717854484353 0 -0.028035974879717058 -0.0026486747489742209 0 -0.025310974067037206 -0.0020460048643777492 0 -0.026582012545583268 -0.0022886171767790907 0 -0.026412397368101765 -0.0016181488659142494 0 -0.026099368706625103 -0.0011302225815261011 0 -0.025251880092616481 -0.0021441717854484353 0 -0.023591606599166759 -9.7970622258315308e-06 0 -0.032084811139057888 -0.0016602767408589202 0 -0.031869697312249742 -0.0021314460891150655 0 -0.031724714030492034 -0.0017538561218820149 0 -0.031724714030492034 -0.0017538561218820149 0 -0.03138806488675025 -0.0015092554400490826 0 -0.031324624579993916 -0.0021998433459927622 0 -0.031869697312249742 -0.0021314460891150655 0 -0.031724714030492034 -0.0017538561218820149 0 -0.031324624579993916 -0.0021998433459927622 0 -0.031724714030492034 -0.0017538561218820149 0 -0.031863423488571831 -0.0012703444919766977 0 -0.03138806488675025 -0.0015092554400490826 0 -0.032084811139057888 -0.0016602767408589202 0 -0.031724714030492034 -0.0017538561218820149 0 -0.031863423488571831 -0.0012703444919766977 0 -0.03179340447015605 -0.00088049573784700888 0 -0.032164743315861714 -0.00092417802692715582 0 -0.031863423488571831 -0.0012703444919766977 0 -0.031863423488571831 -0.0012703444919766977 0 -0.03138806488675025 -0.0015092554400490826 0 -0.031452752205503622 -0.00090139415847517062 0 -0.03179340447015605 -0.00088049573784700888 0 -0.031863423488571831 -0.0012703444919766977 0 -0.031452752205503622 -0.00090139415847517062 0 -0.030891672810193449 -0.0011882870640990302 0 -0.03138806488675025 -0.0015092554400490826 0 -0.031452752205503622 -0.00090139415847517062 0 -0.030891672810193449 -0.0011882870640990302 0 -0.031079768237057558 -0.00083837998372958812 0 -0.031452752205503622 -0.00090139415847517062 0 -0.030891672810193449 -0.0011882870640990302 0 -0.030395776950483271 -0.00076087700255796076 0 -0.031079768237057558 -0.00083837998372958812 0 -0.030891672810193449 -0.0011882870640990302 0 -0.030659183244678603 -0.0018952686229319208 0 -0.029879546896738097 -0.0014963750638675691 0 -0.030659183244678603 -0.0018952686229319208 0 -0.029925084799541628 -0.0019443772350919094 0 -0.029879546896738097 -0.0014963750638675691 0 -0.030891672810193449 -0.0011882870640990302 0 -0.03138806488675025 -0.0015092554400490826 0 -0.030659183244678603 -0.0018952686229319208 0 -0.029493221901792373 -0.0025858932588825761 0 -0.029769881166709287 -0.0024306602405006115 0 -0.03138806488675025 -0.0015092554400490826 0 -0.030659183244678603 -0.0018952686229319208 0 -0.031324624579993916 -0.0021998433459927622 0 -0.030659183244678603 -0.0018952686229319208 0 -0.030372142361081819 -0.0023911250738882749 0 -0.031324624579993916 -0.0021998433459927622 0 -0.030659183244678603 -0.0018952686229319208 0 -0.030372142361081819 -0.0023911250738882749 0 -0.029925084799541628 -0.0019443772350919094 0 -0.027499839620105805 -0.002358497579463611 0 -0.027303559152054607 -0.0017906867569859133 0 -0.027955502373164135 -0.001904435878707805 0 -0.027499839620105805 -0.002358497579463611 0 -0.027303559152054607 -0.0017906867569859133 0 -0.026582012545583268 -0.0022886171767790907 0 -0.029493221901792373 -0.0025858932588825761 0 -0.027094889089121138 -0.0021100881370797104 0 -0.0305346922866493 -0.0031040975752606929 0 -0.028421090496809957 -0.002183219616183541 0 -0.028035974879717058 -0.0026486747489742209 0 -0.027303559152054607 -0.0017906867569859133 0 -0.026582012545583268 -0.0022886171767790907 0 -0.026412397368101765 -0.0016181488659142494 0 -0.028044233834645851 -0.0018210507533656687 0 -0.027955502373164135 -0.001904435878707805 0 -0.027761941517356736 -0.0015719986900501928 0 -0.028044233834645851 -0.0018210507533656687 0 -0.027955502373164135 -0.001904435878707805 0 -0.028606028697178182 -0.0021323753700122497 0 -0.027303559152054607 -0.0017906867569859133 0 -0.027955502373164135 -0.001904435878707805 0 -0.027761941517356736 -0.0015719986900501928 0 -0.030372142361081819 -0.0023911250738882749 0 -0.029925084799541628 -0.0019443772350919094 0 -0.028606028697178182 -0.0021323753700122497 0 -0.027499839620105805 -0.002358497579463611 0 -0.027955502373164135 -0.001904435878707805 0 -0.028606028697178182 -0.0021323753700122497 0 -0.029493221901792373 -0.0025858932588825761 0 -0.028367220566225676 -0.0021200051442177088 0 -0.029925084799541628 -0.0019443772350919094 0 -0.028606028697178182 -0.0021323753700122497 0 -0.029879546896738097 -0.0014963750638675691 0 -0.028044233834645851 -0.0018210507533656687 0 -0.028606028697178182 -0.0021323753700122497 0 -0.028215728607999882 -0.0018475153213958287 0 -0.028606028697178182 -0.0021323753700122497 0 -0.028756775648917529 -0.0014613038110608467 0 -0.028215728607999882 -0.0018475153213958287 0 -0.028606028697178182 -0.0021323753700122497 0 -0.028756775648917529 -0.0014613038110608467 0 -0.029879546896738097 -0.0014963750638675691 0 -0.028756775648917529 -0.0014613038110608467 0 -0.029879546896738097 -0.0014963750638675691 0 -0.030395776950483271 -0.00076087700255796076 0 -0.030891672810193449 -0.0011882870640990302 0 -0.029879546896738097 -0.0014963750638675691 0 -0.030395776950483271 -0.00076087700255796076 0 -0.028756775648917529 -0.0014613038110608467 0 -0.030395776950483271 -0.00076087700255796076 0 -0.028515499518018145 -0.00079430505904704409 0 -0.030395793605878102 -0.0007502149711608538 0 -0.029767467257006922 -0.00039917812249643225 0 -0.030395776950483271 -0.00076087700255796076 0 -0.030855937204223884 -0.00075276605074745288 0 -0.030922778613060451 -0.0007203529521194504 0 -0.030395776950483271 -0.00076087700255796076 0 -0.028700733317849933 -3.397282901502295e-06 0 -0.028515499518018145 -0.00079430505904704409 0 -0.030855937204223884 -0.00075276605074745288 0 -0.030922778613060451 -0.0007203529521194504 0 -0.030779498849755154 -0.00050338651176574641 0 -0.030922778613060451 -0.0007203529521194504 0 -0.031392638702375998 -0.0006521076092299308 0 -0.03102815763802072 -0.00071172664128889708 0 -0.030395776950483271 -0.00076087700255796076 0 -0.030922778613060451 -0.0007203529521194504 0 -0.03102815763802072 -0.00071172664128889708 0 -0.030395776950483271 -0.00076087700255796076 0 -0.03102815763802072 -0.00071172664128889708 0 -0.031079768237057558 -0.00083837998372958812 0 -0.03102815763802072 -0.00071172664128889708 0 -0.031079768237057558 -0.00083837998372958812 0 -0.031587007266556409 -0.00070035887367372483 0 -0.031079768237057558 -0.00083837998372958812 0 -0.031452752205503622 -0.00090139415847517062 0 -0.031587007266556409 -0.00070035887367372483 0 -0.031392638702375998 -0.0006521076092299308 0 -0.03102815763802072 -0.00071172664128889708 0 -0.031587007266556409 -0.00070035887367372483 0 -0.031392638702375998 -0.0006521076092299308 0 -0.031587007266556409 -0.00070035887367372483 0 -0.031813093872719134 -0.00057522133282969089 0 -0.031587007266556409 -0.00070035887367372483 0 -0.031813093872719134 -0.00057522133282969089 0 -0.032126668464682505 -0.00050504236202987681 0 -0.032126668464682505 -0.00050504236202987681 0 -0.032273392654672245 -0.00045584483859248864 0 -0.032199610470139306 -0.00053965520850805522 0 -0.031813093872719134 -0.00057522133282969089 0 -0.032126668464682505 -0.00050504236202987681 0 -0.032199610470139306 -0.00053965520850805522 0 -0.031813093872719134 -0.00057522133282969089 0 -0.032199610470139306 -0.00053965520850805522 0 -0.031621062707818212 -0.00056758005262315012 0 -0.032332572861861211 -0.00034403650128901863 0 -0.032199610470139306 -0.00053965520850805522 0 -0.031621062707818212 -0.00056758005262315012 0 -0.031818848503642146 -8.5004538332912063e-05 0 -0.03135357179769644 -0.00044274471702974099 0 -0.030903551537574875 7.0252353523197659e-05 0 -0.031121638067631432 -0.00027084360694216433 0 -0.030793774230744662 -0.00022657032754668901 0 -0.031121638067631432 -0.00027084360694216433 0 -0.030779498849755154 -0.00050338651176574641 0 -0.030793774230744662 -0.00022657032754668901 0 -0.030922778613060451 -0.0007203529521194504 0 -0.031121638067631432 -0.00027084360694216433 0 -0.030779498849755154 -0.00050338651176574641 0 -0.030982784879841827 -0.00073816804543212918 0 -0.03135357179769644 -0.00044274471702974099 0 -0.031392638702375998 -0.0006521076092299308 0 -0.031813093872719134 -0.00057522133282969089 0 -0.031621062707818212 -0.00056758005262315012 0 -0.030922778613060451 -0.0007203529521194504 0 -0.031392638702375998 -0.0006521076092299308 0 -0.031621062707818212 -0.00056758005262315012 0 -0.030311157108875657 -0.00027086822980433171 0 -0.030563763138678417 -0.00032930385436472738 0 -0.030404477931130901 -0.00060698083517769297 0 -0.030779498849755154 -0.00050338651176574641 0 -0.030563763138678417 -0.00032930385436472738 0 -0.030793774230744662 -0.00022657032754668901 0 -0.030779498849755154 -0.00050338651176574641 0 -0.030563763138678417 -0.00032930385436472738 0 -0.030404477931130901 -0.00060698083517769297 0 -0.030903551537574875 7.0252353523197659e-05 0 -0.030793774230744662 -0.00022657032754668901 0 -0.030596229831178288 -8.728877406330634e-05 0 -0.030563763138678417 -0.00032930385436472738 0 -0.030793774230744662 -0.00022657032754668901 0 -0.030596229831178288 -8.728877406330634e-05 0 -0.030311157108875657 -0.00027086822980433171 0 -0.030563763138678417 -0.00032930385436472738 0 -0.030596229831178288 -8.728877406330634e-05 0 -0.030311157108875657 -0.00027086822980433171 0 -0.030596229831178288 -8.728877406330634e-05 0 -0.030425918662892459 2.3262812038103059e-05 0 -0.030311157108875657 -0.00027086822980433171 0 -0.030425918662892459 2.3262812038103059e-05 0 -0.030178512605437875 -1.9437849275519451e-05 0 -0.028006687512178711 0.0007789069044238868 0 -0.027378986790855708 0.00074479029158363761 0 -0.02753200797249529 0.00027909314927840675 0 -0.029177411294440566 0.00042004003402138884 0 -0.028202558568112719 -3.2999342950854374e-05 0 -0.030311157108875657 -0.00027086822980433171 0 -0.030178512605437875 -1.9437849275519451e-05 0 -0.029939439076455326 -0.00036789164481786937 0 -0.027378986790855708 0.00074479029158363761 0 -0.027404762927036166 0.00035735623950088952 0 -0.02753200797249529 0.00027909314927840675 0 -0.027291030519528602 0.00035239427105178558 0 -0.027572256126336365 -7.1798498216037185e-05 0 -0.027116330721613988 -7.1441556243904882e-05 0 -0.027378986790855708 0.00074479029158363761 0 -0.027246185295286728 0.00028514515314160036 0 -0.027018138165597668 0.00022452107930631256 0 -0.027413167048638044 0.0003222530559379338 0 -0.027360504576792316 0.00022427137337984972 0 -0.027418945375157433 2.6820378578154313e-05 0 -0.027378986790855708 0.00074479029158363761 0 -0.027404762927036166 0.00035735623950088952 0 -0.027246185295286728 0.00028514515314160036 0 -0.027566754455680992 0.00030955060041884861 0 -0.026681298720915726 -0.00012651469448068372 0 -0.027404762927036166 0.00035735623950088952 0 -0.027452041594130817 0.00031389224604224563 0 -0.027378211857029953 0.00029201389706030553 0 -0.027404762927036166 0.00035735623950088952 0 -0.027378211857029953 0.00029201389706030553 0 -0.027246185295286728 0.00028514515314160036 0 -0.027754808074892293 0.00021176373428930385 0 -0.028202558568112719 -3.2999342950854374e-05 0 -0.027452041594130817 0.00031389224604224563 0 -0.027360504576792316 0.00022427137337984972 0 -0.027378211857029953 0.00029201389706030553 0 -0.028202558568112719 -3.2999342950854374e-05 0 -0.027877621521956209 -1.0365260989867791e-05 0 -0.027360504576792316 0.00022427137337984972 0 -0.027378211857029953 0.00029201389706030553 0 -0.027246185295286728 0.00028514515314160036 0 -0.027360504576792316 0.00022427137337984972 0 -0.027246185295286728 0.00028514515314160036 0 -0.027230357654828074 0.00012358688373719087 0 -0.027246185295286728 0.00028514515314160036 0 -0.027230357654828074 0.00012358688373719087 0 -0.027018138165597668 0.00022452107930631256 0 -0.028202558568112719 -3.2999342950854374e-05 0 -0.029232983823704626 -0.00022506716604492859 0 -0.030311157108875657 -0.00027086822980433171 0 -0.029939439076455326 -0.00036789164481786937 0 -0.030404477931130901 -0.00060698083517769297 0 -0.027413167048638044 0.0003222530559379338 0 -0.027418945375157433 2.6820378578154313e-05 0 -0.02784577357560054 0.00017715314712311696 0 -0.027418945375157433 2.6820378578154313e-05 0 -0.027627812851368398 -0.0002453424845158239 0 -0.02784577357560054 0.00017715314712311696 0 -0.027360504576792316 0.00022427137337984972 0 -0.027418945375157433 2.6820378578154313e-05 0 -0.027230357654828074 0.00012358688373719087 0 -0.027418945375157433 2.6820378578154313e-05 0 -0.027230357654828074 0.00012358688373719087 0 -0.027152273360575237 -9.5174774330684147e-05 0 -0.027152273360575237 -9.5174774330684147e-05 0 -0.027376030238932543 -0.00035078705759964768 0 -0.027029413317783125 -0.00043089871278128498 0 -0.027418945375157433 2.6820378578154313e-05 0 -0.027152273360575237 -9.5174774330684147e-05 0 -0.027376030238932543 -0.00035078705759964768 0 -0.027376030238932543 -0.00035078705759964768 0 -0.027627812851368398 -0.0002453424845158239 0 -0.027645601480166822 -0.00058061092392608881 0 -0.027418945375157433 2.6820378578154313e-05 0 -0.027376030238932543 -0.00035078705759964768 0 -0.027627812851368398 -0.0002453424845158239 0 -0.027627812851368398 -0.0002453424845158239 0 -0.027920565790407494 -0.00044087978790153322 0 -0.027645601480166822 -0.00058061092392608881 0 -0.027627812851368398 -0.0002453424845158239 0 -0.027920565790407494 -0.00044087978790153322 0 -0.02784577357560054 0.00017715314712311696 0 -0.029767467257006922 -0.00039917812249643225 0 -0.029232983823704626 -0.00022506716604492859 0 -0.030855937204223884 -0.00075276605074745288 0 -0.030779498849755154 -0.00050338651176574641 0 -0.030404477931130901 -0.00060698083517769297 0 -0.028700733317849933 -3.397282901502295e-06 0 -0.027920565790407494 -0.00044087978790153322 0 -0.02784577357560054 0.00017715314712311696 0 -0.028700733317849933 -3.397282901502295e-06 0 -0.027920565790407494 -0.00044087978790153322 0 -0.028515499518018145 -0.00079430505904704409 0 -0.027920565790407494 -0.00044087978790153322 0 -0.028515499518018145 -0.00079430505904704409 0 -0.027823055598888452 -0.0014878242086094841 0 -0.027920565790407494 -0.00044087978790153322 0 -0.027776984385547921 -0.00079217758254027852 0 -0.027645601480166822 -0.00058061092392608881 0 -0.027908567903234031 -0.00049849648517085907 0 -0.027801347430738105 -0.0010746942102465463 0 -0.028756775648917529 -0.0014613038110608467 0 -0.027823055598888452 -0.0014878242086094841 0 -0.028215728607999882 -0.0018475153213958287 0 -0.028756775648917529 -0.0014613038110608467 0 -0.028515499518018145 -0.00079430505904704409 0 -0.027823055598888452 -0.0014878242086094841 0 -0.028044233834645851 -0.0018210507533656687 0 -0.028215728607999882 -0.0018475153213958287 0 -0.027954415660773006 -0.001872459005286646 0 -0.027801347430738105 -0.0010746942102465463 0 -0.027971275923436897 -0.0016807659801456787 0 -0.027823055598888452 -0.0014878242086094841 0 -0.028215728607999882 -0.0018475153213958287 0 -0.027954415660773006 -0.001872459005286646 0 -0.027684012598508275 -0.0011568664892116548 0 -0.027522607285610737 -0.0014525302338270756 0 -0.02760354728627501 -0.0014820356792145082 0 -0.027954415660773006 -0.001872459005286646 0 -0.02779399410098243 -0.0016207538423554091 0 -0.028135532432150619 -0.0014340073033146869 0 -0.027971275923436897 -0.0016807659801456787 0 -0.026243804884861676 -0.00047118469021149259 0 -0.028044233834645851 -0.0018210507533656687 0 -0.02779399410098243 -0.0016207538423554091 0 -0.027680010966100278 -0.0014633449893617294 0 -0.028044233834645851 -0.0018210507533656687 0 -0.027954415660773006 -0.001872459005286646 0 -0.02779399410098243 -0.0016207538423554091 0 -0.023220851951161598 2.7390031551606532e-05 0 -0.022870948533903909 -0.00031931880793900549 0 -0.023838911434855919 -0.00067734786417176856 0 -0.023220851951161598 2.7390031551606532e-05 0 -0.022870948533903909 -0.00031931880793900549 0 -0.022810753982006691 0.00014155660342187192 0 -0.027684012598508275 -0.0011568664892116548 0 -0.027276281461526254 -0.0011697656118956428 0 -0.027522607285610737 -0.0014525302338270756 0 -0.025429012952180592 -0.00076922054001466757 0 -0.024838201846660843 -0.00029247154550971123 0 -0.027684012598508275 -0.0011568664892116548 0 -0.027276281461526254 -0.0011697656118956428 0 -0.027394505024853338 -0.00075688563864280542 0 -0.025429012952180592 -0.00076922054001466757 0 -0.024770941452643795 3.4478714373578539e-05 0 -0.027276281461526254 -0.0011697656118956428 0 -0.027394505024853338 -0.00075688563864280542 0 -0.026981756381527305 -0.00084933366416585889 0 -0.023220851951161598 2.7390031551606532e-05 0 -0.022632302408442287 0.00068174745670386322 0 -0.022810753982006691 0.00014155660342187192 0 -0.027394505024853338 -0.00075688563864280542 0 -0.027029413317783125 -0.00043089871278128498 0 -0.026981756381527305 -0.00084933366416585889 0 -0.027776984385547921 -0.00079217758254027852 0 -0.027684012598508275 -0.0011568664892116548 0 -0.027394505024853338 -0.00075688563864280542 0 -0.027776984385547921 -0.00079217758254027852 0 -0.027394505024853338 -0.00075688563864280542 0 -0.027645601480166822 -0.00058061092392608881 0 -0.027376030238932543 -0.00035078705759964768 0 -0.027394505024853338 -0.00075688563864280542 0 -0.027645601480166822 -0.00058061092392608881 0 -0.027376030238932543 -0.00035078705759964768 0 -0.027394505024853338 -0.00075688563864280542 0 -0.027029413317783125 -0.00043089871278128498 0 -0.027029413317783125 -0.00043089871278128498 0 -0.026664529650977976 -0.0004889501685399996 0 -0.026981756381527305 -0.00084933366416585889 0 -0.024278857346587635 -7.6500413387383653e-05 0 -0.021903601021903592 0.00066168756480983475 0 -0.023114679522545013 4.4167943292031209e-05 0 -0.023011249775709335 -0.00015091930960300229 0 -0.02303407752833235 6.7812418675983538e-05 0 -0.023420869528459454 -0.00022579483097352339 0 -0.024579605706149466 -0.0008049093842910491 0 -0.023114679522545013 4.4167943292031209e-05 0 -0.02303407752833235 6.7812418675983538e-05 0 -0.023056226275265799 0.00011440664298596179 0 -0.023145290498761552 -0.00034326189751069964 0 -0.023148440598199177 -0.00046973295534649456 0 -0.023114972886125195 -0.00043018703777610473 0 -0.024278857346587635 -7.6500413387383653e-05 0 -0.024579605706149466 -0.0008049093842910491 0 -0.022142555956159334 0.0012503321254712001 0 -0.022332419404240193 0.00085442690025810822 0 -0.022632302408442287 0.00068174745670386322 0 -0.024278857346587635 -7.6500413387383653e-05 0 -0.024770941452643795 3.4478714373578539e-05 0 -0.022142555956159334 0.0012503321254712001 0 -0.022332419404240193 0.00085442690025810822 0 -0.021937394005194132 0.00077645638786090856 0 -0.022269879824959531 0.00083545122919985503 0 -0.021903601021903592 0.00066168756480983475 0 -0.022332419404240193 0.00085442690025810822 0 -0.02219313247220522 0.00043658648904922552 0 -0.021838243929699054 0.0007874073080762203 0 -0.022332419404240193 0.00085442690025810822 0 -0.022632302408442287 0.00068174745670386322 0 -0.02219313247220522 0.00043658648904922552 0 -0.022632302408442287 0.00068174745670386322 0 -0.022516172107109291 0.00016440687576639763 0 -0.02219313247220522 0.00043658648904922552 0 -0.022632302408442287 0.00068174745670386322 0 -0.022810753982006691 0.00014155660342187192 0 -0.022516172107109291 0.00016440687576639763 0 -0.022516172107109291 0.00016440687576639763 0 -0.02219313247220522 0.00043658648904922552 0 -0.021975572467706806 2.7544946527856093e-05 0 -0.02219313247220522 0.00043658648904922552 0 -0.021975572467706806 2.7544946527856093e-05 0 -0.021571630835849301 0.00024578133516882345 0 -0.02219313247220522 0.00043658648904922552 0 -0.021571630835849301 0.00024578133516882345 0 -0.021838243929699054 0.0007874073080762203 0 -0.017164743816257381 0.0033086148840474525 0 -0.01642064499707056 0.0024673511542794169 0 -0.017848371932250522 0.0020824520117368904 0 -0.01961436042274789 0.003104187793487308 0 -0.017164743816257381 0.0033086148840474525 0 -0.016552620496684954 0.0034662356135811158 0 -0.017164743816257381 0.0033086148840474525 0 -0.016704161413239913 0.0034418351171038239 0 -0.01642064499707056 0.0024673511542794169 0 -0.017323368831789785 0.002860303567485966 0 -0.018818810241657307 0.0018990370123083957 0 -0.01961436042274789 0.003104187793487308 0 -0.017164743816257381 0.0033086148840474525 0 -0.017848371932250522 0.0020824520117368904 0 -0.02113914353814671 0.0015081899666352253 0 -0.018818810241657307 0.0018990370123083957 0 -0.022870948533903909 -0.00031931880793900549 0 -0.022516172107109291 0.00016440687576639763 0 -0.021975572467706806 2.7544946527856093e-05 0 -0.022870948533903909 -0.00031931880793900549 0 -0.022810753982006691 0.00014155660342187192 0 -0.022516172107109291 0.00016440687576639763 0 -0.016679632295120293 0.00061088115186998455 0 -0.017041550428045157 0.00096933314884624356 0 -0.016612140398653729 0.00021194389942064495 0 -0.017839783028762792 5.7078497359070735e-05 0 -0.018262592706838207 -2.3615816307105704e-07 0 -0.016990977227128275 2.5860693745001242e-07 0 -0.017253410624421085 0.000267364920843332 0 -0.018576427453434345 0.00025733035551026023 0 -0.017839783028762792 5.7078497359070735e-05 0 -0.018262592706838207 -2.3615816307105704e-07 0 -0.017901135601368932 -0.00021436147097343643 0 -0.016704161413239913 0.0034418351171038239 0 -0.01642064499707056 0.0024673511542794169 0 -0.015627574141892656 0.0037506719285273432 0 -0.01642064499707056 0.0024673511542794169 0 -0.015627574141892656 0.0037506719285273432 0 -0.014957544282330728 0.0014783066292461255 0 -0.018111494224883867 0.0012080934438055309 0 -0.015612736151542199 0.0011050955792080955 0 -0.019369591125785769 0.00071910449445626264 0 -0.021903601021903592 0.00066168756480983475 0 -0.016679632295120293 0.00061088115186998455 0 -0.017041550428045157 0.00096933314884624356 0 -0.016876359312281791 0.0010332335808084783 0 -0.020581932806190053 9.2294835355766474e-05 0 -0.020360267304933566 0.00021383871487045018 0 -0.020601325770140729 0.00081457449830737462 0 -0.018742520145735218 0.00056764791147397367 0 -0.018696755862083265 0.00046241963282228865 0 -0.018866372432801742 0.00044912132839382198 0 -0.019369591125785769 0.00071910449445626264 0 -0.019417002609050032 0.00030721485739086522 0 -0.018696755862083265 0.00046241963282228865 0 -0.018866372432801742 0.00044912132839382198 0 -0.018981178542256717 0.00030563136282791642 0 -0.018111494224883867 0.0012080934438055309 0 -0.019369591125785769 0.00071910449445626264 0 -0.018111494224883867 0.0012080934438055309 0 -0.018576427453434345 0.00025733035551026023 0 -0.018866372432801742 0.00044912132839382198 0 -0.01903763381311973 0.00045383241075808221 0 -0.018981178542256717 0.00030563136282791642 0 -0.018742520145735218 0.00056764791147397367 0 -0.018866372432801742 0.00044912132839382198 0 -0.01903763381311973 0.00045383241075808221 0 -0.018576427453434345 0.00025733035551026023 0 -0.019417002609050032 0.00030721485739086522 0 -0.018818810241657307 0.0018990370123083957 0 -0.019369591125785769 0.00071910449445626264 0 -0.018705256321462579 0.001635571315965711 0 -0.019003364479660976 0.0015109529985062671 0 -0.018985869794527193 0.0014702722481054675 0 -0.018818810241657307 0.0018990370123083957 0 -0.018111494224883867 0.0012080934438055309 0 -0.019417002609050032 0.00030721485739086522 0 -0.021695149830665665 0.00013569782992927683 0 -0.018266394690536487 1.3590148414045354e-09 0 -0.019244012281647169 -1.001339981377566e-07 0 -0.019486421464025946 -1.3927343697480396e-09 0 -0.020445355132966549 -0.00019438551201959446 0 -0.020179902164398297 -4.8671841368385555e-05 0 -0.02040456340740017 0.00029302153665784037 0 -0.019758935361878463 -1.4362081506685184e-05 0 -0.019063506337919638 -0.00011433813361933602 0 -0.018576427453434345 0.00025733035551026023 0 -0.019063506337919638 -0.00011433813361933602 0 -0.019013203254458731 0.00021072170088741815 0 -0.018960057359675271 7.1395472143573414e-05 0 -0.019319704741759026 -0.00012641845833575582 0 -0.019013203254458731 0.00021072170088741815 0 -0.019319704741759026 -0.00012641845833575582 0 -0.01943261205013511 4.9621604884809699e-05 0 -0.019417002609050032 0.00030721485739086522 0 -0.019758935361878463 -1.4362081506685184e-05 0 -0.017678521066046091 -0.00039546168648849089 0 -0.017938643820435165 -0.00050528109201850957 0 -0.017901135601368932 -0.00021436147097343643 0 -0.017839783028762792 5.7078497359070735e-05 0 -0.017678521066046091 -0.00039546168648849089 0 -0.017901135601368932 -0.00021436147097343643 0 -0.018264665758439238 -2.3009112222368214e-07 0 -0.019063506337919638 -0.00011433813361933602 0 -0.018262592706838207 -2.3615816307105704e-07 0 -0.017938643820435165 -0.00050528109201850957 0 -0.017901135601368932 -0.00021436147097343643 0 -0.019063506337919638 -0.00011433813361933602 0 -0.019488272926245668 -1.9823814412190133e-07 0 -0.019769064603314932 -2.075566052394058e-05 0 -0.019490437686165152 -4.3126032361171483e-07 0 -0.019855504462148774 4.3134717334103105e-07 0 -0.019769064603314932 -2.075566052394058e-05 0 -0.019716140309558795 -9.9212462720741157e-05 0 -0.019490437686165152 -4.3126032361171483e-07 0 -0.019758935361878463 -1.4362081506685184e-05 0 -0.020068384309807112 -9.0578483736000813e-05 0 -0.019860232714522332 -1.4315787168489839e-06 0 -0.02081197479874362 7.3094557308289575e-06 0 -0.021538386665160201 6.9439572292072536e-07 0 -0.020324852930254617 -0.00022401408956540579 0 -0.020021250413999082 -5.7949458763348636e-05 0 -0.020492002371514141 3.2547418965894806e-05 0 -0.020068384309807112 -9.0578483736000813e-05 0 -0.020994974615838793 -4.3391682923054202e-06 0 -0.019860232714522332 -1.4315787168489839e-06 0 -0.02081197479874362 7.3094557308289575e-06 0 -0.021518201225105893 -0.00034879317629003549 0 -0.019758935361878463 -1.4362081506685184e-05 0 -0.020994974615838793 -4.3391682923054202e-06 0 -0.02081197479874362 7.3094557308289575e-06 0 -0.021518201225105893 -0.00034879317629003549 0 -0.021586475427894783 0.00010494966708152278 0 -0.022922208854186919 -0.00016643416554051906 0 -0.023011249775709335 -0.00015091930960300229 0 -0.02303407752833235 6.7812418675983538e-05 0 -0.020581932806190053 9.2294835355766474e-05 0 -0.020601325770140729 0.00081457449830737462 0 -0.020942174848947424 0.00087911582537773781 0 -0.021695149830665665 0.00013569782992927683 0 -0.021903601021903592 0.00066168756480983475 0 -0.020445355132966549 -0.00019438551201959446 0 -0.020659346739427903 0.00034116426672165439 0 -0.02040456340740017 0.00029302153665784037 0 -0.021695149830665665 0.00013569782992927683 0 -0.020994974615838793 -4.3391682923054202e-06 0 -0.021518201225105893 -0.00034879317629003549 0 -0.022017609898846793 0.00014435090145369363 0 -0.021586475427894783 0.00010494966708152278 0 -0.021805775029905515 -0.00010778369133102828 0 -0.021650875483223486 -0.0001363743022186511 0 -0.021899415163991225 0.00023282356650863818 0 -0.020994974615838793 -4.3391682923054202e-06 0 -0.022480806027991018 -4.5112271454662416e-05 0 -0.021695149830665665 0.00013569782992927683 0 -0.022480806027991018 -4.5112271454662416e-05 0 -0.022017609898846793 0.00014435090145369363 0 -0.022321142915445631 0.00016546975283386029 0 -0.022145033074338401 0.00013664214677724351 0 -0.022017609898846793 0.00014435090145369363 0 -0.021586475427894783 0.00010494966708152278 0 -0.022321142915445631 0.00016546975283386029 0 -0.02243599371347401 -0.00014603881768888619 0 -0.022499695689615858 1.1243995859332949e-05 0 -0.02256606738190586 9.0239032652833617e-05 0 -0.021695149830665665 0.00013569782992927683 0 -0.023420869528459454 -0.00022579483097352339 0 -0.022480806027991018 -4.5112271454662416e-05 0 -0.023608626876475258 -0.00036326463098999807 0 -0.023229636966598636 -0.00020144485060231892 0 -0.023145290498761552 -0.00034326189751069964 0 -0.023148440598199177 -0.00046973295534649456 0 -0.022480806027991018 -4.5112271454662416e-05 0 -0.023420869528459454 -0.00022579483097352339 0 -0.021586475427894783 0.00010494966708152278 0 -0.021538386665160201 6.9439572292072536e-07 0 -0.022321142915445631 0.00016546975283386029 0 -0.02081197479874362 7.3094557308289575e-06 0 -0.021586475427894783 0.00010494966708152278 0 -0.021538386665160201 6.9439572292072536e-07 0 -0.022321142915445631 0.00016546975283386029 0 -0.023088779667294796 0.00013371659979502902 0 -0.023177924607473206 5.8900729774950387e-07 0 -0.021538386665160201 6.9439572292072536e-07 0 -0.022321142915445631 0.00016546975283386029 0 -0.023177924607473206 5.8900729774950387e-07 0 -0.023088779667294796 0.00013371659979502902 0 -0.023177924607473206 5.8900729774950387e-07 0 -0.024812397706649472 -1.0948107633152382e-06 0 -0.023088779667294796 0.00013371659979502902 0 -0.022984375893717691 6.5238192703406293e-05 0 -0.023219029273234208 -7.7978988967625693e-05 0 -0.023088779667294796 0.00013371659979502902 0 -0.023026661214789152 0.00019183390131900579 0 -0.022984375893717691 6.5238192703406293e-05 0 -0.022321142915445631 0.00016546975283386029 0 -0.023088779667294796 0.00013371659979502902 0 -0.022145033074338401 0.00013664214677724351 0 -0.022637388384189109 0.00042005538878168102 0 -0.023608626876475258 -0.00036326463098999807 0 -0.026054363829994744 -0.0017008939022385211 0 -0.02609788469846697 -0.0017560149840758026 0 -0.026393091994850109 -0.0012035348321797427 0 -0.026190808396579161 -0.0018176794814459805 0 -0.02658923842894758 -0.0013392662956105837 0 -0.026462308944141654 -0.0012389130579893461 0 -0.023608626876475258 -0.00036326463098999807 0 -0.024579605706149466 -0.0008049093842910491 0 -0.024278857346587635 -7.6500413387383653e-05 0 -0.026489552960978078 -0.00021838725206859224 0 -0.02554741737991241 -0.00092343811982547404 0 -0.025400773149749725 -0.00074556306637001818 0 -0.025824214228584469 -0.00035851022254278361 0 -0.024579605706149466 -0.0008049093842910491 0 -0.026238754095568896 -0.00083224767139815131 0 -0.025400773149749725 -0.00074556306637001818 0 -0.025824214228584469 -0.00035851022254278361 0 -0.02575916069007499 -0.00027947091245847833 0 -0.024579605706149466 -0.0008049093842910491 0 -0.026526754890671099 -0.0013225246462001718 0 -0.023608626876475258 -0.00036326463098999807 0 -0.024795182597300184 -0.00052283758136030024 0 -0.027029413317783125 -0.00043089871278128498 0 -0.026664529650977976 -0.0004889501685399996 0 -0.026841953334701719 -0.00012712306149402074 0 -0.027152273360575237 -9.5174774330684147e-05 0 -0.027029413317783125 -0.00043089871278128498 0 -0.026841953334701719 -0.00012712306149402074 0 -0.027152273360575237 -9.5174774330684147e-05 0 -0.026841953334701719 -0.00012712306149402074 0 -0.027018138165597668 0.00022452107930631256 0 -0.026489552960978078 -0.00021838725206859224 0 -0.026681298720915726 -0.00012651469448068372 0 -0.02658923842894758 -0.0013392662956105837 0 -0.026462308944141654 -0.0012389130579893461 0 -0.026983318077379727 -0.00080493550941741017 0 -0.027230357654828074 0.00012358688373719087 0 -0.027152273360575237 -9.5174774330684147e-05 0 -0.027018138165597668 0.00022452107930631256 0 -0.026238754095568896 -0.00083224767139815131 0 -0.026681298720915726 -0.00012651469448068372 0 -0.025824214228584469 -0.00035851022254278361 0 -0.02575916069007499 -0.00027947091245847833 0 -0.0261155915967669 0.00020338349311495437 0 -0.026054363829994744 -0.0017008939022385211 0 -0.026393091994850109 -0.0012035348321797427 0 -0.026373954131745384 -0.001037490361103003 0 -0.026393091994850109 -0.0012035348321797427 0 -0.026373954131745384 -0.001037490361103003 0 -0.026724129654950204 -0.00060580061335244889 0 -0.026373954131745384 -0.001037490361103003 0 -0.026724129654950204 -0.00060580061335244889 0 -0.026713428391819179 -0.0002994978103907993 0 -0.022984375893717691 6.5238192703406293e-05 0 -0.02307356066512951 -0.00037198115539469517 0 -0.022799759975591017 -0.00048989951664573012 0 -0.022984375893717691 6.5238192703406293e-05 0 -0.02307356066512951 -0.00037198115539469517 0 -0.023219029273234208 -7.7978988967625693e-05 0 -0.026526754890671099 -0.0013225246462001718 0 -0.02668741697881797 -0.00061370563217649971 0 -0.024795182597300184 -0.00052283758136030024 0 -0.024620295125744766 -0.00049031845358002749 0 -0.026724129654950204 -0.00060580061335244889 0 -0.026983318077379727 -0.00080493550941741017 0 -0.026713428391819179 -0.0002994978103907993 0 -0.026462308944141654 -0.0012389130579893461 0 -0.026724129654950204 -0.00060580061335244889 0 -0.026983318077379727 -0.00080493550941741017 0 -0.027031534944944213 0.00055591595019499227 0 -0.026713428391819179 -0.0002994978103907993 0 -0.027116330721613988 -7.1441556243904882e-05 0 -0.026983318077379727 -0.00080493550941741017 0 -0.026713428391819179 -0.0002994978103907993 0 -0.027116330721613988 -7.1441556243904882e-05 0 -0.027572256126336365 -7.1798498216037185e-05 0 -0.026983318077379727 -0.00080493550941741017 0 -0.027116330721613988 -7.1441556243904882e-05 0 -0.023016267033920689 -0.00077929439600480592 0 -0.02307356066512951 -0.00037198115539469517 0 -0.022799759975591017 -0.00048989951664573012 0 -0.023016267033920689 -0.00077929439600480592 0 -0.02307356066512951 -0.00037198115539469517 0 -0.023538151262628412 -0.00067694722425445692 0 -0.02515763740018534 -0.00045117667293605531 0 -0.025285594670266316 -0.00030973587893082499 0 -0.025285594670266316 -0.00030973587893082499 0 -0.024816142150937585 -1.2670898309185518e-07 0 -0.026589026815451215 8.8780251221205661e-07 0 -0.026935282431744808 -0.00017488043096355267 0 -0.024818520264654025 -1.6493872085589848e-06 0 -0.023088779667294796 0.00013371659979502902 0 -0.024812397706649472 -1.0948107633152382e-06 0 -0.023219029273234208 -7.7978988967625693e-05 0 -0.023538151262628412 -0.00067694722425445692 0 -0.024812397706649472 -1.0948107633152382e-06 0 -0.023219029273234208 -7.7978988967625693e-05 0 -0.02307356066512951 -0.00037198115539469517 0 -0.023538151262628412 -0.00067694722425445692 0 -0.023219029273234208 -7.7978988967625693e-05 0 -0.0080727098266059841 -0.00063904706791659727 0 -0.0083884151267278623 -0.00019946206306705307 0 -0.006493252708597505 -0.0010724566136372019 0 -0.0058729428983209896 -0.0013599667994821762 0 -0.006107507591338027 -0.001905200023744565 0 -0.0097892735143492622 1.5734690906568253e-07 0 -0.010737012546173813 0.00017168666573648322 0 -0.011263616140328104 -1.7176870605183254e-07 0 -0.0097892735143492622 1.5734690906568253e-07 0 -0.010290254790987987 -0.00027506375309523714 0 -0.010737012546173813 0.00017168666573648322 0 -0.0097840860948427474 -4.2895196571829243e-07 0 -0.0080727098266059841 -0.00063904706791659727 0 -0.00978073761702207 -1.9429730178951419e-07 0 -0.0089280824668969035 -3.0553869752021371e-05 0 -0.007966725242293542 -2.7761346981511134e-07 0 -0.006493252708597505 -0.0010724566136372019 0 -0.0058319131092868228 -0.0008310473569807076 0 -0.0058729428983209896 -0.0013599667994821762 0 -0.0080727098266059841 -0.00063904706791659727 0 -0.0054076209020754787 -0.00081377413399326599 0 -0.0055555417912551064 -0.0011146463586939627 0 -0.0058319131092868228 -0.0008310473569807076 0 -0.0058729428983209896 -0.0013599667994821762 0 -0.0055555417912551064 -0.0011146463586939627 0 -0.0051445060264959245 -0.001068209577421222 0 -0.0054414144709149332 -0.00039337149786175253 0 -0.0038040866960369528 0.0011689091121458138 0 -0.0037641963630029628 0.0012942260595480745 0 -0.0038196428410142464 0.0012444854725830548 0 -0.0055555417912551064 -0.0011146463586939627 0 -0.0051445060264959245 -0.001068209577421222 0 -0.0053873867886940572 -0.0018589249174483021 0 -0.0037641963630029628 0.0012942260595480745 0 -0.0038196428410142464 0.0012444854725830548 0 -0.0038483876177605111 0.0013109785627028535 0 -0.0044995359113350186 -9.8325010564790814e-05 0 -0.0044654066114418137 0.00043236435841549614 0 -0.0055555417912551064 -0.0011146463586939627 0 -0.0058729428983209896 -0.0013599667994821762 0 -0.0053873867886940572 -0.0018589249174483021 0 -0.0058729428983209896 -0.0013599667994821762 0 -0.0053873867886940572 -0.0018589249174483021 0 -0.006107507591338027 -0.001905200023744565 0 -0.0044654066114418137 0.00043236435841549614 0 -0.0083884151267278623 -0.00019946206306705307 0 -0.0053292783235117866 0.0014620853822614336 0 -0.0046740940147412657 0.0015655664350419868 0 -0.005433117150667929 0.0016727173170900647 0 -0.0046317551144753992 0.0017424773710975245 0 -0.0046740940147412657 0.0015655664350419868 0 -0.005433117150667929 0.0016727173170900647 0 -0.0053292783235117866 0.0014620853822614336 0 -0.0046740940147412657 0.0015655664350419868 0 -0.0044866400061153271 0.0012891313820554433 0 -0.009192754932015176 0.0010044915318074108 0 -0.0065631091244818321 0.0023192923781239151 0 -0.0044654066114418137 0.00043236435841549614 0 -0.0039530101828323515 0.0015009912044214137 0 -0.0043911226631069599 0.0015077122437372875 0 -0.0046190474570210376 0.0016773865330575758 0 -0.0041451701222674255 0.0015762571822514658 0 -0.0043911226631069599 0.0015077122437372875 0 -0.0046190474570210376 0.0016773865330575758 0 -0.0046740940147412657 0.0015655664350419868 0 -0.0044654066114418137 0.00043236435841549614 0 -0.0044068214598985446 0.0011024155083448352 0 -0.0043911226631069599 0.0015077122437372875 0 -0.0046740940147412657 0.0015655664350419868 0 -0.0044866400061153271 0.0012891313820554433 0 -0.0043911226631069599 0.0015077122437372875 0 -0.0044866400061153271 0.0012891313820554433 0 -0.0041890536266776636 0.0014402653809302674 0 -0.0090699573503434192 0.0030921463098921198 0 -0.0099344968898103618 0.0024410704586266285 0 -0.0083600137786865591 0.0020056964870840289 0 -0.013694184282760421 -0.0028667438040714602 0 -0.014245231248331771 -0.0016569052107514809 0 -0.016456582922647928 -0.0057302011169909186 0 -0.014670314094949902 -0.0062081862063432568 0 -0.015791995805096416 -0.0043440202874331273 0 -0.010385218621882816 0.003470726458982094 0 -0.0090699573503434192 0.0030921463098921198 0 -0.0099344968898103618 0.0024410704586266285 0 -0.010990828656766776 -0.00096670279528898696 0 -0.010690890059382034 -0.0017202365068069814 0 -0.011289886392730221 -0.0015278418429189441 0 -0.009192754932015176 0.0010044915318074108 0 -0.013694184282760421 -0.0028667438040714602 0 -0.013694184282760421 -0.0028667438040714602 0 -0.012801244464755787 -0.0038737590168734632 0 -0.014670314094949902 -0.0062081862063432568 0 -0.012974198401453595 -0.0066874440000690228 0 -0.014344846341138737 -0.004806972917294882 0 -0.011289886392730221 -0.0015278418429189441 0 -0.011531447968467348 -0.0012073817639990587 0 -0.011928018944055282 -0.0013371491784595309 0 -0.012801244464755787 -0.0038737590168734632 0 -0.012707349690405231 -0.0021669749472599475 0 -0.01134338155913747 -0.00083164680602718717 0 -0.011070112376171054 -0.0007137923784031081 0 -0.012299947622736306 -0.00082672620539287367 0 -0.010990828656766776 -0.00096670279528898696 0 -0.011289886392730221 -0.0015278418429189441 0 -0.011531447968467348 -0.0012073817639990587 0 -0.010990828656766776 -0.00096670279528898696 0 -0.011531447968467348 -0.0012073817639990587 0 -0.01134338155913747 -0.00083164680602718717 0 -0.010950994690063212 -0.00095477051922391145 0 -0.01134338155913747 -0.00083164680602718717 0 -0.011070112376171054 -0.0007137923784031081 0 -0.009192754932015176 0.0010044915318074108 0 -0.010952006609976158 0.00015532196246325077 0 -0.009192754932015176 0.0010044915318074108 0 -0.0083884151267278623 -0.00019946206306705307 0 -0.011531447968467348 -0.0012073817639990587 0 -0.01134338155913747 -0.00083164680602718717 0 -0.012299947622736306 -0.00082672620539287367 0 -0.011531447968467348 -0.0012073817639990587 0 -0.012299947622736306 -0.00082672620539287367 0 -0.011928018944055282 -0.0013371491784595309 0 -0.0083884151267278623 -0.00019946206306705307 0 -0.012641827590595933 -0.00056674110007248605 0 -0.011934897922232724 -1.6635161987751498e-06 0 -0.012707349690405231 -0.0021669749472599475 0 -0.011271757894025632 3.8848860307202147e-09 0 -0.011932029811741785 -2.0375573427650467e-08 0 -0.01212638206233348 -9.7090453003636746e-06 0 -0.012641827590595933 -0.00056674110007248605 0 -0.012707349690405231 -0.0021669749472599475 0 -0.012707349690405231 -0.0021669749472599475 0 -0.014445030888680087 -0.0026591674492593988 0 -0.01193544212850183 -1.4425762161193294e-06 0 -0.013068718671168921 -0.00032808933370353035 0 -0.013584891920436723 -0.00010431192068807147 0 -0.013068718671168921 -0.00032808933370353035 0 -0.013584891920436723 -0.00010431192068807147 0 -0.014601492080225723 -0.00026231872431610139 0 -0.01193544212850183 -1.4425762161193294e-06 0 -0.013584891920436723 -0.00010431192068807147 0 -0.013689830117675853 6.4219086745412534e-08 0 -0.013584891920436723 -0.00010431192068807147 0 -0.014168893839636357 -8.1536446877220422e-05 0 -0.013689830117675853 6.4219086745412534e-08 0 -0.014168893839636357 -8.1536446877220422e-05 0 -0.013689830117675853 6.4219086745412534e-08 0 -0.014903841080849521 2.6889252966190983e-05 0 -0.013584891920436723 -0.00010431192068807147 0 -0.014168893839636357 -8.1536446877220422e-05 0 -0.014601492080225723 -0.00026231872431610139 0 -0.014445030888680087 -0.0026591674492593988 0 -0.015880263345178183 -0.0013845260065910091 0 -0.014344846341138737 -0.004806972917294882 0 -0.01574376993283412 -0.0027433079927822179 0 -0.015791995805096416 -0.0043440202874331273 0 -0.014168893839636357 -8.1536446877220422e-05 0 -0.014601492080225723 -0.00026231872431610139 0 -0.014903841080849521 2.6889252966190983e-05 0 -0.014670314094949902 -0.0062081862063432568 0 -0.014344846341138737 -0.004806972917294882 0 -0.015791995805096416 -0.0043440202874331273 0 -0.014601492080225723 -0.00026231872431610139 0 -0.014903841080849521 2.6889252966190983e-05 0 -0.015807024498579712 -0.00026835298985948097 0 -0.014903841080849521 2.6889252966190983e-05 0 -0.015459709297187653 0.00022116225609755203 0 -0.015807024498579712 -0.00026835298985948097 0 -0.015459709297187653 0.00022116225609755203 0 -0.016202919010097645 0.00011885102101280898 0 -0.015807024498579712 -0.00026835298985948097 0 -0.013689830117675853 6.4219086745412534e-08 0 -0.014903841080849521 2.6889252966190983e-05 0 -0.015438856819091148 9.8253789157673439e-07 0 -0.014903841080849521 2.6889252966190983e-05 0 -0.015438856819091148 9.8253789157673439e-07 0 -0.015459709297187653 0.00022116225609755203 0 -0.015446482439644145 -4.1257306546777473e-07 0 -0.015712052889220389 4.2669244727144568e-07 0 -0.016612140398653729 0.00021194389942064495 0 -0.015438856819091148 9.8253789157673439e-07 0 -0.015459709297187653 0.00022116225609755203 0 -0.014957544282330728 0.0014783066292461255 0 -0.015443063835858225 3.1753408573330872e-07 0 -0.015612736151542199 0.0011050955792080955 0 -0.015716301388237562 4.8451153195929131e-08 0 -0.016666951125437045 0.00016558860432887895 0 -0.015459709297187653 0.00022116225609755203 0 -0.016229476667592144 0.0010118130146673768 0 -0.016202919010097645 0.00011885102101280898 0 -0.015459709297187653 0.00022116225609755203 0 -0.014957544282330728 0.0014783066292461255 0 -0.016229476667592144 0.0010118130146673768 0 -0.01642064499707056 0.0024673511542794169 0 -0.014957544282330728 0.0014783066292461255 0 -0.016229476667592144 0.0010118130146673768 0 -0.015712052889220389 4.2669244727144568e-07 0 -0.016612140398653729 0.00021194389942064495 0 -0.016359114531898235 0.00016245647561229399 0 -0.016679632295120293 0.00061088115186998455 0 -0.016612140398653729 0.00021194389942064495 0 -0.016359114531898235 0.00016245647561229399 0 -0.015715944194062973 -2.6733329612770164e-07 0 -0.016990977227128275 2.5860693745001242e-07 0 -0.017080921761800486 -2.0213210118179784e-05 0 -0.017839783028762792 5.7078497359070735e-05 0 -0.016990977227128275 2.5860693745001242e-07 0 -0.017080921761800486 -2.0213210118179784e-05 0 -0.017253410624421085 0.000267364920843332 0 -0.016666951125437045 0.00016558860432887895 0 -0.01961436042274789 0.003104187793487308 0 -0.017848371932250522 0.0020824520117368904 0 -0.019657738241231768 0.00089629687367152411 0 -0.017848371932250522 0.0020824520117368904 0 -0.017417866310068669 -0.00012725103900212013 0 -0.019657738241231768 0.00089629687367152411 0 -0.017848371932250522 0.0020824520117368904 0 -0.016229476667592144 0.0010118130146673768 0 -0.017417866310068669 -0.00012725103900212013 0 -0.01642064499707056 0.0024673511542794169 0 -0.017848371932250522 0.0020824520117368904 0 -0.016229476667592144 0.0010118130146673768 0 -0.016202919010097645 0.00011885102101280898 0 -0.017417866310068669 -0.00012725103900212013 0 -0.015807024498579712 -0.00026835298985948097 0 -0.016229476667592144 0.0010118130146673768 0 -0.016202919010097645 0.00011885102101280898 0 -0.017417866310068669 -0.00012725103900212013 0 -0.017417866310068669 -0.00012725103900212013 0 -0.020029206307265016 -0.0010852162413946828 0 -0.019657738241231768 0.00089629687367152411 0 -0.017417866310068669 -0.00012725103900212013 0 -0.018057795350445834 -0.0028010812353362904 0 -0.020029206307265016 -0.0010852162413946828 0 -0.017417866310068669 -0.00012725103900212013 0 -0.018057795350445834 -0.0028010812353362904 0 -0.01574376993283412 -0.0027433079927822179 0 -0.017251256513095174 -0.00013612092587020282 0 -0.015880263345178183 -0.0013845260065910091 0 -0.018057795350445834 -0.0028010812353362904 0 -0.01574376993283412 -0.0027433079927822179 0 -0.015791995805096416 -0.0043440202874331273 0 -0.016456582922647928 -0.0057302011169909186 0 -0.018057795350445834 -0.0028010812353362904 0 -0.015791995805096416 -0.0043440202874331273 0 -0.013694184282760421 -0.0028667438040714602 0 -0.01851072261376998 -0.0041157582354877488 0 -0.016216528921377839 -0.0067070974051102851 0 -0.018057795350445834 -0.0028010812353362904 0 -0.020350463680623772 -0.0054948938318752716 0 -0.018057795350445834 -0.0028010812353362904 0 -0.020350463680623772 -0.0054948938318752716 0 -0.021793763145658125 -0.00301925970766133 0 -0.014245231248331771 -0.0016569052107514809 0 -0.015454074484400022 -0.0013015845380382576 0 -0.0083600137786865591 0.0020056964870840289 0 -0.0064849501104592474 0.0015639802622315251 0 -0.0076019462601996206 0.0027555162378559697 0 -0.0064849501104592474 0.0015639802622315251 0 -0.0059469026090357754 0.0023684185940567488 0 -0.0076019462601996206 0.0027555162378559697 0 -0.020350463680623772 -0.0054948938318752716 0 -0.024422462139855466 -0.0042305814252291477 0 -0.021793763145658125 -0.00301925970766133 0 -0.024422462139855466 -0.0042305814252291477 0 -0.024456104816559625 -0.001948749063126117 0 -0.021793763145658125 -0.00301925970766133 0 -0.024456104816559625 -0.001948749063126117 0 -0.021793763145658125 -0.00301925970766133 0 -0.022243951383916324 -0.0013240448412638552 0 -0.018057795350445834 -0.0028010812353362904 0 -0.021793763145658125 -0.00301925970766133 0 -0.020029206307265016 -0.0010852162413946828 0 -0.021793763145658125 -0.00301925970766133 0 -0.020029206307265016 -0.0010852162413946828 0 -0.022243951383916324 -0.0013240448412638552 0 -0.020029206307265016 -0.0010852162413946828 0 -0.02136289732600339 -0.00018839825211609549 0 -0.019657738241231768 0.00089629687367152411 0 -0.02136289732600339 -0.00018839825211609549 0 -0.019657738241231768 0.00089629687367152411 0 -0.021781019699317356 0.0011919312129488489 0 -0.020029206307265016 -0.0010852162413946828 0 -0.02136289732600339 -0.00018839825211609549 0 -0.022243951383916324 -0.0013240448412638552 0 -0.024456104816559625 -0.001948749063126117 0 -0.023317045727996002 -3.0342899635873455e-05 0 -0.024665310128686866 0.0017680809749965397 0 -0.02136289732600339 -0.00018839825211609549 0 -0.022243951383916324 -0.0013240448412638552 0 -0.023317045727996002 -3.0342899635873455e-05 0 -0.024456104816559625 -0.001948749063126117 0 -0.022243951383916324 -0.0013240448412638552 0 -0.023317045727996002 -3.0342899635873455e-05 0 -0.02136289732600339 -0.00018839825211609549 0 -0.023317045727996002 -3.0342899635873455e-05 0 -0.021781019699317356 0.0011919312129488489 0 -0.023317045727996002 -3.0342899635873455e-05 0 -0.023480269305388317 0.0013816274468290285 0 -0.021781019699317356 0.0011919312129488489 0 -0.023480269305388317 0.0013816274468290285 0 -0.023730950327999083 0.0020838992548568502 0 -0.021781019699317356 0.0011919312129488489 0 -0.023317045727996002 -3.0342899635873455e-05 0 -0.023480269305388317 0.0013816274468290285 0 -0.024665310128686866 0.0017680809749965397 0 -0.023480269305388317 0.0013816274468290285 0 -0.023730950327999083 0.0020838992548568502 0 -0.024665310128686866 0.0017680809749965397 0 -0.024838201846660843 -0.00029247154550971123 0 -0.026243804884861676 -0.00047118469021149259 0 -0.02113914353814671 0.0015081899666352253 0 -0.024838201846660843 -0.00029247154550971123 0 -0.01961436042274789 0.003104187793487308 0 -0.019657738241231768 0.00089629687367152411 0 -0.021781019699317356 0.0011919312129488489 0 -0.01961436042274789 0.003104187793487308 0 -0.023730950327999083 0.0020838992548568502 0 -0.021781019699317356 0.0011919312129488489 0 -0.027316574647486283 -0.0011230581690991354 0 -0.027589203476805744 -0.0014917016164713969 0 -0.027680010966100278 -0.0014633449893617294 0 -0.02779399410098243 -0.0016207538423554091 0 -0.027316574647486283 -0.0011230581690991354 0 -0.027680010966100278 -0.0014633449893617294 0 -0.026243804884861676 -0.00047118469021149259 0 -0.027419660538896412 -0.0011210513531300834 0 -0.02779399410098243 -0.0016207538423554091 0 -0.028135532432150619 -0.0014340073033146869 0 -0.027316574647486283 -0.0011230581690991354 0 -0.025225567516671682 3.9063568562876449e-05 0 -0.025969669622444982 -0.0014519073832946687 0 -0.027316574647486283 -0.0011230581690991354 0 -0.024271098221412622 -0.0013127217388519434 0 -0.026243804884861676 -0.00047118469021149259 0 -0.024456104816559625 -0.001948749063126117 0 -0.025225567516671682 3.9063568562876449e-05 0 -0.025969669622444982 -0.0014519073832946687 0 -0.024456104816559625 -0.001948749063126117 0 -0.025969669622444982 -0.0014519073832946687 0 -0.02580985029804567 -0.0023166320598808996 0 -0.025969669622444982 -0.0014519073832946687 0 -0.026909590955343177 -0.00183086295998872 0 -0.02580985029804567 -0.0023166320598808996 0 -0.025969669622444982 -0.0014519073832946687 0 -0.026909590955343177 -0.00183086295998872 0 -0.027316574647486283 -0.0011230581690991354 0 -0.026909590955343177 -0.00183086295998872 0 -0.027316574647486283 -0.0011230581690991354 0 -0.027589203476805744 -0.0014917016164713969 0 -0.026909590955343177 -0.00183086295998872 0 -0.027250401402384779 -0.0025919596142879122 0 -0.027589203476805744 -0.0014917016164713969 0 -0.026909590955343177 -0.00183086295998872 0 -0.027250401402384779 -0.0025919596142879122 0 -0.02580985029804567 -0.0023166320598808996 0 -0.024422462139855466 -0.0042305814252291477 0 -0.024456104816559625 -0.001948749063126117 0 -0.02580985029804567 -0.0023166320598808996 0 -0.024422462139855466 -0.0042305814252291477 0 -0.027250401402384779 -0.0025919596142879122 0 -0.02580985029804567 -0.0023166320598808996 0 -0.015454074484400022 -0.0013015845380382576 0 -0.015950910825584041 -0.00051026918108344743 0 -0.0064849501104592474 0.0015639802622315251 0 -0.0046951071863154479 0.0015769096644605463 0 -0.0053875162768572335 0.0018365698868266142 0 -0.0064849501104592474 0.0015639802622315251 0 -0.0059469026090357754 0.0023684185940567488 0 -0.0053875162768572335 0.0018365698868266142 0 -0.0050130134541205669 0.0019796348283115982 0 -0.0045829839765979437 0.0018478323674314271 0 -0.0059469026090357754 0.0023684185940567488 0 -0.0045515124667673415 0.0018300091517340074 0 -0.0053875162768572335 0.0018365698868266142 0 -0.0040680140699394319 0.0016313106148777422 0 -0.0045515124667673415 0.0018300091517340074 0 -0.0042789706463435074 0.0015924193631935857 0 -0.0046951071863154479 0.0015769096644605463 0 -0.0045515124667673415 0.0018300091517340074 0 -0.0053875162768572335 0.0018365698868266142 0 -0.0042789706463435074 0.0015924193631935857 0 -0.0042221672825295238 0.0014489817616115651 0 -0.0044161692921792107 0.0016180416835667637 0 -0.0045515124667673415 0.0018300091517340074 0 -0.0042789706463435074 0.0015924193631935857 0 -0.0044392144197246495 0.001707570847149802 0 -0.0042221672825295238 0.0014489817616115651 0 -0.0040679976036013732 0.0014588763951142328 0 -0.0040475869092594452 0.001317172909709269 0 -0.0042789706463435074 0.0015924193631935857 0 -0.0042221672825295238 0.0014489817616115651 0 -0.0040679976036013732 0.0014588763951142328 0 -0.0040679976036013732 0.0014588763951142328 0 -0.0039773921473654191 0.0013802419143507448 0 -0.0040475869092594452 0.001317172909709269 0 -0.0040680140699394319 0.0016313106148777422 0 -0.0042789706463435074 0.0015924193631935857 0 -0.0040679976036013732 0.0014588763951142328 0 -0.0040680140699394319 0.0016313106148777422 0 -0.0040679976036013732 0.0014588763951142328 0 -0.0040404838583493865 0.0014755740213530514 0 -0.0040680140699394319 0.0016313106148777422 0 -0.0040404838583493865 0.0014755740213530514 0 -0.0040563267484555665 0.0013769394976567179 0 -0.0050130134541205669 0.0019796348283115982 0 -0.0058741492643678761 0.002065258262533409 0 -0.0040404838583493865 0.0014755740213530514 0 -0.0040563267484555665 0.0013769394976567179 0 -0.0040200492426394436 0.0014365231053880549 0 -0.0065631091244818321 0.0023192923781239151 0 -0.0058741492643678761 0.002065258262533409 0 -0.0090699573503434192 0.0030921463098921198 0 -0.0083600137786865591 0.0020056964870840289 0 -0.0076019462601996206 0.0027555162378559697 0 -0.0044866400061153271 0.0012891313820554433 0 -0.0040563267484555665 0.0013769394976567179 0 -0.0041890536266776636 0.0014402653809302674 0 -0.0040563267484555665 0.0013769394976567179 0 -0.0041890536266776636 0.0014402653809302674 0 -0.0040200492426394436 0.0014365231053880549 0 -0.0041890536266776636 0.0014402653809302674 0 -0.0040200492426394436 0.0014365231053880549 0 -0.0041451701222674255 0.0015762571822514658 0 -0.0043911226631069599 0.0015077122437372875 0 -0.0041890536266776636 0.0014402653809302674 0 -0.0041451701222674255 0.0015762571822514658 0 -0.0040679976036013732 0.0014588763951142328 0 -0.0040404838583493865 0.0014755740213530514 0 -0.0040200492426394436 0.0014365231053880549 0 -0.0040200492426394436 0.0014365231053880549 0 -0.0039773921473654191 0.0013802419143507448 0 -0.0041451701222674255 0.0015762571822514658 0 -0.0040679976036013732 0.0014588763951142328 0 -0.0040200492426394436 0.0014365231053880549 0 -0.0039773921473654191 0.0013802419143507448 0 -0.0039773921473654191 0.0013802419143507448 0 -0.0039096202499826387 0.0012326061412281982 0 -0.0039382386466320389 0.0011983927495193515 0 -0.0039773921473654191 0.0013802419143507448 0 -0.0038483876177605111 0.0013109785627028535 0 -0.0039096202499826387 0.0012326061412281982 0 -0.0040209501600272897 0.0013883028120384412 0 -0.0039530101828323515 0.0015009912044214137 0 -0.0038196428410142464 0.0012444854725830548 0 -0.0038483876177605111 0.0013109785627028535 0 -0.003858932477951767 0.0012007957926808755 0 -0.0038483876177605111 0.0013109785627028535 0 -0.003858932477951767 0.0012007957926808755 0 -0.0039096202499826387 0.0012326061412281982 0 -0.0038040866960369528 0.0011689091121458138 0 -0.003858932477951767 0.0012007957926808755 0 -0.0038747443613593177 0.0011293703727331952 0 -0.0038040866960369528 0.0011689091121458138 0 -0.0038196428410142464 0.0012444854725830548 0 -0.003858932477951767 0.0012007957926808755 0 -0.003858932477951767 0.0012007957926808755 0 -0.0038821726668671636 0.0011411701894466033 0 -0.0038747443613593177 0.0011293703727331952 0 -0.0039096202499826387 0.0012326061412281982 0 -0.0038821726668671636 0.0011411701894466033 0 -0.0039382386466320389 0.0011983927495193515 0 -0.003858932477951767 0.0012007957926808755 0 -0.0039096202499826387 0.0012326061412281982 0 -0.0038821726668671636 0.0011411701894466033 0 -0.0039382386466320389 0.0011983927495193515 0 -0.0039310721018557685 0.0011569550418865278 0 -0.0040475869092594452 0.001317172909709269 0 -0.0039310721018557685 0.0011569550418865278 0 -0.0040475869092594452 0.001317172909709269 0 -0.0041516187315798637 0.001289091814973035 0 -0.0042221672825295238 0.0014489817616115651 0 -0.0040475869092594452 0.001317172909709269 0 -0.0041516187315798637 0.001289091814973035 0 -0.0039773921473654191 0.0013802419143507448 0 -0.0039382386466320389 0.0011983927495193515 0 -0.0040475869092594452 0.001317172909709269 0 -0.0043417499393378772 0.0012487859588882278 0 -0.0046084043967609132 0.0014067654052573983 0 -0.004374098096623695 0.0014353233268927803 0 -0.0043417499393378772 0.0012487859588882278 0 -0.0041516187315798637 0.001289091814973035 0 -0.004374098096623695 0.0014353233268927803 0 -0.0039310721018557685 0.0011569550418865278 0 -0.0041516187315798637 0.001289091814973035 0 -0.0040947630410747317 0.0011607557635211199 0 -0.0043417499393378772 0.0012487859588882278 0 -0.0041516187315798637 0.001289091814973035 0 -0.0040947630410747317 0.0011607557635211199 0 -0.0043417499393378772 0.0012487859588882278 0 -0.0040947630410747317 0.0011607557635211199 0 -0.0042621902022240534 0.0010654359377428738 0 -0.0043417499393378772 0.0012487859588882278 0 -0.0044961180882696593 0.0011148047193565635 0 -0.0042621902022240534 0.0010654359377428738 0 -0.0043417499393378772 0.0012487859588882278 0 -0.0044961180882696593 0.0011148047193565635 0 -0.0045438712091876729 0.0012446376822263716 0 -0.0044961180882696593 0.0011148047193565635 0 -0.0047713890982146942 0.0011999440993565179 0 -0.0047577745069422922 0.00094589705260648114 0 -0.0044961180882696593 0.0011148047193565635 0 -0.0047713890982146942 0.0011999440993565179 0 -0.0045438712091876729 0.0012446376822263716 0 -0.0047713890982146942 0.0011999440993565179 0 -0.0046084043967609132 0.0014067654052573983 0 -0.0048760170278719503 0.0014465624503130644 0 -0.0047713890982146942 0.0011999440993565179 0 -0.0045438712091876729 0.0012446376822263716 0 -0.0046084043967609132 0.0014067654052573983 0 -0.0043417499393378772 0.0012487859588882278 0 -0.0045438712091876729 0.0012446376822263716 0 -0.0046084043967609132 0.0014067654052573983 0 -0.0046084043967609132 0.0014067654052573983 0 -0.0047869533370826231 0.0016532588011550873 0 -0.0045831007197079075 0.0016388513477085707 0 -0.0046084043967609132 0.0014067654052573983 0 -0.0048760170278719503 0.0014465624503130644 0 -0.0047869533370826231 0.0016532588011550873 0 -0.0047869533370826231 0.0016532588011550873 0 -0.0049305870362669896 0.0019406175213352638 0 -0.0050761999017299719 0.0016775912719790064 0 -0.0048760170278719503 0.0014465624503130644 0 -0.0047869533370826231 0.0016532588011550873 0 -0.0050761999017299719 0.0016775912719790064 0 -0.0047869533370826231 0.0016532588011550873 0 -0.0045831007197079075 0.0016388513477085707 0 -0.0046880577907244024 0.0018293282166416676 0 -0.0045831007197079075 0.0016388513477085707 0 -0.0044161692921792107 0.0016180416835667637 0 -0.0045264216688811415 0.0018232172422815494 0 -0.0045831007197079075 0.0016388513477085707 0 -0.004374098096623695 0.0014353233268927803 0 -0.0044161692921792107 0.0016180416835667637 0 -0.0046084043967609132 0.0014067654052573983 0 -0.0045831007197079075 0.0016388513477085707 0 -0.004374098096623695 0.0014353233268927803 0 -0.0042221672825295238 0.0014489817616115651 0 -0.004374098096623695 0.0014353233268927803 0 -0.0044161692921792107 0.0016180416835667637 0 -0.0042221672825295238 0.0014489817616115651 0 -0.0041516187315798637 0.001289091814973035 0 -0.004374098096623695 0.0014353233268927803 0 -0.0042789706463435074 0.0015924193631935857 0 -0.0044161692921792107 0.0016180416835667637 0 -0.0044392144197246495 0.001707570847149802 0 -0.0044161692921792107 0.0016180416835667637 0 -0.0044392144197246495 0.001707570847149802 0 -0.0045264216688811415 0.0018232172422815494 0 -0.0045515124667673415 0.0018300091517340074 0 -0.0044392144197246495 0.001707570847149802 0 -0.0045264216688811415 0.0018232172422815494 0 -0.0046951071863154479 0.0015769096644605463 0 -0.0045515124667673415 0.0018300091517340074 0 -0.0045264216688811415 0.0018232172422815494 0 -0.0045264216688811415 0.0018232172422815494 0 -0.0046545698455216977 0.0020287213259503707 0 -0.0046880577907244024 0.0018293282166416676 0 -0.0045831007197079075 0.0016388513477085707 0 -0.0045264216688811415 0.0018232172422815494 0 -0.0046880577907244024 0.0018293282166416676 0 -0.015950910825584041 -0.00051026918108344743 0 -0.016130207866690182 0.00025230870893222464 0 -0.027250401402384779 -0.0025919596142879122 0 -0.0276845576277162 -0.0014578743305032548 0 -0.027589203476805744 -0.0014917016164713969 0 -0.0046951071863154479 0.0015769096644605463 0 -0.0045264216688811415 0.0018232172422815494 0 -0.0046545698455216977 0.0020287213259503707 0 -0.0276845576277162 -0.0014578743305032548 0 -0.027589203476805744 -0.0014917016164713969 0 -0.027761941517356736 -0.0015719986900501928 0 -0.0276845576277162 -0.0014578743305032548 0 -0.027761941517356736 -0.0015719986900501928 0 -0.027453108956286131 -0.0014260579122409368 0 -0.027303559152054607 -0.0017906867569859133 0 -0.027761941517356736 -0.0015719986900501928 0 -0.027453108956286131 -0.0014260579122409368 0 -0.027589203476805744 -0.0014917016164713969 0 -0.027761941517356736 -0.0015719986900501928 0 -0.027680010966100278 -0.0014633449893617294 0 -0.028044233834645851 -0.0018210507533656687 0 -0.027761941517356736 -0.0015719986900501928 0 -0.027680010966100278 -0.0014633449893617294 0 -0.027303559152054607 -0.0017906867569859133 0 -0.026412397368101765 -0.0016181488659142494 0 -0.026919109221145685 -0.0010324876814821 0 -0.027303559152054607 -0.0017906867569859133 0 -0.027453108956286131 -0.0014260579122409368 0 -0.026919109221145685 -0.0010324876814821 0 -0.016130207866690182 0.00025230870893222464 0 -0.016041063368555805 0.00067746710090066181 0 -0.0276845576277162 -0.0014578743305032548 0 -0.027453108956286131 -0.0014260579122409368 0 -0.026919109221145685 -0.0010324876814821 0 -0.026412397368101765 -0.0016181488659142494 0 -0.026919109221145685 -0.0010324876814821 0 -0.025548022390223083 -0.001006793085630654 0 -0.016041063368555805 0.00067746710090066181 0 -0.015214500560982367 0.00081126730949919327 0 -0.005049939618209486 0.00238847070974153 0 -0.0049305870362669896 0.0019406175213352638 0 -0.0052332003548808065 0.0020229111763720485 0 -0.0046545698455216977 0.0020287213259503707 0 -0.005049939618209486 0.00238847070974153 0 -0.0049305870362669896 0.0019406175213352638 0 -0.0046545698455216977 0.0020287213259503707 0 -0.0046880577907244024 0.0018293282166416676 0 -0.0049305870362669896 0.0019406175213352638 0 -0.0047869533370826231 0.0016532588011550873 0 -0.0046880577907244024 0.0018293282166416676 0 -0.0049305870362669896 0.0019406175213352638 0 -0.0049305870362669896 0.0019406175213352638 0 -0.0052332003548808065 0.0020229111763720485 0 -0.0050761999017299719 0.0016775912719790064 0 -0.0052332003548808065 0.0020229111763720485 0 -0.0055297822780663291 0.0020484141422949177 0 -0.0053826047820629596 0.0017521506496211716 0 -0.0057877053439125527 0.0019196930503480487 0 -0.0055297822780663291 0.0020484141422949177 0 -0.0053826047820629596 0.0017521506496211716 0 -0.0057877053439125527 0.0019196930503480487 0 -0.0055297822780663291 0.0020484141422949177 0 -0.0057811730082279805 0.0022366831297962412 0 -0.0057811730082279805 0.0022366831297962412 0 -0.0054794605332741091 0.002318157234389238 0 -0.0058363847072398275 0.0024804699500091034 0 -0.0055297822780663291 0.0020484141422949177 0 -0.0057811730082279805 0.0022366831297962412 0 -0.0054794605332741091 0.002318157234389238 0 -0.0057811730082279805 0.0022366831297962412 0 -0.0058363847072398275 0.0024804699500091034 0 -0.006128068496403875 0.0023983641473742942 0 -0.005049939618209486 0.00238847070974153 0 -0.0052332003548808065 0.0020229111763720485 0 -0.0054794605332741091 0.002318157234389238 0 -0.0052332003548808065 0.0020229111763720485 0 -0.0055297822780663291 0.0020484141422949177 0 -0.0054794605332741091 0.002318157234389238 0 -0.005049939618209486 0.00238847070974153 0 -0.0054794605332741091 0.002318157234389238 0 -0.0055615678846432925 0.0027026654678852999 0 -0.0054794605332741091 0.002318157234389238 0 -0.0055615678846432925 0.0027026654678852999 0 -0.0058363847072398275 0.0024804699500091034 0 -0.0055615678846432925 0.0027026654678852999 0 -0.0058363847072398275 0.0024804699500091034 0 -0.0062178119565993728 0.0029468471537375919 0 -0.015214500560982367 0.00081126730949919327 0 -0.016500704485546566 0.00060679410753391408 0 -0.025310974067037206 -0.0020460048643777492 0 -0.025548022390223083 -0.001006793085630654 0 -0.02370918954626278 -0.0014098714509801294 0 -0.027172375216150232 -0.0020325986731343929 0 -0.016500704485546566 0.00060679410753391408 0 -0.025310974067037206 -0.0020460048643777492 0 -0.026412397368101765 -0.0016181488659142494 0 -0.025548022390223083 -0.001006793085630654 0 -0.018431253558671538 0.0016954517617459946 0 -0.018191498680542251 0.001727355032811259 0 -0.018070462737625744 0.0015622095638031712 0 -0.016717996698178268 0.0025701540835422264 0 -0.013940339184880676 0.0017476371344901025 0 -0.0070282923166719016 0.0044710259586295429 0 -0.0083634050079842166 0.0035838841206321426 0 -0.0096866012422755464 0.0050026461451422562 0 -0.010213256670814116 0.0054190128228625055 0 -0.0070282923166719016 0.0044710259586295429 0 -0.0096866012422755464 0.0050026461451422562 0 -0.0070282923166719016 0.0044710259586295429 0 -0.0068897222383583947 0.0042443775795047607 0 -0.0083634050079842166 0.0035838841206321426 0 -0.011319951871041645 0.0025113608505031447 0 -0.0068325194943173791 0.0042532531731419724 0 -0.025456146745354378 -0.00041263040280420745 0 -0.013940339184880676 0.0017476371344901025 0 -0.025251880092616481 -0.0021441717854484353 0 -0.023179563212787052 -0.00013519027325481711 0 -0.023591606599166759 -9.7970622258315308e-06 0 -0.013940339184880676 0.0017476371344901025 0 -0.016500704485546566 0.00060679410753391408 0 -0.013940339184880676 0.0017476371344901025 0 -0.011319951871041645 0.0025113608505031447 0 -0.014189113596685964 0.0010620516101579477 0 -0.012195000727097239 0.00043856663561949301 0 -0.01345198844664325 -0.00011409646284393501 0 -0.016500704485546566 0.00060679410753391408 0 -0.011319951871041645 0.0025113608505031447 0 -0.0058363847072398275 0.0024804699500091034 0 -0.0062178119565993728 0.0029468471537375919 0 -0.0062808488540058724 0.0029210940655922872 0 -0.0058363847072398275 0.0024804699500091034 0 -0.0067005089419753094 0.004177041438873777 0 -0.0064133983166609621 0.0026952653020423938 0 -0.0047812604243526414 0.0024474017857701435 0 -0.011319951871041645 0.0025113608505031447 0 -0.0067005089419753094 0.004177041438873777 0 -0.0064133983166609621 0.0026952653020423938 0 -0.0083634050079842166 0.0035838841206321426 0 -0.0064133983166609621 0.0026952653020423938 0 -0.0083634050079842166 0.0035838841206321426 0 -0.0093533478885713343 0.0037541113215569686 0 -0.0067134825385979533 0.002728090592274115 0 -0.0076126792771061746 0.0034954441768936073 0 -0.0064133983166609621 0.0026952653020423938 0 -0.0066648499796639216 0.0027129628221681159 0 -0.0068516849273357831 0.003032335189123752 0 -0.0064133983166609621 0.0026952653020423938 0 -0.0066648499796639216 0.0027129628221681159 0 -0.0064403073395784115 0.0024645642474120247 0 -0.0066648499796639216 0.0027129628221681159 0 -0.0068927407823736611 0.0027118929384632394 0 -0.0068516849273357831 0.003032335189123752 0 -0.0066648499796639216 0.0027129628221681159 0 -0.0067433251708859622 0.0025054096522454132 0 -0.0068927407823736611 0.0027118929384632394 0 -0.0066648499796639216 0.0027129628221681159 0 -0.0067433251708859622 0.0025054096522454132 0 -0.0064403073395784115 0.0024645642474120247 0 -0.0067433251708859622 0.0025054096522454132 0 -0.0064403073395784115 0.0024645642474120247 0 -0.0065185852846537011 0.002214862449152589 0 -0.0064403073395784115 0.0024645642474120247 0 -0.0061449062078268056 0.0022091221698026606 0 -0.0065185852846537011 0.002214862449152589 0 -0.0067433251708859622 0.0025054096522454132 0 -0.0065185852846537011 0.002214862449152589 0 -0.0069267047040339489 0.0022007782984781107 0 -0.0058363847072398275 0.0024804699500091034 0 -0.0064133983166609621 0.0026952653020423938 0 -0.006128068496403875 0.0023983641473742942 0 -0.0064133983166609621 0.0026952653020423938 0 -0.0064403073395784115 0.0024645642474120247 0 -0.006128068496403875 0.0023983641473742942 0 -0.0064403073395784115 0.0024645642474120247 0 -0.006128068496403875 0.0023983641473742942 0 -0.0061449062078268056 0.0022091221698026606 0 -0.0057811730082279805 0.0022366831297962412 0 -0.006128068496403875 0.0023983641473742942 0 -0.0061449062078268056 0.0022091221698026606 0 -0.0057877053439125527 0.0019196930503480487 0 -0.0057811730082279805 0.0022366831297962412 0 -0.0061449062078268056 0.0022091221698026606 0 -0.0061449062078268056 0.0022091221698026606 0 -0.0061704973428814694 0.0019416537105745699 0 -0.0065185852846537011 0.002214862449152589 0 -0.0057877053439125527 0.0019196930503480487 0 -0.0061449062078268056 0.0022091221698026606 0 -0.0061704973428814694 0.0019416537105745699 0 -0.0061704973428814694 0.0019416537105745699 0 -0.0065185852846537011 0.002214862449152589 0 -0.0066781127140215935 0.0019091849957362458 0 -0.0065185852846537011 0.002214862449152589 0 -0.0066781127140215935 0.0019091849957362458 0 -0.0069267047040339489 0.0022007782984781107 0 -0.0066781127140215935 0.0019091849957362458 0 -0.0063506146480670472 0.0016674214847948745 0 -0.006868521614215529 0.0016163254569111411 0 -0.0061704973428814694 0.0019416537105745699 0 -0.0066781127140215935 0.0019091849957362458 0 -0.0063506146480670472 0.0016674214847948745 0 -0.0060885775468093265 0.0012541821554111364 0 -0.006270419346683989 0.0012843753111472099 0 -0.0061692201095235955 0.0011354672860967464 0 -0.0063506146480670472 0.0016674214847948745 0 -0.0060885775468093265 0.0012541821554111364 0 -0.006868521614215529 0.0016163254569111411 0 -0.0061383583344774067 0.0012390594259308189 0 -0.0066369936493656367 0.0012433831806616003 0 -0.0063506146480670472 0.0016674214847948745 0 -0.0060885775468093265 0.0012541821554111364 0 -0.0059432103998717086 0.0016341325892188212 0 -0.0060885775468093265 0.0012541821554111364 0 -0.0056889696187967754 0.0013765475377777883 0 -0.0059432103998717086 0.0016341325892188212 0 -0.0056889696187967754 0.0013765475377777883 0 -0.0059432103998717086 0.0016341325892188212 0 -0.0056190574438002633 0.0016342140672743711 0 -0.0061704973428814694 0.0019416537105745699 0 -0.0063506146480670472 0.0016674214847948745 0 -0.0059432103998717086 0.0016341325892188212 0 -0.0057877053439125527 0.0019196930503480487 0 -0.0061704973428814694 0.0019416537105745699 0 -0.0059432103998717086 0.0016341325892188212 0 -0.0057877053439125527 0.0019196930503480487 0 -0.0059432103998717086 0.0016341325892188212 0 -0.0056190574438002633 0.0016342140672743711 0 -0.0057877053439125527 0.0019196930503480487 0 -0.0056190574438002633 0.0016342140672743711 0 -0.0053826047820629596 0.0017521506496211716 0 -0.0056190574438002633 0.0016342140672743711 0 -0.0053826047820629596 0.0017521506496211716 0 -0.0052186896015367582 0.0013959887450188031 0 -0.0050761999017299719 0.0016775912719790064 0 -0.0053826047820629596 0.0017521506496211716 0 -0.0052186896015367582 0.0013959887450188031 0 -0.0052332003548808065 0.0020229111763720485 0 -0.0050761999017299719 0.0016775912719790064 0 -0.0053826047820629596 0.0017521506496211716 0 -0.0047713890982146942 0.0011999440993565179 0 -0.0048760170278719503 0.0014465624503130644 0 -0.0052186896015367582 0.0013959887450188031 0 -0.0048760170278719503 0.0014465624503130644 0 -0.0050761999017299719 0.0016775912719790064 0 -0.0052186896015367582 0.0013959887450188031 0 -0.0056889696187967754 0.0013765475377777883 0 -0.0052186896015367582 0.0013959887450188031 0 -0.0055328083614968829 0.0011086047756848274 0 -0.0056889696187967754 0.0013765475377777883 0 -0.0056190574438002633 0.0016342140672743711 0 -0.0052186896015367582 0.0013959887450188031 0 -0.0052186896015367582 0.0013959887450188031 0 -0.0050290880673797495 0.0010862940992416394 0 -0.0055328083614968829 0.0011086047756848274 0 -0.0047713890982146942 0.0011999440993565179 0 -0.0052186896015367582 0.0013959887450188031 0 -0.0050290880673797495 0.0010862940992416394 0 -0.0050290880673797495 0.0010862940992416394 0 -0.0047577745069422922 0.00094589705260648114 0 -0.0050641888595262721 0.00085304999132232602 0 -0.0047713890982146942 0.0011999440993565179 0 -0.0050290880673797495 0.0010862940992416394 0 -0.0047577745069422922 0.00094589705260648114 0 -0.0050290880673797495 0.0010862940992416394 0 -0.0050641888595262721 0.00085304999132232602 0 -0.0055328083614968829 0.0011086047756848274 0 -0.0051065534158732792 0.00083975805204447682 0 -0.005639232059474716 0.00088101146051044175 0 -0.0050641888595262721 0.00085304999132232602 0 -0.0059808962030693229 0.00089343865984616705 0 -0.0055328083614968829 0.0011086047756848274 0 -0.0050641888595262721 0.00085304999132232602 0 -0.0053311154581811042 0.00084309573365430265 0 -0.005291406965964752 0.00055361445191285188 0 -0.0060885775468093265 0.0012541821554111364 0 -0.0059808962030693229 0.00089343865984616705 0 -0.0061692201095235955 0.0011354672860967464 0 -0.0060885775468093265 0.0012541821554111364 0 -0.0059808962030693229 0.00089343865984616705 0 -0.0055328083614968829 0.0011086047756848274 0 -0.0060885775468093265 0.0012541821554111364 0 -0.0056889696187967754 0.0013765475377777883 0 -0.0055328083614968829 0.0011086047756848274 0 -0.0049024858671343234 0.00059748362208560471 0 -0.0049469676131464755 0.00035283279310004698 0 -0.0049293915007259485 0.00063242138033113733 0 -0.0047251198288197419 0.00067381366689706155 0 -0.0045877883691769197 0.00064177426617861714 0 -0.005291406965964752 0.00055361445191285188 0 -0.0049293915007259485 0.00063242138033113733 0 -0.0052654911293383436 2.7123719786011936e-05 0 -0.005291406965964752 0.00055361445191285188 0 -0.0052654911293383436 2.7123719786011936e-05 0 -0.0056986655798186899 4.5774330780034242e-05 0 -0.005291406965964752 0.00055361445191285188 0 -0.0056986655798186899 4.5774330780034242e-05 0 -0.0057136477584025453 0.00049054803472829798 0 -0.0053311154581811042 0.00084309573365430265 0 -0.005291406965964752 0.00055361445191285188 0 -0.0057136477584025453 0.00049054803472829798 0 -0.0050641888595262721 0.00085304999132232602 0 -0.005291406965964752 0.00055361445191285188 0 -0.0049293915007259485 0.00063242138033113733 0 -0.0050641888595262721 0.00085304999132232602 0 -0.0049293915007259485 0.00063242138033113733 0 -0.0048490073330053939 0.00078789469104931665 0 -0.0049293915007259485 0.00063242138033113733 0 -0.0048490073330053939 0.00078789469104931665 0 -0.004694115743226336 0.00076881071160949494 0 -0.0047577745069422922 0.00094589705260648114 0 -0.004694115743226336 0.00076881071160949494 0 -0.0044800323691364229 0.0009398497690114476 0 -0.0047577745069422922 0.00094589705260648114 0 -0.0048490073330053939 0.00078789469104931665 0 -0.004694115743226336 0.00076881071160949494 0 -0.0047577745069422922 0.00094589705260648114 0 -0.0050641888595262721 0.00085304999132232602 0 -0.0048490073330053939 0.00078789469104931665 0 -0.0049293915007259485 0.00063242138033113733 0 -0.004694115743226336 0.00076881071160949494 0 -0.0047251198288197419 0.00067381366689706155 0 -0.0046326954394139029 0.0006884689119786158 0 -0.0047251198288197419 0.00067381366689706155 0 -0.0045925081715087503 0.00064650605268457971 0 -0.004694115743226336 0.00076881071160949494 0 -0.0046326954394139029 0.0006884689119786158 0 -0.0047251198288197419 0.00067381366689706155 0 -0.004694115743226336 0.00076881071160949494 0 -0.0046326954394139029 0.0006884689119786158 0 -0.004476326542794176 0.00078824393032527872 0 -0.0046326954394139029 0.0006884689119786158 0 -0.0045009926641675999 0.00067790213660584716 0 -0.004476326542794176 0.00078824393032527872 0 -0.0046326954394139029 0.0006884689119786158 0 -0.0045009926641675999 0.00067790213660584716 0 -0.0045705228513255288 0.00062286867504524437 0 -0.0045009926641675999 0.00067790213660584716 0 -0.0045705228513255288 0.00062286867504524437 0 -0.0044910404270166685 0.00057799625719362154 0 -0.0046326954394139029 0.0006884689119786158 0 -0.0045925081715087503 0.00064650605268457971 0 -0.0045705228513255288 0.00062286867504524437 0 -0.0045925081715087503 0.00064650605268457971 0 -0.0045316200270398175 0.0006618330890138318 0 -0.0044128812081673397 0.00063838238701359028 0 -0.0047251198288197419 0.00067381366689706155 0 -0.0045877883691769197 0.00064177426617861714 0 -0.0045316200270398175 0.0006618330890138318 0 -0.0047251198288197419 0.00067381366689706155 0 -0.0045925081715087503 0.00064650605268457971 0 -0.0045316200270398175 0.0006618330890138318 0 -0.0052654911293383436 2.7123719786011936e-05 0 -0.0056986655798186899 4.5774330780034242e-05 0 -0.0056556200456510386 -0.00039066189929940913 0 -0.0045877883691769197 0.00064177426617861714 0 -0.0045316200270398175 0.0006618330890138318 0 -0.0045327344280632559 0.00068958239239287232 0 -0.0049469676131464755 0.00035283279310004698 0 -0.0050562476150508582 0.00013423250674763916 0 -0.0044128812081673397 0.00063838238701359028 0 -0.0045327344280632559 0.00068958239239287232 0 -0.004577671552063991 0.00052794345774094271 0 -0.0045316200270398175 0.0006618330890138318 0 -0.0044128812081673397 0.00063838238701359028 0 -0.0045327344280632559 0.00068958239239287232 0 -0.0044128812081673397 0.00063838238701359028 0 -0.0041653940068164252 0.00014726548087044608 0 -0.0045063027549847277 0.00034753892387158518 0 -0.0044128812081673397 0.00063838238701359028 0 -0.0045063027549847277 0.00034753892387158518 0 -0.004577671552063991 0.00052794345774094271 0 -0.0045925081715087503 0.00064650605268457971 0 -0.0044128812081673397 0.00063838238701359028 0 -0.0045703058975555795 0.0006464541123796276 0 -0.0044128812081673397 0.00063838238701359028 0 -0.0037876255449670201 0.00039865481625549952 0 -0.0041653940068164252 0.00014726548087044608 0 -0.0043739819548482993 0.00062112537526628239 0 -0.0041911921496249529 0.00053366821492883661 0 -0.0037876255449670201 0.00039865481625549952 0 -0.0037454549075503544 2.0435899437856717e-05 0 -0.0041653940068164252 0.00014726548087044608 0 -0.0041653940068164252 0.00014726548087044608 0 -0.0045058328616881796 4.2377314492961286e-05 0 -0.0045063027549847277 0.00034753892387158518 0 -0.0041653940068164252 0.00014726548087044608 0 -0.0042583715909883663 -0.00021385162356116097 0 -0.0045058328616881796 4.2377314492961286e-05 0 -0.0041653940068164252 0.00014726548087044608 0 -0.0042583715909883663 -0.00021385162356116097 0 -0.0039535979564541785 -0.00018152043861094754 0 -0.0042583715909883663 -0.00021385162356116097 0 -0.0039535979564541785 -0.00018152043861094754 0 -0.0039897635576433962 -0.00050306727307363819 0 -0.0037454549075503544 2.0435899437856717e-05 0 -0.0041653940068164252 0.00014726548087044608 0 -0.0039535979564541785 -0.00018152043861094754 0 -0.0037454549075503544 2.0435899437856717e-05 0 -0.0039535979564541785 -0.00018152043861094754 0 -0.0036339533372470559 -0.00040847333192361161 0 -0.0039535979564541785 -0.00018152043861094754 0 -0.0039897635576433962 -0.00050306727307363819 0 -0.0036339533372470559 -0.00040847333192361161 0 -0.0039897635576433962 -0.00050306727307363819 0 -0.0036339533372470559 -0.00040847333192361161 0 -0.0037741910351210078 -0.00076712537090429026 0 -0.0039897635576433962 -0.00050306727307363819 0 -0.004322140199404685 -0.00057432055338768238 0 -0.0040535582268592931 -0.00078045354538078477 0 -0.0042583715909883663 -0.00021385162356116097 0 -0.0039897635576433962 -0.00050306727307363819 0 -0.004322140199404685 -0.00057432055338768238 0 -0.0030472473002677801 -0.00062553146938625136 0 -0.0033814936508539876 -0.00064654684904748012 0 -0.0032265270624763881 -0.00036605311570527969 0 -0.0030472473002677801 -0.00062553146938625136 0 -0.0032265270624763881 -0.00036605311570527969 0 -0.0028933647279099288 -0.0003125423306495626 0 -0.0033814936508539876 -0.00064654684904748012 0 -0.0036339533372470559 -0.00040847333192361161 0 -0.0037741910351210078 -0.00076712537090429026 0 -0.0033814936508539876 -0.00064654684904748012 0 -0.0036339533372470559 -0.00040847333192361161 0 -0.0032265270624763881 -0.00036605311570527969 0 -0.0034437872485183741 -0.00039472174905100043 0 -0.0039135630497048402 0.00020002640184441285 0 -0.0036339533372470559 -0.00040847333192361161 0 -0.0032265270624763881 -0.00036605311570527969 0 -0.003288973996969465 7.2141744203624973e-06 0 -0.0037454549075503544 2.0435899437856717e-05 0 -0.0036339533372470559 -0.00040847333192361161 0 -0.0033315532023553565 0.00011459860592172934 0 -0.0032265270624763881 -0.00036605311570527969 0 -0.003288973996969465 7.2141744203624973e-06 0 -0.0028933647279099288 -0.0003125423306495626 0 -0.0039135630497048402 0.00020002640184441285 0 -0.0035071456527904625 -0.00020222565555035328 0 -0.0039135630497048402 0.00020002640184441285 0 -0.0044538223243618382 0.00057246499638356405 0 -0.0045118121130577277 0.0002130335937746918 0 -0.0042025878438248553 0.00026502160131459056 0 -0.0041244252194141337 -6.452396131639295e-05 0 -0.0045118121130577277 0.0002130335937746918 0 -0.0042739216328332719 0.00055114293088977782 0 -0.0042025878438248553 0.00026502160131459056 0 -0.0037876255449670201 0.00039865481625549952 0 -0.0037454549075503544 2.0435899437856717e-05 0 -0.0033315532023553565 0.00011459860592172934 0 -0.0041911921496249529 0.00053366821492883661 0 -0.0039135630497048402 0.00020002640184441285 0 -0.0045925081715087503 0.00064650605268457971 0 -0.0045703058975555795 0.0006464541123796276 0 -0.0045705228513255288 0.00062286867504524437 0 -0.0045703058975555795 0.0006464541123796276 0 -0.004549611126329337 0.00057759684808192239 0 -0.0045705228513255288 0.00062286867504524437 0 -0.004549611126329337 0.00057759684808192239 0 -0.0045705228513255288 0.00062286867504524437 0 -0.0044910404270166685 0.00057799625719362154 0 -0.0042739216328332719 0.00055114293088977782 0 -0.0038715831888827767 0.00063614801889146956 0 -0.0038882303734307211 0.00034112310507100288 0 -0.0038882303734307211 0.00034112310507100288 0 -0.0042025878438248553 0.00026502160131459056 0 -0.0041244252194141337 -6.452396131639295e-05 0 -0.0042739216328332719 0.00055114293088977782 0 -0.0038882303734307211 0.00034112310507100288 0 -0.0042025878438248553 0.00026502160131459056 0 -0.0041244252194141337 -6.452396131639295e-05 0 -0.0035451319154939259 -0.00040187973625194575 0 -0.0035067609824587821 5.9771344083628039e-05 0 -0.0038882303734307211 0.00034112310507100288 0 -0.0041244252194141337 -6.452396131639295e-05 0 -0.0035067609824587821 5.9771344083628039e-05 0 -0.0035071456527904625 -0.00020222565555035328 0 -0.0030981644311164252 -0.00048767194040086651 0 -0.0028933647279099288 -0.0003125423306495626 0 -0.0026548289356935957 -0.00061598884560104582 0 -0.0028101563369460013 -0.00066914407556033955 0 -0.0030472473002677801 -0.00062553146938625136 0 -0.0028933647279099288 -0.0003125423306495626 0 -0.0028101563369460013 -0.00066914407556033955 0 -0.0028961445490798222 -0.00011325152616723732 0 -0.0023428121069557525 -0.0003834839587586049 0 -0.0026342977757550065 -0.00067661037011408263 0 -0.0028961445490798222 -0.00011325152616723732 0 -0.0024965817802377402 -0.00011955114675738277 0 -0.0023428121069557525 -0.0003834839587586049 0 -0.0030981644311164252 -0.00048767194040086651 0 -0.0026846966214946377 -0.00067439491371120428 0 -0.0035451319154939259 -0.00040187973625194575 0 -0.0028961445490798222 -0.00011325152616723732 0 -0.0026342977757550065 -0.00067661037011408263 0 -0.0035451319154939259 -0.00040187973625194575 0 -0.0035067609824587821 5.9771344083628039e-05 0 -0.0028961445490798222 -0.00011325152616723732 0 -0.0035067609824587821 5.9771344083628039e-05 0 -0.0028961445490798222 -0.00011325152616723732 0 -0.0033323763619398489 0.00041326163806783408 0 -0.0028961445490798222 -0.00011325152616723732 0 -0.0033323763619398489 0.00041326163806783408 0 -0.0026415375726172147 0.00018677375475178393 0 -0.0033323763619398489 0.00041326163806783408 0 -0.0029857441358849329 0.000637571223710342 0 -0.0026415375726172147 0.00018677375475178393 0 -0.0038882303734307211 0.00034112310507100288 0 -0.0035067609824587821 5.9771344083628039e-05 0 -0.0033323763619398489 0.00041326163806783408 0 -0.0038715831888827767 0.00063614801889146956 0 -0.0033323763619398489 0.00041326163806783408 0 -0.0034744308886649746 0.00077131850677339376 0 -0.0038715831888827767 0.00063614801889146956 0 -0.0038882303734307211 0.00034112310507100288 0 -0.0033323763619398489 0.00041326163806783408 0 -0.0033323763619398489 0.00041326163806783408 0 -0.0034744308886649746 0.00077131850677339376 0 -0.0029857441358849329 0.000637571223710342 0 -0.0034744308886649746 0.00077131850677339376 0 -0.003813299094535213 0.00092990039016823203 0 -0.0033138133762138141 0.0011656574883576103 0 -0.003813299094535213 0.00092990039016823203 0 -0.0037028376404186266 0.0010807428871681488 0 -0.0033138133762138141 0.0011656574883576103 0 -0.0038715831888827767 0.00063614801889146956 0 -0.0034744308886649746 0.00077131850677339376 0 -0.003813299094535213 0.00092990039016823203 0 -0.0038715831888827767 0.00063614801889146956 0 -0.003813299094535213 0.00092990039016823203 0 -0.004223532582074428 0.00073668146017680247 0 -0.0044538223243618382 0.00057246499638356405 0 -0.0042095666870157183 0.00074477265809061292 0 -0.0042739216328332719 0.00055114293088977782 0 -0.0038715831888827767 0.00063614801889146956 0 -0.004223532582074428 0.00073668146017680247 0 -0.0045009926641675999 0.00067790213660584716 0 -0.0044910404270166685 0.00057799625719362154 0 -0.004223532582074428 0.00073668146017680247 0 -0.004223532582074428 0.00073668146017680247 0 -0.004476326542794176 0.00078824393032527872 0 -0.0041794428300120888 0.00092573432917945062 0 -0.0045009926641675999 0.00067790213660584716 0 -0.004223532582074428 0.00073668146017680247 0 -0.004476326542794176 0.00078824393032527872 0 -0.003813299094535213 0.00092990039016823203 0 -0.004223532582074428 0.00073668146017680247 0 -0.0041794428300120888 0.00092573432917945062 0 -0.004476326542794176 0.00078824393032527872 0 -0.0041794428300120888 0.00092573432917945062 0 -0.0044800323691364229 0.0009398497690114476 0 -0.004694115743226336 0.00076881071160949494 0 -0.004476326542794176 0.00078824393032527872 0 -0.0044800323691364229 0.0009398497690114476 0 -0.0044961180882696593 0.0011148047193565635 0 -0.0047577745069422922 0.00094589705260648114 0 -0.0044800323691364229 0.0009398497690114476 0 -0.0044961180882696593 0.0011148047193565635 0 -0.0044800323691364229 0.0009398497690114476 0 -0.0042621902022240534 0.0010654359377428738 0 -0.0041794428300120888 0.00092573432917945062 0 -0.0044800323691364229 0.0009398497690114476 0 -0.0042621902022240534 0.0010654359377428738 0 -0.0040947630410747317 0.0011607557635211199 0 -0.0042621902022240534 0.0010654359377428738 0 -0.0040104006635625902 0.0010614493401411909 0 -0.0040947630410747317 0.0011607557635211199 0 -0.0038827654437112277 0.0011041564054947394 0 -0.0040104006635625902 0.0010614493401411909 0 -0.0039310721018557685 0.0011569550418865278 0 -0.0040947630410747317 0.0011607557635211199 0 -0.0038827654437112277 0.0011041564054947394 0 -0.0038827654437112277 0.0011041564054947394 0 -0.0037028376404186266 0.0010807428871681488 0 -0.0040104006635625902 0.0010614493401411909 0 -0.003813299094535213 0.00092990039016823203 0 -0.0037028376404186266 0.0010807428871681488 0 -0.0040104006635625902 0.0010614493401411909 0 -0.0041794428300120888 0.00092573432917945062 0 -0.0042621902022240534 0.0010654359377428738 0 -0.0040104006635625902 0.0010614493401411909 0 -0.003813299094535213 0.00092990039016823203 0 -0.0041794428300120888 0.00092573432917945062 0 -0.0040104006635625902 0.0010614493401411909 0 -0.0037169442988912826 0.0010834785405350921 0 -0.0038308745972758934 0.0010928723714438596 0 -0.0037274523913925555 0.0011217475546291069 0 -0.0038827654437112277 0.0011041564054947394 0 -0.0037028376404186266 0.0010807428871681488 0 -0.0037169442988912826 0.0010834785405350921 0 -0.0039310721018557685 0.0011569550418865278 0 -0.0038827654437112277 0.0011041564054947394 0 -0.0037169442988912826 0.0010834785405350921 0 -0.0039310721018557685 0.0011569550418865278 0 -0.0037169442988912826 0.0010834785405350921 0 -0.0038308745972758934 0.0010928723714438596 0 -0.0039382386466320389 0.0011983927495193515 0 -0.0039310721018557685 0.0011569550418865278 0 -0.0038308745972758934 0.0010928723714438596 0 -0.0038821726668671636 0.0011411701894466033 0 -0.0038308745972758934 0.0010928723714438596 0 -0.0038924538650288031 0.0010976020715058714 0 -0.0038821726668671636 0.0011411701894466033 0 -0.0039382386466320389 0.0011983927495193515 0 -0.0038308745972758934 0.0010928723714438596 0 -0.0038040866960369528 0.0011689091121458138 0 -0.0038747443613593177 0.0011293703727331952 0 -0.0039208929167267896 0.0010812481670931092 0 -0.0038821726668671636 0.0011411701894466033 0 -0.0038924538650288031 0.0010976020715058714 0 -0.0038747443613593177 0.0011293703727331952 0 -0.0038924538650288031 0.0010976020715058714 0 -0.0038747443613593177 0.0011293703727331952 0 -0.0039208929167267896 0.0010812481670931092 0 -0.0042954278434451602 0.00061706215480113538 0 -0.0041593616603799741 0.0012236338285933036 0 -0.0039208929167267896 0.0010812481670931092 0 -0.0039455587198785448 0.0011225028874076294 0 -0.0041579654703473362 0.0012587539734554517 0 -0.0038924538650288031 0.0010976020715058714 0 -0.0039208929167267896 0.0010812481670931092 0 -0.0039455587198785448 0.0011225028874076294 0 -0.0038308745972758934 0.0010928723714438596 0 -0.0038638356487076812 0.0011100799405918749 0 -0.0037274523913925555 0.0011217475546291069 0 -0.0038308745972758934 0.0010928723714438596 0 -0.0038924538650288031 0.0010976020715058714 0 -0.0038638356487076812 0.0011100799405918749 0 -0.0038924538650288031 0.0010976020715058714 0 -0.0039455587198785448 0.0011225028874076294 0 -0.0038638356487076812 0.0011100799405918749 0 -0.0039455587198785448 0.0011225028874076294 0 -0.0038638356487076812 0.0011100799405918749 0 -0.0039030163690232764 0.0011864356135870753 0 -0.0039030163690232764 0.0011864356135870753 0 -0.0037666449770344334 0.0013624409393561386 0 -0.0037274523913925555 0.0011217475546291069 0 -0.0039030163690232764 0.0011864356135870753 0 -0.0041579654703473362 0.0012587539734554517 0 -0.0037666449770344334 0.0013624409393561386 0 -0.0038638356487076812 0.0011100799405918749 0 -0.0039030163690232764 0.0011864356135870753 0 -0.0037274523913925555 0.0011217475546291069 0 -0.0041579654703473362 0.0012587539734554517 0 -0.0043159032094757781 0.0015876872179233132 0 -0.0049176995097466583 0.00068464985776017274 0 -0.0039455587198785448 0.0011225028874076294 0 -0.0039030163690232764 0.0011864356135870753 0 -0.0041579654703473362 0.0012587539734554517 0 -0.0046861752460971235 1.1291829784543573e-05 0 -0.0041579654703473362 0.0012587539734554517 0 -0.0049176995097466583 0.00068464985776017274 0 -0.0015873973334297586 0.00095607777331972905 0 -0.0011235024426022474 0.001170787742838468 0 -0.0012795395991961104 0.00066785977075048571 0 -0.0015873973334297586 0.00095607777331972905 0 -0.0011235024426022474 0.001170787742838468 0 -0.0020104934458326151 0.0012975937724537378 0 -0.0041579654703473362 0.0012587539734554517 0 -0.0043159032094757781 0.0015876872179233132 0 -0.0037666449770344334 0.0013624409393561386 0 -0.0030829387779302093 0.00072038313434920646 0 -0.0012581706771274798 0.00036257389530089954 0 -0.0030829387779302093 0.00072038313434920646 0 -0.00282968303234359 0.0013905946259511514 0 -0.0015873973334297586 0.00095607777331972905 0 -0.0020104934458326151 0.0012975937724537378 0 -0.0018555639131402366 0.00066199775275566401 0 -0.0020104934458326151 0.0012975937724537378 0 -0.0025253843916144365 0.00081476825637765793 0 -0.0018555639131402366 0.00066199775275566401 0 -0.0020104934458326151 0.0012975937724537378 0 -0.0025253843916144365 0.00081476825637765793 0 -0.0033138133762138141 0.0011656574883576103 0 -0.00282968303234359 0.0013905946259511514 0 -0.003298051423710955 0.0011863386630698795 0 -0.0037169442988912826 0.0010834785405350921 0 -0.0037274523913925555 0.0011217475546291069 0 -0.0033138133762138141 0.0011656574883576103 0 -0.0037666449770344334 0.0013624409393561386 0 -0.0037274523913925555 0.0011217475546291069 0 -0.0033138133762138141 0.0011656574883576103 0 -0.0037028376404186266 0.0010807428871681488 0 -0.0037169442988912826 0.0010834785405350921 0 -0.0033138133762138141 0.0011656574883576103 0 -0.0034744308886649746 0.00077131850677339376 0 -0.0033138133762138141 0.0011656574883576103 0 -0.0029857441358849329 0.000637571223710342 0 -0.0025253843916144365 0.00081476825637765793 0 -0.0033138133762138141 0.0011656574883576103 0 -0.0029857441358849329 0.000637571223710342 0 -0.0025253843916144365 0.00081476825637765793 0 -0.0029857441358849329 0.000637571223710342 0 -0.0023539292077550513 0.00047400815260545068 0 -0.0025253843916144365 0.00081476825637765793 0 -0.0023539292077550513 0.00047400815260545068 0 -0.0018555639131402366 0.00066199775275566401 0 -0.0023539292077550513 0.00047400815260545068 0 -0.0021381810070053931 0.0001663099728057123 0 -0.0017870212585598267 0.00023123968090013375 0 -0.0023539292077550513 0.00047400815260545068 0 -0.0021381810070053931 0.0001663099728057123 0 -0.0026415375726172147 0.00018677375475178393 0 -0.0029857441358849329 0.000637571223710342 0 -0.0023539292077550513 0.00047400815260545068 0 -0.0026415375726172147 0.00018677375475178393 0 -0.0028961445490798222 -0.00011325152616723732 0 -0.0026415375726172147 0.00018677375475178393 0 -0.0024965817802377402 -0.00011955114675738277 0 -0.0026415375726172147 0.00018677375475178393 0 -0.0024965817802377402 -0.00011955114675738277 0 -0.0021679295932288197 -7.8856239757954543e-05 0 -0.0021679295932288197 -7.8856239757954543e-05 0 -0.0017301171636998781 -0.00017819407505669836 0 -0.0017651464872567952 4.2374475619736972e-05 0 -0.0021381810070053931 0.0001663099728057123 0 -0.0021679295932288197 -7.8856239757954543e-05 0 -0.0017651464872567952 4.2374475619736972e-05 0 -0.0021381810070053931 0.0001663099728057123 0 -0.0026415375726172147 0.00018677375475178393 0 -0.0021679295932288197 -7.8856239757954543e-05 0 -0.0021679295932288197 -7.8856239757954543e-05 0 -0.0017301171636998781 -0.00017819407505669836 0 -0.0018489456760336939 -0.0004411138129074933 0 -0.0021679295932288197 -7.8856239757954543e-05 0 -0.0023428121069557525 -0.0003834839587586049 0 -0.0018489456760336939 -0.0004411138129074933 0 -0.0024965817802377402 -0.00011955114675738277 0 -0.0021679295932288197 -7.8856239757954543e-05 0 -0.0023428121069557525 -0.0003834839587586049 0 -0.0011459419471653669 1.0923295781828275e-05 0 -0.0014483106319874968 -6.6842169545151811e-05 0 -0.001383053343367703 0.00010370552825440263 0 -0.0011459419471653669 1.0923295781828275e-05 0 -0.0014483106319874968 -6.6842169545151811e-05 0 -0.0014663431703427297 -0.00030623364119811223 0 -0.0017301171636998781 -0.00017819407505669836 0 -0.0014483106319874968 -6.6842169545151811e-05 0 -0.0017651464872567952 4.2374475619736972e-05 0 -0.0017301171636998781 -0.00017819407505669836 0 -0.0014483106319874968 -6.6842169545151811e-05 0 -0.0014663431703427297 -0.00030623364119811223 0 -0.0017651464872567952 4.2374475619736972e-05 0 -0.001383053343367703 0.00010370552825440263 0 -0.0017870212585598267 0.00023123968090013375 0 -0.0014483106319874968 -6.6842169545151811e-05 0 -0.0017651464872567952 4.2374475619736972e-05 0 -0.001383053343367703 0.00010370552825440263 0 -0.0011459419471653669 1.0923295781828275e-05 0 -0.001383053343367703 0.00010370552825440263 0 -0.0011909037910215825 0.00017766777470006059 0 -0.001383053343367703 0.00010370552825440263 0 -0.0013622438967524726 0.00022650020512711243 0 -0.0011909037910215825 0.00017766777470006059 0 -0.0013622438967524726 0.00022650020512711243 0 -0.0017870212585598267 0.00023123968090013375 0 -0.0018555639131402366 0.00066199775275566401 0 -0.0021381810070053931 0.0001663099728057123 0 -0.0017651464872567952 4.2374475619736972e-05 0 -0.0017870212585598267 0.00023123968090013375 0 -0.001383053343367703 0.00010370552825440263 0 -0.0013622438967524726 0.00022650020512711243 0 -0.0017870212585598267 0.00023123968090013375 0 -0.0023539292077550513 0.00047400815260545068 0 -0.0017870212585598267 0.00023123968090013375 0 -0.0018555639131402366 0.00066199775275566401 0 -0.0013401511109109182 0.00019094243230239455 0 -0.0012581706771274798 0.00036257389530089954 0 -0.0015873973334297586 0.00095607777331972905 0 -0.0018555639131402366 0.00066199775275566401 0 -0.0012795395991961104 0.00066785977075048571 0 -0.0013622438967524726 0.00022650020512711243 0 -0.0011870294986323622 -3.4050458029150572e-05 0 -0.0012666528008034733 0.00010336869430412905 0 -0.0013622438967524726 0.00022650020512711243 0 -0.0018555639131402366 0.00066199775275566401 0 -0.0012795395991961104 0.00066785977075048571 0 -0.0013064530558031568 -0.00014462241373127118 0 -0.0014868123756627558 -5.124044172644644e-05 0 -0.0012666528008034733 0.00010336869430412905 0 -0.0011918732827622082 -0.00032325776446393717 0 -0.0011870294986323622 -3.4050458029150572e-05 0 -0.0013064530558031568 -0.00014462241373127118 0 -0.0011870294986323622 -3.4050458029150572e-05 0 -0.0013064530558031568 -0.00014462241373127118 0 -0.0012666528008034733 0.00010336869430412905 0 -0.0014868123756627558 -5.124044172644644e-05 0 -0.0022188297298084058 -0.0006162715928017112 0 -0.0014936568802937887 -0.00044599853378705782 0 -0.0013064530558031568 -0.00014462241373127118 0 -0.0014868123756627558 -5.124044172644644e-05 0 -0.0014936568802937887 -0.00044599853378705782 0 -0.0014868123756627558 -5.124044172644644e-05 0 -0.0012942701525573955 0.00021186688150526622 0 -0.0020372552853581837 0.00013015137913587207 0 -0.0014868123756627558 -5.124044172644644e-05 0 -0.0012942701525573955 0.00021186688150526622 0 -0.0012666528008034733 0.00010336869430412905 0 -0.0013622438967524726 0.00022650020512711243 0 -0.0012666528008034733 0.00010336869430412905 0 -0.0011909037910215825 0.00017766777470006059 0 -0.0012942701525573955 0.00021186688150526622 0 -0.0012666528008034733 0.00010336869430412905 0 -0.0011909037910215825 0.00017766777470006059 0 -0.0011459419471653669 1.0923295781828275e-05 0 -0.0011909037910215825 0.00017766777470006059 0 -0.00097321958392281287 0.00020129592471547546 0 -0.0012942701525573955 0.00021186688150526622 0 -0.0011909037910215825 0.00017766777470006059 0 -0.00097321958392281287 0.00020129592471547546 0 -0.0012942701525573955 0.00021186688150526622 0 -0.00097321958392281287 0.00020129592471547546 0 -0.0012472680553985934 0.00023363274489650367 0 -0.00097321958392281287 0.00020129592471547546 0 -0.00056001557651957424 0.00018257335437437403 0 -0.00081894438619590712 1.1402064754498467e-05 0 -0.0011459419471653669 1.0923295781828275e-05 0 -0.00097321958392281287 0.00020129592471547546 0 -0.00081894438619590712 1.1402064754498467e-05 0 -0.00048244665582497157 4.5839284084950903e-07 0 -0.00056001557651957424 0.00018257335437437403 0 -0.0012472680553985934 0.00023363274489650367 0 -0.00097321958392281287 0.00020129592471547546 0 -0.00056001557651957424 0.00018257335437437403 0 -0.0012472680553985934 0.00023363274489650367 0 -0.00048244665582497157 4.5839284084950903e-07 0 -0.0012472680553985934 0.00023363274489650367 0 -0.0024081237009742421 1.0604882466763742e-06 0 -0.0012472680553985934 0.00023363274489650367 0 -0.0024081237009742421 1.0604882466763742e-06 0 -0.0020372552853581837 0.00013015137913587207 0 -0.0012942701525573955 0.00021186688150526622 0 -0.0012472680553985934 0.00023363274489650367 0 -0.0020372552853581837 0.00013015137913587207 0 -0.0014868123756627558 -5.124044172644644e-05 0 -0.0020372552853581837 0.00013015137913587207 0 -0.0022188297298084058 -0.0006162715928017112 0 -0.0020372552853581837 0.00013015137913587207 0 -0.0043295282403464988 -2.038923734100395e-06 0 -0.0022188297298084058 -0.0006162715928017112 0 -0.0024081237009742421 1.0604882466763742e-06 0 -0.0020372552853581837 0.00013015137913587207 0 -0.0043295282403464988 -2.038923734100395e-06 0 -0.0043331624176750948 -1.6166771221486547e-07 0 -0.0040311498294850999 -0.00025858054248706667 0 -0.0043359897746660459 -8.635981441565964e-07 0 -0.0057598016959889958 0.00018459583547727814 0 -0.0061491484741034224 8.6827923831601527e-07 0 -0.0043359897746660459 -8.635981441565964e-07 0 -0.0057598016959889958 0.00018459583547727814 0 -0.0058839476229818567 -4.5858758080739533e-05 0 -0.0057598016959889958 0.00018459583547727814 0 -0.0061491484741034224 8.6827923831601527e-07 0 -0.0062852576187543974 0.00014798376284319906 0 -0.0057598016959889958 0.00018459583547727814 0 -0.0062852576187543974 0.00014798376284319906 0 -0.0059601981108975402 0.00018592603989862119 0 -0.0062852576187543974 0.00014798376284319906 0 -0.0059601981108975402 0.00018592603989862119 0 -0.0059861664882030589 5.3970025240717096e-05 0 -0.0059601981108975402 0.00018592603989862119 0 -0.0058839476229818567 -4.5858758080739533e-05 0 -0.0058266110219962796 0.00023654525116857417 0 -0.0057598016959889958 0.00018459583547727814 0 -0.0059601981108975402 0.00018592603989862119 0 -0.0058839476229818567 -4.5858758080739533e-05 0 -0.0040311498294850999 -0.00025858054248706667 0 -0.0037093110370047091 -0.0001725674303990894 0 -0.0058266110219962796 0.00023654525116857417 0 -0.0056846018362254353 0.00018051352734542786 0 -0.0057954153624606691 0.00014223751130361734 0 -0.0059601981108975402 0.00018592603989862119 0 -0.0058266110219962796 0.00023654525116857417 0 -0.0057954153624606691 0.00014223751130361734 0 -0.0011918732827622082 -0.00032325776446393717 0 -0.0013064530558031568 -0.00014462241373127118 0 -0.0014936568802937887 -0.00044599853378705782 0 -0.0030829387779302093 0.00072038313434920646 0 -0.0037093110370047091 -0.0001725674303990894 0 -0.0055280359271468937 0.00027557465589946598 0 -0.0058266110219962796 0.00023654525116857417 0 -0.0056846018362254353 0.00018051352734542786 0 -0.0055280359271468937 0.00027557465589946598 0 -0.0056846018362254353 0.00018051352734542786 0 -0.0055609832373794948 3.5122110532372914e-05 0 -0.0030829387779302093 0.00072038313434920646 0 -0.005399338687291551 0.00028439236537156228 0 -0.0056846018362254353 0.00018051352734542786 0 -0.0055609832373794948 3.5122110532372914e-05 0 -0.0057954153624606691 0.00014223751130361734 0 -0.0055609832373794948 3.5122110532372914e-05 0 -0.0057954153624606691 0.00014223751130361734 0 -0.0057321798946048889 -5.3105076161108752e-05 0 -0.0057954153624606691 0.00014223751130361734 0 -0.0057321798946048889 -5.3105076161108752e-05 0 -0.0059861664882030589 5.3970025240717096e-05 0 -0.0059601981108975402 0.00018592603989862119 0 -0.0057954153624606691 0.00014223751130361734 0 -0.0059861664882030589 5.3970025240717096e-05 0 -0.0057321798946048889 -5.3105076161108752e-05 0 -0.0058969527501515377 -0.00025597430969199477 0 -0.0059861664882030589 5.3970025240717096e-05 0 -0.0057321798946048889 -5.3105076161108752e-05 0 -0.0058969527501515377 -0.00025597430969199477 0 -0.0054414144709149332 -0.00039337149786175253 0 -0.0055609832373794948 3.5122110532372914e-05 0 -0.0057321798946048889 -5.3105076161108752e-05 0 -0.0054414144709149332 -0.00039337149786175253 0 -0.0046861752460971235 1.1291829784543573e-05 0 -0.0049176995097466583 0.00068464985776017274 0 -0.0054414144709149332 -0.00039337149786175253 0 -0.005399338687291551 0.00028439236537156228 0 -0.0054092788578705975 -0.00033025261762508742 0 -0.0044995359113350186 -9.8325010564790814e-05 0 -0.0042954278434451602 0.00061706215480113538 0 -0.0051445060264959245 -0.001068209577421222 0 -0.0046861752460971235 1.1291829784543573e-05 0 -0.0054414144709149332 -0.00039337149786175253 0 -0.0055555417912551064 -0.0011146463586939627 0 -0.0058319131092868228 -0.0008310473569807076 0 -0.0054414144709149332 -0.00039337149786175253 0 -0.0058319131092868228 -0.0008310473569807076 0 -0.0058969527501515377 -0.00025597430969199477 0 -0.0063281128994180742 -0.00042557863747028985 0 -0.0058319131092868228 -0.0008310473569807076 0 -0.0058969527501515377 -0.00025597430969199477 0 -0.0054414144709149332 -0.00039337149786175253 0 -0.0065565803364503088 -0.0012669619944764008 0 -0.0058319131092868228 -0.0008310473569807076 0 -0.0063281128994180742 -0.00042557863747028985 0 -0.0080727098266059841 -0.00063904706791659727 0 -0.0073135044648409663 -4.3066598192088748e-06 0 -0.0089280824668969035 -3.0553869752021371e-05 0 -0.007966725242293542 -2.7761346981511134e-07 0 -0.0072935127116373864 -1.7631756171443212e-05 0 -0.0065565803364503088 -0.0012669619944764008 0 -0.0063281128994180742 -0.00042557863747028985 0 -0.0072935127116373864 -1.7631756171443212e-05 0 -0.0061491484741034224 8.6827923831601527e-07 0 -0.007966725242293542 -2.7761346981511134e-07 0 -0.0072935127116373864 -1.7631756171443212e-05 0 -0.0061491484741034224 8.6827923831601527e-07 0 -0.0062852576187543974 0.00014798376284319906 0 -0.0072935127116373864 -1.7631756171443212e-05 0 -0.0063281128994180742 -0.00042557863747028985 0 -0.0072935127116373864 -1.7631756171443212e-05 0 -0.0065649193193692201 -6.6406722047415823e-05 0 -0.0062852576187543974 0.00014798376284319906 0 -0.0072935127116373864 -1.7631756171443212e-05 0 -0.0065649193193692201 -6.6406722047415823e-05 0 -0.0062852576187543974 0.00014798376284319906 0 -0.0061833416903058699 -0.00012187674160897823 0 -0.0065649193193692201 -6.6406722047415823e-05 0 -0.0062852576187543974 0.00014798376284319906 0 -0.0059861664882030589 5.3970025240717096e-05 0 -0.0061833416903058699 -0.00012187674160897823 0 -0.0058969527501515377 -0.00025597430969199477 0 -0.0063281128994180742 -0.00042557863747028985 0 -0.0061833416903058699 -0.00012187674160897823 0 -0.0058969527501515377 -0.00025597430969199477 0 -0.0059861664882030589 5.3970025240717096e-05 0 -0.0061833416903058699 -0.00012187674160897823 0 -0.0063281128994180742 -0.00042557863747028985 0 -0.0061833416903058699 -0.00012187674160897823 0 -0.0065649193193692201 -6.6406722047415823e-05 0 -0.012201074119137638 -0.00048819555077565091 0 -0.012317455461436323 0.00011648048393703715 0 -0.011517745972586584 -0.0001028650185912012 0 -0.012201074119137638 -0.00048819555077565091 0 -0.011577081064528967 -0.0010777298488393954 0 -0.012790837788576953 -0.00099197333458178822 0 -0.012201074119137638 -0.00048819555077565091 0 -0.012790837788576953 -0.00099197333458178822 0 -0.01278421651620946 -0.00038009510299556699 0 -0.012201074119137638 -0.00048819555077565091 0 -0.01278421651620946 -0.00038009510299556699 0 -0.012317455461436323 0.00011648048393703715 0 -0.012201074119137638 -0.00048819555077565091 0 -0.011577081064528967 -0.0010777298488393954 0 -0.011517745972586584 -0.0001028650185912012 0 -0.011577081064528967 -0.0010777298488393954 0 -0.011517745972586584 -0.0001028650185912012 0 -0.010689922738921626 -0.00047574824992831395 0 -0.013340589225237004 -0.0010842730460466664 0 -0.011338372598080054 -0.0026347039617279494 0 -0.013016647536592497 -0.0032545983058041611 0 -0.013340589225237004 -0.0010842730460466664 0 -0.01584832444356184 -0.0024679029935516772 0 -0.013016647536592497 -0.0032545983058041611 0 -0.012316989895023809 -0.00108848520899076 0 -0.014953505937118802 -0.001228044598405518 0 -0.013340589225237004 -0.0010842730460466664 0 -0.016186626301852278 -0.0012283160197222415 0 -0.01584832444356184 -0.0024679029935516772 0 -0.017810891003923576 -0.0018575575462566861 0 -0.017720380368072348 -0.0021202531339184244 0 -0.016186626301852278 -0.0012283160197222415 0 -0.017772727354895674 -0.0017969722418232183 0 -0.01584832444356184 -0.0024679029935516772 0 -0.014953505937118802 -0.001228044598405518 0 -0.013614355278155197 -0.00051084538341740243 0 -0.017772727354895674 -0.0017969722418232183 0 -0.01785553036098177 -0.0018280518426881669 0 -0.017678678829695895 -0.0011667894557166947 0 -0.0093469335300047363 0.0016541344354546127 0 -0.0093817073296564857 0.0020752649631940842 0 -0.009218748546125307 0.0018526656321340813 0 -0.016186626301852278 -0.0012283160197222415 0 -0.017772727354895674 -0.0017969722418232183 0 -0.01785553036098177 -0.0018280518426881669 0 -0.013614355278155197 -0.00051084538341740243 0 -0.013376374427251075 0.00052578110144032035 0 -0.012790837788576953 -0.00099197333458178822 0 -0.013947076137574448 -0.00094161720263639525 0 -0.013358286044955816 -0.00054815677519086392 0 -0.013614355278155197 -0.00051084538341740243 0 -0.011010991529929853 0.00055215934313788744 0 -0.013947076137574448 -0.00094161720263639525 0 -0.013704651678410954 -0.00046953733245479098 0 -0.014019362788312428 -0.00028331559725019013 0 -0.013947076137574448 -0.00094161720263639525 0 -0.013358286044955816 -0.00054815677519086392 0 -0.013704651678410954 -0.00046953733245479098 0 -0.013358286044955816 -0.00054815677519086392 0 -0.013704651678410954 -0.00046953733245479098 0 -0.013490622303815708 -9.818553403461744e-05 0 -0.013704651678410954 -0.00046953733245479098 0 -0.013490622303815708 -9.818553403461744e-05 0 -0.014019362788312428 -0.00028331559725019013 0 -0.012790837788576953 -0.00099197333458178822 0 -0.013358286044955816 -0.00054815677519086392 0 -0.01278421651620946 -0.00038009510299556699 0 -0.013358286044955816 -0.00054815677519086392 0 -0.013015113973319932 0.00010463872327625331 0 -0.013490622303815708 -9.818553403461744e-05 0 -0.013358286044955816 -0.00054815677519086392 0 -0.01278421651620946 -0.00038009510299556699 0 -0.013015113973319932 0.00010463872327625331 0 -0.013015113973319932 0.00010463872327625331 0 -0.013302638333591464 0.00083113145189266894 0 -0.012572235574697804 0.00065098008356398939 0 -0.01278421651620946 -0.00038009510299556699 0 -0.013015113973319932 0.00010463872327625331 0 -0.012317455461436323 0.00011648048393703715 0 -0.013015113973319932 0.00010463872327625331 0 -0.013490622303815708 -9.818553403461744e-05 0 -0.013302638333591464 0.00083113145189266894 0 -0.013015113973319932 0.00010463872327625331 0 -0.012572235574697804 0.00065098008356398939 0 -0.012317455461436323 0.00011648048393703715 0 -0.013490622303815708 -9.818553403461744e-05 0 -0.013302638333591464 0.00083113145189266894 0 -0.014019362788312428 -0.00028331559725019013 0 -0.010690059064210302 0.00038987362782153629 0 -0.011010991529929853 0.00055215934313788744 0 -0.0093771992106430578 0.00092183227120114859 0 -0.0092447293413174328 0.0013280776492751907 0 -0.0091632584162126829 0.0008438085529709566 0 -0.0093771992106430578 0.00092183227120114859 0 -0.0096233510651269321 0.00074601958593232089 0 -0.0092447293413174328 0.0013280776492751907 0 -0.0093622836712457091 0.00060357826481268221 0 -0.009626315700891775 0.00072356750692214493 0 -0.0098132471902181509 0.00041449492380011448 0 -0.0093771992106430578 0.00092183227120114859 0 -0.0093622836712457091 0.00060357826481268221 0 -0.0091632584162126829 0.0008438085529709566 0 -0.0092900324137017518 0.0010806685528378954 0 -0.010690059064210302 0.00038987362782153629 0 -0.0093771992106430578 0.00092183227120114859 0 -0.0093622836712457091 0.00060357826481268221 0 -0.009626315700891775 0.00072356750692214493 0 -0.013302638333591464 0.00083113145189266894 0 -0.012686658865837265 0.0012875621392181191 0 -0.012572235574697804 0.00065098008356398939 0 -0.010690059064210302 0.00038987362782153629 0 -0.010222555811837954 0.0008138058470209934 0 -0.0099061314642430454 -1.1892398661549382e-05 0 -0.0087091832085540496 0.00085209481483982633 0 -0.0092183639697698584 0.0010291311253457936 0 -0.010690059064210302 0.00038987362782153629 0 -0.0067583301686991309 -0.00022375462203920338 0 -0.012686658865837265 0.0012875621392181191 0 -0.012572235574697804 0.00065098008356398939 0 -0.011504513857079068 0.00092916116157437255 0 -0.011593189498591682 0.0013131397057430504 0 -0.010897559831491405 0.0010251604783805825 0 -0.011209203225150732 0.0016062491567624599 0 -0.010222555811837954 0.0008138058470209934 0 -0.011621570392198402 0.0010948347491687434 0 -0.012572235574697804 0.00065098008356398939 0 -0.012317455461436323 0.00011648048393703715 0 -0.011504513857079068 0.00092916116157437255 0 -0.012317455461436323 0.00011648048393703715 0 -0.011517745972586584 -0.0001028650185912012 0 -0.011504513857079068 0.00092916116157437255 0 -0.010897559831491405 0.0010251604783805825 0 -0.010225430741159757 0.001281326081312136 0 -0.010599142087099623 0.0017056786117646985 0 -0.011621570392198402 0.0010948347491687434 0 -0.0099541383474024484 0.0005083065672590347 0 -0.010897559831491405 0.0010251604783805825 0 -0.010225430741159757 0.001281326081312136 0 -0.010098999725427455 0.00054326747618061182 0 -0.010225430741159757 0.001281326081312136 0 -0.0094832578487532918 0.0012272381869236628 0 -0.010098999725427455 0.00054326747618061182 0 -0.0094832578487532918 0.0012272381869236628 0 -0.010098999725427455 0.00054326747618061182 0 -0.0090878095299766811 0.00035741782025552432 0 -0.010098999725427455 0.00054326747618061182 0 -0.010689922738921626 -0.00047574824992831395 0 -0.009563512455151333 -0.00035375301666776369 0 -0.010098999725427455 0.00054326747618061182 0 -0.0090878095299766811 0.00035741782025552432 0 -0.009563512455151333 -0.00035375301666776369 0 -0.011517745972586584 -0.0001028650185912012 0 -0.011504513857079068 0.00092916116157437255 0 -0.010098999725427455 0.00054326747618061182 0 -0.011517745972586584 -0.0001028650185912012 0 -0.010098999725427455 0.00054326747618061182 0 -0.010689922738921626 -0.00047574824992831395 0 -0.0076384499971213901 0.0010965515800775282 0 -0.0086768580404095654 0.00093838222585567442 0 -0.0087904330251256848 0.0020475537375728042 0 -0.0076384499971213901 0.0010965515800775282 0 -0.0086768580404095654 0.00093838222585567442 0 -0.0080191094000375638 0.00050853496741251451 0 -0.0070994192553612183 0.0016838600642774971 0 -0.0080354438007287643 0.0010780717703243539 0 -0.0094832578487532918 0.0012272381869236628 0 -0.0086768580404095654 0.00093838222585567442 0 -0.0090878095299766811 0.00035741782025552432 0 -0.0086768580404095654 0.00093838222585567442 0 -0.0090878095299766811 0.00035741782025552432 0 -0.0083740784798930455 -8.2143293579658606e-05 0 -0.0090878095299766811 0.00035741782025552432 0 -0.0083740784798930455 -8.2143293579658606e-05 0 -0.009563512455151333 -0.00035375301666776369 0 -0.0086768580404095654 0.00093838222585567442 0 -0.0083740784798930455 -8.2143293579658606e-05 0 -0.0080191094000375638 0.00050853496741251451 0 -0.0086916462388872493 0.00019716711720851052 0 -0.0080354438007287643 0.0010780717703243539 0 -0.0076880758972599477 0.00045258798846949518 0 -0.0086624291119207393 0.00053580808714795121 0 -0.0081531603274382358 0.0016237981636357326 0 -0.0086624291119207393 0.00053580808714795121 0 -0.009690017338915809 -0.0012104918794057905 0 -0.0081464233727597587 -0.00073091827771624312 0 -0.0076880758972599477 0.00045258798846949518 0 -0.0086624291119207393 0.00053580808714795121 0 -0.0081464233727597587 -0.00073091827771624312 0 -0.0083740784798930455 -8.2143293579658606e-05 0 -0.0090739820253551377 -0.0015216336540194656 0 -0.009563512455151333 -0.00035375301666776369 0 -0.0086916462388872493 0.00019716711720851052 0 -0.0084481062915395654 -0.0014578134291110267 0 -0.0071913553166969048 -0.001612178933419034 0 -0.0081464233727597587 -0.00073091827771624312 0 -0.0086899003865981723 -0.002113026872417953 0 -0.009690017338915809 -0.0012104918794057905 0 -0.0081464233727597587 -0.00073091827771624312 0 -0.0086899003865981723 -0.002113026872417953 0 -0.011577081064528967 -0.0010777298488393954 0 -0.010689922738921626 -0.00047574824992831395 0 -0.010437230330619687 -0.0012403187019730338 0 -0.010689922738921626 -0.00047574824992831395 0 -0.009563512455151333 -0.00035375301666776369 0 -0.010437230330619687 -0.0012403187019730338 0 -0.0090739820253551377 -0.0015216336540194656 0 -0.010437230330619687 -0.0012403187019730338 0 -0.011338372598080054 -0.0026347039617279494 0 -0.0090739820253551377 -0.0015216336540194656 0 -0.009563512455151333 -0.00035375301666776369 0 -0.010437230330619687 -0.0012403187019730338 0 -0.012316989895023809 -0.00108848520899076 0 -0.010598454645632395 -0.0012145633811724188 0 -0.013340589225237004 -0.0010842730460466664 0 -0.010437230330619687 -0.0012403187019730338 0 -0.011338372598080054 -0.0026347039617279494 0 -0.016913961442578829 -0.0016775524591093878 0 -0.017468329850868311 -0.0023701997306003696 0 -0.011338372598080054 -0.0026347039617279494 0 -0.010394916029397133 -0.0038653271230890229 0 -0.013016647536592497 -0.0032545983058041611 0 -0.0084481062915395654 -0.0014578134291110267 0 -0.016913961442578829 -0.0016775524591093878 0 -0.0090739820253551377 -0.0015216336540194656 0 -0.011338372598080054 -0.0026347039617279494 0 -0.010394916029397133 -0.0038653271230890229 0 -0.023940728124167327 0.00037229246866609631 0 -0.023347308086288498 0.0011282963120865968 0 -0.024549422122815658 0.0013684705755374366 0 -0.023913130534671319 -0.00074477710020317645 0 -0.021981688998169539 6.4465722766729305e-06 0 -0.02183689743158267 -0.0013576067965235252 0 -0.016913961442578829 -0.0016775524591093878 0 -0.023643510157790953 0.00059035550103415946 0 -0.023913130534671319 -0.00074477710020317645 0 -0.023157519748117458 0.00057344745006751867 0 -0.021981688998169539 6.4465722766729305e-06 0 -0.0076166260764016771 -0.0026624712492895877 0 -0.0086899003865981723 -0.002113026872417953 0 -0.0089033184134179998 -0.0033996245694741761 0 -0.0071913553166969048 -0.001612178933419034 0 -0.0076166260764016771 -0.0026624712492895877 0 -0.0086899003865981723 -0.002113026872417953 0 -0.009690017338915809 -0.0012104918794057905 0 -0.010854226749557603 -0.0028862697921796673 0 -0.0086899003865981723 -0.002113026872417953 0 -0.010854226749557603 -0.0028862697921796673 0 -0.0086899003865981723 -0.002113026872417953 0 -0.0089033184134179998 -0.0033996245694741761 0 -0.023940728124167327 0.00037229246866609631 0 -0.025325251446084735 0.0010685134517151543 0 -0.024549422122815658 0.0013684705755374366 0 -0.016913961442578829 -0.0016775524591093878 0 -0.017376903445413681 -0.0010038783196887997 0 -0.01569810482879674 -0.0013716040753732691 0 -0.017376903445413681 -0.0010038783196887997 0 -0.0076166260764016771 -0.0026624712492895877 0 -0.0069648773181837957 -0.0036820946634472671 0 -0.0089033184134179998 -0.0033996245694741761 0 -0.026062353764723895 0.0018695130399378668 0 -0.025325251446084735 0.0010685134517151543 0 -0.025824059754982691 0.0022165768901373671 0 -0.025824059754982691 0.0022165768901373671 0 -0.024549422122815658 0.0013684705755374366 0 -0.024678476014885656 0.002365550646757854 0 -0.025325251446084735 0.0010685134517151543 0 -0.025824059754982691 0.0022165768901373671 0 -0.024549422122815658 0.0013684705755374366 0 -0.026459615211280738 0.0029338451971814435 0 -0.025824059754982691 0.0022165768901373671 0 -0.024678476014885656 0.002365550646757854 0 -0.023643510157790953 0.00059035550103415946 0 -0.022458122477881776 0.0019923136417756612 0 -0.023157519748117458 0.00057344745006751867 0 -0.022489004488298572 0.0019281640400909577 0 -0.021981688998169539 6.4465722766729305e-06 0 -0.023347308086288498 0.0011282963120865968 0 -0.023530057057962742 0.0025546646180724716 0 -0.022489004488298572 0.0019281640400909577 0 -0.023347308086288498 0.0011282963120865968 0 -0.024549422122815658 0.0013684705755374366 0 -0.024678476014885656 0.002365550646757854 0 -0.023347308086288498 0.0011282963120865968 0 -0.024678476014885656 0.002365550646757854 0 -0.023530057057962742 0.0025546646180724716 0 -0.022619174855662557 0.0034166890108106546 0 -0.023530057057962742 0.0025546646180724716 0 -0.022489004488298572 0.0019281640400909577 0 -0.022619174855662557 0.0034166890108106546 0 -0.022489004488298572 0.0019281640400909577 0 -0.021036609609158461 0.002758997094850097 0 -0.022489004488298572 0.0019281640400909577 0 -0.021036609609158461 0.002758997094850097 0 -0.021030136246442781 0.0013525736584532179 0 -0.021036609609158461 0.002758997094850097 0 -0.021030136246442781 0.0013525736584532179 0 -0.019687187234431455 0.0019044482453124368 0 -0.019212446856065844 0.0036754141319900241 0 -0.021036609609158461 0.002758997094850097 0 -0.019687187234431455 0.0019044482453124368 0 -0.021030136246442781 0.0013525736584532179 0 -0.020618903254495478 0.00017471688523587373 0 -0.019600814629998842 0.0007690539173350905 0 -0.021030136246442781 0.0013525736584532179 0 -0.019600814629998842 0.0007690539173350905 0 -0.019687187234431455 0.0019044482453124368 0 -0.022489004488298572 0.0019281640400909577 0 -0.021030136246442781 0.0013525736584532179 0 -0.021981688998169539 6.4465722766729305e-06 0 -0.021030136246442781 0.0013525736584532179 0 -0.021981688998169539 6.4465722766729305e-06 0 -0.020618903254495478 0.00017471688523587373 0 -0.021981688998169539 6.4465722766729305e-06 0 -0.020618903254495478 0.00017471688523587373 0 -0.020662880076151083 -0.00076015639346232869 0 -0.021981688998169539 6.4465722766729305e-06 0 -0.020662880076151083 -0.00076015639346232869 0 -0.02183689743158267 -0.0013576067965235252 0 -0.020618903254495478 0.00017471688523587373 0 -0.020662880076151083 -0.00076015639346232869 0 -0.019311091829946891 -0.00070755227293452163 0 -0.020618903254495478 0.00017471688523587373 0 -0.019311091829946891 -0.00070755227293452163 0 -0.019600814629998842 0.0007690539173350905 0 -0.020662880076151083 -0.00076015639346232869 0 -0.019600724903638695 -0.0018566701785784851 0 -0.02183689743158267 -0.0013576067965235252 0 -0.020662880076151083 -0.00076015639346232869 0 -0.019600724903638695 -0.0018566701785784851 0 -0.019311091829946891 -0.00070755227293452163 0 -0.017720380368072348 -0.0021202531339184244 0 -0.017468329850868311 -0.0023701997306003696 0 -0.017772727354895674 -0.0017969722418232183 0 -0.017678678829695895 -0.0011667894557166947 0 -0.018503015419125374 -0.0012999759778437071 0 -0.017678678829695895 -0.0011667894557166947 0 -0.018503015419125374 -0.0012999759778437071 0 -0.018411346272885154 -0.00053449039318292338 0 -0.017772727354895674 -0.0017969722418232183 0 -0.019600724903638695 -0.0018566701785784851 0 -0.018503015419125374 -0.0012999759778437071 0 -0.019600724903638695 -0.0018566701785784851 0 -0.018503015419125374 -0.0012999759778437071 0 -0.019311091829946891 -0.00070755227293452163 0 -0.018503015419125374 -0.0012999759778437071 0 -0.019311091829946891 -0.00070755227293452163 0 -0.018411346272885154 -0.00053449039318292338 0 -0.019311091829946891 -0.00070755227293452163 0 -0.018704200362550112 0.00017146666269849219 0 -0.018411346272885154 -0.00053449039318292338 0 -0.019311091829946891 -0.00070755227293452163 0 -0.018704200362550112 0.00017146666269849219 0 -0.019600814629998842 0.0007690539173350905 0 -0.017678678829695895 -0.0011667894557166947 0 -0.018411346272885154 -0.00053449039318292338 0 -0.017796034590444727 0.00080833129703885599 0 -0.0093817073296564857 0.0020752649631940842 0 -0.0094320805343389331 0.0023976000948645704 0 -0.0092796181434102402 0.0022538766545353059 0 -0.013376374427251075 0.00052578110144032035 0 -0.015277906256065874 0.0017245068157794108 0 -0.018704200362550112 0.00017146666269849219 0 -0.018411346272885154 -0.00053449039318292338 0 -0.017796034590444727 0.00080833129703885599 0 -0.015277906256065874 0.0017245068157794108 0 -0.015594322741133345 0.0015128161187888105 0 -0.017761637041051073 0.00081013241861158775 0 -0.017792224382448291 0.0011183266781899729 0 -0.018532266546299192 0.00088955639892202866 0 -0.0189968226916052 -0.00019712815650985109 0 -0.015277906256065874 0.0017245068157794108 0 -0.018704200362550112 0.00017146666269849219 0 -0.017761637041051073 0.00081013241861158775 0 -0.018532266546299192 0.00088955639892202866 0 -0.017792224382448291 0.0011183266781899729 0 -0.018532266546299192 0.00088955639892202866 0 -0.018436607418316597 0.0020421225867395887 0 -0.018704200362550112 0.00017146666269849219 0 -0.019600814629998842 0.0007690539173350905 0 -0.018532266546299192 0.00088955639892202866 0 -0.018532266546299192 0.00088955639892202866 0 -0.019687187234431455 0.0019044482453124368 0 -0.018436607418316597 0.0020421225867395887 0 -0.019600814629998842 0.0007690539173350905 0 -0.018532266546299192 0.00088955639892202866 0 -0.019687187234431455 0.0019044482453124368 0 -0.019212446856065844 0.0036754141319900241 0 -0.019687187234431455 0.0019044482453124368 0 -0.018436607418316597 0.0020421225867395887 0 -0.019212446856065844 0.0036754141319900241 0 -0.018436607418316597 0.0020421225867395887 0 -0.017406293365624652 0.0030201371148202878 0 -0.017305793586235661 0.0021186157386725571 0 -0.018436607418316597 0.0020421225867395887 0 -0.017406293365624652 0.0030201371148202878 0 -0.017792224382448291 0.0011183266781899729 0 -0.017305793586235661 0.0021186157386725571 0 -0.018436607418316597 0.0020421225867395887 0 -0.017792224382448291 0.0011183266781899729 0 -0.017305793586235661 0.0021186157386725571 0 -0.015570348781593522 0.0022922093770258987 0 -0.017305793586235661 0.0021186157386725571 0 -0.017406293365624652 0.0030201371148202878 0 -0.015570348781593522 0.0022922093770258987 0 -0.013808821405521504 0.0029776314609224401 0 -0.016434178121634061 0.0020950401653922397 0 -0.013779840668112513 0.00095785714982690024 0 -0.017342332920348341 0.0025963527421228151 0 -0.012083930064808183 0.0024738130201104967 0 -0.0094320805343389331 0.0023976000948645704 0 -0.009230589293833821 0.0023971904186296375 0 -0.0091024696836006468 0.0025932439968729521 0 -0.01775029764671247 0.00078474577487720786 0 -0.017792224382448291 0.0011183266781899729 0 -0.015570348781593522 0.0022922093770258987 0 -0.015277906256065874 0.0017245068157794108 0 -0.012083930064808183 0.0024738130201104967 0 -0.009230589293833821 0.0023971904186296375 0 -0.009094383380263537 0.0024538774623976264 0 -0.0091024696836006468 0.0025932439968729521 0 -0.0091131878122973301 0.0023414002582563746 0 -0.009230589293833821 0.0023971904186296375 0 -0.009094383380263537 0.0024538774623976264 0 -0.0091131878122973301 0.0023414002582563746 0 -0.009230589293833821 0.0023971904186296375 0 -0.0091899029465462787 0.0023050496013599414 0 -0.0094320805343389331 0.0023976000948645704 0 -0.009230589293833821 0.0023971904186296375 0 -0.0092796181434102402 0.0022538766545353059 0 -0.009094383380263537 0.0024538774623976264 0 -0.0091024696836006468 0.0025932439968729521 0 -0.0089114969874533462 0.0024803311744582895 0 -0.0089840384064304411 0.0023840671234074246 0 -0.009094383380263537 0.0024538774623976264 0 -0.0089114969874533462 0.0024803311744582895 0 -0.0089840384064304411 0.0023840671234074246 0 -0.0089114969874533462 0.0024803311744582895 0 -0.0088805732711041904 0.0023738435500436305 0 -0.0091131878122973301 0.0023414002582563746 0 -0.0089840384064304411 0.0023840671234074246 0 -0.009094383380263537 0.0024538774623976264 0 -0.010136960456354932 0.0034612466304682929 0 -0.010770971718615819 0.0030097705017799372 0 -0.010026413662880533 0.0027168134004212099 0 -0.012083930064808183 0.0024738130201104967 0 -0.0091480123758067786 0.0024920669888665484 0 -0.011882127298784682 0.0022926601493108607 0 -0.013808821405521504 0.0029776314609224401 0 -0.013779840668112513 0.00095785714982690024 0 -0.011066678378142982 0.0028689037909600235 0 -0.012083930064808183 0.0024738130201104967 0 -0.0096765401343593647 0.0031688444602340328 0 -0.0089406209510714974 0.0024792389596923884 0 -0.010026413662880533 0.0027168134004212099 0 -0.010136960456354932 0.0034612466304682929 0 -0.0096765401343593647 0.0031688444602340328 0 -0.010026413662880533 0.0027168134004212099 0 -0.0090685537592619537 0.003229907304597246 0 -0.0089406209510714974 0.0024792389596923884 0 -0.0084383896373014401 0.0028244512555279876 0 -0.0096765401343593647 0.0031688444602340328 0 -0.0090685537592619537 0.003229907304597246 0 -0.0089406209510714974 0.0024792389596923884 0 -0.0089406209510714974 0.0024792389596923884 0 -0.0084383896373014401 0.0028244512555279876 0 -0.008430034951401242 0.002360167715245129 0 -0.0089406209510714974 0.0024792389596923884 0 -0.0088805732711041904 0.0023738435500436305 0 -0.0087065121379070378 0.0022529594400261541 0 -0.009128909830699675 0.0025246279573293375 0 -0.0091480123758067786 0.0024920669888665484 0 -0.0089406209510714974 0.0024792389596923884 0 -0.0089114969874533462 0.0024803311744582895 0 -0.0088805732711041904 0.0023738435500436305 0 -0.0088805732711041904 0.0023738435500436305 0 -0.0088057960583827737 0.0022310090486334106 0 -0.0089572103054503995 0.0022416329496008493 0 -0.0088805732711041904 0.0023738435500436305 0 -0.0088057960583827737 0.0022310090486334106 0 -0.0087065121379070378 0.0022529594400261541 0 -0.0088057960583827737 0.0022310090486334106 0 -0.0087065121379070378 0.0022529594400261541 0 -0.0086281192728799357 0.0020335155638377491 0 -0.0089406209510714974 0.0024792389596923884 0 -0.0087065121379070378 0.0022529594400261541 0 -0.008430034951401242 0.002360167715245129 0 -0.0087065121379070378 0.0022529594400261541 0 -0.008430034951401242 0.002360167715245129 0 -0.0083108294186942516 0.0020122700646059539 0 -0.0087065121379070378 0.0022529594400261541 0 -0.0086281192728799357 0.0020335155638377491 0 -0.0083108294186942516 0.0020122700646059539 0 -0.0086281192728799357 0.0020335155638377491 0 -0.0083108294186942516 0.0020122700646059539 0 -0.0083611811778570265 0.0017422694292446453 0 -0.0088057960583827737 0.0022310090486334106 0 -0.0088138848426538782 0.0021167309800366779 0 -0.0086281192728799357 0.0020335155638377491 0 -0.0088138848426538782 0.0021167309800366779 0 -0.0086281192728799357 0.0020335155638377491 0 -0.0087385768524371275 0.0019451713235104785 0 -0.0086281192728799357 0.0020335155638377491 0 -0.0087385768524371275 0.0019451713235104785 0 -0.0085320652180726417 0.001826696873223976 0 -0.0087385768524371275 0.0019451713235104785 0 -0.008883316970989763 0.0019360470390924389 0 -0.0087868074757949267 0.0018486630594851164 0 -0.0087385768524371275 0.0019451713235104785 0 -0.0089048066070010062 0.0020705683801406772 0 -0.008883316970989763 0.0019360470390924389 0 -0.0088138848426538782 0.0021167309800366779 0 -0.0087385768524371275 0.0019451713235104785 0 -0.0089048066070010062 0.0020705683801406772 0 -0.0089048066070010062 0.0020705683801406772 0 -0.0090363552800877042 0.0021289789896261997 0 -0.0090035798857198059 0.0020136382624849573 0 -0.0089048066070010062 0.0020705683801406772 0 -0.0090035798857198059 0.0020136382624849573 0 -0.008883316970989763 0.0019360470390924389 0 -0.0090035798857198059 0.0020136382624849573 0 -0.008883316970989763 0.0019360470390924389 0 -0.0089929533522716473 0.0019198790499847516 0 -0.0090035798857198059 0.0020136382624849573 0 -0.0089929533522716473 0.0019198790499847516 0 -0.0091187676841858797 0.0019561574700491008 0 -0.0089929533522716473 0.0019198790499847516 0 -0.0091187676841858797 0.0019561574700491008 0 -0.009055504900395632 0.0018464459779835203 0 -0.0093817073296564857 0.0020752649631940842 0 -0.0091187676841858797 0.0019561574700491008 0 -0.009218748546125307 0.0018526656321340813 0 -0.0093817073296564857 0.0020752649631940842 0 -0.0091187676841858797 0.0019561574700491008 0 -0.0091590999384258357 0.0021114046855365857 0 -0.0090363552800877042 0.0021289789896261997 0 -0.0090035798857198059 0.0020136382624849573 0 -0.0091590999384258357 0.0021114046855365857 0 -0.0090035798857198059 0.0020136382624849573 0 -0.0091187676841858797 0.0019561574700491008 0 -0.0091590999384258357 0.0021114046855365857 0 -0.0090363552800877042 0.0021289789896261997 0 -0.0091590999384258357 0.0021114046855365857 0 -0.0091370649402155845 0.0022248221027083284 0 -0.0091590999384258357 0.0021114046855365857 0 -0.0091370649402155845 0.0022248221027083284 0 -0.0092796181434102402 0.0022538766545353059 0 -0.0093817073296564857 0.0020752649631940842 0 -0.0091590999384258357 0.0021114046855365857 0 -0.0092796181434102402 0.0022538766545353059 0 -0.009230589293833821 0.0023971904186296375 0 -0.0092796181434102402 0.0022538766545353059 0 -0.0091899029465462787 0.0023050496013599414 0 -0.0091370649402155845 0.0022248221027083284 0 -0.0092796181434102402 0.0022538766545353059 0 -0.0091899029465462787 0.0023050496013599414 0 -0.0091131878122973301 0.0023414002582563746 0 -0.0091370649402155845 0.0022248221027083284 0 -0.0091899029465462787 0.0023050496013599414 0 -0.0091131878122973301 0.0023414002582563746 0 -0.0089840384064304411 0.0023840671234074246 0 -0.0089572103054503995 0.0022416329496008493 0 -0.0091131878122973301 0.0023414002582563746 0 -0.0091370649402155845 0.0022248221027083284 0 -0.0089572103054503995 0.0022416329496008493 0 -0.0089840384064304411 0.0023840671234074246 0 -0.0088805732711041904 0.0023738435500436305 0 -0.0089572103054503995 0.0022416329496008493 0 -0.0088138848426538782 0.0021167309800366779 0 -0.0089048066070010062 0.0020705683801406772 0 -0.0089572103054503995 0.0022416329496008493 0 -0.0088057960583827737 0.0022310090486334106 0 -0.0088138848426538782 0.0021167309800366779 0 -0.0089572103054503995 0.0022416329496008493 0 -0.0089048066070010062 0.0020705683801406772 0 -0.0090363552800877042 0.0021289789896261997 0 -0.0089572103054503995 0.0022416329496008493 0 -0.0090363552800877042 0.0021289789896261997 0 -0.0091370649402155845 0.0022248221027083284 0 -0.0089572103054503995 0.0022416329496008493 0 -0.0071356017908574309 0.0027889387321640624 0 -0.0068516849273357831 0.003032335189123752 0 -0.0074738135786919548 0.0029883239059642799 0 -0.0071356017908574309 0.0027889387321640624 0 -0.0074162720398901205 0.0026407414705674342 0 -0.0070732871161500455 0.0025209790891550119 0 -0.0068927407823736611 0.0027118929384632394 0 -0.0071356017908574309 0.0027889387321640624 0 -0.0070732871161500455 0.0025209790891550119 0 -0.0068927407823736611 0.0027118929384632394 0 -0.0071356017908574309 0.0027889387321640624 0 -0.0068516849273357831 0.003032335189123752 0 -0.010848238506035541 0.0056057481778896325 0 -0.0093533478885713343 0.0037541113215569686 0 -0.0096866012422755464 0.0050026461451422562 0 -0.0076126792771061746 0.0034954441768936073 0 -0.012468775522573776 0.0031050576505167382 0 -0.010848238506035541 0.0056057481778896325 0 -0.0093533478885713343 0.0037541113215569686 0 -0.012375932146476707 0.0051854808032465744 0 -0.0083634050079842166 0.0035838841206321426 0 -0.0093533478885713343 0.0037541113215569686 0 -0.0096866012422755464 0.0050026461451422562 0 -0.015749127741680084 0.0029410655501780833 0 -0.01030075468759024 0.0035798927476483298 0 -0.010213256670814116 0.0054190128228625055 0 -0.01078944384301412 0.005578688678139633 0 -0.0096866012422755464 0.0050026461451422562 0 -0.014548881097615245 0.0020266531877255606 0 -0.0088444181600282196 0.0024771336449586402 0 -0.0068516849273357831 0.003032335189123752 0 -0.0075294603446694076 0.0030701125058332774 0 -0.0074738135786919548 0.0029883239059642799 0 -0.0068516849273357831 0.003032335189123752 0 -0.007613212891583317 0.0034515889176137305 0 -0.0075294603446694076 0.0030701125058332774 0 -0.012468763870432137 0.0033621621419261563 0 -0.011651401295547828 0.002945217517770687 0 -0.011418762552890739 0.0015966230049412207 0 -0.012468775522573776 0.0031050576505167382 0 -0.0088444181600282196 0.0024771336449586402 0 -0.0088444181600282196 0.0024771336449586402 0 -0.0086810503670042456 0.0024897307204316778 0 -0.0076075831372565492 0.0028678164121172336 0 -0.0075134553631788998 0.0025135389972381077 0 -0.0077836861151145088 0.0026412294994131191 0 -0.007524677966349343 0.0030619251138449054 0 -0.0074738135786919548 0.0029883239059642799 0 -0.0074162720398901205 0.0026407414705674342 0 -0.0088444181600282196 0.0024771336449586402 0 -0.0074868524818405011 0.0026124288026172014 0 -0.0071356017908574309 0.0027889387321640624 0 -0.0074738135786919548 0.0029883239059642799 0 -0.0074162720398901205 0.0026407414705674342 0 -0.0075134553631788998 0.0025135389972381077 0 -0.0077836861151145088 0.0026412294994131191 0 -0.0077407655285497302 0.0024119989398972475 0 -0.0077836861151145088 0.0026412294994131191 0 -0.0079958545552124977 0.0024179852759922669 0 -0.0077407655285497302 0.0024119989398972475 0 -0.0077836861151145088 0.0026412294994131191 0 -0.0080738705193426057 0.0026936980456343171 0 -0.0079958545552124977 0.0024179852759922669 0 -0.0077836861151145088 0.0026412294994131191 0 -0.0080738705193426057 0.0026936980456343171 0 -0.0078529513031008746 0.0028772049551596506 0 -0.0076075831372565492 0.0028678164121172336 0 -0.0077836861151145088 0.0026412294994131191 0 -0.0078529513031008746 0.0028772049551596506 0 -0.0078760453915749599 0.0032879646070098937 0 -0.0078529513031008746 0.0028772049551596506 0 -0.0080332903742564177 0.0030037121627247716 0 -0.0078760453915749599 0.0032879646070098937 0 -0.0076075831372565492 0.0028678164121172336 0 -0.0078529513031008746 0.0028772049551596506 0 -0.0079701812133524189 0.0033387570904764032 0 -0.0080332903742564177 0.0030037121627247716 0 -0.0084383896373014401 0.0028244512555279876 0 -0.0078760453915749599 0.0032879646070098937 0 -0.0079701812133524189 0.0033387570904764032 0 -0.0080332903742564177 0.0030037121627247716 0 -0.0080738705193426057 0.0026936980456343171 0 -0.0078529513031008746 0.0028772049551596506 0 -0.0080332903742564177 0.0030037121627247716 0 -0.0084076190674447528 0.0035245983574304107 0 -0.0090685537592619537 0.003229907304597246 0 -0.0084383896373014401 0.0028244512555279876 0 -0.014973709687304234 0.0025153618396731026 0 -0.0059085978375767031 0.0038241595498377848 0 -0.0084076190674447528 0.0035245983574304107 0 -0.0077046688171257573 0.0036207142233381753 0 -0.0084383896373014401 0.0028244512555279876 0 -0.0080738705193426057 0.0026936980456343171 0 -0.0080332903742564177 0.0030037121627247716 0 -0.0084383896373014401 0.0028244512555279876 0 -0.0080738705193426057 0.0026936980456343171 0 -0.008430034951401242 0.002360167715245129 0 -0.0079958545552124977 0.0024179852759922669 0 -0.0080738705193426057 0.0026936980456343171 0 -0.0084383896373014401 0.0028244512555279876 0 -0.008430034951401242 0.002360167715245129 0 -0.008430034951401242 0.002360167715245129 0 -0.0081149894743664745 0.0021916798236671429 0 -0.0079958545552124977 0.0024179852759922669 0 -0.008430034951401242 0.002360167715245129 0 -0.0081149894743664745 0.0021916798236671429 0 -0.0083108294186942516 0.0020122700646059539 0 -0.0081149894743664745 0.0021916798236671429 0 -0.0083108294186942516 0.0020122700646059539 0 -0.0078239067070676217 0.0018509294017018054 0 -0.0081149894743664745 0.0021916798236671429 0 -0.0078070779158426768 0.0021881999867208431 0 -0.0078239067070676217 0.0018509294017018054 0 -0.0078070779158426768 0.0021881999867208431 0 -0.0073548944965921136 0.0022157329234203478 0 -0.0078239067070676217 0.0018509294017018054 0 -0.0081149894743664745 0.0021916798236671429 0 -0.0078070779158426768 0.0021881999867208431 0 -0.0079958545552124977 0.0024179852759922669 0 -0.0078070779158426768 0.0021881999867208431 0 -0.0079958545552124977 0.0024179852759922669 0 -0.0077407655285497302 0.0024119989398972475 0 -0.0074162720398901205 0.0026407414705674342 0 -0.0073548944965921136 0.0022157329234203478 0 -0.0070732871161500455 0.0025209790891550119 0 -0.0074868524818405011 0.0026124288026172014 0 -0.0073769246096401396 0.0022334250712150888 0 -0.0075134553631788998 0.0025135389972381077 0 -0.0077407655285497302 0.0024119989398972475 0 -0.0073548944965921136 0.0022157329234203478 0 -0.0078070779158426768 0.0021881999867208431 0 -0.0077407655285497302 0.0024119989398972475 0 -0.0073548944965921136 0.0022157329234203478 0 -0.0073548944965921136 0.0022157329234203478 0 -0.0072388954909304928 0.0018362336319946303 0 -0.0078239067070676217 0.0018509294017018054 0 -0.0066781127140215935 0.0019091849957362458 0 -0.0069267047040339489 0.0022007782984781107 0 -0.0072388954909304928 0.0018362336319946303 0 -0.0073548944965921136 0.0022157329234203478 0 -0.0069267047040339489 0.0022007782984781107 0 -0.0072388954909304928 0.0018362336319946303 0 -0.0067433251708859622 0.0025054096522454132 0 -0.0069267047040339489 0.0022007782984781107 0 -0.0070732871161500455 0.0025209790891550119 0 -0.0073548944965921136 0.0022157329234203478 0 -0.0069267047040339489 0.0022007782984781107 0 -0.0070732871161500455 0.0025209790891550119 0 -0.0067433251708859622 0.0025054096522454132 0 -0.0068927407823736611 0.0027118929384632394 0 -0.0070732871161500455 0.0025209790891550119 0 -0.0070143365597040109 0.001163883932560146 0 -0.006868521614215529 0.0016163254569111411 0 -0.0073627391553349048 0.0015021065608914926 0 -0.0060885775468093265 0.0012541821554111364 0 -0.0070143365597040109 0.001163883932560146 0 -0.006868521614215529 0.0016163254569111411 0 -0.0066781127140215935 0.0019091849957362458 0 -0.006868521614215529 0.0016163254569111411 0 -0.0072388954909304928 0.0018362336319946303 0 -0.0073627391553349048 0.0015021065608914926 0 -0.0072388954909304928 0.0018362336319946303 0 -0.0078239067070676217 0.0018509294017018054 0 -0.006868521614215529 0.0016163254569111411 0 -0.0073627391553349048 0.0015021065608914926 0 -0.0072388954909304928 0.0018362336319946303 0 -0.0070143365597040109 0.001163883932560146 0 -0.0073627391553349048 0.0015021065608914926 0 -0.0077329445871838999 0.0012969657585166247 0 -0.006270419346683989 0.0012843753111472099 0 -0.0065349177646131353 0.0014379507971598777 0 -0.006423555676088104 0.0012233764692638999 0 -0.0066369936493656367 0.0012433831806616003 0 -0.0071389771712734454 0.0013741249597509209 0 -0.0077329445871838999 0.0012969657585166247 0 -0.0078239067070676217 0.0018509294017018054 0 -0.0080599874986145223 0.0016426683953534912 0 -0.0073627391553349048 0.0015021065608914926 0 -0.0077329445871838999 0.0012969657585166247 0 -0.0078239067070676217 0.0018509294017018054 0 -0.0083108294186942516 0.0020122700646059539 0 -0.0080599874986145223 0.0016426683953534912 0 -0.0083611811778570265 0.0017422694292446453 0 -0.0083108294186942516 0.0020122700646059539 0 -0.0078239067070676217 0.0018509294017018054 0 -0.0080599874986145223 0.0016426683953534912 0 -0.0080599874986145223 0.0016426683953534912 0 -0.008234736568104771 0.0015042028584592751 0 -0.0083611811778570265 0.0017422694292446453 0 -0.0071389771712734454 0.0013741249597509209 0 -0.0077187942351697137 0.0015661520637029996 0 -0.0077329445871838999 0.0012969657585166247 0 -0.0080599874986145223 0.0016426683953534912 0 -0.008234736568104771 0.0015042028584592751 0 -0.0065349177646131353 0.0014379507971598777 0 -0.0071974132553469889 0.0016595939951315017 0 -0.0069722824841576322 0.0012470219790588629 0 -0.0069722824841576322 0.0012470219790588629 0 -0.0070037486427279834 0.00076762912174552363 0 -0.0077301059851515178 0.0011570455155109644 0 -0.0069722824841576322 0.0012470219790588629 0 -0.0070037486427279834 0.00076762912174552363 0 -0.0066249838614682831 0.0011103204643706361 0 -0.0071974132553469889 0.0016595939951315017 0 -0.0069722824841576322 0.0012470219790588629 0 -0.0077301059851515178 0.0011570455155109644 0 -0.0070037486427279834 0.00076762912174552363 0 -0.0063038223192672469 0.00054041849965894343 0 -0.0067159199190138536 0.00039332267022167095 0 -0.0070037486427279834 0.00076762912174552363 0 -0.0063038223192672469 0.00054041849965894343 0 -0.0066249838614682831 0.0011103204643706361 0 -0.0065349177646131353 0.0014379507971598777 0 -0.0066249838614682831 0.0011103204643706361 0 -0.006423555676088104 0.0012233764692638999 0 -0.0065349177646131353 0.0014379507971598777 0 -0.0069722824841576322 0.0012470219790588629 0 -0.0066249838614682831 0.0011103204643706361 0 -0.0065971605188723907 0.0011073510142497137 0 -0.0060991803232792038 0.00099941093738577344 0 -0.0066249838614682831 0.0011103204643706361 0 -0.006423555676088104 0.0012233764692638999 0 -0.0063118426289440147 0.0010611868707609204 0 -0.006270419346683989 0.0012843753111472099 0 -0.006423555676088104 0.0012233764692638999 0 -0.0063118426289440147 0.0010611868707609204 0 -0.0063038223192672469 0.00054041849965894343 0 -0.0066249838614682831 0.0011103204643706361 0 -0.0058675116890645135 0.00094686214213226801 0 -0.0063038223192672469 0.00054041849965894343 0 -0.0058675116890645135 0.00094686214213226801 0 -0.0057136477584025453 0.00049054803472829798 0 -0.005639232059474716 0.00088101146051044175 0 -0.0060991803232792038 0.00099941093738577344 0 -0.0053311154581811042 0.00084309573365430265 0 -0.0058675116890645135 0.00094686214213226801 0 -0.0057136477584025453 0.00049054803472829798 0 -0.0059808962030693229 0.00089343865984616705 0 -0.0063118426289440147 0.0010611868707609204 0 -0.0061692201095235955 0.0011354672860967464 0 -0.006270419346683989 0.0012843753111472099 0 -0.0063118426289440147 0.0010611868707609204 0 -0.0061692201095235955 0.0011354672860967464 0 -0.0086933236932124052 0.001557952586076262 0 -0.0089406906243281875 0.0015487127799016986 0 -0.008902591200184962 0.0016796330019212308 0 -0.0086933236932124052 0.001557952586076262 0 -0.0083682368725495164 0.0012993138843626132 0 -0.008673039348495783 0.0012192718623545704 0 -0.0086933236932124052 0.001557952586076262 0 -0.0088960448918423609 0.0013816634238576564 0 -0.008673039348495783 0.0012192718623545704 0 -0.0086933236932124052 0.001557952586076262 0 -0.0088960448918423609 0.0013816634238576564 0 -0.0089406906243281875 0.0015487127799016986 0 -0.0088960448918423609 0.0013816634238576564 0 -0.0092326648472254615 0.0013991022595158807 0 -0.0089406906243281875 0.0015487127799016986 0 -0.0088960448918423609 0.0013816634238576564 0 -0.0092326648472254615 0.0013991022595158807 0 -0.008955604478957619 0.0011493231642883521 0 -0.0092326648472254615 0.0013991022595158807 0 -0.0089406906243281875 0.0015487127799016986 0 -0.0090145954796745503 0.0016947082118228046 0 -0.011470765799551939 0.00057436907828410514 0 -0.01140307039518724 2.4667123348552925e-05 0 -0.011039369076733356 0.00056897880621526603 0 -0.011010991529929853 0.00055215934313788744 0 -0.0093607919546460881 0.001261438316373798 0 -0.0089406906243281875 0.0015487127799016986 0 -0.0090145954796745503 0.0016947082118228046 0 -0.008902591200184962 0.0016796330019212308 0 -0.0093607919546460881 0.001261438316373798 0 -0.0090180269804692181 0.0014184617807249634 0 -0.0091030998616561491 0.0016461352229174503 0 -0.0090493070483826914 0.0017278509425062245 0 -0.008902591200184962 0.0016796330019212308 0 -0.0093607919546460881 0.001261438316373798 0 -0.0092293814188610535 0.0014606672232210199 0 -0.0091089310827220469 0.0016473869922517383 0 -0.0090493070483826914 0.0017278509425062245 0 -0.0091526178113467607 0.0017590886763053869 0 -0.0090493070483826914 0.0017278509425062245 0 -0.0089411708564187224 0.0017626885240188909 0 -0.008902591200184962 0.0016796330019212308 0 -0.0093469335300047363 0.0016541344354546127 0 -0.0091089310827220469 0.0016473869922517383 0 -0.0091526178113467607 0.0017590886763053869 0 -0.013614355278155197 -0.00051084538341740243 0 -0.0093607919546460881 0.001261438316373798 0 -0.0093469335300047363 0.0016541344354546127 0 -0.009218748546125307 0.0018526656321340813 0 -0.0091526178113467607 0.0017590886763053869 0 -0.0091187676841858797 0.0019561574700491008 0 -0.009218748546125307 0.0018526656321340813 0 -0.009055504900395632 0.0018464459779835203 0 -0.009218748546125307 0.0018526656321340813 0 -0.0091526178113467607 0.0017590886763053869 0 -0.009055504900395632 0.0018464459779835203 0 -0.0090493070483826914 0.0017278509425062245 0 -0.009055504900395632 0.0018464459779835203 0 -0.0089411708564187224 0.0017626885240188909 0 -0.0090493070483826914 0.0017278509425062245 0 -0.0091526178113467607 0.0017590886763053869 0 -0.009055504900395632 0.0018464459779835203 0 -0.008883316970989763 0.0019360470390924389 0 -0.0089929533522716473 0.0019198790499847516 0 -0.0089056995648450574 0.0018389743594208533 0 -0.0089929533522716473 0.0019198790499847516 0 -0.009055504900395632 0.0018464459779835203 0 -0.0089056995648450574 0.0018389743594208533 0 -0.008883316970989763 0.0019360470390924389 0 -0.0089056995648450574 0.0018389743594208533 0 -0.0087868074757949267 0.0018486630594851164 0 -0.0089056995648450574 0.0018389743594208533 0 -0.0087929233361493837 0.0017379154634973306 0 -0.0087868074757949267 0.0018486630594851164 0 -0.0089056995648450574 0.0018389743594208533 0 -0.0089411708564187224 0.0017626885240188909 0 -0.0087929233361493837 0.0017379154634973306 0 -0.009055504900395632 0.0018464459779835203 0 -0.0089056995648450574 0.0018389743594208533 0 -0.0089411708564187224 0.0017626885240188909 0 -0.0086933236932124052 0.001557952586076262 0 -0.0087929233361493837 0.0017379154634973306 0 -0.008902591200184962 0.0016796330019212308 0 -0.0089411708564187224 0.0017626885240188909 0 -0.0087929233361493837 0.0017379154634973306 0 -0.008902591200184962 0.0016796330019212308 0 -0.0086933236932124052 0.001557952586076262 0 -0.0087929233361493837 0.0017379154634973306 0 -0.0086253182234533494 0.0017677646004372652 0 -0.0087929233361493837 0.0017379154634973306 0 -0.0087868074757949267 0.0018486630594851164 0 -0.0086253182234533494 0.0017677646004372652 0 -0.0087385768524371275 0.0019451713235104785 0 -0.0087868074757949267 0.0018486630594851164 0 -0.0086253182234533494 0.0017677646004372652 0 -0.0085320652180726417 0.001826696873223976 0 -0.0083611811778570265 0.0017422694292446453 0 -0.0083123791401851568 0.0016482435628880437 0 -0.0085320652180726417 0.001826696873223976 0 -0.0086253182234533494 0.0017677646004372652 0 -0.0083123791401851568 0.0016482435628880437 0 -0.0087385768524371275 0.0019451713235104785 0 -0.0085320652180726417 0.001826696873223976 0 -0.0086253182234533494 0.0017677646004372652 0 -0.0086281192728799357 0.0020335155638377491 0 -0.0085320652180726417 0.001826696873223976 0 -0.0083611811778570265 0.0017422694292446453 0 -0.0077187942351697137 0.0015661520637029996 0 -0.0082578363225362817 0.0016430185371119537 0 -0.008234736568104771 0.0015042028584592751 0 -0.0083611811778570265 0.0017422694292446453 0 -0.0083123791401851568 0.0016482435628880437 0 -0.0071974132553469889 0.0016595939951315017 0 -0.0083123791401851568 0.0016482435628880437 0 -0.0077301059851515178 0.0011570455155109644 0 -0.0086933236932124052 0.001557952586076262 0 -0.0083123791401851568 0.0016482435628880437 0 -0.0083682368725495164 0.0012993138843626132 0 -0.0086933236932124052 0.001557952586076262 0 -0.0086253182234533494 0.0017677646004372652 0 -0.0083123791401851568 0.0016482435628880437 0 -0.0083123791401851568 0.0016482435628880437 0 -0.0083682368725495164 0.0012993138843626132 0 -0.0077301059851515178 0.0011570455155109644 0 -0.0077301059851515178 0.0011570455155109644 0 -0.0076565739108510516 0.00070086234555382428 0 -0.0082606065052843718 0.00089756695901090382 0 -0.0083682368725495164 0.0012993138843626132 0 -0.0077301059851515178 0.0011570455155109644 0 -0.0082606065052843718 0.00089756695901090382 0 -0.0070037486427279834 0.00076762912174552363 0 -0.0076565739108510516 0.00070086234555382428 0 -0.0070876024949601902 0.00021367695213649076 0 -0.0070037486427279834 0.00076762912174552363 0 -0.0077301059851515178 0.0011570455155109644 0 -0.0076565739108510516 0.00070086234555382428 0 -0.0082606065052843718 0.00089756695901090382 0 -0.0085020284656999057 0.00052331636939502457 0 -0.0080023186432788187 0.00030804448162374061 0 -0.0076565739108510516 0.00070086234555382428 0 -0.0082606065052843718 0.00089756695901090382 0 -0.0080023186432788187 0.00030804448162374061 0 -0.0082606065052843718 0.00089756695901090382 0 -0.0085020284656999057 0.00052331636939502457 0 -0.0087570199288891527 0.00086570507607453505 0 -0.0085020284656999057 0.00052331636939502457 0 -0.0087570199288891527 0.00086570507607453505 0 -0.0089238058197776641 0.00049704974809931595 0 -0.0082606065052843718 0.00089756695901090382 0 -0.0087570199288891527 0.00086570507607453505 0 -0.008673039348495783 0.0012192718623545704 0 -0.0087570199288891527 0.00086570507607453505 0 -0.008673039348495783 0.0012192718623545704 0 -0.008955604478957619 0.0011493231642883521 0 -0.0088960448918423609 0.0013816634238576564 0 -0.008673039348495783 0.0012192718623545704 0 -0.008955604478957619 0.0011493231642883521 0 -0.0083682368725495164 0.0012993138843626132 0 -0.0082606065052843718 0.00089756695901090382 0 -0.008673039348495783 0.0012192718623545704 0 -0.0092326648472254615 0.0013991022595158807 0 -0.008955604478957619 0.0011493231642883521 0 -0.0091632584162126829 0.0008438085529709566 0 -0.011010991529929853 0.00055215934313788744 0 -0.0089902364861849764 0.0011343902271566033 0 -0.0087570199288891527 0.00086570507607453505 0 -0.008955604478957619 0.0011493231642883521 0 -0.0091632584162126829 0.0008438085529709566 0 -0.0093622836712457091 0.00060357826481268221 0 -0.0091632584162126829 0.0008438085529709566 0 -0.0089238058197776641 0.00049704974809931595 0 -0.0087570199288891527 0.00086570507607453505 0 -0.0091632584162126829 0.0008438085529709566 0 -0.0089238058197776641 0.00049704974809931595 0 -0.0089238058197776641 0.00049704974809931595 0 -0.009203352205843944 0.00017766178493173917 0 -0.0084951217639110919 -9.7264090730380127e-05 0 -0.0093622836712457091 0.00060357826481268221 0 -0.0089238058197776641 0.00049704974809931595 0 -0.009203352205843944 0.00017766178493173917 0 -0.0063914726523536429 -0.00073982978465327769 0 -0.0065410687885079175 -0.00066378688350701254 0 -0.0037602666356584976 -0.0015244144239689068 0 -0.0041398342666386497 -0.00093279954116451608 0 -0.0036513179640665404 -0.00087648227441484191 0 -0.0037602666356584976 -0.0015244144239689068 0 -0.0041398342666386497 -0.00093279954116451608 0 -0.0045468772459945784 -0.0012551874952488908 0 -0.0041398342666386497 -0.00093279954116451608 0 -0.0045468772459945784 -0.0012551874952488908 0 -0.0047194572754466575 -0.00082608012652949584 0 -0.0085020284656999057 0.00052331636939502457 0 -0.0089238058197776641 0.00049704974809931595 0 -0.0084951217639110919 -9.7264090730380127e-05 0 -0.0085020284656999057 0.00052331636939502457 0 -0.0084951217639110919 -9.7264090730380127e-05 0 -0.0080023186432788187 0.00030804448162374061 0 -0.0080023186432788187 0.00030804448162374061 0 -0.0070876024949601902 0.00021367695213649076 0 -0.0076052748985574901 -0.00034315714856314575 0 -0.0076565739108510516 0.00070086234555382428 0 -0.0080023186432788187 0.00030804448162374061 0 -0.0070876024949601902 0.00021367695213649076 0 -0.0070876024949601902 0.00021367695213649076 0 -0.0076052748985574901 -0.00034315714856314575 0 -0.0064145189436269831 -0.00040933297808124446 0 -0.0065105234149066956 -0.00061842508173965717 0 -0.0064440164063237918 -0.00045735527632114533 0 -0.0084951217639110919 -9.7264090730380127e-05 0 -0.0080023186432788187 0.00030804448162374061 0 -0.0076052748985574901 -0.00034315714856314575 0 -0.0045468772459945784 -0.0012551874952488908 0 -0.0047194572754466575 -0.00082608012652949584 0 -0.005435279411916627 -0.00094397254033046804 0 -0.0065410687885079175 -0.00066378688350701254 0 -0.0065105234149066956 -0.00061842508173965717 0 -0.0047194572754466575 -0.00082608012652949584 0 -0.005435279411916627 -0.00094397254033046804 0 -0.0050419839005319336 -0.00056064161220914315 0 -0.0050419839005319336 -0.00056064161220914315 0 -0.0047797146022865297 -0.00033083338692187127 0 -0.0048679422218245796 -0.00015366219154675631 0 -0.005435279411916627 -0.00094397254033046804 0 -0.0050419839005319336 -0.00056064161220914315 0 -0.0058402620169314542 -0.0003135850323585643 0 -0.0050419839005319336 -0.00056064161220914315 0 -0.0058402620169314542 -0.0003135850323585643 0 -0.0057998087506920884 0.00010898975279865548 0 -0.005435279411916627 -0.00094397254033046804 0 -0.0058402620169314542 -0.0003135850323585643 0 -0.0064145189436269831 -0.00040933297808124446 0 -0.0058402620169314542 -0.0003135850323585643 0 -0.0057998087506920884 0.00010898975279865548 0 -0.0061428109144536823 -9.8203522219004186e-05 0 -0.0050419839005319336 -0.00056064161220914315 0 -0.0050201073781459011 -9.7576241930174789e-06 0 -0.0048679422218245796 -0.00015366219154675631 0 -0.0050440148216540689 -0.00054796663447059931 0 -0.0053901186083134016 1.3082300689583233e-05 0 -0.0050201073781459011 -9.7576241930174789e-06 0 -0.0048679422218245796 -0.00015366219154675631 0 -0.0048104667256915375 1.720120975917423e-05 0 -0.0047797146022865297 -0.00033083338692187127 0 -0.0048679422218245796 -0.00015366219154675631 0 -0.0046526284606810964 -0.0001511472360797045 0 -0.0048679422218245796 -0.00015366219154675631 0 -0.0046526284606810964 -0.0001511472360797045 0 -0.0048104667256915375 1.720120975917423e-05 0 -0.0046526284606810964 -0.0001511472360797045 0 -0.0045625620367769687 5.9622566717374234e-05 0 -0.0048104667256915375 1.720120975917423e-05 0 -0.0047797146022865297 -0.00033083338692187127 0 -0.0046526284606810964 -0.0001511472360797045 0 -0.0045346940296102185 -0.00049134609464115844 0 -0.0046526284606810964 -0.0001511472360797045 0 -0.0042990072180529339 -0.00022853380138717849 0 -0.0045346940296102185 -0.00049134609464115844 0 -0.0042990072180529339 -0.00022853380138717849 0 -0.0041368617254257467 0.00015368519449987582 0 -0.0045625620367769687 5.9622566717374234e-05 0 -0.0046526284606810964 -0.0001511472360797045 0 -0.0042990072180529339 -0.00022853380138717849 0 -0.0045625620367769687 5.9622566717374234e-05 0 -0.0042990072180529339 -0.00022853380138717849 0 -0.0038147122367603011 -0.00040567135592545255 0 -0.0041368617254257467 0.00015368519449987582 0 -0.0035648629891548373 -0.00015197787669651912 0 -0.0031129204920852631 -0.00015215771570818121 0 -0.0042990072180529339 -0.00022853380138717849 0 -0.0040694331065407258 -0.00057281518222354469 0 -0.0038147122367603011 -0.00040567135592545255 0 -0.0041398342666386497 -0.00093279954116451608 0 -0.0040694331065407258 -0.00057281518222354469 0 -0.0036513179640665404 -0.00087648227441484191 0 -0.0040694331065407258 -0.00057281518222354469 0 -0.0038147122367603011 -0.00040567135592545255 0 -0.0036513179640665404 -0.00087648227441484191 0 -0.0041398342666386497 -0.00093279954116451608 0 -0.0040694331065407258 -0.00057281518222354469 0 -0.0045346940296102185 -0.00049134609464115844 0 -0.0041398342666386497 -0.00093279954116451608 0 -0.0047194572754466575 -0.00082608012652949584 0 -0.0045346940296102185 -0.00049134609464115844 0 -0.0047194572754466575 -0.00082608012652949584 0 -0.0050419839005319336 -0.00056064161220914315 0 -0.0045346940296102185 -0.00049134609464115844 0 -0.0050419839005319336 -0.00056064161220914315 0 -0.0047797146022865297 -0.00033083338692187127 0 -0.0045346940296102185 -0.00049134609464115844 0 -0.0042990072180529339 -0.00022853380138717849 0 -0.0040694331065407258 -0.00057281518222354469 0 -0.0045346940296102185 -0.00049134609464115844 0 -0.0056986655798186899 4.5774330780034242e-05 0 -0.0057136477584025453 0.00049054803472829798 0 -0.0061178745249861359 3.8840329656895004e-05 0 -0.0063038223192672469 0.00054041849965894343 0 -0.0057136477584025453 0.00049054803472829798 0 -0.0061178745249861359 3.8840329656895004e-05 0 -0.0061178745249861359 3.8840329656895004e-05 0 -0.0064226243705576705 1.0214874328368339e-05 0 -0.0062677532893631576 -0.00023652109783739574 0 -0.0064226243705576705 1.0214874328368339e-05 0 -0.0064145189436269831 -0.00040933297808124446 0 -0.0062677532893631576 -0.00023652109783739574 0 -0.0063038223192672469 0.00054041849965894343 0 -0.0064226243705576705 1.0214874328368339e-05 0 -0.0067159199190138536 0.00039332267022167095 0 -0.0063038223192672469 0.00054041849965894343 0 -0.0061178745249861359 3.8840329656895004e-05 0 -0.0064226243705576705 1.0214874328368339e-05 0 -0.0070876024949601902 0.00021367695213649076 0 -0.0064226243705576705 1.0214874328368339e-05 0 -0.0067159199190138536 0.00039332267022167095 0 -0.0070037486427279834 0.00076762912174552363 0 -0.0070876024949601902 0.00021367695213649076 0 -0.0067159199190138536 0.00039332267022167095 0 -0.0070876024949601902 0.00021367695213649076 0 -0.0064226243705576705 1.0214874328368339e-05 0 -0.0064145189436269831 -0.00040933297808124446 0 -0.0058402620169314542 -0.0003135850323585643 0 -0.0064145189436269831 -0.00040933297808124446 0 -0.0061428109144536823 -9.8203522219004186e-05 0 -0.0064145189436269831 -0.00040933297808124446 0 -0.0061428109144536823 -9.8203522219004186e-05 0 -0.0062677532893631576 -0.00023652109783739574 0 -0.0057998087506920884 0.00010898975279865548 0 -0.0061428109144536823 -9.8203522219004186e-05 0 -0.0059666941757060953 9.5578572622236085e-05 0 -0.0061309465098391891 -5.8403416857471518e-05 0 -0.0062677532893631576 -0.00023652109783739574 0 -0.0061977588275771113 -0.00019851026971664926 0 -0.0061428109144536823 -9.8203522219004186e-05 0 -0.0061309465098391891 -5.8403416857471518e-05 0 -0.0062677532893631576 -0.00023652109783739574 0 -0.0061428109144536823 -9.8203522219004186e-05 0 -0.0061309465098391891 -5.8403416857471518e-05 0 -0.006033934327957886 6.0333590581120032e-05 0 -0.0056986655798186899 4.5774330780034242e-05 0 -0.0061178745249861359 3.8840329656895004e-05 0 -0.0060487111298277198 -0.0003179002964011936 0 -0.0061223694771735532 5.5181226931047954e-05 0 -0.006144298080776274 -0.00032443130134607881 0 -0.0061178745249861359 3.8840329656895004e-05 0 -0.0062677532893631576 -0.00023652109783739574 0 -0.0061977588275771113 -0.00019851026971664926 0 -0.006144298080776274 -0.00032443130134607881 0 -0.005719025924264748 4.7429514395220249e-05 0 -0.0060487111298277198 -0.0003179002964011936 0 -0.0056556200456510386 -0.00039066189929940913 0 -0.0059971519562553718 -0.00073047419281883604 0 -0.0061309465098391891 -5.8403416857471518e-05 0 -0.0061977588275771113 -0.00019851026971664926 0 -0.0061737473829920099 4.3035929845416407e-05 0 -0.0050562476150508582 0.00013423250674763916 0 -0.005719025924264748 4.7429514395220249e-05 0 -0.0045327344280632559 0.00068958239239287232 0 -0.004577671552063991 0.00052794345774094271 0 -0.0048151926484484107 0.00050415987069954025 0 -0.0056986655798186899 4.5774330780034242e-05 0 -0.0060487111298277198 -0.0003179002964011936 0 -0.0056556200456510386 -0.00039066189929940913 0 -0.0045058328616881796 4.2377314492961286e-05 0 -0.004669996896605166 0.00023879286335797421 0 -0.0048029285446374997 2.598275977350763e-05 0 -0.004669996896605166 0.00023879286335797421 0 -0.0045063027549847277 0.00034753892387158518 0 -0.0046445486008412189 0.00039861409121505432 0 -0.0045058328616881796 4.2377314492961286e-05 0 -0.004669996896605166 0.00023879286335797421 0 -0.0045063027549847277 0.00034753892387158518 0 -0.0045063027549847277 0.00034753892387158518 0 -0.004577671552063991 0.00052794345774094271 0 -0.0046445486008412189 0.00039861409121505432 0 -0.004577671552063991 0.00052794345774094271 0 -0.0046445486008412189 0.00039861409121505432 0 -0.0048151926484484107 0.00050415987069954025 0 -0.004669996896605166 0.00023879286335797421 0 -0.0046445486008412189 0.00039861409121505432 0 -0.0048151926484484107 0.00050415987069954025 0 -0.005719025924264748 4.7429514395220249e-05 0 -0.0058721687864401444 -1.994899409373237e-05 0 -0.0061309465098391891 -5.8403416857471518e-05 0 -0.0061737473829920099 4.3035929845416407e-05 0 -0.0060794177487087679 6.7280650538736018e-05 0 -0.0061598191965053437 4.7761652049842369e-05 0 -0.0061154830910705128 8.7593977681115292e-05 0 -0.0060318723746204412 0.00019701282711271129 0 -0.0060794177487087679 6.7280650538736018e-05 0 -0.0061154830910705128 8.7593977681115292e-05 0 -0.0060555269703449011 0.00012537601227994053 0 -0.0061154830910705128 8.7593977681115292e-05 0 -0.0060555269703449011 0.00012537601227994053 0 -0.0060318723746204412 0.00019701282711271129 0 -0.0061737473829920099 4.3035929845416407e-05 0 -0.0060794177487087679 6.7280650538736018e-05 0 -0.0061154830910705128 8.7593977681115292e-05 0 -0.0061598191965053437 4.7761652049842369e-05 0 -0.0060318723746204412 0.00019701282711271129 0 -0.0060411173974356689 0.00033458656582154484 0 -0.005719025924264748 4.7429514395220249e-05 0 -0.0052954120895708778 0.00013680127765566772 0 -0.0060555269703449011 0.00012537601227994053 0 -0.0060318723746204412 0.00019701282711271129 0 -0.0059957098450381828 0.00014990280160663913 0 -0.004669996896605166 0.00023879286335797421 0 -0.0048151926484484107 0.00050415987069954025 0 -0.0048029285446374997 2.598275977350763e-05 0 -0.0060318723746204412 0.00019701282711271129 0 -0.0058759685895881054 0.00026280180903679395 0 -0.0058670282918429541 0.00039562347382456851 0 -0.0060318723746204412 0.00019701282711271129 0 -0.0058670282918429541 0.00039562347382456851 0 -0.0060411173974356689 0.00033458656582154484 0 -0.0058759685895881054 0.00026280180903679395 0 -0.005950373746519755 0.00015292811819384751 0 -0.0058865418965803485 0.00020803383835995382 0 -0.0058759685895881054 0.00026280180903679395 0 -0.0059957098450381828 0.00014990280160663913 0 -0.005950373746519755 0.00015292811819384751 0 -0.0060318723746204412 0.00019701282711271129 0 -0.0058759685895881054 0.00026280180903679395 0 -0.0059957098450381828 0.00014990280160663913 0 -0.0060794177487087679 6.7280650538736018e-05 0 -0.0060555269703449011 0.00012537601227994053 0 -0.0059957098450381828 0.00014990280160663913 0 -0.0060794177487087679 6.7280650538736018e-05 0 -0.0059957098450381828 0.00014990280160663913 0 -0.006033934327957886 6.0333590581120032e-05 0 -0.0061309465098391891 -5.8403416857471518e-05 0 -0.0060794177487087679 6.7280650538736018e-05 0 -0.006033934327957886 6.0333590581120032e-05 0 -0.0059957098450381828 0.00014990280160663913 0 -0.006033934327957886 6.0333590581120032e-05 0 -0.005950373746519755 0.00015292811819384751 0 -0.005950373746519755 0.00015292811819384751 0 -0.0059666941757060953 9.5578572622236085e-05 0 -0.0058865418965803485 0.00020803383835995382 0 -0.0053901186083134016 1.3082300689583233e-05 0 -0.0054586488047062625 0.00016646464758092165 0 -0.0061428109144536823 -9.8203522219004186e-05 0 -0.006033934327957886 6.0333590581120032e-05 0 -0.0059666941757060953 9.5578572622236085e-05 0 -0.006033934327957886 6.0333590581120032e-05 0 -0.005950373746519755 0.00015292811819384751 0 -0.0059666941757060953 9.5578572622236085e-05 0 -0.0057998087506920884 0.00010898975279865548 0 -0.0059666941757060953 9.5578572622236085e-05 0 -0.0058865418965803485 0.00020803383835995382 0 -0.0050149741009571465 5.9852060130821968e-05 0 -0.005049692345935575 0.00024876241641078522 0 -0.0049250143042189791 0.00012465343349500775 0 -0.0050149741009571465 5.9852060130821968e-05 0 -0.005049692345935575 0.00024876241641078522 0 -0.005579403833387426 0.00054982587813735579 0 -0.005049692345935575 0.00024876241641078522 0 -0.0050636394335267692 0.0007254006556427807 0 -0.005579403833387426 0.00054982587813735579 0 -0.005049692345935575 0.00024876241641078522 0 -0.0050636394335267692 0.0007254006556427807 0 -0.0045173409233347497 0.00047237681105187946 0 -0.005049692345935575 0.00024876241641078522 0 -0.0044550955311455399 0.00019063463323509312 0 -0.0045173409233347497 0.00047237681105187946 0 -0.0050636394335267692 0.0007254006556427807 0 -0.0045045192985390002 0.00092059092725620345 0 -0.0050167419870093509 0.0012407990564991614 0 -0.0050636394335267692 0.0007254006556427807 0 -0.0045173409233347497 0.00047237681105187946 0 -0.0045045192985390002 0.00092059092725620345 0 -0.0050636394335267692 0.0007254006556427807 0 -0.0054740629100893147 0.00099095109677674819 0 -0.005579403833387426 0.00054982587813735579 0 -0.0050636394335267692 0.0007254006556427807 0 -0.0054740629100893147 0.00099095109677674819 0 -0.0050167419870093509 0.0012407990564991614 0 -0.0054740629100893147 0.00099095109677674819 0 -0.0057564609773991075 0.00066140411608718022 0 -0.0058541050757619853 0.001092754324507117 0 -0.0054740629100893147 0.00099095109677674819 0 -0.005579403833387426 0.00054982587813735579 0 -0.0057564609773991075 0.00066140411608718022 0 -0.0054586488047062625 0.00016646464758092165 0 -0.0056012702126014453 0.00054517503095421744 0 -0.0058759685895881054 0.00026280180903679395 0 -0.0058865418965803485 0.00020803383835995382 0 -0.005579403833387426 0.00054982587813735579 0 -0.005579403833387426 0.00054982587813735579 0 -0.0058670282918429541 0.00039562347382456851 0 -0.0057564609773991075 0.00066140411608718022 0 -0.0058759685895881054 0.00026280180903679395 0 -0.005579403833387426 0.00054982587813735579 0 -0.0058670282918429541 0.00039562347382456851 0 -0.0052954120895708778 0.00013680127765566772 0 -0.0061443195250228426 0.00037465317338371328 0 -0.0060411173974356689 0.00033458656582154484 0 -0.0058667638928858491 0.00063496814294152057 0 -0.005929417051519152 0.0005250866585826317 0 -0.0058670282918429541 0.00039562347382456851 0 -0.0060411173974356689 0.00033458656582154484 0 -0.005929417051519152 0.0005250866585826317 0 -0.0058670282918429541 0.00039562347382456851 0 -0.0057564609773991075 0.00066140411608718022 0 -0.005929417051519152 0.0005250866585826317 0 -0.0057564609773991075 0.00066140411608718022 0 -0.005929417051519152 0.0005250866585826317 0 -0.0058541050757619853 0.001092754324507117 0 -0.0058629741328772803 0.00064393849879584039 0 -0.0060045900260390934 0.00081289364102264704 0 -0.0058667638928858491 0.00063496814294152057 0 -0.005929417051519152 0.0005250866585826317 0 -0.0056504614459481333 0.0007191881598488303 0 -0.004322140199404685 -0.00057432055338768238 0 -0.0047082922296775818 -0.00053599982402745185 0 -0.0044609670991491192 -0.00079590901079693412 0 -0.004322140199404685 -0.00057432055338768238 0 -0.0047082922296775818 -0.00053599982402745185 0 -0.0045242770593296316 -0.00024847860330519595 0 -0.0042583715909883663 -0.00021385162356116097 0 -0.004322140199404685 -0.00057432055338768238 0 -0.0045242770593296316 -0.00024847860330519595 0 -0.0048029285446374997 2.598275977350763e-05 0 -0.0047082922296775818 -0.00053599982402745185 0 -0.0045242770593296316 -0.00024847860330519595 0 -0.0045058328616881796 4.2377314492961286e-05 0 -0.0048029285446374997 2.598275977350763e-05 0 -0.0045242770593296316 -0.00024847860330519595 0 -0.0042583715909883663 -0.00021385162356116097 0 -0.0045058328616881796 4.2377314492961286e-05 0 -0.0045242770593296316 -0.00024847860330519595 0 -0.0031009763574292677 -0.00014005394987060121 0 -0.0033624367792715829 -0.00021779999920234431 0 -0.0033854622650987039 -3.5901073664203346e-05 0 -0.0033624367792715829 -0.00021779999920234431 0 -0.0033854622650987039 -3.5901073664203346e-05 0 -0.003687824915284623 0.00012484934691463296 0 -0.0031009763574292677 -0.00014005394987060121 0 -0.0033017776842253592 4.3625007401749715e-05 0 -0.0033854622650987039 -3.5901073664203346e-05 0 -0.0033017776842253592 4.3625007401749715e-05 0 -0.0033854622650987039 -3.5901073664203346e-05 0 -0.0034651319399936443 8.7360228830917936e-05 0 -0.0033017776842253592 4.3625007401749715e-05 0 -0.0034651319399936443 8.7360228830917936e-05 0 -0.0034615448313098872 0.00025336624106201924 0 -0.0033017776842253592 4.3625007401749715e-05 0 -0.003096012576073697 8.0275785777090706e-05 0 -0.003247574102462748 0.00022810406485954975 0 -0.0031009763574292677 -0.00014005394987060121 0 -0.0033017776842253592 4.3625007401749715e-05 0 -0.003096012576073697 8.0275785777090706e-05 0 -0.0031009763574292677 -0.00014005394987060121 0 -0.003096012576073697 8.0275785777090706e-05 0 -0.0029535396052064382 -2.2315258915084189e-05 0 -0.003096012576073697 8.0275785777090706e-05 0 -0.0029376096496632385 0.00013054906367330796 0 -0.0029535396052064382 -2.2315258915084189e-05 0 -0.003096012576073697 8.0275785777090706e-05 0 -0.0029376096496632385 0.00013054906367330796 0 -0.0030612209615047585 0.000271238395191471 0 -0.0029376096496632385 0.00013054906367330796 0 -0.0027554701816725259 5.3762231697926271e-05 0 -0.002863188682988127 0.00029636215889780403 0 -0.0029376096496632385 0.00013054906367330796 0 -0.0029535396052064382 -2.2315258915084189e-05 0 -0.0027554701816725259 5.3762231697926271e-05 0 -0.0027554701816725259 5.3762231697926271e-05 0 -0.0027975694387510799 -0.00020943902614599573 0 -0.0025280273883278221 -0.00012037842781275307 0 -0.0029535396052064382 -2.2315258915084189e-05 0 -0.0027554701816725259 5.3762231697926271e-05 0 -0.0027975694387510799 -0.00020943902614599573 0 -0.0031009763574292677 -0.00014005394987060121 0 -0.0029535396052064382 -2.2315258915084189e-05 0 -0.0027975694387510799 -0.00020943902614599573 0 -0.0031009763574292677 -0.00014005394987060121 0 -0.0027975694387510799 -0.00020943902614599573 0 -0.0028152910004364015 -0.00048417796408017981 0 -0.0027975694387510799 -0.00020943902614599573 0 -0.0028152910004364015 -0.00048417796408017981 0 -0.0026362328372262762 -0.0004109885813892449 0 -0.0028152910004364015 -0.00048417796408017981 0 -0.0026362328372262762 -0.0004109885813892449 0 -0.0025975320893573749 -0.00040876952419547692 0 -0.0035500275627253297 -0.00029929455468580859 0 -0.0031530351391162708 -0.00064642060238248502 0 -0.0036072156998149664 -0.00042218984161735437 0 -0.0035648629891548373 -0.00015197787669651912 0 -0.0041621963722227378 -0.00012626353334022574 0 -0.0041368617254257467 0.00015368519449987582 0 -0.0047332198432840488 0.00019896698542378895 0 -0.0045625620367769687 5.9622566717374234e-05 0 -0.0031009763574292677 -0.00014005394987060121 0 -0.0033624367792715829 -0.00021779999920234431 0 -0.0028152910004364015 -0.00048417796408017981 0 -0.0033495236666595245 -0.00033984111573373077 0 -0.0035648629891548373 -0.00015197787669651912 0 -0.0045625620367769687 5.9622566717374234e-05 0 -0.00473795734074383 0.00010328023204326783 0 -0.0048104667256915375 1.720120975917423e-05 0 -0.0047332198432840488 0.00019896698542378895 0 -0.0045625620367769687 5.9622566717374234e-05 0 -0.00473795734074383 0.00010328023204326783 0 -0.0050201073781459011 -9.7576241930174789e-06 0 -0.0048104667256915375 1.720120975917423e-05 0 -0.0049010229542425267 7.373603012884381e-05 0 -0.00473795734074383 0.00010328023204326783 0 -0.0048104667256915375 1.720120975917423e-05 0 -0.0048296551631598923 0.00012230911736535203 0 -0.0048104667256915375 1.720120975917423e-05 0 -0.0049010229542425267 7.373603012884381e-05 0 -0.0048296551631598923 0.00012230911736535203 0 -0.0049010229542425267 7.373603012884381e-05 0 -0.0048296551631598923 0.00012230911736535203 0 -0.0049250143042189791 0.00012465343349500775 0 -0.0047332198432840488 0.00019896698542378895 0 -0.00473795734074383 0.00010328023204326783 0 -0.0048296551631598923 0.00012230911736535203 0 -0.0050201073781459011 -9.7576241930174789e-06 0 -0.0050149741009571465 5.9852060130821968e-05 0 -0.0049250143042189791 0.00012465343349500775 0 -0.0050201073781459011 -9.7576241930174789e-06 0 -0.0049010229542425267 7.373603012884381e-05 0 -0.0049250143042189791 0.00012465343349500775 0 -0.0050220385745645699 0.00022943527162185926 0 -0.0045731959304409521 4.1517966709794333e-06 0 -0.005049692345935575 0.00024876241641078522 0 -0.0042095203281796141 -0.00015040386792025212 0 -0.0044550955311455399 0.00019063463323509312 0 -0.0042095203281796141 -0.00015040386792025212 0 -0.004061610829690681 0.00018427497281773214 0 -0.0044550955311455399 0.00019063463323509312 0 -0.0033495236666595245 -0.00033984111573373077 0 -0.004074755159638681 0.00020734314345039487 0 -0.0047332198432840488 0.00019896698542378895 0 -0.0048296551631598923 0.00012230911736535203 0 -0.0049250143042189791 0.00012465343349500775 0 -0.0033624367792715829 -0.00021779999920234431 0 -0.003687824915284623 0.00012484934691463296 0 -0.004061610829690681 0.00018427497281773214 0 -0.0041621963722227378 -0.00012626353334022574 0 -0.0045731959304409521 4.1517966709794333e-06 0 -0.0035500275627253297 -0.00029929455468580859 0 -0.0036072156998149664 -0.00042218984161735437 0 -0.0042095203281796141 -0.00015040386792025212 0 -0.0035500275627253297 -0.00029929455468580859 0 -0.0042095203281796141 -0.00015040386792025212 0 -0.004061610829690681 0.00018427497281773214 0 -0.0033854622650987039 -3.5901073664203346e-05 0 -0.0034651319399936443 8.7360228830917936e-05 0 -0.003687824915284623 0.00012484934691463296 0 -0.003687824915284623 0.00012484934691463296 0 -0.0037294020747040179 0.00040250216233905924 0 -0.0034615448313098872 0.00025336624106201924 0 -0.0034651319399936443 8.7360228830917936e-05 0 -0.003687824915284623 0.00012484934691463296 0 -0.0034615448313098872 0.00025336624106201924 0 -0.003687824915284623 0.00012484934691463296 0 -0.004061610829690681 0.00018427497281773214 0 -0.0037294020747040179 0.00040250216233905924 0 -0.004061610829690681 0.00018427497281773214 0 -0.0037294020747040179 0.00040250216233905924 0 -0.0040670737655970797 0.0006405929380687757 0 -0.0037294020747040179 0.00040250216233905924 0 -0.0040670737655970797 0.0006405929380687757 0 -0.0036277710728827668 0.0007384276119256505 0 -0.0037294020747040179 0.00040250216233905924 0 -0.0036277710728827668 0.0007384276119256505 0 -0.0034744787427039114 0.00049738665636512409 0 -0.0037294020747040179 0.00040250216233905924 0 -0.0034744787427039114 0.00049738665636512409 0 -0.0034615448313098872 0.00025336624106201924 0 -0.004061610829690681 0.00018427497281773214 0 -0.0044550955311455399 0.00019063463323509312 0 -0.0045173409233347497 0.00047237681105187946 0 -0.004061610829690681 0.00018427497281773214 0 -0.0045173409233347497 0.00047237681105187946 0 -0.0040670737655970797 0.0006405929380687757 0 -0.0045173409233347497 0.00047237681105187946 0 -0.0040670737655970797 0.0006405929380687757 0 -0.0045045192985390002 0.00092059092725620345 0 -0.0040670737655970797 0.0006405929380687757 0 -0.0045045192985390002 0.00092059092725620345 0 -0.0039360996795108107 0.0011190195430709475 0 -0.0040670737655970797 0.0006405929380687757 0 -0.0036277710728827668 0.0007384276119256505 0 -0.0039360996795108107 0.0011190195430709475 0 -0.0036277710728827668 0.0007384276119256505 0 -0.003576219611040076 0.0010759046662232529 0 -0.0033610736349126893 0.00090757490384535823 0 -0.0036277710728827668 0.0007384276119256505 0 -0.003576219611040076 0.0010759046662232529 0 -0.0039360996795108107 0.0011190195430709475 0 -0.0033610736349126893 0.00090757490384535823 0 -0.0031698565878886743 0.0010594939189065118 0 -0.003339511737639478 0.0011854971479272334 0 -0.003576219611040076 0.0010759046662232529 0 -0.0033610736349126893 0.00090757490384535823 0 -0.003339511737639478 0.0011854971479272334 0 -0.0031698565878886743 0.0010594939189065118 0 -0.0030270643565612171 0.00096902353587418526 0 -0.0029854987723525652 0.0011287476034672725 0 -0.0033610736349126893 0.00090757490384535823 0 -0.0031698565878886743 0.0010594939189065118 0 -0.0031633141426061851 0.0008391638859876683 0 -0.0031698565878886743 0.0010594939189065118 0 -0.0030270643565612171 0.00096902353587418526 0 -0.0031633141426061851 0.0008391638859876683 0 -0.0030270643565612171 0.00096902353587418526 0 -0.0031633141426061851 0.0008391638859876683 0 -0.0029739318020211686 0.00078974475001764347 0 -0.0031633141426061851 0.0008391638859876683 0 -0.0031169542717041868 0.00063119927592789635 0 -0.0029739318020211686 0.00078974475001764347 0 -0.0031633141426061851 0.0008391638859876683 0 -0.0031169542717041868 0.00063119927592789635 0 -0.0033176804900913875 0.00066528869166155604 0 -0.0036277710728827668 0.0007384276119256505 0 -0.0033176804900913875 0.00066528869166155604 0 -0.0034744787427039114 0.00049738665636512409 0 -0.0036277710728827668 0.0007384276119256505 0 -0.0033610736349126893 0.00090757490384535823 0 -0.0033176804900913875 0.00066528869166155604 0 -0.0033610736349126893 0.00090757490384535823 0 -0.0031633141426061851 0.0008391638859876683 0 -0.0033176804900913875 0.00066528869166155604 0 -0.0034744787427039114 0.00049738665636512409 0 -0.003246763414553799 0.00043299216667685438 0 -0.0034615448313098872 0.00025336624106201924 0 -0.0033176804900913875 0.00066528869166155604 0 -0.0034744787427039114 0.00049738665636512409 0 -0.003246763414553799 0.00043299216667685438 0 -0.0031169542717041868 0.00063119927592789635 0 -0.0033176804900913875 0.00066528869166155604 0 -0.003246763414553799 0.00043299216667685438 0 -0.0031169542717041868 0.00063119927592789635 0 -0.0030258962543727769 0.00046853281376446756 0 -0.0029656818193856656 0.00062567790391432137 0 -0.0031169542717041868 0.00063119927592789635 0 -0.003246763414553799 0.00043299216667685438 0 -0.0030258962543727769 0.00046853281376446756 0 -0.003246763414553799 0.00043299216667685438 0 -0.0030612209615047585 0.000271238395191471 0 -0.0030258962543727769 0.00046853281376446756 0 -0.003246763414553799 0.00043299216667685438 0 -0.0030612209615047585 0.000271238395191471 0 -0.003247574102462748 0.00022810406485954975 0 -0.003096012576073697 8.0275785777090706e-05 0 -0.0030612209615047585 0.000271238395191471 0 -0.003247574102462748 0.00022810406485954975 0 -0.0033017776842253592 4.3625007401749715e-05 0 -0.003247574102462748 0.00022810406485954975 0 -0.0034615448313098872 0.00025336624106201924 0 -0.003246763414553799 0.00043299216667685438 0 -0.003247574102462748 0.00022810406485954975 0 -0.0034615448313098872 0.00025336624106201924 0 -0.0027554701816725259 5.3762231697926271e-05 0 -0.0025745423368250717 0.00034510334755940956 0 -0.0025368316774748122 0.00011850446458031385 0 -0.002863188682988127 0.00029636215889780403 0 -0.0028374359837544782 0.00052498061877128885 0 -0.0025745423368250717 0.00034510334755940956 0 -0.0027554701816725259 5.3762231697926271e-05 0 -0.002863188682988127 0.00029636215889780403 0 -0.0025745423368250717 0.00034510334755940956 0 -0.0029376096496632385 0.00013054906367330796 0 -0.0030612209615047585 0.000271238395191471 0 -0.002863188682988127 0.00029636215889780403 0 -0.0030612209615047585 0.000271238395191471 0 -0.002863188682988127 0.00029636215889780403 0 -0.0030258962543727769 0.00046853281376446756 0 -0.002863188682988127 0.00029636215889780403 0 -0.0030258962543727769 0.00046853281376446756 0 -0.0028374359837544782 0.00052498061877128885 0 -0.0030258962543727769 0.00046853281376446756 0 -0.0029656818193856656 0.00062567790391432137 0 -0.0028374359837544782 0.00052498061877128885 0 -0.0028374359837544782 0.00052498061877128885 0 -0.0025900314989610184 0.00070577574411095749 0 -0.0025745423368250717 0.00034510334755940956 0 -0.0028374359837544782 0.00052498061877128885 0 -0.0025900314989610184 0.00070577574411095749 0 -0.0028215218025298082 0.0007648877922507598 0 -0.0025900314989610184 0.00070577574411095749 0 -0.0028215218025298082 0.0007648877922507598 0 -0.002672798902994317 0.00098182497596723635 0 -0.0031169542717041868 0.00063119927592789635 0 -0.0029656818193856656 0.00062567790391432137 0 -0.0029739318020211686 0.00078974475001764347 0 -0.0029656818193856656 0.00062567790391432137 0 -0.0028215218025298082 0.0007648877922507598 0 -0.0029739318020211686 0.00078974475001764347 0 -0.0029656818193856656 0.00062567790391432137 0 -0.0028374359837544782 0.00052498061877128885 0 -0.0028215218025298082 0.0007648877922507598 0 -0.0028215218025298082 0.0007648877922507598 0 -0.0029739318020211686 0.00078974475001764347 0 -0.0028810253226015125 0.00096528949375127254 0 -0.0030270643565612171 0.00096902353587418526 0 -0.0029739318020211686 0.00078974475001764347 0 -0.0028810253226015125 0.00096528949375127254 0 -0.0028215218025298082 0.0007648877922507598 0 -0.0028810253226015125 0.00096528949375127254 0 -0.002672798902994317 0.00098182497596723635 0 -0.0028810253226015125 0.00096528949375127254 0 -0.002672798902994317 0.00098182497596723635 0 -0.0028062271323875945 0.0011603493451448337 0 -0.0030270643565612171 0.00096902353587418526 0 -0.0028810253226015125 0.00096528949375127254 0 -0.0029854987723525652 0.0011287476034672725 0 -0.0028810253226015125 0.00096528949375127254 0 -0.0029854987723525652 0.0011287476034672725 0 -0.0028062271323875945 0.0011603493451448337 0 -0.002672798902994317 0.00098182497596723635 0 -0.002367407071872522 0.0010721795130142723 0 -0.0025951023306366064 0.0012139359870868885 0 -0.002672798902994317 0.00098182497596723635 0 -0.0025951023306366064 0.0012139359870868885 0 -0.0028062271323875945 0.0011603493451448337 0 -0.0025900314989610184 0.00070577574411095749 0 -0.002367407071872522 0.0010721795130142723 0 -0.0021820423634836624 0.00054763712955975899 0 -0.002367407071872522 0.0010721795130142723 0 -0.0018269359679185559 0.00080064340178269422 0 -0.0021820423634836624 0.00054763712955975899 0 -0.002367407071872522 0.0010721795130142723 0 -0.0018269359679185559 0.00080064340178269422 0 -0.0021071195561220162 0.0014317242437520777 0 -0.0025900314989610184 0.00070577574411095749 0 -0.002672798902994317 0.00098182497596723635 0 -0.002367407071872522 0.0010721795130142723 0 -0.0018271483033430581 0.00078033924201491842 0 -0.0016551194218033386 7.515531959322723e-05 0 -0.0017661629027147911 0.00027813899729729394 0 -0.0022740040906347493 0.00020319515052809659 0 -0.0021820423634836624 0.00054763712955975899 0 -0.0018269359679185559 0.00080064340178269422 0 -0.0017661629027147911 0.00027813899729729394 0 -0.0021820423634836624 0.00054763712955975899 0 -0.0022740040906347493 0.00020319515052809659 0 -0.0025745423368250717 0.00034510334755940956 0 -0.0021820423634836624 0.00054763712955975899 0 -0.0022740040906347493 0.00020319515052809659 0 -0.0025745423368250717 0.00034510334755940956 0 -0.0025368316774748122 0.00011850446458031385 0 -0.0025900314989610184 0.00070577574411095749 0 -0.0025745423368250717 0.00034510334755940956 0 -0.0021820423634836624 0.00054763712955975899 0 0.0038259389554580023 0.0013260497175710498 0 0.0037232167947011986 0.0012380253101113472 0 0.0037794831209628102 0.0010804241819002635 0 0.0015665874632226804 0.00085751397200610003 0 0.0029538379004029809 0.0013378045249048121 0 -0.0011283471160972833 0.001064533422312593 0 -0.00078935742047381112 0.00036559379022945484 0 -0.00042814654317694929 0.0014666669994694399 0 -0.0018269359679185559 0.00080064340178269422 0 -0.0011283471160972833 0.001064533422312593 0 -0.00078935742047381112 0.00036559379022945484 0 -0.0018269359679185559 0.00080064340178269422 0 -0.0014704054427691002 2.6176691519345839e-05 0 -0.00078935742047381112 0.00036559379022945484 0 0.0038259389554580023 0.0013260497175710498 0 0.0037042156956063046 0.0014215582636091261 0 0.0037232167947011986 0.0012380253101113472 0 0.0038259389554580023 0.0013260497175710498 0 0.0037042156956063046 0.0014215582636091261 0 0.0037588850508724872 0.0014962746382101177 0 0.0037588850508724872 0.0014962746382101177 0 0.0038394472937286956 0.0015819303393312958 0 0.0037238409792253978 0.0016010397762467813 0 0.0036990223866296989 0.0015465902382446938 0 0.0037588850508724872 0.0014962746382101177 0 0.0037238409792253978 0.0016010397762467813 0 0.0036990223866296989 0.0015465902382446938 0 0.0037238409792253978 0.0016010397762467813 0 0.0036362036833442594 0.0016152575880578064 0 0.0037042156956063046 0.0014215582636091261 0 0.0036990223866296989 0.0015465902382446938 0 0.0037588850508724872 0.0014962746382101177 0 -0.0017661629027147911 0.00027813899729729394 0 -0.001759467503578167 -0.00030118953467386827 0 -0.0015484572521925054 -0.00026971208963612651 0 0.0038259389554580023 0.0013260497175710498 0 0.0037588850508724872 0.0014962746382101177 0 0.0038394472937286956 0.0015819303393312958 0 0.0015665874632226804 0.00085751397200610003 0 -0.00027271106933955685 0.00034322261246325835 0 -0.0016551194218033386 7.515531959322723e-05 0 -0.00027271106933955685 0.00034322261246325835 0 -0.0014704054427691002 2.6176691519345839e-05 0 -0.00078935742047381112 0.00036559379022945484 0 -0.0011404821607559311 -0.00071792816584328165 0 0.0038394472937286956 0.0015819303393312958 0 0.0038011301363818561 0.0016509722770468459 0 0.0037238409792253978 0.0016010397762467813 0 -0.00027271106933955685 0.00034322261246325835 0 -0.0019293699174103189 1.9490906946666702e-05 0 -0.001759467503578167 -0.00030118953467386827 0 -0.0015484572521925054 -0.00026971208963612651 0 -0.0016093802654861581 -0.00055624719862613177 0 -0.0019293699174103189 1.9490906946666702e-05 0 -0.00092337930304517435 0.00099868833476900436 0 -0.0025728646294541037 0.00028428725719510542 0 -0.002389201892117083 0.00026282569700426605 0 -0.0024549198682231746 -9.0652206170294594e-05 0 -0.00082952755338015175 0.000398414177605113 0 -0.00076183791926357977 0.00062374559218572058 0 -0.00093389653950989252 0.00064382825917325289 0 -0.00027271106933955685 0.00034322261246325835 0 -0.00092337930304517435 0.00099868833476900436 0 0.0038011301363818561 0.0016509722770468459 0 0.0037238409792253978 0.0016010397762467813 0 0.0035890164180468818 0.0017195657231993085 0 -0.0043447308716935322 0.0028486975133450465 0 -0.0035401776250900364 0.0024977993782087354 0 -0.0030654703703055512 0.002801757400146146 0 -0.00092337930304517435 0.00099868833476900436 0 0.00040706683803139632 0.0024374871764737552 0 -0.0025280273883278221 -0.00012037842781275307 0 -0.0022239513261534225 -5.9975609796389688e-05 0 -0.002503236361939627 -0.00041016650282474408 0 -0.0022740040906347493 0.00020319515052809659 0 -0.0025280273883278221 -0.00012037842781275307 0 -0.0025368316774748122 0.00011850446458031385 0 -0.0027554701816725259 5.3762231697926271e-05 0 -0.0025280273883278221 -0.00012037842781275307 0 -0.0025368316774748122 0.00011850446458031385 0 -0.0022740040906347493 0.00020319515052809659 0 -0.0025280273883278221 -0.00012037842781275307 0 -0.0022239513261534225 -5.9975609796389688e-05 0 -0.0017661629027147911 0.00027813899729729394 0 -0.0022239513261534225 -5.9975609796389688e-05 0 -0.0020067399155427831 -0.00026437256857772496 0 -0.0017661629027147911 0.00027813899729729394 0 -0.001759467503578167 -0.00030118953467386827 0 -0.0020067399155427831 -0.00026437256857772496 0 -0.0017661629027147911 0.00027813899729729394 0 -0.0022740040906347493 0.00020319515052809659 0 -0.0022239513261534225 -5.9975609796389688e-05 0 -0.0016093802654861581 -0.00055624719862613177 0 -0.0020067399155427831 -0.00026437256857772496 0 -0.002503236361939627 -0.00041016650282474408 0 -0.0019293699174103189 1.9490906946666702e-05 0 -0.0026015225967787672 -0.0005132506102541476 0 -0.0022239513261534225 -5.9975609796389688e-05 0 -0.0020067399155427831 -0.00026437256857772496 0 -0.002503236361939627 -0.00041016650282474408 0 -0.0028667211852657372 -0.00041625182438451846 0 -0.0026952137435290085 -0.00035755591639903225 0 -0.002503236361939627 -0.00041016650282474408 0 -0.001759467503578167 -0.00030118953467386827 0 -0.0016093802654861581 -0.00055624719862613177 0 -0.0020067399155427831 -0.00026437256857772496 0 -0.0028667211852657372 -0.00041625182438451846 0 -0.0026952137435290085 -0.00035755591639903225 0 -0.0027574754229753103 -0.00029724482613784466 0 -0.0026952137435290085 -0.00035755591639903225 0 -0.002503236361939627 -0.00041016650282474408 0 -0.0026961209861403458 -0.0003549464837711981 0 -0.0027975694387510799 -0.00020943902614599573 0 -0.0025280273883278221 -0.00012037842781275307 0 -0.0026362328372262762 -0.0004109885813892449 0 -0.0025280273883278221 -0.00012037842781275307 0 -0.002503236361939627 -0.00041016650282474408 0 -0.0026362328372262762 -0.0004109885813892449 0 -0.002503236361939627 -0.00041016650282474408 0 -0.0026362328372262762 -0.0004109885813892449 0 -0.0025975320893573749 -0.00040876952419547692 0 -0.0042202769596960191 0.00045593353690751774 0 -0.0035752564655798461 0.00011658772997268949 0 -0.0033073373304477651 -0.00033050475770366638 0 -0.0035648629891548373 -0.00015197787669651912 0 -0.0036034306046314295 -0.00011258767544379416 0 -0.0038147122367603011 -0.00040567135592545255 0 -0.0041368617254257467 0.00015368519449987582 0 -0.0033073373304477651 -0.00033050475770366638 0 -0.002503236361939627 -0.00041016650282474408 0 -0.0025975320893573749 -0.00040876952419547692 0 -0.0026961209861403458 -0.0003549464837711981 0 -0.0025975320893573749 -0.00040876952419547692 0 -0.0028699431551441664 -0.00026440339506297937 0 -0.0026961209861403458 -0.0003549464837711981 0 -0.0035752564655798461 0.00011658772997268949 0 -0.0033073373304477651 -0.00033050475770366638 0 -0.0028699431551441664 -0.00026440339506297937 0 -0.0031129204920852631 -0.00015215771570818121 0 -0.0028912764033478767 -0.00025180262697427943 0 -0.0038147122367603011 -0.00040567135592545255 0 -0.0033073373304477651 -0.00033050475770366638 0 -0.0034033245794753723 -0.0006133616054553808 0 -0.0033073373304477651 -0.00033050475770366638 0 -0.0034033245794753723 -0.0006133616054553808 0 -0.0030787021744184614 -0.00053202262736791993 0 -0.0034033245794753723 -0.0006133616054553808 0 -0.0036513179640665404 -0.00087648227441484191 0 -0.0031216104672269125 -0.00082927218245359285 0 -0.0034033245794753723 -0.0006133616054553808 0 -0.0030787021744184614 -0.00053202262736791993 0 -0.0031216104672269125 -0.00082927218245359285 0 -0.0038147122367603011 -0.00040567135592545255 0 -0.0034033245794753723 -0.0006133616054553808 0 -0.0036513179640665404 -0.00087648227441484191 0 -0.0028185285516815262 -0.00054073405183566192 0 -0.0025445145239763579 -0.00057697691721162782 0 -0.0027822599974002969 -0.00082334278172772077 0 -0.0028185285516815262 -0.00054073405183566192 0 -0.0031216104672269125 -0.00082927218245359285 0 -0.0027822599974002969 -0.00082334278172772077 0 -0.0030787021744184614 -0.00053202262736791993 0 -0.0028185285516815262 -0.00054073405183566192 0 -0.0031216104672269125 -0.00082927218245359285 0 -0.0030787021744184614 -0.00053202262736791993 0 -0.0028185285516815262 -0.00054073405183566192 0 -0.0028699431551441664 -0.00026440339506297937 0 -0.0033073373304477651 -0.00033050475770366638 0 -0.0030787021744184614 -0.00053202262736791993 0 -0.0028699431551441664 -0.00026440339506297937 0 -0.0028185285516815262 -0.00054073405183566192 0 -0.0027505891512361086 -0.00026634678524743851 0 -0.0028699431551441664 -0.00026440339506297937 0 -0.0027505891512361086 -0.00026634678524743851 0 -0.0028699431551441664 -0.00026440339506297937 0 -0.0027574754229753103 -0.00029724482613784466 0 -0.0028667211852657372 -0.00041625182438451846 0 -0.0027505891512361086 -0.00026634678524743851 0 -0.0027574754229753103 -0.00029724482613784466 0 -0.0028699431551441664 -0.00026440339506297937 0 -0.0026961209861403458 -0.0003549464837711981 0 -0.0027574754229753103 -0.00029724482613784466 0 -0.0026952137435290085 -0.00035755591639903225 0 -0.0026961209861403458 -0.0003549464837711981 0 -0.0027574754229753103 -0.00029724482613784466 0 -0.0019293699174103189 1.9490906946666702e-05 0 -0.0028403613829387254 -0.00034714309509533016 0 -0.0025728646294541037 0.00028428725719510542 0 -0.0027505891512361086 -0.00026634678524743851 0 -0.0024549198682231746 -9.0652206170294594e-05 0 -0.002389201892117083 0.00026282569700426605 0 -0.0024549198682231746 -9.0652206170294594e-05 0 -0.0021159459256843739 -0.00040895620643496909 0 -0.0024549198682231746 -9.0652206170294594e-05 0 -0.0024650071998641361 -0.0003364343052004478 0 -0.0021159459256843739 -0.00040895620643496909 0 -0.0027505891512361086 -0.00026634678524743851 0 -0.0024549198682231746 -9.0652206170294594e-05 0 -0.0024650071998641361 -0.0003364343052004478 0 -0.00092337930304517435 0.00099868833476900436 0 -0.0038697068701008001 0.0012100302924750845 0 -0.0043447308716935322 0.0028486975133450465 0 -0.0035401776250900364 0.0024977993782087354 0 -0.0039300102297514274 0.0018821144415513799 0 -0.0035378059773041245 0.0025259759715744096 0 -0.0038697068701008001 0.0012100302924750845 0 -0.0035401776250900364 0.0024977993782087354 0 -0.0041662798794802501 0.0017088257180742194 0 -0.003462979658615035 0.0019017080109111056 0 -0.0042728457851922011 0.0018433914542763123 0 -0.0039065536708238341 0.00095092634928196462 0 -0.0044851525289566528 0.00064250014854140059 0 -0.0041662798794802501 0.0017088257180742194 0 -0.0034373360559524905 0.0012625902373274839 0 -0.003462979658615035 0.0019017080109111056 0 -0.0038697068701008001 0.0012100302924750845 0 -0.004003317763003755 0.001244583305387641 0 -0.0041662798794802501 0.0017088257180742194 0 -0.0039065536708238341 0.00095092634928196462 0 -0.0034373360559524905 0.0012625902373274839 0 -0.0021159459256843739 -0.00040895620643496909 0 -0.0025445145239763579 -0.00057697691721162782 0 -0.0025162343438985481 -0.0010613010343761087 0 -0.0038697068701008001 0.0012100302924750845 0 -0.0035573405795636306 -0.00050435806136087092 0 -0.0042728457851922011 0.0018433914542763123 0 -0.0052479435058601564 0.00042561560448158481 0 -0.0044851525289566528 0.00064250014854140059 0 -0.0028185285516815262 -0.00054073405183566192 0 -0.0027505891512361086 -0.00026634678524743851 0 -0.0025445145239763579 -0.00057697691721162782 0 -0.0027505891512361086 -0.00026634678524743851 0 -0.0024650071998641361 -0.0003364343052004478 0 -0.0025445145239763579 -0.00057697691721162782 0 -0.0024650071998641361 -0.0003364343052004478 0 -0.0021159459256843739 -0.00040895620643496909 0 -0.0025445145239763579 -0.00057697691721162782 0 -0.0025445145239763579 -0.00057697691721162782 0 -0.0025162343438985481 -0.0010613010343761087 0 -0.0027822599974002969 -0.00082334278172772077 0 -0.0052479435058601564 0.00042561560448158481 0 -0.0044851525289566528 0.00064250014854140059 0 -0.0049875707132294566 -0.0001518825547083652 0 -0.0039065536708238341 0.00095092634928196462 0 -0.0040255780238305835 0.00013565704946612493 0 -0.0035860471831434156 0.00081556829036878351 0 -0.0039065536708238341 0.00095092634928196462 0 -0.0044851525289566528 0.00064250014854140059 0 -0.0040255780238305835 0.00013565704946612493 0 -0.0044851525289566528 0.00064250014854140059 0 -0.0040255780238305835 0.00013565704946612493 0 -0.0049875707132294566 -0.0001518825547083652 0 -0.0036288639314376696 0.00064529357502634351 0 -0.0034154897055008694 0.0004500100794613033 0 -0.0034113974356098919 0.00065935869253863416 0 -0.010897559831491405 0.0010251604783805825 0 -0.011209203225150732 0.0016062491567624599 0 -0.010599142087099623 0.0017056786117646985 0 -0.0069257621915110867 0.00034591239147331186 0 -0.0070955250601149747 0.0011204687387168823 0 -0.0036288639314376696 0.00064529357502634351 0 -0.004055823469721399 0.00035792443750752811 0 -0.0034154897055008694 0.0004500100794613033 0 -0.0040255780238305835 0.00013565704946612493 0 -0.0049875707132294566 -0.0001518825547083652 0 -0.00491353763911724 -0.00051260196174011789 0 -0.0036229478715296653 0.00058545056112274392 0 -0.0069257621915110867 0.00034591239147331186 0 -0.0049875707132294566 -0.0001518825547083652 0 -0.00491353763911724 -0.00051260196174011789 0 -0.0062778105571828762 -0.0010464358550971991 0 -0.005880840114707255 -0.0011867565859501757 0 -0.00491353763911724 -0.00051260196174011789 0 -0.0062778105571828762 -0.0010464358550971991 0 -0.0052479435058601564 0.00042561560448158481 0 -0.0049875707132294566 -0.0001518825547083652 0 -0.0062778105571828762 -0.0010464358550971991 0 -0.010222555811837954 0.0008138058470209934 0 -0.0069257621915110867 0.00034591239147331186 0 -0.0025162343438985481 -0.0010613010343761087 0 -0.002996707406271378 -0.0017711213393004036 0 -0.0029392990416621297 -0.0011306156685484661 0 -0.002996707406271378 -0.0017711213393004036 0 -0.0033709192068792767 -0.0011818075694252799 0 -0.0029392990416621297 -0.0011306156685484661 0 -0.0035573405795636306 -0.00050435806136087092 0 -0.0067583301686991309 -0.00022375462203920338 0 -0.010222555811837954 0.0008138058470209934 0 -0.0067583301686991309 -0.00022375462203920338 0 -0.0093622836712457091 0.00060357826481268221 0 -0.009203352205843944 0.00017766178493173917 0 -0.0098132471902181509 0.00041449492380011448 0 -0.0037602666356584976 -0.0015244144239689068 0 -0.002996707406271378 -0.0017711213393004036 0 -0.0033709192068792767 -0.0011818075694252799 0 -0.0063914726523536429 -0.00073982978465327769 0 -0.0067583301686991309 -0.00022375462203920338 0 -0.0037602666356584976 -0.0015244144239689068 0 -0.0033709192068792767 -0.0011818075694252799 0 -0.0036513179640665404 -0.00087648227441484191 0 -0.0033709192068792767 -0.0011818075694252799 0 -0.0036513179640665404 -0.00087648227441484191 0 -0.0031216104672269125 -0.00082927218245359285 0 -0.0033709192068792767 -0.0011818075694252799 0 -0.0031216104672269125 -0.00082927218245359285 0 -0.0029392990416621297 -0.0011306156685484661 0 -0.0031216104672269125 -0.00082927218245359285 0 -0.0027822599974002969 -0.00082334278172772077 0 -0.0029392990416621297 -0.0011306156685484661 0 -0.0025162343438985481 -0.0010613010343761087 0 -0.0027822599974002969 -0.00082334278172772077 0 -0.0029392990416621297 -0.0011306156685484661 0 -0.0016888049889676254 0.00064805162828261774 0 -0.0011409442708842526 -8.6194123086318774e-05 0 -0.0012010439131497988 0.00092465134904595617 0 -0.00055204245262650115 0.00056087868094508038 0 -0.0011409442708842526 -8.6194123086318774e-05 0 -0.0012010439131497988 0.00092465134904595617 0 -0.0016888049889676254 0.00064805162828261774 0 -0.0011409442708842526 -8.6194123086318774e-05 0 -0.0021311051458002168 0.00031534020993849346 0 -0.0047098449495511794 0.0011454021554569277 0 -0.0022090304242819297 0.0002836204561600539 0 -0.00055204245262650115 0.00056087868094508038 0 -0.00012761297088604093 3.4645836197617907e-05 0 -0.0011409442708842526 -8.6194123086318774e-05 0 0.00026212693350637404 0.0007105746916032656 0 -0.00055204245262650115 0.00056087868094508038 0 -0.00034542707110983225 0.0012275161619173442 0 0.00026212693350637404 0.0007105746916032656 0 -0.00055204245262650115 0.00056087868094508038 0 -0.00012761297088604093 3.4645836197617907e-05 0 -0.0074051132581223122 0.0014777027622359475 0 -0.0076384499971213901 0.0010965515800775282 0 -0.0087904330251256848 0.0020475537375728042 0 -0.0013510516874221667 0.00086186810101880162 0 -0.0047098449495511794 0.0011454021554569277 0 -0.002831892014054658 0.00096513078862028824 0 -0.0033252335765580573 0.0016771467379952526 0 -0.0042868824909931972 0.0016008593139528401 0 -0.0049497146006420526 0.001930275255547196 0 -0.0047098449495511794 0.0011454021554569277 0 -0.0094832578487532918 0.0012272381869236628 0 -0.0086768580404095654 0.00093838222585567442 0 -0.0087904330251256848 0.0020475537375728042 0 -0.0047098449495511794 0.0011454021554569277 0 -0.0067121300089957314 0.0012365694266683735 0 -0.0094832578487532918 0.0012272381869236628 0 -0.0087904330251256848 0.0020475537375728042 0 -0.009796724773997869 0.0018980671941746937 0 -0.010225430741159757 0.001281326081312136 0 -0.0094832578487532918 0.0012272381869236628 0 -0.009796724773997869 0.0018980671941746937 0 -0.010225430741159757 0.001281326081312136 0 -0.009796724773997869 0.0018980671941746937 0 -0.010599142087099623 0.0017056786117646985 0 -0.0031694372702467007 0.00060082211364761605 0 -0.0034154897055008694 0.0004500100794613033 0 -0.003259255317611984 0.00059687826145707844 0 -0.0067121300089957314 0.0012365694266683735 0 -0.0070955250601149747 0.0011204687387168823 0 -0.0034154897055008694 0.0004500100794613033 0 -0.0033198993478102635 0.000616314106293232 0 -0.003259255317611984 0.00059687826145707844 0 -0.00322697080399719 0.00067462215563135019 0 -0.0032065830466843541 0.00076969583631478797 0 -0.0031719203467411019 0.0006093564558506693 0 -0.0036288639314376696 0.00064529357502634351 0 -0.0034113974356098919 0.00065935869253863416 0 -0.003266620371222021 0.00075587382124830027 0 -0.0036229478715296653 0.00058545056112274392 0 -0.0034283106318504998 0.00065581124648224234 0 -0.0034154897055008694 0.0004500100794613033 0 -0.0034113974356098919 0.00065935869253863416 0 -0.0033198993478102635 0.000616314106293232 0 -0.0034113974356098919 0.00065935869253863416 0 -0.0033198993478102635 0.000616314106293232 0 -0.0032999738682039019 0.00068998666670883415 0 -0.0033198993478102635 0.000616314106293232 0 -0.00322697080399719 0.00067462215563135019 0 -0.0032999738682039019 0.00068998666670883415 0 -0.0033198993478102635 0.000616314106293232 0 -0.003259255317611984 0.00059687826145707844 0 -0.00322697080399719 0.00067462215563135019 0 -0.003259255317611984 0.00059687826145707844 0 -0.00322697080399719 0.00067462215563135019 0 -0.0031981921401127026 0.0006210765979336179 0 -0.0027669576750501304 0.00075459156332214282 0 -0.0026391786031446768 0.000897079868369046 0 -0.0030754872996483803 0.0010319216048371217 0 -0.0032065830466843541 0.00076969583631478797 0 -0.0033142997108157636 0.00091954179795689735 0 -0.0030754872996483803 0.0010319216048371217 0 -0.0027669576750501304 0.00075459156332214282 0 -0.0032065830466843541 0.00076969583631478797 0 -0.0030754872996483803 0.0010319216048371217 0 -0.0032065830466843541 0.00076969583631478797 0 -0.0032539565736329199 0.00072257300796972114 0 -0.003266620371222021 0.00075587382124830027 0 -0.00322697080399719 0.00067462215563135019 0 -0.0032065830466843541 0.00076969583631478797 0 -0.0032539565736329199 0.00072257300796972114 0 -0.00322697080399719 0.00067462215563135019 0 -0.0032539565736329199 0.00072257300796972114 0 -0.0032999738682039019 0.00068998666670883415 0 -0.0040255780238305835 0.00013565704946612493 0 -0.003266620371222021 0.00075587382124830027 0 -0.0035860471831434156 0.00081556829036878351 0 -0.0034113974356098919 0.00065935869253863416 0 -0.0032999738682039019 0.00068998666670883415 0 -0.003266620371222021 0.00075587382124830027 0 -0.0032539565736329199 0.00072257300796972114 0 -0.0032999738682039019 0.00068998666670883415 0 -0.003266620371222021 0.00075587382124830027 0 -0.003266620371222021 0.00075587382124830027 0 -0.0035860471831434156 0.00081556829036878351 0 -0.0033142997108157636 0.00091954179795689735 0 -0.0032065830466843541 0.00076969583631478797 0 -0.003266620371222021 0.00075587382124830027 0 -0.0033142997108157636 0.00091954179795689735 0 -0.0027669576750501304 0.00075459156332214282 0 -0.0032065830466843541 0.00076969583631478797 0 -0.0021311051458002168 0.00031534020993849346 0 -0.003241309763499252 0.00063511429080190067 0 -0.0031694372702467007 0.00060082211364761605 0 -0.0031719203467411019 0.0006093564558506693 0 -0.0033249401050716139 0.00080338692664822442 0 -0.0022090304242819297 0.0002836204561600539 0 -0.0031694372702467007 0.00060082211364761605 0 -0.0031719203467411019 0.0006093564558506693 0 -0.0031981921401127026 0.0006210765979336179 0 -0.0031694372702467007 0.00060082211364761605 0 -0.003259255317611984 0.00059687826145707844 0 -0.0031981921401127026 0.0006210765979336179 0 -0.00322697080399719 0.00067462215563135019 0 -0.0031719203467411019 0.0006093564558506693 0 -0.0031981921401127026 0.0006210765979336179 0 -0.0027669576750501304 0.00075459156332214282 0 -0.0021311051458002168 0.00031534020993849346 0 -0.0026391786031446768 0.000897079868369046 0 -0.0021311051458002168 0.00031534020993849346 0 -0.0026391786031446768 0.000897079868369046 0 -0.002154743326608994 0.00086333131969311243 0 -0.0016888049889676254 0.00064805162828261774 0 -0.0021311051458002168 0.00031534020993849346 0 -0.002154743326608994 0.00086333131969311243 0 -0.0016888049889676254 0.00064805162828261774 0 -0.002154743326608994 0.00086333131969311243 0 -0.0018444675197376754 0.0012597984895810904 0 -0.0018444675197376754 0.0012597984895810904 0 -0.0023852819040739068 0.0011380031305927788 0 -0.0024114075079596543 0.0016132976070057016 0 -0.002154743326608994 0.00086333131969311243 0 -0.0018444675197376754 0.0012597984895810904 0 -0.0023852819040739068 0.0011380031305927788 0 -0.0023852819040739068 0.0011380031305927788 0 -0.0024114075079596543 0.0016132976070057016 0 -0.0029158826541510964 0.0013259050971632421 0 -0.0026391786031446768 0.000897079868369046 0 -0.0023852819040739068 0.0011380031305927788 0 -0.0029158826541510964 0.0013259050971632421 0 -0.0026391786031446768 0.000897079868369046 0 -0.002154743326608994 0.00086333131969311243 0 -0.0023852819040739068 0.0011380031305927788 0 -0.0018444675197376754 0.0012597984895810904 0 -0.0024114075079596543 0.0016132976070057016 0 -0.0018564532318086266 0.0019280429928586645 0 -0.0035860471831434156 0.00081556829036878351 0 -0.0034373360559524905 0.0012625902373274839 0 -0.0033142997108157636 0.00091954179795689735 0 -0.0039065536708238341 0.00095092634928196462 0 -0.0035860471831434156 0.00081556829036878351 0 -0.0034373360559524905 0.0012625902373274839 0 -0.0034373360559524905 0.0012625902373274839 0 -0.0033142997108157636 0.00091954179795689735 0 -0.0030754872996483803 0.0010319216048371217 0 -0.0034373360559524905 0.0012625902373274839 0 -0.0030754872996483803 0.0010319216048371217 0 -0.0029158826541510964 0.0013259050971632421 0 -0.0026391786031446768 0.000897079868369046 0 -0.0030754872996483803 0.0010319216048371217 0 -0.0029158826541510964 0.0013259050971632421 0 -0.0029158826541510964 0.0013259050971632421 0 -0.0032008956624989659 0.0016043623363345945 0 -0.002954557535081202 0.00182446905279841 0 -0.0024114075079596543 0.0016132976070057016 0 -0.0029158826541510964 0.0013259050971632421 0 -0.002954557535081202 0.00182446905279841 0 -0.0034373360559524905 0.0012625902373274839 0 -0.0029158826541510964 0.0013259050971632421 0 -0.0032008956624989659 0.0016043623363345945 0 -0.0032008956624989659 0.0016043623363345945 0 -0.003462979658615035 0.0019017080109111056 0 -0.002954557535081202 0.00182446905279841 0 -0.0034373360559524905 0.0012625902373274839 0 -0.0032008956624989659 0.0016043623363345945 0 -0.003462979658615035 0.0019017080109111056 0 -0.003462979658615035 0.0019017080109111056 0 -0.002954557535081202 0.00182446905279841 0 -0.0030941516616401982 0.002294825119230611 0 -0.0035401776250900364 0.0024977993782087354 0 -0.003462979658615035 0.0019017080109111056 0 -0.0030941516616401982 0.002294825119230611 0 -0.002954557535081202 0.00182446905279841 0 -0.0030941516616401982 0.002294825119230611 0 -0.00249141697313871 0.0021830127059472098 0 -0.0030941516616401982 0.002294825119230611 0 -0.00249141697313871 0.0021830127059472098 0 -0.0030654703703055512 0.002801757400146146 0 -0.0035401776250900364 0.0024977993782087354 0 -0.0030941516616401982 0.002294825119230611 0 -0.0030654703703055512 0.002801757400146146 0 -0.0018564532318086266 0.0019280429928586645 0 -0.00249141697313871 0.0021830127059472098 0 -0.0013502746416113075 0.0027401837028572869 0 -0.00249141697313871 0.0021830127059472098 0 -0.0013502746416113075 0.0027401837028572869 0 -0.0030654703703055512 0.002801757400146146 0 -0.0024114075079596543 0.0016132976070057016 0 -0.0018564532318086266 0.0019280429928586645 0 -0.00249141697313871 0.0021830127059472098 0 -0.0024114075079596543 0.0016132976070057016 0 -0.002954557535081202 0.00182446905279841 0 -0.00249141697313871 0.0021830127059472098 0 -0.0018564532318086266 0.0019280429928586645 0 -0.0013502746416113075 0.0027401837028572869 0 -0.0010484678719468543 0.0017991119856367191 0 -0.0018444675197376754 0.0012597984895810904 0 -0.0018564532318086266 0.0019280429928586645 0 -0.0010484678719468543 0.0017991119856367191 0 -0.0016888049889676254 0.00064805162828261774 0 -0.0018444675197376754 0.0012597984895810904 0 -0.0012010439131497988 0.00092465134904595617 0 -0.0018444675197376754 0.0012597984895810904 0 -0.0010484678719468543 0.0017991119856367191 0 -0.0012010439131497988 0.00092465134904595617 0 -0.00055204245262650115 0.00056087868094508038 0 -0.0012010439131497988 0.00092465134904595617 0 -0.00034542707110983225 0.0012275161619173442 0 -0.0010484678719468543 0.0017991119856367191 0 -0.0012010439131497988 0.00092465134904595617 0 -0.00034542707110983225 0.0012275161619173442 0 0.00053243727544371306 0.0026145953753984948 0 -0.0013502746416113075 0.0027401837028572869 0 -0.0010484678719468543 0.0017991119856367191 0 0.00053243727544371306 0.0026145953753984948 0 -0.0010484678719468543 0.0017991119856367191 0 -0.00034542707110983225 0.0012275161619173442 0 0.0017931698593380439 0.0023078248013007224 0 0.00097215747867927663 0.0022592306880509345 0 0.0030510469964572951 0.0019972363627058834 0 0.0033545699165666645 0.0018257767155362499 0 0.0031622911189352659 0.0016012305144320145 0 0.0033545699165666645 0.0018257767155362499 0 0.0034230647002810042 0.0015323404703075894 0 0.0031622911189352659 0.0016012305144320145 0 0.0034230647002810042 0.0015323404703075894 0 0.0031622911189352659 0.0016012305144320145 0 0.0032692974589429999 0.0012698514512837419 0 0.0037238409792253978 0.0016010397762467813 0 0.0036362036833442594 0.0016152575880578064 0 0.0035890164180468818 0.0017195657231993085 0 0.0036362036833442594 0.0016152575880578064 0 0.0035890164180468818 0.0017195657231993085 0 0.0035710697984705068 0.0015664822168408854 0 0.00097215747867927663 0.0022592306880509345 0 0.00040706683803139632 0.0024374871764737552 0 0.0033545699165666645 0.0018257767155362499 0 0.0034230647002810042 0.0015323404703075894 0 0.0035710697984705068 0.0015664822168408854 0 0.0033545699165666645 0.0018257767155362499 0 0.0035890164180468818 0.0017195657231993085 0 0.0035710697984705068 0.0015664822168408854 0 0.0034230647002810042 0.0015323404703075894 0 0.0035710697984705068 0.0015664822168408854 0 0.0036110345288293197 0.0013602607082540995 0 0.0036990223866296989 0.0015465902382446938 0 0.0036362036833442594 0.0016152575880578064 0 0.0035710697984705068 0.0015664822168408854 0 0.0037042156956063046 0.0014215582636091261 0 0.0036990223866296989 0.0015465902382446938 0 0.0035710697984705068 0.0015664822168408854 0 0.0037042156956063046 0.0014215582636091261 0 0.0036110345288293197 0.0013602607082540995 0 0.0037232167947011986 0.0012380253101113472 0 0.0037042156956063046 0.0014215582636091261 0 0.0035710697984705068 0.0015664822168408854 0 0.0036110345288293197 0.0013602607082540995 0 0.0034230647002810042 0.0015323404703075894 0 0.0036110345288293197 0.0013602607082540995 0 0.0034233644136036395 0.0012745385957977939 0 0.0034233644136036395 0.0012745385957977939 0 0.0032441962613643633 0.0010099609452662848 0 0.0036271083284999833 0.0010556277130117041 0 0.0036110345288293197 0.0013602607082540995 0 0.0034233644136036395 0.0012745385957977939 0 0.0036271083284999833 0.0010556277130117041 0 0.0036110345288293197 0.0013602607082540995 0 0.0037232167947011986 0.0012380253101113472 0 0.0036271083284999833 0.0010556277130117041 0 0.0037232167947011986 0.0012380253101113472 0 0.0036271083284999833 0.0010556277130117041 0 0.0037794831209628102 0.0010804241819002635 0 0.0030810222198851401 0.0012552506013074332 0 0.0031622911189352659 0.0016012305144320145 0 0.0032692974589429999 0.0012698514512837419 0 0.0034793986305680629 0.0015680776223127241 0 0.002998194475140313 0.0011832724797727965 0 0.0034230647002810042 0.0015323404703075894 0 0.0034233644136036395 0.0012745385957977939 0 0.0031116297939011031 0.0013149716933071752 0 0.0034233644136036395 0.0012745385957977939 0 0.0031116297939011031 0.0013149716933071752 0 0.0032441962613643633 0.0010099609452662848 0 0.002998194475140313 0.0011832724797727965 0 0.003885259483315993 0.0012998108990067629 0 0.0031116297939011031 0.0013149716933071752 0 0.0032441962613643633 0.0010099609452662848 0 0.00276348362026726 0.00099793384053415584 0 0.0032441962613643633 0.0010099609452662848 0 0.0030328215306601935 0.0006656521738202172 0 0.00276348362026726 0.00099793384053415584 0 0.0068110036938597131 0.0022972516877053681 0 0.0062979305716453294 0.0023609132904236999 0 0.0061118895588406739 0.0029543768874944806 0 0.0049900133708619832 0.0015402522231917047 0 0.003885259483315993 0.0012998108990067629 0 0.0032441962613643633 0.0010099609452662848 0 0.0030328215306601935 0.0006656521738202172 0 0.0034671994851704188 0.00065494226266386163 0 0.0049900133708619832 0.0015402522231917047 0 0.0053617943596593704 0.00093407509707546304 0 0.0030328215306601935 0.0006656521738202172 0 0.0034671994851704188 0.00065494226266386163 0 0.0033427020680963865 0.00020988306284049464 0 0.0068110036938597131 0.0022972516877053681 0 0.0066763208445892184 0.0016836618423727704 0 0.0062979305716453294 0.0023609132904236999 0 0.0068110036938597131 0.0022972516877053681 0 0.0066763208445892184 0.0016836618423727704 0 0.0075416879007971322 0.001613110980380681 0 0.0036271083284999833 0.0010556277130117041 0 0.0038936437964415156 0.00064266627420259722 0 0.0043737940154079981 0.00097453616516103429 0 0.0041297662308471643 0.00094934003045168665 0 0.0029538379004029809 0.0013378045249048121 0 0.0036271083284999833 0.0010556277130117041 0 0.0034671994851704188 0.00065494226266386163 0 0.0038936437964415156 0.00064266627420259722 0 0.0032441962613643633 0.0010099609452662848 0 0.0036271083284999833 0.0010556277130117041 0 0.0034671994851704188 0.00065494226266386163 0 0.0034671994851704188 0.00065494226266386163 0 0.0038936437964415156 0.00064266627420259722 0 0.0038402762899687175 0.000213499240276753 0 0.0034671994851704188 0.00065494226266386163 0 0.0038402762899687175 0.000213499240276753 0 0.0033427020680963865 0.00020988306284049464 0 0.0038936437964415156 0.00064266627420259722 0 0.0038402762899687175 0.000213499240276753 0 0.0041940060227087794 0.00028872524146189549 0 0.0038936437964415156 0.00064266627420259722 0 0.0042738391476948726 0.00062442991939096486 0 0.0043737940154079981 0.00097453616516103429 0 0.0038936437964415156 0.00064266627420259722 0 0.0041940060227087794 0.00028872524146189549 0 0.0042738391476948726 0.00062442991939096486 0 0.0038402762899687175 0.000213499240276753 0 0.0041940060227087794 0.00028872524146189549 0 0.0044143849033530056 -0.00023495261870606411 0 0.0038402762899687175 0.000213499240276753 0 0.0037939186146511926 -0.00033527490258349578 0 0.0044143849033530056 -0.00023495261870606411 0 0.006511579149869137 0.00023522704916260448 0 0.0053617943596593704 0.00093407509707546304 0 0.0038402762899687175 0.000213499240276753 0 0.0037939186146511926 -0.00033527490258349578 0 0.0033427020680963865 0.00020988306284049464 0 0.0082322994333717172 0.00091631541996291005 0 0.0075416879007971322 0.001613110980380681 0 0.0075751708663257741 0.00073845193568727961 0 0.006511579149869137 0.00023522704916260448 0 0.0082830098840453517 0.00092937767000132135 0 0.006511579149869137 0.00023522704916260448 0 0.005410659218504474 -0.00046867495245916555 0 0.0065987498847714533 -0.00063623051010349005 0 0.0068478415677703033 -0.00088685912990488528 0 0.0070003187691172431 -0.00053984108413739952 0 0.006511579149869137 0.00023522704916260448 0 0.007904953362410946 -0.0002695401621441646 0 0.0066763208445892184 0.0016836618423727704 0 0.0071205678206799627 0.0011697329169807578 0 0.0066510624208789152 0.0011640686186343786 0 0.0066763208445892184 0.0016836618423727704 0 0.0066510624208789152 0.0011640686186343786 0 0.0062850973089623226 0.0013071992653111628 0 0.0066763208445892184 0.0016836618423727704 0 0.0075416879007971322 0.001613110980380681 0 0.0071205678206799627 0.0011697329169807578 0 0.0075416879007971322 0.001613110980380681 0 0.0071205678206799627 0.0011697329169807578 0 0.0075751708663257741 0.00073845193568727961 0 0.0071205678206799627 0.0011697329169807578 0 0.0075751708663257741 0.00073845193568727961 0 0.0069465364255757757 0.00073534936104821709 0 0.0071205678206799627 0.0011697329169807578 0 0.0069465364255757757 0.00073534936104821709 0 0.0066510624208789152 0.0011640686186343786 0 0.0066510624208789152 0.0011640686186343786 0 0.0063850061334269348 0.00079430933303231959 0 0.0062850973089623226 0.0013071992653111628 0 0.0069465364255757757 0.00073534936104821709 0 0.0066510624208789152 0.0011640686186343786 0 0.0063850061334269348 0.00079430933303231959 0 0.0069465364255757757 0.00073534936104821709 0 0.0066646479803537557 0.00029635300291242878 0 0.0063850061334269348 0.00079430933303231959 0 0.0069465364255757757 0.00073534936104821709 0 0.0066646479803537557 0.00029635300291242878 0 0.0072756094057521061 0.00025244750465188586 0 0.0066646479803537557 0.00029635300291242878 0 0.0069309005178714456 -0.00024978181879061167 0 0.0072756094057521061 0.00025244750465188586 0 0.0069309005178714456 -0.00024978181879061167 0 0.0066544476004496977 -0.00081798520265818442 0 0.0074031806639143329 -0.00094539762745305376 0 0.0066646479803537557 0.00029635300291242878 0 0.0069309005178714456 -0.00024978181879061167 0 0.0063167513391155523 -0.00017027249175564888 0 0.0069309005178714456 -0.00024978181879061167 0 0.0066544476004496977 -0.00081798520265818442 0 0.0063167513391155523 -0.00017027249175564888 0 0.0069309005178714456 -0.00024978181879061167 0 0.0075396954291070788 -0.00030809394453118526 0 0.0074031806639143329 -0.00094539762745305376 0 0.0075396954291070788 -0.00030809394453118526 0 0.0080526888184453312 -0.00054621509199576567 0 0.0074031806639143329 -0.00094539762745305376 0 0.0069309005178714456 -0.00024978181879061167 0 0.0075396954291070788 -0.00030809394453118526 0 0.0072756094057521061 0.00025244750465188586 0 0.0075396954291070788 -0.00030809394453118526 0 0.0072756094057521061 0.00025244750465188586 0 0.0081567255264554835 0.00013881664655495811 0 0.0075751708663257741 0.00073845193568727961 0 0.0072756094057521061 0.00025244750465188586 0 0.0081567255264554835 0.00013881664655495811 0 0.0075751708663257741 0.00073845193568727961 0 0.0069465364255757757 0.00073534936104821709 0 0.0072756094057521061 0.00025244750465188586 0 0.0083548384691028744 0.00092861962148963839 0 0.0075751708663257741 0.00073845193568727961 0 0.0081567255264554835 0.00013881664655495811 0 0.0081567255264554835 0.00013881664655495811 0 0.0089051168823027233 0.00036186338544932076 0 0.0087148152995524461 -0.00069429548318329485 0 0.0083548384691028744 0.00092861962148963839 0 0.0081567255264554835 0.00013881664655495811 0 0.0089051168823027233 0.00036186338544932076 0 0.008934717538027449 -0.001044279549108187 0 0.0085041604883881895 -0.0012568763699909071 0 0.0089051168823027233 0.00036186338544932076 0 0.0087148152995524461 -0.00069429548318329485 0 0.0094378582202058175 -0.00018605081861267816 0 0.0075396954291070788 -0.00030809394453118526 0 0.0081567255264554835 0.00013881664655495811 0 0.0080526888184453312 -0.00054621509199576567 0 0.0081567255264554835 0.00013881664655495811 0 0.0087148152995524461 -0.00069429548318329485 0 0.0080526888184453312 -0.00054621509199576567 0 0.008934717538027449 -0.001044279549108187 0 0.008150675378898832 -0.0014328752078147328 0 0.0087148152995524461 -0.00069429548318329485 0 0.0080526888184453312 -0.00054621509199576567 0 0.0080248837390769785 -0.0012087022918528779 0 0.0088959386017788897 -0.0015804648327567459 0 0.008933471026045978 -0.0018640660553391711 0 0.0091110477693459244 -0.0018150557858231252 0 0.0088959386017788897 -0.0015804648327567459 0 0.008412243900770484 -0.0015549338847220403 0 0.008933471026045978 -0.0018640660553391711 0 0.008933471026045978 -0.0018640660553391711 0 0.0091797767743889477 -0.0020596991921489173 0 0.0091434346895113011 -0.0022747721384109849 0 0.008933471026045978 -0.0018640660553391711 0 0.0083888344165060531 -0.0021319842014253516 0 0.0091434346895113011 -0.0022747721384109849 0 0.008412243900770484 -0.0015549338847220403 0 0.008933471026045978 -0.0018640660553391711 0 0.0083888344165060531 -0.0021319842014253516 0 0.008412243900770484 -0.0015549338847220403 0 0.0074492013203941243 -0.0017986007708738149 0 0.0083888344165060531 -0.0021319842014253516 0 0.008150675378898832 -0.0014328752078147328 0 0.0075095880769451995 -0.0017848152615634039 0 0.0069431335438470557 -0.0013822957015964803 0 0.0066736409568453883 -0.0022534562357750128 0 0.0063361881625449371 -0.0015461021396793756 0 0.0074492013203941243 -0.0017986007708738149 0 0.0069431335438470557 -0.0013822957015964803 0 0.0066736409568453883 -0.0022534562357750128 0 0.0069431335438470557 -0.0013822957015964803 0 0.0066544476004496977 -0.00081798520265818442 0 0.0074031806639143329 -0.00094539762745305376 0 0.0069431335438470557 -0.0013822957015964803 0 0.0066544476004496977 -0.00081798520265818442 0 0.0063361881625449371 -0.0015461021396793756 0 0.0080248837390769785 -0.0012087022918528779 0 0.0074492013203941243 -0.0017986007708738149 0 0.0074031806639143329 -0.00094539762745305376 0 0.0080526888184453312 -0.00054621509199576567 0 0.0080248837390769785 -0.0012087022918528779 0 0.0074031806639143329 -0.00094539762745305376 0 0.0074492013203941243 -0.0017986007708738149 0 0.0069431335438470557 -0.0013822957015964803 0 0.0074031806639143329 -0.00094539762745305376 0 0.0091018090628356123 -0.0019907786655210423 0 0.008884932226046801 -0.002038709519126354 0 0.0089881364005385215 -0.0020049017073574889 0 0.0091018090628356123 -0.0019907786655210423 0 0.008884932226046801 -0.002038709519126354 0 0.0090491417649212948 -0.0020920709926983217 0 0.008884932226046801 -0.002038709519126354 0 0.0089351536362434914 -0.0020097499610201206 0 0.0089232742002252861 -0.0019933156286630967 0 0.008884932226046801 -0.002038709519126354 0 0.0089351536362434914 -0.0020097499610201206 0 0.0089881364005385215 -0.0020049017073574889 0 0.0089351536362434914 -0.0020097499610201206 0 0.0089881364005385215 -0.0020049017073574889 0 0.0089828324439745737 -0.0019945810698536333 0 0.0089828324439745737 -0.0019945810698536333 0 0.008918439112332829 -0.0019744217202652924 0 0.0089566228509512114 -0.0019678634093153592 0 0.0089881364005385215 -0.0020049017073574889 0 0.0089828324439745737 -0.0019945810698536333 0 0.0090857887974544211 -0.0020125994286903054 0 0.0089351536362434914 -0.0020097499610201206 0 0.0089828324439745737 -0.0019945810698536333 0 0.008918439112332829 -0.0019744217202652924 0 0.0089828324439745737 -0.0019945810698536333 0 0.0090857887974544211 -0.0020125994286903054 0 0.0090442954605252698 -0.0020101593798435131 0 0.0091018090628356123 -0.0019907786655210423 0 0.0090857887974544211 -0.0020125994286903054 0 0.0091946949289418468 -0.002013845237373771 0 0.0090857887974544211 -0.0020125994286903054 0 0.0091946949289418468 -0.002013845237373771 0 0.0091583256056935285 -0.0020802417089933671 0 0.0091018090628356123 -0.0019907786655210423 0 0.0089881364005385215 -0.0020049017073574889 0 0.0090857887974544211 -0.0020125994286903054 0 0.0091946949289418468 -0.002013845237373771 0 0.0091797767743889477 -0.0020596991921489173 0 0.0091110477693459244 -0.0018150557858231252 0 0.008933471026045978 -0.0018640660553391711 0 0.0091797767743889477 -0.0020596991921489173 0 0.0091110477693459244 -0.0018150557858231252 0 0.0091946949289418468 -0.002013845237373771 0 0.0091110477693459244 -0.0018150557858231252 0 0.0092008430537214667 -0.0017937556286598563 0 0.0091018090628356123 -0.0019907786655210423 0 0.0091946949289418468 -0.002013845237373771 0 0.0092008430537214667 -0.0017937556286598563 0 0.009059373258778711 -0.0019187572193742344 0 0.0092630381261714408 -0.0020548640839638276 0 0.0091018090628356123 -0.0019907786655210423 0 0.0091105858977124175 -0.0020879523980809299 0 0.0090491417649212948 -0.0020920709926983217 0 0.0091105858977124175 -0.0020879523980809299 0 0.0090775672209355285 -0.0021513156811022419 0 0.0090491417649212948 -0.0020920709926983217 0 0.0091105858977124175 -0.0020879523980809299 0 0.0090775672209355285 -0.0021513156811022419 0 0.0091697682254672768 -0.0021568183828263895 0 0.0088959386017788897 -0.0015804648327567459 0 0.0091110477693459244 -0.0018150557858231252 0 0.0090986901575770881 -0.0015620691830271903 0 0.0091110477693459244 -0.0018150557858231252 0 0.0092008430537214667 -0.0017937556286598563 0 0.0090986901575770881 -0.0015620691830271903 0 0.0092630381261714408 -0.0020548640839638276 0 0.0085041604883881895 -0.0012568763699909071 0 0.0068478415677703033 -0.00088685912990488528 0 0.0070979917369974584 -0.0011336051336345463 0 0.0071813650716023233 -0.00076265266013248291 0 0.007904953362410946 -0.0002695401621441646 0 0.0085041604883881895 -0.0012568763699909071 0 0.0085041604883881895 -0.0012568763699909071 0 0.0082608730954138836 -0.0015188781633315041 0 0.0090775672209355285 -0.0021513156811022419 0 0.0091697682254672768 -0.0021568183828263895 0 0.009043540564725408 -0.002246618706370346 0 0.0070979917369974584 -0.0011336051336345463 0 0.0075579546118856762 -0.0008133877442783752 0 0.0071813650716023233 -0.00076265266013248291 0 0.0090775672209355285 -0.0021513156811022419 0 0.009043540564725408 -0.002246618706370346 0 0.0090062869887592642 -0.0021726474923985835 0 0.0082608730954138836 -0.0015188781633315041 0 0.0087919704205123277 -0.0020237133114147975 0 0.0082546419524292085 -0.0013854277822756651 0 0.0084945953107117399 -0.0017655808540045987 0 0.0086284747209454272 -0.0014794422987087857 0 0.008884932226046801 -0.002038709519126354 0 0.0090062869887592642 -0.0021726474923985835 0 0.0090491417649212948 -0.0020920709926983217 0 0.0088338721845382297 -0.0019909871851390816 0 0.0087919704205123277 -0.0020237133114147975 0 0.0090775672209355285 -0.0021513156811022419 0 0.0090062869887592642 -0.0021726474923985835 0 0.0090491417649212948 -0.0020920709926983217 0 0.008884932226046801 -0.002038709519126354 0 0.0084945953107117399 -0.0017655808540045987 0 0.0087863875698258754 -0.0018019778342293273 0 0.008884932226046801 -0.002038709519126354 0 0.0087863875698258754 -0.0018019778342293273 0 0.0089232742002252861 -0.0019933156286630967 0 0.0086284747209454272 -0.0014794422987087857 0 0.0088019511320619019 -0.0012163795734581285 0 0.0090427639025694537 -0.0015493789908901561 0 0.0087863875698258754 -0.0018019778342293273 0 0.0086284747209454272 -0.0014794422987087857 0 0.0090427639025694537 -0.0015493789908901561 0 0.0084945953107117399 -0.0017655808540045987 0 0.0087863875698258754 -0.0018019778342293273 0 0.0086284747209454272 -0.0014794422987087857 0 0.0086284747209454272 -0.0014794422987087857 0 0.0088019511320619019 -0.0012163795734581285 0 0.0085068620495658831 -0.0010726247693743753 0 0.0088019511320619019 -0.0012163795734581285 0 0.0085068620495658831 -0.0010726247693743753 0 0.008691723527627199 -0.00086533579420683274 0 0.0082546419524292085 -0.0013854277822756651 0 0.0086284747209454272 -0.0014794422987087857 0 0.0085068620495658831 -0.0010726247693743753 0 0.0079159039742698941 -0.0014835652477128525 0 0.0080609355053216959 -0.00099558694145329587 0 0.0076563739697606712 -0.00082172791819295045 0 0.0079159039742698941 -0.0014835652477128525 0 0.0085068620495658831 -0.0010726247693743753 0 0.0080609355053216959 -0.00099558694145329587 0 0.0082608730954138836 -0.0015188781633315041 0 0.0084452146700774531 -0.0011075349088836236 0 0.0070660659196165538 -0.00081397031268001232 0 0.0055179199686009187 -0.0011580365714382993 0 0.0061403905420662147 -4.8910532382195986e-07 0 0.0085068620495658831 -0.0010726247693743753 0 0.0080609355053216959 -0.00099558694145329587 0 0.0083170226657126312 -0.00066539184066712151 0 0.0080609355053216959 -0.00099558694145329587 0 0.0083170226657126312 -0.00066539184066712151 0 0.0076563739697606712 -0.00082172791819295045 0 0.0077198199125655164 -0.00074660104768325345 0 0.006458621160363138 -0.00052850063565136336 0 0.0070660659196165538 -0.00081397031268001232 0 0.0079081360829921128 -4.6020088168090236e-05 0 0.0087532601149749069 -0.00039058771917187295 0 0.0077198199125655164 -0.00074660104768325345 0 0.008676737175997944 -0.00042716891609315979 0 0.0083170226657126312 -0.00066539184066712151 0 0.008691723527627199 -0.00086533579420683274 0 0.0087532601149749069 -0.00039058771917187295 0 0.0085068620495658831 -0.0010726247693743753 0 0.0083170226657126312 -0.00066539184066712151 0 0.008691723527627199 -0.00086533579420683274 0 0.0071813650716023233 -0.00076265266013248291 0 0.0070003187691172431 -0.00053984108413739952 0 0.0074011487457785272 -0.00044050846704350195 0 0.0068478415677703033 -0.00088685912990488528 0 0.0071813650716023233 -0.00076265266013248291 0 0.0070003187691172431 -0.00053984108413739952 0 0.0075579546118856762 -0.0008133877442783752 0 0.0071813650716023233 -0.00076265266013248291 0 0.0074011487457785272 -0.00044050846704350195 0 0.0082608730954138836 -0.0015188781633315041 0 0.006458621160363138 -0.00052850063565136336 0 0.005100520247865753 -0.00010254872019426404 0 0.0046002162303912034 0.00017701758765712944 0 0.0048908199927614462 0.00061041642578577601 0 0.006458621160363138 -0.00052850063565136336 0 0.0046470980049981951 0.00057821842153260724 0 0.0041940060227087794 0.00028872524146189549 0 0.0044143849033530056 -0.00023495261870606411 0 0.0046002162303912034 0.00017701758765712944 0 0.005410659218504474 -0.00046867495245916555 0 0.006458621160363138 -0.00052850063565136336 0 0.0044143849033530056 -0.00023495261870606411 0 0.005100520247865753 -0.00010254872019426404 0 0.0046002162303912034 0.00017701758765712944 0 0.0041940060227087794 0.00028872524146189549 0 0.0046002162303912034 0.00017701758765712944 0 0.0042738391476948726 0.00062442991939096486 0 0.0046002162303912034 0.00017701758765712944 0 0.0042738391476948726 0.00062442991939096486 0 0.0048908199927614462 0.00061041642578577601 0 0.0042738391476948726 0.00062442991939096486 0 0.0048908199927614462 0.00061041642578577601 0 0.0043275743266194908 0.0013671183381089862 0 0.0055179199686009187 -0.0011580365714382993 0 0.0048908199927614462 0.00061041642578577601 0 0.0061403905420662147 -4.8910532382195986e-07 0 0.0048908199927614462 0.00061041642578577601 0 0.0061403905420662147 -4.8910532382195986e-07 0 0.0062474279415855151 0.0011423996053934265 0 -0.0011283471160972833 0.001064533422312593 0 -0.00042814654317694929 0.0014666669994694399 0 -0.0016163535279655275 0.0016160663353265033 0 0.0048908199927614462 0.00061041642578577601 0 0.0043275743266194908 0.0013671183381089862 0 0.0062474279415855151 0.0011423996053934265 0 0.0029538379004029809 0.0013378045249048121 0 0.0019243045963280212 0.0014194149796930198 0 0.0040882988695038159 0.00086428843134148223 0 0.0029538379004029809 0.0013378045249048121 0 0.0019243045963280212 0.0014194149796930198 0 0.0039162029788633278 0.0010859089730119395 0 0.0081880095852495238 0.00065641405891950395 0 0.0070491286137104904 0.00017801005001704008 0 0.0062474279415855151 0.0011423996053934265 0 0.0081880095852495238 0.00065641405891950395 0 0.0062474279415855151 0.0011423996053934265 0 0.0086420336347131626 0.00064983144351396689 0 0.0069307911813485086 0.00095730849904899422 0 0.0039162029788633278 0.0010859089730119395 0 0.0079081360829921128 -4.6020088168090236e-05 0 0.0084695294943949642 0.00012622120354908835 0 0.0087532601149749069 -0.00039058771917187295 0 0.0081880095852495238 0.00065641405891950395 0 0.0079081360829921128 -4.6020088168090236e-05 0 0.0084695294943949642 0.00012622120354908835 0 0.0070660659196165538 -0.00081397031268001232 0 0.0079081360829921128 -4.6020088168090236e-05 0 0.0070491286137104904 0.00017801005001704008 0 0.0081880095852495238 0.00065641405891950395 0 0.0079081360829921128 -4.6020088168090236e-05 0 0.0070491286137104904 0.00017801005001704008 0 0.0070660659196165538 -0.00081397031268001232 0 0.0070491286137104904 0.00017801005001704008 0 0.0061403905420662147 -4.8910532382195986e-07 0 0.0070491286137104904 0.00017801005001704008 0 0.0061403905420662147 -4.8910532382195986e-07 0 0.0062474279415855151 0.0011423996053934265 0 -0.0018269359679185559 0.00080064340178269422 0 -0.0011283471160972833 0.001064533422312593 0 -0.0016163535279655275 0.0016160663353265033 0 -0.0018269359679185559 0.00080064340178269422 0 -0.0016163535279655275 0.0016160663353265033 0 -0.0021071195561220162 0.0014317242437520777 0 -0.002367407071872522 0.0010721795130142723 0 -0.0021071195561220162 0.0014317242437520777 0 -0.002337774999685674 0.0013520662664476427 0 -0.0016163535279655275 0.0016160663353265033 0 -0.0021071195561220162 0.0014317242437520777 0 -0.0025767132733750084 0.0017182405049806944 0 -0.0024652743246402729 0.0014972865457605661 0 -0.002337774999685674 0.0013520662664476427 0 -0.0026497178809922251 0.0014230432639961231 0 -0.0021071195561220162 0.0014317242437520777 0 -0.0024652743246402729 0.0014972865457605661 0 -0.002337774999685674 0.0013520662664476427 0 -0.0021071195561220162 0.0014317242437520777 0 -0.0024652743246402729 0.0014972865457605661 0 -0.0025767132733750084 0.0017182405049806944 0 -0.002367407071872522 0.0010721795130142723 0 -0.002337774999685674 0.0013520662664476427 0 -0.0025951023306366064 0.0012139359870868885 0 -0.002337774999685674 0.0013520662664476427 0 -0.0025951023306366064 0.0012139359870868885 0 -0.0026497178809922251 0.0014230432639961231 0 -0.0025951023306366064 0.0012139359870868885 0 -0.0028062271323875945 0.0011603493451448337 0 -0.0027914729266073674 0.0013260546514418424 0 -0.0025951023306366064 0.0012139359870868885 0 -0.0027914729266073674 0.0013260546514418424 0 -0.0026497178809922251 0.0014230432639961231 0 -0.0029854987723525652 0.0011287476034672725 0 -0.0028062271323875945 0.0011603493451448337 0 -0.0029247141059776018 0.0012703877236375457 0 -0.0028062271323875945 0.0011603493451448337 0 -0.0027914729266073674 0.0013260546514418424 0 -0.0029247141059776018 0.0012703877236375457 0 -0.0027914729266073674 0.0013260546514418424 0 -0.0029247141059776018 0.0012703877236375457 0 -0.0029584358451359713 0.0013989203722141888 0 -0.0027914729266073674 0.0013260546514418424 0 -0.0029584358451359713 0.0013989203722141888 0 -0.0028435340217731059 0.001498432180726822 0 -0.0029584358451359713 0.0013989203722141888 0 -0.0028435340217731059 0.001498432180726822 0 -0.0029781883150301618 0.0015128226987722179 0 -0.0027914729266073674 0.0013260546514418424 0 -0.0028435340217731059 0.001498432180726822 0 -0.0026497178809922251 0.0014230432639961231 0 -0.0027857239307368729 0.0016065268602551172 0 -0.0028435340217731059 0.001498432180726822 0 -0.0026715788315140577 0.0015552657050075327 0 -0.0027857239307368729 0.0016065268602551172 0 -0.0028435340217731059 0.001498432180726822 0 -0.002896760638822576 0.0015760235970758753 0 -0.0028435340217731059 0.001498432180726822 0 -0.002896760638822576 0.0015760235970758753 0 -0.0029781883150301618 0.0015128226987722179 0 -0.002896760638822576 0.0015760235970758753 0 -0.0029781883150301618 0.0015128226987722179 0 -0.0029812642227848305 0.0016045196432301972 0 -0.0024652743246402729 0.0014972865457605661 0 -0.0026497178809922251 0.0014230432639961231 0 -0.0026715788315140577 0.0015552657050075327 0 -0.0028435340217731059 0.001498432180726822 0 -0.0026497178809922251 0.0014230432639961231 0 -0.0026715788315140577 0.0015552657050075327 0 -0.0024652743246402729 0.0014972865457605661 0 -0.0026715788315140577 0.0015552657050075327 0 -0.0025767132733750084 0.0017182405049806944 0 0.0081880095852495238 0.00065641405891950395 0 0.008604358445806275 0.00058258881758146183 0 0.0088119665273527718 0.00032020872578474127 0 0.0089384747784920608 7.3155402001681631e-05 0 0.0095047322282533278 0.00044184116187275701 0 0.0091978048660425523 -0.00088502940579921158 0 0.0081880095852495238 0.00065641405891950395 0 0.0088119665273527718 0.00032020872578474127 0 0.0084695294943949642 0.00012622120354908835 0 -0.0027857239307368729 0.0016065268602551172 0 -0.0026715788315140577 0.0015552657050075327 0 -0.0025767132733750084 0.0017182405049806944 0 0.0088119665273527718 0.00032020872578474127 0 0.0089384747784920608 7.3155402001681631e-05 0 0.0095047322282533278 0.00044184116187275701 0 -0.0027857239307368729 0.0016065268602551172 0 -0.0025767132733750084 0.0017182405049806944 0 -0.0028955267735665691 0.0016562542695704656 0 -0.0025767132733750084 0.0017182405049806944 0 -0.0028955267735665691 0.0016562542695704656 0 -0.00301494625326869 0.0017101010624051456 0 0.0039162029788633278 0.0010859089730119395 0 0.003958617438005207 -0.00015854573511134363 0 0.008604358445806275 0.00058258881758146183 0 0.0088119665273527718 0.00032020872578474127 0 0.0095047322282533278 0.00044184116187275701 0 -0.0027857239307368729 0.0016065268602551172 0 -0.002896760638822576 0.0015760235970758753 0 -0.0028955267735665691 0.0016562542695704656 0 -0.002896760638822576 0.0015760235970758753 0 -0.0028955267735665691 0.0016562542695704656 0 -0.0029812642227848305 0.0016045196432301972 0 -0.0028955267735665691 0.0016562542695704656 0 -0.0029829718583711173 0.0016591835616940843 0 -0.0029812642227848305 0.0016045196432301972 0 0.0084695294943949642 0.00012622120354908835 0 0.0089384747784920608 7.3155402001681631e-05 0 0.0087532601149749069 -0.00039058771917187295 0 0.0088119665273527718 0.00032020872578474127 0 0.0084695294943949642 0.00012622120354908835 0 0.0089384747784920608 7.3155402001681631e-05 0 0.0086001596202647523 -0.0027418937208416147 0 0.0082929250952920551 -0.002765032656420253 0 0.0085175590047482288 -0.0025660703816594967 0 0.003958617438005207 -0.00015854573511134363 0 0.0020176187105336728 -0.0005449121352512382 0 -0.0028955267735665691 0.0016562542695704656 0 -0.00301494625326869 0.0017101010624051456 0 -0.0029829718583711173 0.0016591835616940843 0 -0.00301494625326869 0.0017101010624051456 0 -0.0030305495217340292 0.0016623167359801011 0 -0.0029829718583711173 0.0016591835616940843 0 0.003958617438005207 -0.00015854573511134363 0 0.0037249466209551036 -5.0435607502298216e-05 0 -0.0030305495217340292 0.0016623167359801011 0 -0.0029829718583711173 0.0016591835616940843 0 -0.0029812642227848305 0.0016045196432301972 0 -0.0030130398880657962 0.0017211262634284836 0 -0.0032101275091969998 0.0014557855745833616 0 -0.0036231032146774706 0.0014352585042360024 0 -0.0030130398880657962 0.0017211262634284836 0 -0.0030305495217340292 0.0016623167359801011 0 -0.0032101275091969998 0.0014557855745833616 0 -0.0030305495217340292 0.0016623167359801011 0 -0.0029812642227848305 0.0016045196432301972 0 -0.0030530898681358858 0.0015352281250100334 0 -0.0029781883150301618 0.0015128226987722179 0 -0.0029812642227848305 0.0016045196432301972 0 -0.0030530898681358858 0.0015352281250100334 0 -0.0029781883150301618 0.0015128226987722179 0 -0.0030530898681358858 0.0015352281250100334 0 -0.0030692321071389113 0.0014394768206710705 0 -0.0030305495217340292 0.0016623167359801011 0 -0.0030530898681358858 0.0015352281250100334 0 -0.0032101275091969998 0.0014557855745833616 0 -0.0032101275091969998 0.0014557855745833616 0 -0.0030692321071389113 0.0014394768206710705 0 -0.0031032198804298978 0.0012883616507651859 0 -0.0030530898681358858 0.0015352281250100334 0 -0.0032101275091969998 0.0014557855745833616 0 -0.0030692321071389113 0.0014394768206710705 0 -0.0029584358451359713 0.0013989203722141888 0 -0.0030692321071389113 0.0014394768206710705 0 -0.0031032198804298978 0.0012883616507651859 0 -0.0029584358451359713 0.0013989203722141888 0 -0.0029781883150301618 0.0015128226987722179 0 -0.0030692321071389113 0.0014394768206710705 0 -0.0032101275091969998 0.0014557855745833616 0 -0.0031032198804298978 0.0012883616507651859 0 -0.003339511737639478 0.0011854971479272334 0 -0.0029247141059776018 0.0012703877236375457 0 -0.0029584358451359713 0.0013989203722141888 0 -0.0031032198804298978 0.0012883616507651859 0 -0.0031698565878886743 0.0010594939189065118 0 -0.0031032198804298978 0.0012883616507651859 0 -0.003339511737639478 0.0011854971479272334 0 -0.0031698565878886743 0.0010594939189065118 0 -0.0029854987723525652 0.0011287476034672725 0 -0.0031032198804298978 0.0012883616507651859 0 -0.0029854987723525652 0.0011287476034672725 0 -0.0029247141059776018 0.0012703877236375457 0 -0.0031032198804298978 0.0012883616507651859 0 -0.0032101275091969998 0.0014557855745833616 0 -0.003339511737639478 0.0011854971479272334 0 -0.0036231032146774706 0.0014352585042360024 0 -0.003576219611040076 0.0010759046662232529 0 -0.0039360996795108107 0.0011190195430709475 0 -0.0036231032146774706 0.0014352585042360024 0 -0.0039360996795108107 0.0011190195430709475 0 -0.0036231032146774706 0.0014352585042360024 0 -0.003828440179141739 0.0017493021584854007 0 -0.003576219611040076 0.0010759046662232529 0 -0.003339511737639478 0.0011854971479272334 0 -0.0036231032146774706 0.0014352585042360024 0 -0.004392874269061168 0.0013572018210504086 0 -0.003828440179141739 0.0017493021584854007 0 -0.0046918905661976476 0.0017538103029624559 0 -0.0039360996795108107 0.0011190195430709475 0 -0.004392874269061168 0.0013572018210504086 0 -0.003828440179141739 0.0017493021584854007 0 -0.0045045192985390002 0.00092059092725620345 0 -0.0039360996795108107 0.0011190195430709475 0 -0.004392874269061168 0.0013572018210504086 0 0.0020176187105336728 -0.0005449121352512382 0 0.0014888463158317618 -0.00049742304742501377 0 0.0082929250952920551 -0.002765032656420253 0 0.0081238044548931528 -0.0024989562841993139 0 0.0079466100099872365 -0.002784990956181321 0 -0.0030130398880657962 0.0017211262634284836 0 -0.0036231032146774706 0.0014352585042360024 0 -0.003828440179141739 0.0017493021584854007 0 0.0082929250952920551 -0.002765032656420253 0 0.0083894491651280659 -0.0024483368120853384 0 0.0085175590047482288 -0.0025660703816594967 0 0.0082929250952920551 -0.002765032656420253 0 0.0083894491651280659 -0.0024483368120853384 0 0.0081238044548931528 -0.0024989562841993139 0 0.0081238044548931528 -0.0024989562841993139 0 0.0082802003109633589 -0.0023168933217680584 0 0.0079694926880598416 -0.0022145540929671102 0 0.0083894491651280659 -0.0024483368120853384 0 0.0081238044548931528 -0.0024989562841993139 0 0.0082802003109633589 -0.0023168933217680584 0 0.0083894491651280659 -0.0024483368120853384 0 0.0084883964201661073 -0.0022979236934369792 0 0.0085990281356431632 -0.002347622887270205 0 0.0083894491651280659 -0.0024483368120853384 0 0.0082802003109633589 -0.0023168933217680584 0 0.0084883964201661073 -0.0022979236934369792 0 0.0084883964201661073 -0.0022979236934369792 0 0.0085990281356431632 -0.002347622887270205 0 0.0086307716249755251 -0.0021745756638817406 0 0.0085990281356431632 -0.002347622887270205 0 0.0087176591911048602 -0.0024499132902775084 0 0.0088191384070029129 -0.0021894940376115217 0 0.0095373326562971737 -0.001765938588851026 0 0.0088660529645764319 -0.0018541107559541159 0 0.0088019511320619019 -0.0012163795734581285 0 0.008691723527627199 -0.00086533579420683274 0 0.0091978048660425523 -0.00088502940579921158 0 0.0088019511320619019 -0.0012163795734581285 0 0.0091978048660425523 -0.00088502940579921158 0 0.0090427639025694537 -0.0015493789908901561 0 0.0089384747784920608 7.3155402001681631e-05 0 0.0091978048660425523 -0.00088502940579921158 0 0.0087532601149749069 -0.00039058771917187295 0 0.008691723527627199 -0.00086533579420683274 0 0.0091978048660425523 -0.00088502940579921158 0 0.0087532601149749069 -0.00039058771917187295 0 0.003958617438005207 -0.00015854573511134363 0 0.0095373326562971737 -0.001765938588851026 0 0.0085990281356431632 -0.002347622887270205 0 0.0087176591911048602 -0.0024499132902775084 0 0.0085175590047482288 -0.0025660703816594967 0 0.0083894491651280659 -0.0024483368120853384 0 0.0085990281356431632 -0.002347622887270205 0 0.0085175590047482288 -0.0025660703816594967 0 0.0086001596202647523 -0.0027418937208416147 0 0.0087176591911048602 -0.0024499132902775084 0 0.0085175590047482288 -0.0025660703816594967 0 0.010015428896979069 -0.0029509009005087242 0 0.0098198302867196288 -0.0027451048142977824 0 0.0095337675007531007 -0.0029802305885998741 0 0.0024871856749292798 -0.0013361947035167546 0 0.0014800071889955236 -0.0022290964157197554 0 0.010015428896979069 -0.0029509009005087242 0 0.010042766961689136 -0.0027114138279690234 0 0.0098198302867196288 -0.0027451048142977824 0 0.0024871856749292798 -0.0013361947035167546 0 0.008676464827959484 -0.0034344619867192681 0 -0.0061443195250228426 0.00037465317338371328 0 0.0024871856749292798 -0.0013361947035167546 0 -0.0047082922296775818 -0.00053599982402745185 0 -0.0046063041667141107 -0.0011695475829498502 0 -0.0044609670991491192 -0.00079590901079693412 0 -0.0046063041667141107 -0.0011695475829498502 0 -0.0044609670991491192 -0.00079590901079693412 0 -0.0042209908885162449 -0.00092691942174559353 0 -0.004322140199404685 -0.00057432055338768238 0 -0.0044609670991491192 -0.00079590901079693412 0 -0.0042209908885162449 -0.00092691942174559353 0 -0.0058667638928858491 0.00063496814294152057 0 -0.0057166972876351229 0.00091395299740369424 0 -0.0056504614459481333 0.0007191881598488303 0 -0.0060045900260390934 0.00081289364102264704 0 0.0018888015310522838 -0.00066950817926077276 0 -0.0057166972876351229 0.00091395299740369424 0 -0.0056504614459481333 0.0007191881598488303 0 -0.005468458211233344 0.00091331190227348659 0 0.01001570133433703 -0.0028990592825461001 0 0.010342230198647686 -0.0028951399567224826 0 0.010291273619719479 -0.0026692065919971791 0 0.0024871856749292798 -0.0013361947035167546 0 0.0018888015310522838 -0.00066950817926077276 0 0.01001570133433703 -0.0028990592825461001 0 0.010291273619719479 -0.0026692065919971791 0 0.010042766961689136 -0.0027114138279690234 0 0.0075604193508069344 -0.0027828924902738466 0 0.0079466100099872365 -0.002784990956181321 0 0.007774802270336824 -0.0024811329539952882 0 0.0018888015310522838 -0.00066950817926077276 0 0.0098731128572986104 -0.0026398307623486422 0 0.0018888015310522838 -0.00066950817926077276 0 0.0014888463158317618 -0.00049742304742501377 0 -0.0054740629100893147 0.00099095109677674819 0 -0.0058541050757619853 0.001092754324507117 0 -0.005554694735995817 0.0017307186431461952 0 -0.0054740629100893147 0.00099095109677674819 0 -0.005554694735995817 0.0017307186431461952 0 -0.0050167419870093509 0.0012407990564991614 0 -0.004392874269061168 0.0013572018210504086 0 -0.0050167419870093509 0.0012407990564991614 0 -0.0046918905661976476 0.0017538103029624559 0 -0.005554694735995817 0.0017307186431461952 0 -0.0050167419870093509 0.0012407990564991614 0 -0.0046918905661976476 0.0017538103029624559 0 -0.0045045192985390002 0.00092059092725620345 0 -0.004392874269061168 0.0013572018210504086 0 -0.0050167419870093509 0.0012407990564991614 0 0.0081238044548931528 -0.0024989562841993139 0 0.0079466100099872365 -0.002784990956181321 0 0.007774802270336824 -0.0024811329539952882 0 0.0081238044548931528 -0.0024989562841993139 0 0.007774802270336824 -0.0024811329539952882 0 0.0079694926880598416 -0.0022145540929671102 0 0.0098731128572986104 -0.0026398307623486422 0 0.0092478325041211815 -0.0022302436261461473 0 0.010483238233075199 -0.0022418692070508947 0 0.010555065583192155 -0.0025309909136557352 0 0.010676116247539513 -0.0022113056019240607 0 0.010483238233075199 -0.0022418692070508947 0 0.010555065583192155 -0.0025309909136557352 0 0.010303008717995702 -0.0024132622412954066 0 0.010342230198647686 -0.0028951399567224826 0 0.010555065583192155 -0.0025309909136557352 0 0.010291273619719479 -0.0026692065919971791 0 0.010555065583192155 -0.0025309909136557352 0 0.010291273619719479 -0.0026692065919971791 0 0.010303008717995702 -0.0024132622412954066 0 0.010291273619719479 -0.0026692065919971791 0 0.010303008717995702 -0.0024132622412954066 0 0.010042766961689136 -0.0027114138279690234 0 0.010303008717995702 -0.0024132622412954066 0 0.010004717577214661 -0.0024441247260789055 0 0.010366249966829852 -0.0020982404141129045 0 0.010483238233075199 -0.0022418692070508947 0 0.010303008717995702 -0.0024132622412954066 0 0.010366249966829852 -0.0020982404141129045 0 0.010004717577214661 -0.0024441247260789055 0 0.010042766961689136 -0.0027114138279690234 0 0.0098198302867196288 -0.0027451048142977824 0 0.010303008717995702 -0.0024132622412954066 0 0.010004717577214661 -0.0024441247260789055 0 0.010042766961689136 -0.0027114138279690234 0 0.01021441671454806 -0.0018265827523144299 0 0.0098818503099222608 -0.00208981041548237 0 0.010046453562105985 -0.001547835953786239 0 0.01021441671454806 -0.0018265827523144299 0 0.010605645027359459 -0.0015644008782557143 0 0.010046453562105985 -0.001547835953786239 0 0.01021441671454806 -0.0018265827523144299 0 0.010366249966829852 -0.0020982404141129045 0 0.0098818503099222608 -0.00208981041548237 0 0.010004717577214661 -0.0024441247260789055 0 0.010366249966829852 -0.0020982404141129045 0 0.0098818503099222608 -0.00208981041548237 0 0.010388292788862417 -0.0020974327823292389 0 0.010759772069839793 -0.0019380059304339697 0 0.01021441671454806 -0.0018265827523144299 0 0.010366249966829852 -0.0020982404141129045 0 0.010605645027359459 -0.0015644008782557143 0 0.010366249966829852 -0.0020982404141129045 0 0.010605645027359459 -0.0015644008782557143 0 0.010942798968116929 -0.0018706701933835326 0 0.010605645027359459 -0.0015644008782557143 0 0.010988886120123159 -0.0016145377307305259 0 0.010942798968116929 -0.0018706701933835326 0 0.010988886120123159 -0.0016145377307305259 0 0.010942798968116929 -0.0018706701933835326 0 0.011379507297862568 -0.0016549146155547302 0 0.010483238233075199 -0.0022418692070508947 0 0.010366249966829852 -0.0020982404141129045 0 0.010526737027310879 -0.0020414103511901022 0 0.010483238233075199 -0.0022418692070508947 0 0.010526737027310879 -0.0020414103511901022 0 0.010676116247539513 -0.0022113056019240607 0 0.010526737027310879 -0.0020414103511901022 0 0.010676116247539513 -0.0022113056019240607 0 0.010766988823310926 -0.0019694372855477266 0 0.0092478325041211815 -0.0022302436261461473 0 0.0094036931984995391 -0.0018631841875310501 0 0.010759772069839793 -0.0019380059304339697 0 0.010896918112857399 -0.0018795328166477418 0 0.010526737027310879 -0.0020414103511901022 0 0.010766988823310926 -0.0019694372855477266 0 0.010731110788181656 -0.0019400321011814382 0 0.010896918112857399 -0.0018795328166477418 0 0.0097642344372638155 -0.0018005823938361829 0 0.0098200743242948963 -0.0019087741315328536 0 0.009735386375960324 -0.0018394446617791044 0 0.0098780582445790154 -0.001768426338984296 0 0.0094036931984995391 -0.0018631841875310501 0 0.010896918112857399 -0.0018795328166477418 0 0.012031896049545117 -0.0014547162235282636 0 0.011868496222846832 -0.00090732333536066331 0 0.01168524926810563 -0.0014630886320905422 0 0.010988886120123159 -0.0016145377307305259 0 0.011379507297862568 -0.0016549146155547302 0 0.011026431021331858 -0.001366407924442353 0 0.012096797818263359 -0.0017950579182429761 0 0.012031896049545117 -0.0014547162235282636 0 0.01168524926810563 -0.0014630886320905422 0 0.010896918112857399 -0.0018795328166477418 0 0.011464288341148295 -0.0014584615014854652 0 0.012096797818263359 -0.0017950579182429761 0 0.012031896049545117 -0.0014547162235282636 0 0.012245385951585896 -0.0017236326605355168 0 0.012031896049545117 -0.0014547162235282636 0 0.011868496222846832 -0.00090732333536066331 0 0.012501448664249288 -0.0011159218316319293 0 0.011868496222846832 -0.00090732333536066331 0 0.01168524926810563 -0.0014630886320905422 0 0.011249209031248779 -0.0011438438953140231 0 0.011868496222846832 -0.00090732333536066331 0 0.011249209031248779 -0.0011438438953140231 0 0.011223349295593129 -0.00069277055709363804 0 0.010605645027359459 -0.0015644008782557143 0 0.010988886120123159 -0.0016145377307305259 0 0.011026431021331858 -0.001366407924442353 0 0.011464288341148295 -0.0014584615014854652 0 0.010964628617940272 -0.001089449247915653 0 0.010605645027359459 -0.0015644008782557143 0 0.010737567128102699 -0.0010972053408919236 0 0.010443705973152721 -0.0012415545854129472 0 0.010605645027359459 -0.0015644008782557143 0 0.011026431021331858 -0.001366407924442353 0 0.010737567128102699 -0.0010972053408919236 0 0.010964628617940272 -0.001089449247915653 0 0.010667106933987942 -0.00080538691393071491 0 0.010737567128102699 -0.0010972053408919236 0 0.010443705973152721 -0.0012415545854129472 0 0.010652271174688572 -0.00077368656675082974 0 0.011249209031248779 -0.0011438438953140231 0 0.010652271174688572 -0.00077368656675082974 0 0.011223349295593129 -0.00069277055709363804 0 0.010443705973152721 -0.0012415545854129472 0 0.010652271174688572 -0.00077368656675082974 0 0.010267931177434625 -0.00098199366657283969 0 0.010443705973152721 -0.0012415545854129472 0 0.010267931177434625 -0.00098199366657283969 0 0.010046453562105985 -0.001547835953786239 0 0.010605645027359459 -0.0015644008782557143 0 0.010443705973152721 -0.0012415545854129472 0 0.010046453562105985 -0.001547835953786239 0 0.0087535997038431148 -0.0020329465061743059 0 0.0086307716249755251 -0.0021745756638817406 0 0.0085773668929158397 -0.0020371690847289345 0 0.0087863875698258754 -0.0018019778342293273 0 0.0090427639025694537 -0.0015493789908901561 0 0.0089232742002252861 -0.0019933156286630967 0 0.0088660529645764319 -0.0018541107559541159 0 0.0089373017751959438 -0.001983626178486238 0 0.0087535997038431148 -0.0020329465061743059 0 0.0088191384070029129 -0.0021894940376115217 0 0.0089232742002252861 -0.0019933156286630967 0 0.0085990281356431632 -0.002347622887270205 0 0.0088191384070029129 -0.0021894940376115217 0 0.0086307716249755251 -0.0021745756638817406 0 0.0087535997038431148 -0.0020329465061743059 0 0.0088191384070029129 -0.0021894940376115217 0 0.0086307716249755251 -0.0021745756638817406 0 0.0084883964201661073 -0.0022979236934369792 0 0.0086307716249755251 -0.0021745756638817406 0 0.0083914254771596235 -0.0021167220090485437 0 0.0086307716249755251 -0.0021745756638817406 0 0.0083914254771596235 -0.0021167220090485437 0 0.0085773668929158397 -0.0020371690847289345 0 0.0082802003109633589 -0.0023168933217680584 0 0.0084883964201661073 -0.0022979236934369792 0 0.0083914254771596235 -0.0021167220090485437 0 0.0079694926880598416 -0.0022145540929671102 0 0.0081407825031655414 -0.0018934117182597423 0 0.0083914254771596235 -0.0021167220090485437 0 0.0082802003109633589 -0.0023168933217680584 0 0.0079694926880598416 -0.0022145540929671102 0 0.0083914254771596235 -0.0021167220090485437 0 0.0094036931984995391 -0.0018631841875310501 0 0.0080948422161776883 -0.0019637715322941502 0 0.0083552489424052849 -0.0020356786643810202 0 0.0083914254771596235 -0.0021167220090485437 0 0.0084228329482744033 -0.0020305334310776542 0 0.0084228329482744033 -0.0020305334310776542 0 0.0083640103369638334 -0.0020016764249773419 0 0.0084837156037954331 -0.0019449024617107173 0 0.0083552489424052849 -0.0020356786643810202 0 0.0084228329482744033 -0.0020305334310776542 0 0.0083640103369638334 -0.0020016764249773419 0 0.0094036931984995391 -0.0018631841875310501 0 0.0097642344372638155 -0.0018005823938361829 0 0.0083914254771596235 -0.0021167220090485437 0 0.0084228329482744033 -0.0020305334310776542 0 0.0085773668929158397 -0.0020371690847289345 0 0.0084228329482744033 -0.0020305334310776542 0 0.0085773668929158397 -0.0020371690847289345 0 0.0084837156037954331 -0.0019449024617107173 0 0.0085773668929158397 -0.0020371690847289345 0 0.0084837156037954331 -0.0019449024617107173 0 0.0087116797501254912 -0.0019208221718390204 0 0.0087128103147726347 -0.0019246097194880753 0 0.0086963222724240046 -0.0019222364804684724 0 0.0087333900886232153 -0.0019113416185330533 0 0.0087128103147726347 -0.0019246097194880753 0 0.0087116797501254912 -0.0019208221718390204 0 0.0087333900886232153 -0.0019113416185330533 0 0.0084373630324108013 -0.0020315639240369274 0 0.0087383971361980253 -0.0018935783259121106 0 0.0097642344372638155 -0.0018005823938361829 0 0.010679696107145288 -0.0014876096880777985 0 0.012031896049545117 -0.0014547162235282636 0 0.012245385951585896 -0.0017236326605355168 0 0.012501448664249288 -0.0011159218316319293 0 0.0087327984149466083 -0.0019193772528630258 0 0.0087128103147726347 -0.0019246097194880753 0 0.0086963222724240046 -0.0019222364804684724 0 0.0097642344372638155 -0.0018005823938361829 0 0.0084373630324108013 -0.0020315639240369274 0 0.011868496222846832 -0.00090732333536066331 0 0.012501448664249288 -0.0011159218316319293 0 0.012336194153703831 -0.00069790430062883005 0 0.0087116797501254912 -0.0019208221718390204 0 0.0087333900886232153 -0.0019113416185330533 0 0.0088020542946084489 -0.0018995935105619488 0 0.0086963222724240046 -0.0019222364804684724 0 0.0087333900886232153 -0.0019113416185330533 0 0.0087721885888104104 -0.0018380647206050836 0 0.0087333900886232153 -0.0019113416185330533 0 0.0088020542946084489 -0.0018995935105619488 0 0.0087721885888104104 -0.0018380647206050836 0 0.0087116797501254912 -0.0019208221718390204 0 0.0088020542946084489 -0.0018995935105619488 0 0.0088381499942655692 -0.0019531761346591077 0 0.0088020542946084489 -0.0018995935105619488 0 0.0088381499942655692 -0.0019531761346591077 0 0.0088896500146282784 -0.0019266107661780004 0 0.0087535997038431148 -0.0020329465061743059 0 0.0087116797501254912 -0.0019208221718390204 0 0.0088381499942655692 -0.0019531761346591077 0 0.0087535997038431148 -0.0020329465061743059 0 0.0085773668929158397 -0.0020371690847289345 0 0.0087116797501254912 -0.0019208221718390204 0 0.0088381499942655692 -0.0019531761346591077 0 0.0089232742002252861 -0.0019933156286630967 0 0.008918439112332829 -0.0019744217202652924 0 0.0089351536362434914 -0.0020097499610201206 0 0.0089232742002252861 -0.0019933156286630967 0 0.008918439112332829 -0.0019744217202652924 0 0.0087535997038431148 -0.0020329465061743059 0 0.0088381499942655692 -0.0019531761346591077 0 0.0089232742002252861 -0.0019933156286630967 0 0.008918439112332829 -0.0019744217202652924 0 0.0088896500146282784 -0.0019266107661780004 0 0.0089566228509512114 -0.0019678634093153592 0 0.0088381499942655692 -0.0019531761346591077 0 0.008918439112332829 -0.0019744217202652924 0 0.0088896500146282784 -0.0019266107661780004 0 0.0089566228509512114 -0.0019678634093153592 0 0.0089263689313675686 -0.0019462603153079111 0 0.0090023920679959523 -0.0019655717808174308 0 0.0088859626040904 -0.0019241977318241732 0 0.0087911817728502789 -0.0019018712099178978 0 0.0088896500146282784 -0.0019266107661780004 0 0.0089566228509512114 -0.0019678634093153592 0 0.0089263689313675686 -0.0019462603153079111 0 0.0080805156292333979 -0.0025025767994547943 0 0.0082785806138251181 -0.0020673349885422907 0 0.0084996847641911899 -0.002313935340034619 0 0.0087911817728502789 -0.0019018712099178978 0 0.0086811077362420608 -0.0021847671218274923 0 0.0080805156292333979 -0.0025025767994547943 0 0.0082785806138251181 -0.0020673349885422907 0 0.0080045179822088846 -0.0018803708182772156 0 0.0087911817728502789 -0.0019018712099178978 0 0.0085022642415297153 -0.0015553997966111374 0 0.0093009919317695085 -0.0016683011460974211 0 0.009093434827204934 -0.00137163897315254 0 0.0089157001775671488 -0.0016701712773589919 0 0.0093009919317695085 -0.0016683011460974211 0 0.009093434827204934 -0.00137163897315254 0 0.0092694294857935556 -0.0010134931008550087 0 0.009093434827204934 -0.00137163897315254 0 0.0089157001775671488 -0.0016701712773589919 0 0.0088906835052427 -0.0011293536596729773 0 0.0088020542946084489 -0.0018995935105619488 0 0.0088672623483287989 -0.0018232233284095388 0 0.0087721885888104104 -0.0018380647206050836 0 0.0087911817728502789 -0.0019018712099178978 0 0.0089181783418418627 -0.0017767933726356802 0 0.0093009919317695085 -0.0016683011460974211 0 0.0087721885888104104 -0.0018380647206050836 0 0.0089157001775671488 -0.0016701712773589919 0 0.0088020542946084489 -0.0018995935105619488 0 0.0088896500146282784 -0.0019266107661780004 0 0.0088672623483287989 -0.0018232233284095388 0 0.0086963222724240046 -0.0019222364804684724 0 0.0087721885888104104 -0.0018380647206050836 0 0.0087107916723475343 -0.0016912446547071513 0 0.0087721885888104104 -0.0018380647206050836 0 0.0087107916723475343 -0.0016912446547071513 0 0.0089157001775671488 -0.0016701712773589919 0 0.012501448664249288 -0.0011159218316319293 0 0.012728021243804446 -0.00050620522289116854 0 0.012336194153703831 -0.00069790430062883005 0 0.010679696107145288 -0.0014876096880777985 0 0.010731128802488511 -0.0011054191863464138 0 0.012728021243804446 -0.00050620522289116854 0 0.012336194153703831 -0.00069790430062883005 0 0.012171412632294676 -0.00032375646035507244 0 0.012728021243804446 -0.00050620522289116854 0 0.012558331486817195 -3.2438871789809589e-05 0 0.012171412632294676 -0.00032375646035507244 0 0.0086262075593103379 -0.0018563136195417637 0 0.010745701460902153 -0.00053398394976027284 0 0.010731128802488511 -0.0011054191863464138 0 0.010745701460902153 -0.00053398394976027284 0 0.012728021243804446 -0.00050620522289116854 0 0.012558331486817195 -3.2438871789809589e-05 0 0.012907870761268274 5.7934106611556929e-05 0 0.0087107916723475343 -0.0016912446547071513 0 0.0089157001775671488 -0.0016701712773589919 0 0.0089230249064298113 -0.001193460728325422 0 0.012558331486817195 -3.2438871789809589e-05 0 0.012907870761268274 5.7934106611556929e-05 0 0.012655229754096478 0.00026081204149007697 0 0.012907870761268274 5.7934106611556929e-05 0 0.012655229754096478 0.00026081204149007697 0 0.012809963667051035 0.00050230571245960789 0 0.010745701460902153 -0.00053398394976027284 0 0.012700613731741089 0.00058767278947052793 0 0.012558331486817195 -3.2438871789809589e-05 0 0.012329724901133156 0.00030105783757633693 0 0.012171412632294676 -0.00032375646035507244 0 0.012558331486817195 -3.2438871789809589e-05 0 0.012655229754096478 0.00026081204149007697 0 0.012329724901133156 0.00030105783757633693 0 0.012329724901133156 0.00030105783757633693 0 0.01260252036050552 0.00045538779026849081 0 0.01254547387233566 0.00068754892863422286 0 0.012329724901133156 0.00030105783757633693 0 0.012289469990719672 0.00075624848708758159 0 0.01254547387233566 0.00068754892863422286 0 0.012655229754096478 0.00026081204149007697 0 0.012329724901133156 0.00030105783757633693 0 0.01260252036050552 0.00045538779026849081 0 0.01260252036050552 0.00045538779026849081 0 0.012809963667051035 0.00050230571245960789 0 0.01254547387233566 0.00068754892863422286 0 0.012655229754096478 0.00026081204149007697 0 0.01260252036050552 0.00045538779026849081 0 0.012809963667051035 0.00050230571245960789 0 0.012413085877136451 0.00047608056063788381 0 0.012493877825904257 0.00042138551103112343 0 0.012549520574491381 0.00059231344961210332 0 0.010835038744493906 -6.2865116424986165e-06 0 0.009586792445468912 -0.00038132634447290617 0 0.0090551413632891202 -0.00073753607970661252 0 0.0092694294857935556 -0.0010134931008550087 0 0.0092239935726232455 -0.00034487346101172011 0 0.0085022642415297153 -0.0015553997966111374 0 0.009586792445468912 -0.00038132634447290617 0 0.0081830271226558463 -0.0014180667306565283 0 0.0082838757227614076 -0.0017383651173676032 0 0.0080045179822088846 -0.0018803708182772156 0 0.0081830271226558463 -0.0014180667306565283 0 0.0080045179822088846 -0.0018803708182772156 0 0.007922513565284988 -0.0011886139385968539 0 0.0081830271226558463 -0.0014180667306565283 0 0.0082908052642175264 -0.0011214110073662522 0 0.0084909167987113569 -0.0014275711325893747 0 0.0081830271226558463 -0.0014180667306565283 0 0.0082838757227614076 -0.0017383651173676032 0 0.0084909167987113569 -0.0014275711325893747 0 0.0082838757227614076 -0.0017383651173676032 0 0.0082785806138251181 -0.0020673349885422907 0 0.0085247397592248877 -0.0018856826734019551 0 0.0082838757227614076 -0.0017383651173676032 0 0.0082785806138251181 -0.0020673349885422907 0 0.0080045179822088846 -0.0018803708182772156 0 0.009093434827204934 -0.00137163897315254 0 0.0088906835052427 -0.0011293536596729773 0 0.0092694294857935556 -0.0010134931008550087 0 0.012388406454719319 0.0002071098581679175 0 0.012413085877136451 0.00047608056063788381 0 0.012493877825904257 0.00042138551103112343 0 0.010745701460902153 -0.00053398394976027284 0 0.010835038744493906 -6.2865116424986165e-06 0 0.0088906835052427 -0.0011293536596729773 0 0.0090551413632891202 -0.00073753607970661252 0 0.0092694294857935556 -0.0010134931008550087 0 0.010845997102577453 -3.4569440236579186e-05 0 0.010557292513073259 -0.00017590714367821486 0 0.010553737205175235 4.6680651971929054e-05 0 0.010845997102577453 -3.4569440236579186e-05 0 0.010557292513073259 -0.00017590714367821486 0 0.010900601757570768 -0.00035887664309460036 0 0.010557292513073259 -0.00017590714367821486 0 0.010652271174688572 -0.00077368656675082974 0 0.010900601757570768 -0.00035887664309460036 0 0.010513150184287131 -0.00021997763162289025 0 0.010297897538263356 -0.00088449938401745408 0 0.010557292513073259 -0.00017590714367821486 0 0.010652271174688572 -0.00077368656675082974 0 0.010267931177434625 -0.00098199366657283969 0 0.010900601757570768 -0.00035887664309460036 0 0.011223349295593129 -0.00069277055709363804 0 0.011249479110009206 -0.0001973605725191368 0 0.011223349295593129 -0.00069277055709363804 0 0.011249479110009206 -0.0001973605725191368 0 0.011657966071856696 -0.00042359513854541247 0 0.010652271174688572 -0.00077368656675082974 0 0.010900601757570768 -0.00035887664309460036 0 0.011223349295593129 -0.00069277055709363804 0 0.010845997102577453 -3.4569440236579186e-05 0 0.011249479110009206 -0.0001973605725191368 0 0.011210947459601267 0.0002162111135052784 0 0.011249479110009206 -0.0001973605725191368 0 0.01173575505102614 -2.308018696649507e-05 0 0.011210947459601267 0.0002162111135052784 0 0.010845997102577453 -3.4569440236579186e-05 0 0.010900601757570768 -0.00035887664309460036 0 0.011249479110009206 -0.0001973605725191368 0 0.011249479110009206 -0.0001973605725191368 0 0.01173575505102614 -2.308018696649507e-05 0 0.011657966071856696 -0.00042359513854541247 0 0.011868496222846832 -0.00090732333536066331 0 0.011223349295593129 -0.00069277055709363804 0 0.011657966071856696 -0.00042359513854541247 0 0.011868496222846832 -0.00090732333536066331 0 0.012336194153703831 -0.00069790430062883005 0 0.012171412632294676 -0.00032375646035507244 0 0.011868496222846832 -0.00090732333536066331 0 0.011657966071856696 -0.00042359513854541247 0 0.012171412632294676 -0.00032375646035507244 0 0.01173575505102614 -2.308018696649507e-05 0 0.011657966071856696 -0.00042359513854541247 0 0.012171412632294676 -0.00032375646035507244 0 0.012329724901133156 0.00030105783757633693 0 0.01173575505102614 -2.308018696649507e-05 0 0.011744981404506595 0.00043012024867554482 0 0.012329724901133156 0.00030105783757633693 0 0.01173575505102614 -2.308018696649507e-05 0 0.012171412632294676 -0.00032375646035507244 0 0.012329724901133156 0.00030105783757633693 0 0.011744981404506595 0.00043012024867554482 0 0.012289469990719672 0.00075624848708758159 0 0.01173575505102614 -2.308018696649507e-05 0 0.011744981404506595 0.00043012024867554482 0 0.011210947459601267 0.0002162111135052784 0 0.011744981404506595 0.00043012024867554482 0 0.011281318914329411 0.00060173105419250616 0 0.011568265197333866 0.00095223981251491962 0 0.011744981404506595 0.00043012024867554482 0 0.011210947459601267 0.0002162111135052784 0 0.011281318914329411 0.00060173105419250616 0 0.011281318914329411 0.00060173105419250616 0 0.010897321402619359 0.00051733376403689303 0 0.01103294004237855 0.00086890492882603723 0 0.011210947459601267 0.0002162111135052784 0 0.011281318914329411 0.00060173105419250616 0 0.010897321402619359 0.00051733376403689303 0 0.010897321402619359 0.00051733376403689303 0 0.01103294004237855 0.00086890492882603723 0 0.010604701804810556 0.00064097035613615164 0 0.010897321402619359 0.00051733376403689303 0 0.010740228945618008 0.00022965583601092834 0 0.010582287909861163 0.00039512531944148164 0 0.010845997102577453 -3.4569440236579186e-05 0 0.011210947459601267 0.0002162111135052784 0 0.010740228945618008 0.00022965583601092834 0 0.011210947459601267 0.0002162111135052784 0 0.010897321402619359 0.00051733376403689303 0 0.010740228945618008 0.00022965583601092834 0 0.010845997102577453 -3.4569440236579186e-05 0 0.010740228945618008 0.00022965583601092834 0 0.010553737205175235 4.6680651971929054e-05 0 0.011294744833478568 0.0012278646845305073 0 0.01103294004237855 0.00086890492882603723 0 0.010876331995463846 0.0013014305046247228 0 0.011294744833478568 0.0012278646845305073 0 0.01103294004237855 0.00086890492882603723 0 0.011568265197333866 0.00095223981251491962 0 0.011281318914329411 0.00060173105419250616 0 0.01103294004237855 0.00086890492882603723 0 0.011568265197333866 0.00095223981251491962 0 0.011294744833478568 0.0012278646845305073 0 0.011568265197333866 0.00095223981251491962 0 0.011590054881599178 0.0013441104935900746 0 0.011568265197333866 0.00095223981251491962 0 0.01191481928759678 0.001348973113624813 0 0.012289469990719672 0.00075624848708758159 0 0.011568265197333866 0.00095223981251491962 0 0.01191481928759678 0.001348973113624813 0 0.011590054881599178 0.0013441104935900746 0 0.011744981404506595 0.00043012024867554482 0 0.011568265197333866 0.00095223981251491962 0 0.012289469990719672 0.00075624848708758159 0 0.01275068565507796 0.00081705652570794856 0 0.012289469990719672 0.00075624848708758159 0 0.012588592532591694 0.00082736224190732555 0 0.012523241605942835 0.00094561152582977649 0 0.012258170350581259 0.00081304552426264261 0 0.01275068565507796 0.00081705652570794856 0 0.012820443884651578 0.00073789474898635103 0 0.012588592532591694 0.00082736224190732555 0 0.012820443884651578 0.00073789474898635103 0 0.012588592532591694 0.00082736224190732555 0 0.012707777610466523 0.00071070058099578261 0 0.012820443884651578 0.00073789474898635103 0 0.012811724607190834 0.00064869770207568974 0 0.012707777610466523 0.00071070058099578261 0 0.012811724607190834 0.00064869770207568974 0 0.012984807638190335 0.00066161283897379366 0 0.012813258294027676 0.00050423321391707696 0 0.012820443884651578 0.00073789474898635103 0 0.012811724607190834 0.00064869770207568974 0 0.012984807638190335 0.00066161283897379366 0 0.012984807638190335 0.00066161283897379366 0 0.013014263498626761 0.00067052718879763743 0 0.01316430627879721 0.00087479493131353522 0 0.012820443884651578 0.00073789474898635103 0 0.012984807638190335 0.00066161283897379366 0 0.013014263498626761 0.00067052718879763743 0 0.012523241605942835 0.00094561152582977649 0 0.011138770805263962 0.0014337098918950403 0 0.01191481928759678 0.001348973113624813 0 0.011634134368035707 0.0016560678250425508 0 0.011647143246265763 0.0015105535802868463 0 0.01191481928759678 0.001348973113624813 0 0.011590054881599178 0.0013441104935900746 0 0.011647143246265763 0.0015105535802868463 0 0.01275068565507796 0.00081705652570794856 0 0.012820443884651578 0.00073789474898635103 0 0.013014263498626761 0.00067052718879763743 0 0.011590054881599178 0.0013441104935900746 0 0.011647143246265763 0.0015105535802868463 0 0.011586613990946381 0.0015126993187303157 0 0.011294744833478568 0.0012278646845305073 0 0.011590054881599178 0.0013441104935900746 0 0.011586613990946381 0.0015126993187303157 0 0.011647143246265763 0.0015105535802868463 0 0.011686671385916199 0.0015588316460618116 0 0.011586613990946381 0.0015126993187303157 0 0.011634134368035707 0.0016560678250425508 0 0.011647143246265763 0.0015105535802868463 0 0.011686671385916199 0.0015588316460618116 0 0.011634134368035707 0.0016560678250425508 0 0.011686671385916199 0.0015588316460618116 0 0.011808013541678795 0.0014898252846168793 0 0.011686671385916199 0.0015588316460618116 0 0.011808013541678795 0.0014898252846168793 0 0.011627314924800939 0.0015477977108987089 0 0.011686671385916199 0.0015588316460618116 0 0.011586613990946381 0.0015126993187303157 0 0.011627314924800939 0.0015477977108987089 0 0.011627314924800939 0.0015477977108987089 0 0.011530674284966404 0.0015606580879473969 0 0.011452201098663985 0.0014586631682917547 0 0.011586613990946381 0.0015126993187303157 0 0.011627314924800939 0.0015477977108987089 0 0.011452201098663985 0.0014586631682917547 0 0.011441668792640618 0.0010616869425336857 0 0.010793290273659118 0.0019239855771958426 0 0.011294744833478568 0.0012278646845305073 0 0.011014771089249803 0.0016282591868489889 0 0.010876331995463846 0.0013014305046247228 0 0.011294744833478568 0.0012278646845305073 0 0.011586613990946381 0.0015126993187303157 0 0.011452201098663985 0.0014586631682917547 0 0.008075650684139157 -0.00074328084528887386 0 0.0079490020050647647 -0.0011155044933843562 0 0.0078659946136812858 -0.00040075153652899205 0 0.012549520574491381 0.00059231344961210332 0 0.012459076200614757 0.00066458639805916972 0 0.012525210873403268 0.00076603107754286647 0 0.009586792445468912 -0.00038132634447290617 0 0.010259271506416378 0.00015780903417963335 0 0.0082777534697351472 -0.00048622732986273103 0 0.008075650684139157 -0.00074328084528887386 0 0.0078659946136812858 -0.00040075153652899205 0 0.0082777534697351472 -0.00048622732986273103 0 0.0083937890135055947 -0.00078939794162489617 0 0.008075650684139157 -0.00074328084528887386 0 0.0083937890135055947 -0.00078939794162489617 0 0.008075650684139157 -0.00074328084528887386 0 0.008146092045410917 -0.00097390632958853428 0 0.008075650684139157 -0.00074328084528887386 0 0.008146092045410917 -0.00097390632958853428 0 0.0079490020050647647 -0.0011155044933843562 0 0.0083937890135055947 -0.00078939794162489617 0 0.008146092045410917 -0.00097390632958853428 0 0.0082908052642175264 -0.0011214110073662522 0 0.0083937890135055947 -0.00078939794162489617 0 0.0082908052642175264 -0.0011214110073662522 0 0.008565800750667445 -0.0010735797697235257 0 0.0081830271226558463 -0.0014180667306565283 0 0.0082908052642175264 -0.0011214110073662522 0 0.0080991149212410254 -0.0011645819914869928 0 0.0081830271226558463 -0.0014180667306565283 0 0.0080991149212410254 -0.0011645819914869928 0 0.007922513565284988 -0.0011886139385968539 0 0.008146092045410917 -0.00097390632958853428 0 0.0080991149212410254 -0.0011645819914869928 0 0.0079490020050647647 -0.0011155044933843562 0 0.008146092045410917 -0.00097390632958853428 0 0.0082908052642175264 -0.0011214110073662522 0 0.0080991149212410254 -0.0011645819914869928 0 0.012413085877136451 0.00047608056063788381 0 0.012549520574491381 0.00059231344961210332 0 0.012459076200614757 0.00066458639805916972 0 0.0079188018560530891 -0.0011869853860920641 0 0.0079490020050647647 -0.0011155044933843562 0 0.0078659946136812858 -0.00040075153652899205 0 0.0080991149212410254 -0.0011645819914869928 0 0.007922513565284988 -0.0011886139385968539 0 0.0079490020050647647 -0.0011155044933843562 0 0.009586792445468912 -0.00038132634447290617 0 0.0093682152954161838 -0.00066647261771617659 0 0.012809963667051035 0.00050230571245960789 0 0.012677802569421281 0.00076876381352313709 0 0.01254547387233566 0.00068754892863422286 0 0.012677802569421281 0.00076876381352313709 0 0.01254547387233566 0.00068754892863422286 0 0.012601167153430183 0.00079430370744781919 0 0.012700613731741089 0.00058767278947052793 0 0.012567060607316745 0.00067648684385962499 0 0.012289469990719672 0.00075624848708758159 0 0.01254547387233566 0.00068754892863422286 0 0.012588592532591694 0.00082736224190732555 0 0.01254547387233566 0.00068754892863422286 0 0.012588592532591694 0.00082736224190732555 0 0.012601167153430183 0.00079430370744781919 0 0.012588592532591694 0.00082736224190732555 0 0.012601167153430183 0.00079430370744781919 0 0.012599443776314551 0.00076537153369901916 0 0.012459076200614757 0.00066458639805916972 0 0.012545011645904623 0.00076816638736259938 0 0.012525210873403268 0.00076603107754286647 0 0.012567060607316745 0.00067648684385962499 0 0.012551297171258944 0.00076011153019592595 0 0.012601167153430183 0.00079430370744781919 0 0.012545011645904623 0.00076816638736259938 0 0.012599443776314551 0.00076537153369901916 0 0.012677802569421281 0.00076876381352313709 0 0.012601167153430183 0.00079430370744781919 0 0.012545011645904623 0.00076816638736259938 0 0.012545011645904623 0.00076816638736259938 0 0.012546998285270514 0.00072415574549445467 0 0.012525210873403268 0.00076603107754286647 0 0.012546998285270514 0.00072415574549445467 0 0.012599443776314551 0.00076537153369901916 0 0.012604550898322527 0.00065364343119019735 0 0.012545011645904623 0.00076816638736259938 0 0.012546998285270514 0.00072415574549445467 0 0.012599443776314551 0.00076537153369901916 0 0.012588592532591694 0.00082736224190732555 0 0.012599443776314551 0.00076537153369901916 0 0.012707777610466523 0.00071070058099578261 0 0.012599443776314551 0.00076537153369901916 0 0.012707777610466523 0.00071070058099578261 0 0.012604550898322527 0.00065364343119019735 0 0.012707777610466523 0.00071070058099578261 0 0.012604550898322527 0.00065364343119019735 0 0.012699678810727321 0.00057800746453332127 0 0.012811724607190834 0.00064869770207568974 0 0.012707777610466523 0.00071070058099578261 0 0.012699678810727321 0.00057800746453332127 0 0.012546998285270514 0.00072415574549445467 0 0.012604550898322527 0.00065364343119019735 0 0.012491451371835879 0.00064950245667893538 0 0.0078324236212803672 0.00036321069446564226 0 0.0078659946136812858 -0.00040075153652899205 0 0.0081433704786248538 8.15059016277838e-05 0 0.010334875833199178 0.00065654365388761852 0 0.0080489989198442875 0.00026737517427524846 0 0.012546998285270514 0.00072415574549445467 0 0.012491451371835879 0.00064950245667893538 0 0.012525210873403268 0.00076603107754286647 0 0.010334875833199178 0.00065654365388761852 0 0.010259271506416378 0.00015780903417963335 0 0.0082777534697351472 -0.00048622732986273103 0 0.0081433704786248538 8.15059016277838e-05 0 0.008478566781703915 -0.00019312544111122016 0 0.0082777534697351472 -0.00048622732986273103 0 0.0078659946136812858 -0.00040075153652899205 0 0.0081433704786248538 8.15059016277838e-05 0 0.0080489989198442875 0.00026737517427524846 0 0.0085240544216085776 -0.00020691793850654357 0 0.0083001251705892842 9.016307147278537e-05 0 0.0085318716888839307 7.7953644017564894e-05 0 0.008478566781703915 -0.00019312544111122016 0 0.0081382471565303281 0.00027587961464472876 0 0.0083001251705892842 9.016307147278537e-05 0 0.0085290171346062704 0.00040004479553519502 0 0.0083001251705892842 9.016307147278537e-05 0 0.0085318716888839307 7.7953644017564894e-05 0 0.0085290171346062704 0.00040004479553519502 0 0.0091742163517929132 0.00034323037662406926 0 0.0088602009606097102 -1.059252684799713e-05 0 0.0085290171346062704 0.00040004479553519502 0 0.010389163637077923 0.00030237917103557684 0 0.010356398105601593 0.00022070597041007938 0 0.0085318716888839307 7.7953644017564894e-05 0 0.0088602009606097102 -1.059252684799713e-05 0 0.0085290171346062704 0.00040004479553519502 0 0.0091742163517929132 0.00034323037662406926 0 0.0088602009606097102 -1.059252684799713e-05 0 0.0095006937642293197 -0.00024677905814956365 0 0.0088602009606097102 -1.059252684799713e-05 0 0.009047086861870975 -0.00044888088787719687 0 0.0095006937642293197 -0.00024677905814956365 0 0.0088602009606097102 -1.059252684799713e-05 0 0.008683783346129301 -0.00042178370756457243 0 0.009047086861870975 -0.00044888088787719687 0 0.0082777534697351472 -0.00048622732986273103 0 0.008478566781703915 -0.00019312544111122016 0 0.008683783346129301 -0.00042178370756457243 0 0.0085318716888839307 7.7953644017564894e-05 0 0.0088602009606097102 -1.059252684799713e-05 0 0.008478566781703915 -0.00019312544111122016 0 0.0088602009606097102 -1.059252684799713e-05 0 0.008478566781703915 -0.00019312544111122016 0 0.008683783346129301 -0.00042178370756457243 0 0.0083937890135055947 -0.00078939794162489617 0 0.008683783346129301 -0.00042178370756457243 0 0.0088011350336052365 -0.00079266552528450536 0 0.0082777534697351472 -0.00048622732986273103 0 0.0083937890135055947 -0.00078939794162489617 0 0.008683783346129301 -0.00042178370756457243 0 0.0088011350336052365 -0.00079266552528450536 0 0.0092047749497438276 -0.0008424948329329437 0 0.009047086861870975 -0.00044888088787719687 0 0.008683783346129301 -0.00042178370756457243 0 0.0088011350336052365 -0.00079266552528450536 0 0.009047086861870975 -0.00044888088787719687 0 0.0092047749497438276 -0.0008424948329329437 0 0.009047086861870975 -0.00044888088787719687 0 0.0095006937642293197 -0.00024677905814956365 0 0.0092047749497438276 -0.0008424948329329437 0 0.0088731623912806298 -0.0011973913608282366 0 0.0093826587376643743 -0.0014073700693126561 0 0.0088011350336052365 -0.00079266552528450536 0 0.0092047749497438276 -0.0008424948329329437 0 0.0088731623912806298 -0.0011973913608282366 0 0.0088731623912806298 -0.0011973913608282366 0 0.008565800750667445 -0.0010735797697235257 0 0.0084909167987113569 -0.0014275711325893747 0 0.0083937890135055947 -0.00078939794162489617 0 0.0088011350336052365 -0.00079266552528450536 0 0.008565800750667445 -0.0010735797697235257 0 0.0082908052642175264 -0.0011214110073662522 0 0.008565800750667445 -0.0010735797697235257 0 0.0084909167987113569 -0.0014275711325893747 0 0.0088011350336052365 -0.00079266552528450536 0 0.0088731623912806298 -0.0011973913608282366 0 0.008565800750667445 -0.0010735797697235257 0 0.009819304777233728 -0.0011283783552305669 0 0.0096478151179913048 -0.00073775977111930594 0 0.0093826587376643743 -0.0014073700693126561 0 0.0092047749497438276 -0.0008424948329329437 0 0.0096478151179913048 -0.00073775977111930594 0 0.0093826587376643743 -0.0014073700693126561 0 0.0092047749497438276 -0.0008424948329329437 0 0.0096478151179913048 -0.00073775977111930594 0 0.0095006937642293197 -0.00024677905814956365 0 0.0096478151179913048 -0.00073775977111930594 0 0.010086734846330504 -0.0002843172770109962 0 0.010174808500298907 -0.00068113380905500669 0 0.0096478151179913048 -0.00073775977111930594 0 0.010086734846330504 -0.0002843172770109962 0 0.0095006937642293197 -0.00024677905814956365 0 0.009819304777233728 -0.0011283783552305669 0 0.0096478151179913048 -0.00073775977111930594 0 0.010174808500298907 -0.00068113380905500669 0 0.010086734846330504 -0.0002843172770109962 0 0.01019547542000343 0.00021476115455980343 0 0.010360131724755674 -1.2313997360560063e-05 0 0.010086734846330504 -0.0002843172770109962 0 0.0095006937642293197 -0.00024677905814956365 0 0.01019547542000343 0.00021476115455980343 0 0.0091742163517929132 0.00034323037662406926 0 0.0095006937642293197 -0.00024677905814956365 0 0.01019547542000343 0.00021476115455980343 0 0.011417575136860564 0.00033762427026713421 0 0.01019547542000343 0.00021476115455980343 0 0.010589313554619067 -0.00024429211366622293 0 0.010389163637077923 0.00030237917103557684 0 0.010204243655752572 0.00023937593424641092 0 0.01019547542000343 0.00021476115455980343 0 0.010308503664593514 0.00023806634401830437 0 0.010589313554619067 -0.00024429211366622293 0 0.01019547542000343 0.00021476115455980343 0 0.010308503664593514 0.00023806634401830437 0 0.010360131724755674 -1.2313997360560063e-05 0 0.010308503664593514 0.00023806634401830437 0 0.010666916087237042 -4.248293375367323e-05 0 0.010360131724755674 -1.2313997360560063e-05 0 0.017767173558189062 -0.0021794900746749165 0 0.017791471196473452 -0.0020683637681000455 0 0.017799539595521652 -0.0020726087628912607 0 0.014043625874813198 -0.00097168209087097044 0 0.014387810455369392 -0.00081863268631281302 0 0.017791471196473452 -0.0020683637681000455 0 0.017718732923358235 -0.0019871195158884742 0 0.017895467120296053 -0.0020539509017984126 0 0.017718732923358235 -0.0019871195158884742 0 0.017499694305492652 -0.0020995822549955143 0 0.017895467120296053 -0.0020539509017984126 0 0.017767173558189062 -0.0021794900746749165 0 0.017718732923358235 -0.0019871195158884742 0 0.017635712693257082 -0.001757591711471184 0 0.017767173558189062 -0.0021794900746749165 0 0.017791471196473452 -0.0020683637681000455 0 0.017718732923358235 -0.0019871195158884742 0 0.010308503664593514 0.00023806634401830437 0 0.010666916087237042 -4.248293375367323e-05 0 0.011215909370830206 0.00015466678500392615 0 0.010666916087237042 -4.248293375367323e-05 0 0.011215909370830206 0.00015466678500392615 0 0.011040656749957193 -0.00038795470528686188 0 0.010666916087237042 -4.248293375367323e-05 0 0.010491225534211042 -0.00033285469333928875 0 0.011040656749957193 -0.00038795470528686188 0 0.010666916087237042 -4.248293375367323e-05 0 0.010360131724755674 -1.2313997360560063e-05 0 0.010491225534211042 -0.00033285469333928875 0 0.010086734846330504 -0.0002843172770109962 0 0.010360131724755674 -1.2313997360560063e-05 0 0.010491225534211042 -0.00033285469333928875 0 0.01804550218316955 -0.0019731609978390118 0 0.016704726774817123 -0.0011051407090046754 0 0.018250092586178872 -0.0014066262866198763 0 0.018337539214756154 -0.0013350574145817821 0 0.018415849242513254 -0.001460449903953674 0 0.016875222513108898 -0.001285692279195477 0 0.017586698988305866 -0.00226207787772168 0 0.01586242740707761 -0.0016826978712588215 0 0.017146174348515935 -0.0017690933817820617 0 0.017530445216499959 -0.0019136561111467941 0 0.017635712693257082 -0.001757591711471184 0 0.017122867208429926 -0.0016552586723596575 0 0.01804550218316955 -0.0019731609978390118 0 0.017146174348515935 -0.0017690933817820617 0 0.017499694305492652 -0.0020995822549955143 0 0.017530445216499959 -0.0019136561111467941 0 0.017718732923358235 -0.0019871195158884742 0 0.017499694305492652 -0.0020995822549955143 0 0.017530445216499959 -0.0019136561111467941 0 0.017718732923358235 -0.0019871195158884742 0 0.017530445216499959 -0.0019136561111467941 0 0.017635712693257082 -0.001757591711471184 0 0.011215909370830206 0.00015466678500392615 0 0.011596804489780317 -0.00031580934781181858 0 0.011040656749957193 -0.00038795470528686188 0 0.017146174348515935 -0.0017690933817820617 0 0.017635712693257082 -0.001757591711471184 0 0.01678784623341998 -0.0012670391412195224 0 0.011215909370830206 0.00015466678500392615 0 0.012218592602875429 -0.00019066228622352023 0 0.011596804489780317 -0.00031580934781181858 0 0.014387810455369392 -0.00081863268631281302 0 0.014647058714512235 -0.00067679344881488399 0 0.016875222513108898 -0.001285692279195477 0 0.016158676595582039 -0.00030880582852305951 0 0.01586242740707761 -0.0016826978712588215 0 0.017122867208429926 -0.0016552586723596575 0 0.014647058714512235 -0.00067679344881488399 0 0.012218592602875429 -0.00019066228622352023 0 0.011955544322271042 -0.00044950840126110127 0 0.011596804489780317 -0.00031580934781181858 0 0.012033057345289809 -0.00094012567091410486 0 0.013781852471602544 -0.00029502837746997511 0 0.011955544322271042 -0.00044950840126110127 0 0.012342739167244262 -0.0011243908990677975 0 0.012286276766611143 -0.00028697858963631608 0 0.012218592602875429 -0.00019066228622352023 0 0.011955544322271042 -0.00044950840126110127 0 0.012286276766611143 -0.00028697858963631608 0 0.011955544322271042 -0.00044950840126110127 0 0.011553256490811264 -0.00071962390166984856 0 0.011596804489780317 -0.00031580934781181858 0 0.011553256490811264 -0.00071962390166984856 0 0.011040656749957193 -0.00038795470528686188 0 0.010970868267700372 -0.0010383316896758175 0 0.011553256490811264 -0.00071962390166984856 0 0.011596804489780317 -0.00031580934781181858 0 0.011040656749957193 -0.00038795470528686188 0 0.011553256490811264 -0.00071962390166984856 0 0.011645524129180594 -0.0012634888140747899 0 0.010970868267700372 -0.0010383316896758175 0 0.011645524129180594 -0.0012634888140747899 0 0.010970868267700372 -0.0010383316896758175 0 0.011240569066377389 -0.0017729373443190867 0 0.011553256490811264 -0.00071962390166984856 0 0.011645524129180594 -0.0012634888140747899 0 0.012342739167244262 -0.0011243908990677975 0 0.011955544322271042 -0.00044950840126110127 0 0.011553256490811264 -0.00071962390166984856 0 0.012342739167244262 -0.0011243908990677975 0 0.010086734846330504 -0.0002843172770109962 0 0.010174808500298907 -0.00068113380905500669 0 0.010491225534211042 -0.00033285469333928875 0 0.010174808500298907 -0.00068113380905500669 0 0.010624985275593116 -0.00068377927762502033 0 0.010286327720669126 -0.0010900508171770254 0 0.010174808500298907 -0.00068113380905500669 0 0.010491225534211042 -0.00033285469333928875 0 0.010624985275593116 -0.00068377927762502033 0 0.011040656749957193 -0.00038795470528686188 0 0.010624985275593116 -0.00068377927762502033 0 0.010970868267700372 -0.0010383316896758175 0 0.010491225534211042 -0.00033285469333928875 0 0.011040656749957193 -0.00038795470528686188 0 0.010624985275593116 -0.00068377927762502033 0 0.010970868267700372 -0.0010383316896758175 0 0.010286327720669126 -0.0010900508171770254 0 0.010541082837153092 -0.0015514547122784138 0 0.010624985275593116 -0.00068377927762502033 0 0.010970868267700372 -0.0010383316896758175 0 0.010286327720669126 -0.0010900508171770254 0 0.009819304777233728 -0.0011283783552305669 0 0.010174808500298907 -0.00068113380905500669 0 0.010286327720669126 -0.0010900508171770254 0 0.009819304777233728 -0.0011283783552305669 0 0.010286327720669126 -0.0010900508171770254 0 0.0098023613402946699 -0.0017223479862952347 0 0.010286327720669126 -0.0010900508171770254 0 0.0098023613402946699 -0.0017223479862952347 0 0.010541082837153092 -0.0015514547122784138 0 0.0098023613402946699 -0.0017223479862952347 0 0.010541082837153092 -0.0015514547122784138 0 0.010503798273365859 -0.0021673662193716081 0 0.010541082837153092 -0.0015514547122784138 0 0.010503798273365859 -0.0021673662193716081 0 0.011240569066377389 -0.0017729373443190867 0 0.010970868267700372 -0.0010383316896758175 0 0.010541082837153092 -0.0015514547122784138 0 0.011240569066377389 -0.0017729373443190867 0 0.010503798273365859 -0.0021673662193716081 0 0.011283440348726893 -0.0025013371468540599 0 0.010906124425410254 -0.0030794782506584884 0 0.0098023613402946699 -0.0017223479862952347 0 0.010503798273365859 -0.0021673662193716081 0 0.0094740124982510068 -0.0025848198558797654 0 0.012175301436065161 -0.0017972093959542218 0 0.011240569066377389 -0.0017729373443190867 0 0.011934935126245577 -0.0024179830361063244 0 0.011645524129180594 -0.0012634888140747899 0 0.012342739167244262 -0.0011243908990677975 0 0.012175301436065161 -0.0017972093959542218 0 0.011645524129180594 -0.0012634888140747899 0 0.012175301436065161 -0.0017972093959542218 0 0.011240569066377389 -0.0017729373443190867 0 0.010503798273365859 -0.0021673662193716081 0 0.011240569066377389 -0.0017729373443190867 0 0.011283440348726893 -0.0025013371468540599 0 0.011240569066377389 -0.0017729373443190867 0 0.011283440348726893 -0.0025013371468540599 0 0.011934935126245577 -0.0024179830361063244 0 0.011283440348726893 -0.0025013371468540599 0 0.011934935126245577 -0.0024179830361063244 0 0.011850611328689526 -0.0031056114349575746 0 0.011934935126245577 -0.0024179830361063244 0 0.012331200038818458 -0.002900332239050367 0 0.011850611328689526 -0.0031056114349575746 0 0.011934935126245577 -0.0024179830361063244 0 0.012331200038818458 -0.002900332239050367 0 0.012771768370749571 -0.0024152268266391533 0 0.012175301436065161 -0.0017972093959542218 0 0.011934935126245577 -0.0024179830361063244 0 0.012771768370749571 -0.0024152268266391533 0 0.012331200038818458 -0.002900332239050367 0 0.012254092829435742 -0.0034661805698305305 0 0.011850611328689526 -0.0031056114349575746 0 0.012331200038818458 -0.002900332239050367 0 0.012254092829435742 -0.0034661805698305305 0 0.012905552294553552 -0.003055802314905957 0 0.010282035631014048 -0.0031320062811556891 0 0.011726203823796898 -0.0035728734746472359 0 0.011283440348726893 -0.0025013371468540599 0 0.011850611328689526 -0.0031056114349575746 0 0.010906124425410254 -0.0030794782506584884 0 0.010282035631014048 -0.0031320062811556891 0 0.0093957991077722076 -0.0030401742572537726 0 0.012189496579654683 -0.0033750122904526586 0 0.011850611328689526 -0.0031056114349575746 0 0.010906124425410254 -0.0030794782506584884 0 0.006859254376346712 -0.0032135723850184434 0 0.0075686342721900729 -0.0025572070520140109 0 0.0082556760750956849 -0.0030335067513169913 0 0.0074492013203941243 -0.0017986007708738149 0 0.0075686342721900729 -0.0025572070520140109 0 0.0083888344165060531 -0.0021319842014253516 0 0.0075686342721900729 -0.0025572070520140109 0 0.0082556760750956849 -0.0030335067513169913 0 0.0083888344165060531 -0.0021319842014253516 0 0.0074492013203941243 -0.0017986007708738149 0 0.0075686342721900729 -0.0025572070520140109 0 0.0066736409568453883 -0.0022534562357750128 0 0.006859254376346712 -0.0032135723850184434 0 0.0075686342721900729 -0.0025572070520140109 0 0.0066736409568453883 -0.0022534562357750128 0 0.0094740124982510068 -0.0025848198558797654 0 0.0082556760750956849 -0.0030335067513169913 0 0.0091434346895113011 -0.0022747721384109849 0 0.010503798273365859 -0.0021673662193716081 0 0.0094740124982510068 -0.0025848198558797654 0 0.010906124425410254 -0.0030794782506584884 0 0.0095450900716535624 -0.0026715297610596933 0 0.0093957991077722076 -0.0030401742572537726 0 0.0082556760750956849 -0.0030335067513169913 0 0.0083888344165060531 -0.0021319842014253516 0 0.0091434346895113011 -0.0022747721384109849 0 0.0091797767743889477 -0.0020596991921489173 0 0.0091434346895113011 -0.0022747721384109849 0 0.0092945663108735203 -0.0022291308642989772 0 0.0094740124982510068 -0.0025848198558797654 0 0.0091434346895113011 -0.0022747721384109849 0 0.0092945663108735203 -0.0022291308642989772 0 0.0094740124982510068 -0.0025848198558797654 0 0.0092945663108735203 -0.0022291308642989772 0 0.0092758216471369951 -0.0020361826755098834 0 0.0092945663108735203 -0.0022291308642989772 0 0.0091583256056935285 -0.0020802417089933671 0 0.0091150596696970392 -0.0020162543022695192 0 0.0092945663108735203 -0.0022291308642989772 0 0.0091150596696970392 -0.0020162543022695192 0 0.0092758216471369951 -0.0020361826755098834 0 0.0091946949289418468 -0.002013845237373771 0 0.0092945663108735203 -0.0022291308642989772 0 0.0091583256056935285 -0.0020802417089933671 0 0.0091946949289418468 -0.002013845237373771 0 0.0091797767743889477 -0.0020596991921489173 0 0.0092945663108735203 -0.0022291308642989772 0 0.0091583256056935285 -0.0020802417089933671 0 0.0090442954605252698 -0.0020101593798435131 0 0.0091150596696970392 -0.0020162543022695192 0 0.0090857887974544211 -0.0020125994286903054 0 0.0091583256056935285 -0.0020802417089933671 0 0.0090442954605252698 -0.0020101593798435131 0 0.0089566228509512114 -0.0019678634093153592 0 0.0090442954605252698 -0.0020101593798435131 0 0.0090023920679959523 -0.0019655717808174308 0 0.0089828324439745737 -0.0019945810698536333 0 0.0089566228509512114 -0.0019678634093153592 0 0.0090442954605252698 -0.0020101593798435131 0 0.0086811077362420608 -0.0021847671218274923 0 0.00903071750320107 -0.0020727503961838435 0 0.0082785806138251181 -0.0020673349885422907 0 0.0084996847641911899 -0.002313935340034619 0 0.0085247397592248877 -0.0018856826734019551 0 0.0090442954605252698 -0.0020101593798435131 0 0.0090023920679959523 -0.0019655717808174308 0 0.0091150596696970392 -0.0020162543022695192 0 0.0084996847641911899 -0.002313935340034619 0 0.0089152097690331326 -0.0021369600897394357 0 0.0085247397592248877 -0.0018856826734019551 0 0.0089152097690331326 -0.0021369600897394357 0 0.0085247397592248877 -0.0018856826734019551 0 0.0089125567244839159 -0.0016968523580777094 0 0.0089152097690331326 -0.0021369600897394357 0 0.0089125567244839159 -0.0016968523580777094 0 0.0092758216471369951 -0.0020361826755098834 0 0.0085247397592248877 -0.0018856826734019551 0 0.0084909167987113569 -0.0014275711325893747 0 0.0089125567244839159 -0.0016968523580777094 0 0.0082838757227614076 -0.0017383651173676032 0 0.0085247397592248877 -0.0018856826734019551 0 0.0084909167987113569 -0.0014275711325893747 0 0.0088731623912806298 -0.0011973913608282366 0 0.0084909167987113569 -0.0014275711325893747 0 0.0089125567244839159 -0.0016968523580777094 0 0.0088731623912806298 -0.0011973913608282366 0 0.0089125567244839159 -0.0016968523580777094 0 0.0093826587376643743 -0.0014073700693126561 0 0.0089125567244839159 -0.0016968523580777094 0 0.0093826587376643743 -0.0014073700693126561 0 0.0092758216471369951 -0.0020361826755098834 0 0.0098023613402946699 -0.0017223479862952347 0 0.0093826587376643743 -0.0014073700693126561 0 0.0092758216471369951 -0.0020361826755098834 0 0.009819304777233728 -0.0011283783552305669 0 0.0098023613402946699 -0.0017223479862952347 0 0.0093826587376643743 -0.0014073700693126561 0 0.0098023613402946699 -0.0017223479862952347 0 0.0094740124982510068 -0.0025848198558797654 0 0.0092758216471369951 -0.0020361826755098834 0 0.00903071750320107 -0.0020727503961838435 0 0.009241075313614797 -0.0020308365252377672 0 0.0044829382598671943 -0.0022837762617417944 0 0.004942532969515176 -0.00074319329156417749 0 0.0036394312850409 -0.0012696445661423209 0 0.0087527541551521686 -0.00029102091764705119 0 0.0075956301273371867 -0.00015151672928824159 0 0.0064952927046533675 -0.00025709855693452225 0 0.0069549299881453809 -0.00083380375066876818 0 0.0064812514314365379 -0.00056996428898619289 0 0.0044829382598671943 -0.0022837762617417944 0 0.004942532969515176 -0.00074319329156417749 0 0.0064952927046533675 -0.00025709855693452225 0 0.0075956301273371867 -0.00015151672928824159 0 0.0072192053226942162 -1.7285701770429246e-06 0 0.0064952927046533675 -0.00025709855693452225 0 0.0075956301273371867 -0.00015151672928824159 0 0.0072192053226942162 -1.7285701770429246e-06 0 0.0085433555583874967 -1.4004230153099034e-05 0 0.0092168512488506032 -0.00049264050153098929 0 0.0075956301273371867 -0.00015151672928824159 0 0.0085433555583874967 -1.4004230153099034e-05 0 0.0069549299881453809 -0.00083380375066876818 0 0.0083969571978268261 -0.00026103011536484207 0 0.0085433555583874967 -1.4004230153099034e-05 0 0.0096055109435109459 0.00014739843232910882 0 0.0091446168953979029 8.948792425908331e-07 0 0.0072192053226942162 -1.7285701770429246e-06 0 0.0085433555583874967 -1.4004230153099034e-05 0 0.0091446168953979029 8.948792425908331e-07 0 0.0092168512488506032 -0.00049264050153098929 0 0.010202914886000392 -0.00011908991755721726 0 0.0096055109435109459 0.00014739843232910882 0 0.0092168512488506032 -0.00049264050153098929 0 0.0085433555583874967 -1.4004230153099034e-05 0 0.0096055109435109459 0.00014739843232910882 0 0.0069549299881453809 -0.00083380375066876818 0 0.0083714192155488892 -0.00034746947357239472 0 0.006317178868351459 -0.00074343909975739877 0 0.0063089464064426063 -0.00072809804795233638 0 0.0063259016048442382 -0.00073380529592777515 0 0.006316824029096872 -0.00075017497743490736 0 0.0063089464064426063 -0.00072809804795233638 0 0.0063259016048442382 -0.00073380529592777515 0 0.006316824029096872 -0.00075017497743490736 0 0.0063089464064426063 -0.00072809804795233638 0 0.0064186158580958443 -0.00061426722323073126 0 0.006316824029096872 -0.00075017497743490736 0 0.0064685436866231205 -0.0007817281131048228 0 0.0064186158580958443 -0.00061426722323073126 0 0.006316824029096872 -0.00075017497743490736 0 0.0063259016048442382 -0.00073380529592777515 0 0.0061694337562630281 -0.00071977475325472504 0 0.0083714192155488892 -0.00034746947357239472 0 0.0085042457934055189 -0.00016137026173180125 0 0.0069344063583048924 -0.00082059783133790331 0 0.0044405807899836466 -0.00099049611718929017 0 0.0018846659290286496 -0.0021005729903126888 0 0.0026457389745698041 -0.0026047732542404732 0 0.0010353279878595279 -0.0027747988656392809 0 0.0040048295389524015 -0.0017875274791554574 0 0.0044405807899836466 -0.00099049611718929017 0 0.0018846659290286496 -0.0021005729903126888 0 0.0013933302884366675 -0.0018691346027992467 0 0.0010353279878595279 -0.0027747988656392809 0 0.0019886483319135582 -0.00056626428069052673 0 0.0019380613483237553 -0.00059429589308887358 0 0.0019648083851688545 -0.00064797326122699613 0 0.001510435743913762 -0.0017035317728302591 0 0.0044405807899836466 -0.00099049611718929017 0 0.0017416246800785466 -0.0017014099598266095 0 0.0018846659290286496 -0.0021005729903126888 0 0.0022537077523334223 -0.0015175128416611023 0 0.0018846659290286496 -0.0021005729903126888 0 0.002683061025470744 -0.0017365593897646174 0 0.0022537077523334223 -0.0015175128416611023 0 0.0017416246800785466 -0.0017014099598266095 0 0.0018846659290286496 -0.0021005729903126888 0 0.0014020587501892359 -0.0018887651865340529 0 0.0017416246800785466 -0.0017014099598266095 0 0.0014020587501892359 -0.0018887651865340529 0 0.0014920456444325557 -0.0013712640204741361 0 0.001737051461757761 -0.0018971972616911436 0 0.001510435743913762 -0.0017035317728302591 0 0.0044829382598671943 -0.0022837762617417944 0 0.0026457389745698041 -0.0026047732542404732 0 0.0036394312850409 -0.0012696445661423209 0 0.0069549299881453809 -0.00083380375066876818 0 0.0040048295389524015 -0.0017875274791554574 0 0.0018846659290286496 -0.0021005729903126888 0 0.0026457389745698041 -0.0026047732542404732 0 0.002683061025470744 -0.0017365593897646174 0 0.0026457389745698041 -0.0026047732542404732 0 0.002683061025470744 -0.0017365593897646174 0 0.0036394312850409 -0.0012696445661423209 0 0.0030478208369416867 -0.0011682981513710528 0 0.0034862266775325095 -0.00032541565414706449 0 0.0036394312850409 -0.0012696445661423209 0 0.002683061025470744 -0.0017365593897646174 0 0.0030478208369416867 -0.0011682981513710528 0 0.0036394312850409 -0.0012696445661423209 0 0.0030478208369416867 -0.0011682981513710528 0 0.0022537077523334223 -0.0015175128416611023 0 0.0023342142003118767 -0.00064683444516478068 0 0.002683061025470744 -0.0017365593897646174 0 0.0030478208369416867 -0.0011682981513710528 0 0.0022537077523334223 -0.0015175128416611023 0 0.0030478208369416867 -0.0011682981513710528 0 0.0034862266775325095 -0.00032541565414706449 0 0.0023342142003118767 -0.00064683444516478068 0 0.0014920456444325557 -0.0013712640204741361 0 0.00094269165154496593 -0.00092951188470592446 0 0.00058399437995290194 -0.0014757990693069877 0 0.001510435743913762 -0.0017035317728302591 0 0.0014782225116188273 -0.0015898304571233003 0 0.0011130599535766907 -0.002179751484858983 0 0.0014920456444325557 -0.0013712640204741361 0 0.00058399437995290194 -0.0014757990693069877 0 0.0014920456444325557 -0.0013712640204741361 0 0.0022537077523334223 -0.0015175128416611023 0 0.0023342142003118767 -0.00064683444516478068 0 0.0017416246800785466 -0.0017014099598266095 0 0.0014920456444325557 -0.0013712640204741361 0 0.0022537077523334223 -0.0015175128416611023 0 0.0014920456444325557 -0.0013712640204741361 0 0.0023342142003118767 -0.00064683444516478068 0 0.00094269165154496593 -0.00092951188470592446 0 0.0010168556770419027 -0.00038025497418277135 0 -0.00016574924535441124 -0.00090130375963723452 0 -0.00049123487937911608 -0.0011647779395355566 0 -0.00053033623559724827 -0.001015982004028197 0 -0.00024456595703514506 -0.00092663428159329953 0 0.00094269165154496593 -0.00092951188470592446 0 0.0025515000150839726 0.00055496529790327869 0 -0.00024456595703514506 -0.00092663428159329953 0 0.0023342142003118767 -0.00064683444516478068 0 0.00094269165154496593 -0.00092951188470592446 0 0.0025515000150839726 0.00055496529790327869 0 0.0034862266775325095 -0.00032541565414706449 0 0.0025515000150839726 0.00055496529790327869 0 0.0039225329927043504 0.00021404784534664485 0 0.0025515000150839726 0.00055496529790327869 0 0.0039225329927043504 0.00021404784534664485 0 0.0040717866437684214 0.00049268517310648745 0 0.0034862266775325095 -0.00032541565414706449 0 0.0023342142003118767 -0.00064683444516478068 0 0.0025515000150839726 0.00055496529790327869 0 0.0039225329927043504 0.00021404784534664485 0 0.0044905978923887174 -0.00012282811141548815 0 0.0043832716192276225 0.00026383870434266591 0 0.0034862266775325095 -0.00032541565414706449 0 0.0039225329927043504 0.00021404784534664485 0 0.0044905978923887174 -0.00012282811141548815 0 0.0034862266775325095 -0.00032541565414706449 0 0.0044905978923887174 -0.00012282811141548815 0 0.0036394312850409 -0.0012696445661423209 0 0.0044905978923887174 -0.00012282811141548815 0 0.004942532969515176 -0.00074319329156417749 0 0.0036394312850409 -0.0012696445661423209 0 0.0064952927046533675 -0.00025709855693452225 0 0.0053812872090126147 -0.00017479238979984223 0 0.0052931138198566898 3.0300112163460528e-07 0 0.0072192053226942162 -1.7285701770429246e-06 0 0.0064952927046533675 -0.00025709855693452225 0 0.0052931138198566898 3.0300112163460528e-07 0 0.004942532969515176 -0.00074319329156417749 0 0.0064952927046533675 -0.00025709855693452225 0 0.0053812872090126147 -0.00017479238979984223 0 0.0044905978923887174 -0.00012282811141548815 0 0.004942532969515176 -0.00074319329156417749 0 0.0053812872090126147 -0.00017479238979984223 0 0.0044905978923887174 -0.00012282811141548815 0 0.0053812872090126147 -0.00017479238979984223 0 0.0043832716192276225 0.00026383870434266591 0 0.0043832716192276225 0.00026383870434266591 0 0.0052931138198566898 3.0300112163460528e-07 0 0.003367642519366932 -3.1012953097973927e-07 0 0.0053812872090126147 -0.00017479238979984223 0 0.0043832716192276225 0.00026383870434266591 0 0.0052931138198566898 3.0300112163460528e-07 0 0.0043832716192276225 0.00026383870434266591 0 0.003367642519366932 -3.1012953097973927e-07 0 0.0040717866437684214 0.00049268517310648745 0 0.0039225329927043504 0.00021404784534664485 0 0.0043832716192276225 0.00026383870434266591 0 0.0040717866437684214 0.00049268517310648745 0 0.00025795280690290928 -0.001350761250317958 0 0.00060778363657006725 -0.00038591464460561455 0 -0.00025062004552979576 -0.0006481174736114243 0 0.00060778363657006725 -0.00038591464460561455 0 7.8351331227520098e-05 -0.00013065448207247635 0 -0.00025062004552979576 -0.0006481174736114243 0 0.00025795280690290928 -0.001350761250317958 0 0.00060778363657006725 -0.00038591464460561455 0 0.0026334539116461731 -0.00017588364883950697 0 0.0021336251698716624 -0.00036584297287156164 0 0.0026436800925144959 -0.00017690699553065328 0 0.003367642519366932 -3.1012953097973927e-07 0 0.0040717866437684214 0.00049268517310648745 0 0.0026334539116461731 -0.00017588364883950697 0 0.003367642519366932 -3.1012953097973927e-07 0 0.0026334539116461731 -0.00017588364883950697 0 0.0014421176160854879 -9.3158949467024461e-08 0 0.00060778363657006725 -0.00038591464460561455 0 0.0026334539116461731 -0.00017588364883950697 0 0.0010467827410534658 -2.3017816231417111e-05 0 0.0026334539116461731 -0.00017588364883950697 0 0.0014421176160854879 -9.3158949467024461e-08 0 0.0010467827410534658 -2.3017816231417111e-05 0 0.0014421176160854879 -9.3158949467024461e-08 0 0.0010467827410534658 -2.3017816231417111e-05 0 0.00026950097815192788 0.00013305706290344332 0 0.00060778363657006725 -0.00038591464460561455 0 0.0010467827410534658 -2.3017816231417111e-05 0 7.8351331227520098e-05 -0.00013065448207247635 0 7.8351331227520098e-05 -0.00013065448207247635 0 0.00026950097815192788 0.00013305706290344332 0 -0.00037740441664352753 1.7629512149183462e-05 0 0.0010467827410534658 -2.3017816231417111e-05 0 7.8351331227520098e-05 -0.00013065448207247635 0 0.00026950097815192788 0.00013305706290344332 0 -0.00056001557651957424 0.00018257335437437403 0 0.00026950097815192788 0.00013305706290344332 0 -0.00037740441664352753 1.7629512149183462e-05 0 -0.00048244665582497157 4.5839284084950903e-07 0 -0.00056001557651957424 0.00018257335437437403 0 0.00026950097815192788 0.00013305706290344332 0 -0.00048244665582497157 4.5839284084950903e-07 0 0.0014421176160854879 -9.3158949467024461e-08 0 0.00026950097815192788 0.00013305706290344332 0 -0.0011459419471653669 1.0923295781828275e-05 0 -0.00081894438619590712 1.1402064754498467e-05 0 -0.0010458196917321645 -0.00035645272351330791 0 -0.00081894438619590712 1.1402064754498467e-05 0 -0.00062317560121696977 -0.0002685509155254585 0 -0.0010458196917321645 -0.00035645272351330791 0 -0.00081894438619590712 1.1402064754498467e-05 0 -0.00037740441664352753 1.7629512149183462e-05 0 -0.00062317560121696977 -0.0002685509155254585 0 -0.00056001557651957424 0.00018257335437437403 0 -0.00081894438619590712 1.1402064754498467e-05 0 -0.00037740441664352753 1.7629512149183462e-05 0 7.8351331227520098e-05 -0.00013065448207247635 0 -0.00037740441664352753 1.7629512149183462e-05 0 -0.00062317560121696977 -0.0002685509155254585 0 7.8351331227520098e-05 -0.00013065448207247635 0 -0.00062317560121696977 -0.0002685509155254585 0 -0.00025062004552979576 -0.0006481174736114243 0 -0.00062317560121696977 -0.0002685509155254585 0 -0.00072749104415958357 -0.00069457725768049298 0 -0.0010458196917321645 -0.00035645272351330791 0 -0.00072749104415958357 -0.00069457725768049298 0 -0.00053739184373801329 -0.0010035592794305239 0 -0.00080206239872038362 -0.00090049687887389378 0 -0.00062317560121696977 -0.0002685509155254585 0 -0.00072749104415958357 -0.00069457725768049298 0 -0.00025062004552979576 -0.0006481174736114243 0 -0.00072749104415958357 -0.00069457725768049298 0 -0.00025062004552979576 -0.0006481174736114243 0 -0.00053739184373801329 -0.0010035592794305239 0 0.0010168556770419027 -0.00038025497418277135 0 0.0021336251698716624 -0.00036584297287156164 0 0.00025795280690290928 -0.001350761250317958 0 -0.00025062004552979576 -0.0006481174736114243 0 -0.00053739184373801329 -0.0010035592794305239 0 -0.00049123487937911608 -0.0011647779395355566 0 0.00025795280690290928 -0.001350761250317958 0 -0.00053739184373801329 -0.0010035592794305239 0 -0.00053739184373801329 -0.0010035592794305239 0 -0.00080206239872038362 -0.00090049687887389378 0 -0.00053033623559724827 -0.001015982004028197 0 -0.00049123487937911608 -0.0011647779395355566 0 -0.00053739184373801329 -0.0010035592794305239 0 -0.00053033623559724827 -0.001015982004028197 0 -0.00080206239872038362 -0.00090049687887389378 0 -0.00071338895343393447 -0.00090233115290009941 0 -0.00053033623559724827 -0.001015982004028197 0 -0.00080206239872038362 -0.00090049687887389378 0 -0.0010917353091254981 -0.00088749854951586707 0 -0.00071338895343393447 -0.00090233115290009941 0 -0.0017252446925584202 -0.0007338705772588184 0 -0.0017292866223714066 -0.00066072163148355855 0 -0.0017725119383950152 -0.00063345037473812175 0 -0.0014087870315905809 -0.00076713007937485433 0 -0.0013325698717401718 -0.00078882249387724574 0 -0.0010917353091254981 -0.00088749854951586707 0 -0.0010471282336487161 -0.0007320372126916662 0 -0.0015599007274204083 -0.00068379629844496229 0 -0.0014087870315905809 -0.00076713007937485433 0 -0.0015374054152764893 -0.00065840089986015152 0 -0.0017252446925584202 -0.0007338705772588184 0 -0.0015599007274204083 -0.00068379629844496229 0 -0.00174314058407671 -0.00077276427042692988 0 -0.00080206239872038362 -0.00090049687887389378 0 -0.0010917353091254981 -0.00088749854951586707 0 -0.0010471282336487161 -0.0007320372126916662 0 -0.00072749104415958357 -0.00069457725768049298 0 -0.00080206239872038362 -0.00090049687887389378 0 -0.0010471282336487161 -0.0007320372126916662 0 -0.00072749104415958357 -0.00069457725768049298 0 -0.0010471282336487161 -0.0007320372126916662 0 -0.0010458196917321645 -0.00035645272351330791 0 -0.0010471282336487161 -0.0007320372126916662 0 -0.0010458196917321645 -0.00035645272351330791 0 -0.0015599007274204083 -0.00068379629844496229 0 -0.0010458196917321645 -0.00035645272351330791 0 -0.0015599007274204083 -0.00068379629844496229 0 -0.0014663431703427297 -0.00030623364119811223 0 -0.0015599007274204083 -0.00068379629844496229 0 -0.0014663431703427297 -0.00030623364119811223 0 -0.0018489456760336939 -0.0004411138129074933 0 -0.0017301171636998781 -0.00017819407505669836 0 -0.0014663431703427297 -0.00030623364119811223 0 -0.0018489456760336939 -0.0004411138129074933 0 -0.0011459419471653669 1.0923295781828275e-05 0 -0.0010458196917321645 -0.00035645272351330791 0 -0.0014663431703427297 -0.00030623364119811223 0 -0.0023428121069557525 -0.0003834839587586049 0 -0.0018489456760336939 -0.0004411138129074933 0 -0.0021460415722830005 -0.00077224955102843309 0 -0.0015599007274204083 -0.00068379629844496229 0 -0.0018489456760336939 -0.0004411138129074933 0 -0.0018467542202878161 -0.00072275647991377654 0 -0.0018467542202878161 -0.00072275647991377654 0 -0.0021460415722830005 -0.00077224955102843309 0 -0.0018237445398189395 -0.0008078462951388852 0 -0.0018489456760336939 -0.0004411138129074933 0 -0.0018467542202878161 -0.00072275647991377654 0 -0.0021460415722830005 -0.00077224955102843309 0 -0.0018237445398189395 -0.0008078462951388852 0 -0.00174314058407671 -0.00077276427042692988 0 -0.0016787266390852348 -0.00071499327834328389 0 -0.0018237445398189395 -0.0008078462951388852 0 -0.0016787266390852348 -0.00071499327834328389 0 -0.0015151629176758258 -0.00086137087511017495 0 -0.0018467542202878161 -0.00072275647991377654 0 -0.0018237445398189395 -0.0008078462951388852 0 -0.00174314058407671 -0.00077276427042692988 0 -0.0015599007274204083 -0.00068379629844496229 0 -0.0018467542202878161 -0.00072275647991377654 0 -0.00174314058407671 -0.00077276427042692988 0 -0.0017252446925584202 -0.0007338705772588184 0 -0.00174314058407671 -0.00077276427042692988 0 -0.0017292866223714066 -0.00066072163148355855 0 -0.00174314058407671 -0.00077276427042692988 0 -0.0017292866223714066 -0.00066072163148355855 0 -0.0016787266390852348 -0.00071499327834328389 0 -0.0016787266390852348 -0.00071499327834328389 0 -0.0016638256666730254 -0.00055045444436479358 0 -0.0013033690067493725 -0.00053876032005253222 0 -0.0017292866223714066 -0.00066072163148355855 0 -0.0016787266390852348 -0.00071499327834328389 0 -0.0016638256666730254 -0.00055045444436479358 0 -0.0015797024659290467 -0.00026793986968600802 0 -0.0014039216732350159 -3.8784363270247779e-05 0 -0.0012988788564719609 -0.00021897665870591835 0 -0.0014039216732350159 -3.8784363270247779e-05 0 -0.001585904289235352 0.00012973839459950713 0 -0.0012084209597142965 0.00028925241752898354 0 -0.0015797024659290467 -0.00026793986968600802 0 -0.0014039216732350159 -3.8784363270247779e-05 0 -0.001585904289235352 0.00012973839459950713 0 -0.0015797024659290467 -0.00026793986968600802 0 -0.001585904289235352 0.00012973839459950713 0 -0.0019470630110844783 -5.5220592772411367e-05 0 -0.001585904289235352 0.00012973839459950713 0 -0.0019470630110844783 -5.5220592772411367e-05 0 -0.0018860870318352966 0.00029893317250075617 0 -0.0015393589699685991 -0.00044420266893903989 0 -0.0021473256566372566 -0.00021364203138183582 0 -0.0017292866223714066 -0.00066072163148355855 0 -0.0016638256666730254 -0.00055045444436479358 0 -0.0017365110380648174 -0.00058618472881437887 0 -0.0017292866223714066 -0.00066072163148355855 0 -0.0017365110380648174 -0.00058618472881437887 0 -0.0017725119383950152 -0.00063345037473812175 0 -0.00071338895343393447 -0.00090233115290009941 0 -0.00053033623559724827 -0.001015982004028197 0 -0.00024456595703514506 -0.00092663428159329953 0 -0.0017725119383950152 -0.00063345037473812175 0 -0.0017743307032802309 -0.00057694562086842583 0 -0.0017709075917346649 -0.00057511475791639018 0 -0.00071338895343393447 -0.00090233115290009941 0 -0.00024456595703514506 -0.00092663428159329953 0 -0.00072770636504890609 -0.0013611467132398319 0 -0.0013325698717401718 -0.00078882249387724574 0 -0.00015945279619741115 -0.00072485354894886978 0 0.0011130599535766907 -0.002179751484858983 0 -0.00022788798517096471 -0.0015157568254244298 0 0.00058399437995290194 -0.0014757990693069877 0 0.00061051761876578924 -0.0010033734855080763 0 -0.00015945279619741115 -0.00072485354894886978 0 0.00094269165154496593 -0.00092951188470592446 0 -0.00024456595703514506 -0.00092663428159329953 0 -0.00072770636504890609 -0.0013611467132398319 0 -0.00025387791234939884 -0.0013930546191461965 0 -0.00022788798517096471 -0.0015157568254244298 0 0.00058399437995290194 -0.0014757990693069877 0 0.0017521626528300548 -0.00024502082092789211 0 0.0017911833883419736 -0.00026213480870413422 0 0.0017527668483100951 -0.00047063254208755964 0 -8.0296740375852109e-06 -0.00044099665051334954 0 0.0002888122265862722 -0.00031862743462399054 0 -8.7066460245372395e-05 -0.00014430236954856131 0 -0.00015945279619741115 -0.00072485354894886978 0 0.00034433215682120726 -0.00073923564636078193 0 -0.0003586298358899772 -0.00046072261785009037 0 0.00034433215682120726 -0.00073923564636078193 0 -0.00015945279619741115 -0.00072485354894886978 0 -0.0003586298358899772 -0.00046072261785009037 0 0.00094269165154496593 -0.00092951188470592446 0 -0.00025387791234939884 -0.0013930546191461965 0 0.00058399437995290194 -0.0014757990693069877 0 -0.0021473256566372566 -0.00021364203138183582 0 -0.0003586298358899772 -0.00046072261785009037 0 -0.0017365110380648174 -0.00058618472881437887 0 -0.0017725119383950152 -0.00063345037473812175 0 -0.0017709075917346649 -0.00057511475791639018 0 -0.0019470630110844783 -5.5220592772411367e-05 0 -0.0022677439253996194 0.00010748649788942784 0 -0.0018860870318352966 0.00029893317250075617 0 0.0017521626528300548 -0.00024502082092789211 0 0.001565690823023623 -0.00048466345743757196 0 0.001311420044626271 -0.00042597625786583459 0 -0.0003586298358899772 -0.00046072261785009037 0 -0.00053408303898084045 -7.4119231678857413e-05 0 0.001565690823023623 -0.00048466345743757196 0 0.0018843252545050061 -0.00066820432804675528 0 0.0013685993467628214 -0.00062644333307642253 0 0.0017521626528300548 -0.00024502082092789211 0 0.001565690823023623 -0.00048466345743757196 0 0.0017527668483100951 -0.00047063254208755964 0 0.0019886483319135582 -0.00056626428069052673 0 0.0018680265948144146 -0.0005131064599859399 0 0.0019380613483237553 -0.00059429589308887358 0 0.0018680265948144146 -0.0005131064599859399 0 0.0019380613483237553 -0.00059429589308887358 0 0.001912166585138003 -0.00064331034075740192 0 0.00034433215682120726 -0.00073923564636078193 0 0.0020306548919591053 -0.00060511680851555718 0 0.0017911833883419736 -0.00026213480870413422 0 0.0017527668483100951 -0.00047063254208755964 0 0.001912166585138003 -0.00064331034075740192 0 0.001510435743913762 -0.0017035317728302591 0 0.00034433215682120726 -0.00073923564636078193 0 0.0017527668483100951 -0.00047063254208755964 0 0.001912166585138003 -0.00064331034075740192 0 0.0018843252545050061 -0.00066820432804675528 0 0.001565690823023623 -0.00048466345743757196 0 0.0017527668483100951 -0.00047063254208755964 0 0.0018843252545050061 -0.00066820432804675528 0 0.0019380613483237553 -0.00059429589308887358 0 0.001912166585138003 -0.00064331034075740192 0 0.0019289580050146978 -0.00065212294823056404 0 0.0019380613483237553 -0.00059429589308887358 0 0.0019648083851688545 -0.00064797326122699613 0 0.0019378066829310045 -0.00065039895463509781 0 0.0027603689285439752 -0.00078901287956598934 0 0.0036201693594184923 -0.0005930333123031101 0 0.0049017155558287763 6.0857408020734458e-05 0 0.0045173181587091805 -0.00032870612402594881 0 0.0047130263278999445 -0.00084268935366876179 0 0.0048212412783463663 -0.0011776788933556214 0 0.0049809736606337071 -0.0011590256588574705 0 0.0051993666341465508 -0.00029780948831782602 0 0.0064685436866231205 -0.0007817281131048228 0 0.0065844417503336701 -0.00055367152700281773 0 0.0064186158580958443 -0.00061426722323073126 0 0.0036201693594184923 -0.0005930333123031101 0 0.0062133743325652503 -0.00063351453421256953 0 0.0044405807899836466 -0.00099049611718929017 0 0.0062133743325652503 -0.00063351453421256953 0 0.0044405807899836466 -0.00099049611718929017 0 0.0036201693594184923 -0.0005930333123031101 0 0.001912166585138003 -0.00064331034075740192 0 0.0019289580050146978 -0.00065212294823056404 0 0.0018843252545050061 -0.00066820432804675528 0 0.0036201693594184923 -0.0005930333123031101 0 0.0037052578956187714 -0.0003338154163257613 0 0.0049017155558287763 6.0857408020734458e-05 0 0.0047875296890040296 4.7526234056913518e-05 0 0.0045173181587091805 -0.00032870612402594881 0 0.0037052578956187714 -0.0003338154163257613 0 0.0026484702373038137 -0.0002809553696709547 0 0.004729220609246289 9.1915115498892561e-06 0 0.0041505631672800105 -2.0433988761687569e-05 0 0.003837642653252146 0.00011651918837813349 0 0.0047875296890040296 4.7526234056913518e-05 0 0.0045173181587091805 -0.00032870612402594881 0 0.0041505631672800105 -2.0433988761687569e-05 0 0.0037052578956187714 -0.0003338154163257613 0 0.0045777965941900802 1.8696195536870684e-05 0 0.0041505631672800105 -2.0433988761687569e-05 0 0.0038892395823223861 -0.00028489181136917698 0 0.003837642653252146 0.00011651918837813349 0 0.0045173181587091805 -0.00032870612402594881 0 0.0041505631672800105 -2.0433988761687569e-05 0 0.0041623659607758221 -0.00044869125327085397 0 0.0041505631672800105 -2.0433988761687569e-05 0 0.0041623659607758221 -0.00044869125327085397 0 0.0038892395823223861 -0.00028489181136917698 0 0.003837642653252146 0.00011651918837813349 0 0.0034958217079868272 -0.00041691996592529398 0 0.0027904777151206974 0.00026765843781696795 0 0.0038892395823223861 -0.00028489181136917698 0 0.0034958217079868272 -0.00041691996592529398 0 0.0038963775245190045 -0.00076677830292215012 0 0.0038892395823223861 -0.00028489181136917698 0 0.003837642653252146 0.00011651918837813349 0 0.0034958217079868272 -0.00041691996592529398 0 0.0034958217079868272 -0.00041691996592529398 0 0.0027904777151206974 0.00026765843781696795 0 0.0029291322770814477 -0.00068643259101072262 0 0.0027904777151206974 0.00026765843781696795 0 0.0024185528334824207 -0.00057758746616319589 0 0.0029291322770814477 -0.00068643259101072262 0 -0.001585904289235352 0.00012973839459950713 0 -0.0014126640196660001 0.00056933111807459466 0 -0.0018860870318352966 0.00029893317250075617 0 -0.001585904289235352 0.00012973839459950713 0 -0.0014126640196660001 0.00056933111807459466 0 -0.0012084209597142965 0.00028925241752898354 0 0.0012066799588546669 8.8635349552020407e-05 0 -0.00053408303898084045 -7.4119231678857413e-05 0 0.0013685993467628214 -0.00062644333307642253 0 0.00089683341453151207 -0.00058248928589542653 0 0.001311420044626271 -0.00042597625786583459 0 0.0026484702373038137 -0.0002809553696709547 0 0.0012066799588546669 8.8635349552020407e-05 0 0.001565690823023623 -0.00048466345743757196 0 0.0013685993467628214 -0.00062644333307642253 0 0.001311420044626271 -0.00042597625786583459 0 0.00026821648892763747 0.00061609836276460203 0 1.8932470511668002e-05 0.00052004583684549851 0 0.0015788606723346392 0.00060150011766099394 0 0.00074300648516518791 0.00011750089853467925 0 -5.9520058611267836e-05 0.00048839505464414563 0 -0.00085193912578619756 0.00061947540367221856 0 -0.00053504489878580862 0.00027395225902991757 0 -5.9520058611267836e-05 0.00048839505464414563 0 -0.00085193912578619756 0.00061947540367221856 0 -0.00053504489878580862 0.00027395225902991757 0 -0.00088902908693212822 0.00027993682578810901 0 -0.0014126640196660001 0.00056933111807459466 0 -0.00085193912578619756 0.00061947540367221856 0 -0.0012084209597142965 0.00028925241752898354 0 0.0012066799588546669 8.8635349552020407e-05 0 0.00026821648892763747 0.00061609836276460203 0 -0.00085193912578619756 0.00061947540367221856 0 -0.00088902908693212822 0.00027993682578810901 0 -0.0012084209597142965 0.00028925241752898354 0 0.002965310290266066 0.00051313859380191173 0 0.0015788606723346392 0.00060150011766099394 0 0.0016868302009520183 -3.69646602634854e-05 0 0.0027904777151206974 0.00026765843781696795 0 0.0019151926201371496 -0.0002879690968901933 0 0.0024185528334824207 -0.00057758746616319589 0 0.0027904777151206974 0.00026765843781696795 0 0.0019151926201371496 -0.0002879690968901933 0 0.0016868302009520183 -3.69646602634854e-05 0 0.0012066799588546669 8.8635349552020407e-05 0 0.0023824011125929334 0.00018142567405467748 0 0.0019151926201371496 -0.0002879690968901933 0 0.0012297575156170824 -0.00028221961815042918 0 0.0016868302009520183 -3.69646602634854e-05 0 0.0019151926201371496 -0.0002879690968901933 0 0.0012297575156170824 -0.00028221961815042918 0 0.001002732356652799 -0.001095811234739362 0 0.0015788606723346392 0.00060150011766099394 0 0.0016868302009520183 -3.69646602634854e-05 0 0.0013074286351937084 9.3973918427921107e-05 0 0.0015788606723346392 0.00060150011766099394 0 0.0013074286351937084 9.3973918427921107e-05 0 0.00074300648516518791 0.00011750089853467925 0 0.0012297575156170824 -0.00028221961815042918 0 0.0016868302009520183 -3.69646602634854e-05 0 0.0013074286351937084 9.3973918427921107e-05 0 0.0012297575156170824 -0.00028221961815042918 0 0.0013074286351937084 9.3973918427921107e-05 0 0.00074300648516518791 0.00011750089853467925 0 0.0012297575156170824 -0.00028221961815042918 0 0.00074300648516518791 0.00011750089853467925 0 0.00077350610994625162 -0.00062264655520212237 0 0.00074300648516518791 0.00011750089853467925 0 -5.9520058611267836e-05 0.00048839505464414563 0 -6.8040396349519806e-05 -0.00066683260123680656 0 0.00074300648516518791 0.00011750089853467925 0 -6.8040396349519806e-05 -0.00066683260123680656 0 0.00077350610994625162 -0.00062264655520212237 0 -0.00021440635854853965 0.00050071264175327037 0 -5.9520058611267836e-05 0.00048839505464414563 0 -6.8040396349519806e-05 -0.00066683260123680656 0 0.0029102478026180175 -0.0008045517465628631 0 0.0037282269156876241 -0.00059404336093277048 0 0.0082772434669868087 -0.00088205884466274363 0 0.0079869032930191663 -0.0012961870429043154 0 0.0077187522443749436 -0.00054279907217278896 0 0.008011390892612864 -7.4529252591730698e-05 0 0.0029102478026180175 -0.0008045517465628631 0 0.0081021013616741668 -0.0012030712905389985 0 0.0084153919097575657 -0.0018748813510628549 0 0.008450464065915389 -0.0012322494278586933 0 0.0082772434669868087 -0.00088205884466274363 0 0.0081021013616741668 -0.0012030712905389985 0 0.008450464065915389 -0.0012322494278586933 0 0.0029102478026180175 -0.0008045517465628631 0 -0.0020432408863128855 -0.00063885195991478607 0 -0.00021440635854853965 0.00050071264175327037 0 -5.9520058611267836e-05 0.00048839505464414563 0 -0.00030649261638516037 1.7724251945004452e-05 0 -0.00053504489878580862 0.00027395225902991757 0 -5.9520058611267836e-05 0.00048839505464414563 0 -0.00030649261638516037 1.7724251945004452e-05 0 0.0029102478026180175 -0.0008045517465628631 0 0.0031152962108403088 -0.0015372062991953549 0 -0.002520801579730171 -0.0010531924170269623 0 -0.0025950384230273198 -0.0010802238076853077 0 -0.0025798253785203644 -0.0010816888192354071 0 -0.0025798253785203644 -0.0010816888192354071 0 -0.0026130398773251936 -0.0010910625453356563 0 -0.0026319029103706411 -0.0011006734203003643 0 -0.0025950384230273198 -0.0010802238076853077 0 -0.0025798253785203644 -0.0010816888192354071 0 -0.0026130398773251936 -0.0010910625453356563 0 -0.0025950384230273198 -0.0010802238076853077 0 -0.0026130398773251936 -0.0010910625453356563 0 -0.0026239069482648287 -0.0010870466164783646 0 -0.0025950384230273198 -0.0010802238076853077 0 -0.0026003991104456984 -0.001091259030674205 0 -0.0026239069482648287 -0.0010870466164783646 0 -0.0020432408863128855 -0.00063885195991478607 0 -0.0016591280134268568 -0.00076923323443227592 0 -0.00030649261638516037 1.7724251945004452e-05 0 -0.00099236980138896831 -0.00024040411334996949 0 -0.00090657108579179338 -0.00058202225171307851 0 -0.00099236980138896831 -0.00024040411334996949 0 -0.0013033690067493725 -0.00053876032005253222 0 -0.00090657108579179338 -0.00058202225171307851 0 -0.00030649261638516037 1.7724251945004452e-05 0 -0.00099236980138896831 -0.00024040411334996949 0 -0.00076282297782411716 7.6109556732071928e-05 0 -0.00099236980138896831 -0.00024040411334996949 0 -0.00076282297782411716 7.6109556732071928e-05 0 -0.0011034433004101256 2.6762833474874064e-05 0 -0.00053504489878580862 0.00027395225902991757 0 -0.00088902908693212822 0.00027993682578810901 0 -0.00076282297782411716 7.6109556732071928e-05 0 -0.00088902908693212822 0.00027993682578810901 0 -0.00076282297782411716 7.6109556732071928e-05 0 -0.0011034433004101256 2.6762833474874064e-05 0 -0.00053504489878580862 0.00027395225902991757 0 -0.00030649261638516037 1.7724251945004452e-05 0 -0.00076282297782411716 7.6109556732071928e-05 0 -0.0014039216732350159 -3.8784363270247779e-05 0 -0.0012084209597142965 0.00028925241752898354 0 -0.0011034433004101256 2.6762833474874064e-05 0 -0.00088902908693212822 0.00027993682578810901 0 -0.0012084209597142965 0.00028925241752898354 0 -0.0011034433004101256 2.6762833474874064e-05 0 -0.00099236980138896831 -0.00024040411334996949 0 -0.0011034433004101256 2.6762833474874064e-05 0 -0.0012988788564719609 -0.00021897665870591835 0 -0.0014039216732350159 -3.8784363270247779e-05 0 -0.0011034433004101256 2.6762833474874064e-05 0 -0.0012988788564719609 -0.00021897665870591835 0 -0.0015797024659290467 -0.00026793986968600802 0 -0.0012988788564719609 -0.00021897665870591835 0 -0.0013033690067493725 -0.00053876032005253222 0 -0.0015393589699685991 -0.00044420266893903989 0 -0.0013386638645652245 -0.0005272370064493833 0 -0.00099236980138896831 -0.00024040411334996949 0 -0.0012988788564719609 -0.00021897665870591835 0 -0.0013033690067493725 -0.00053876032005253222 0 -0.0013033690067493725 -0.00053876032005253222 0 -0.00090657108579179338 -0.00058202225171307851 0 -0.0015151629176758258 -0.00086137087511017495 0 -0.0016787266390852348 -0.00071499327834328389 0 -0.0013033690067493725 -0.00053876032005253222 0 -0.0015151629176758258 -0.00086137087511017495 0 -0.0016591280134268568 -0.00076923323443227592 0 -0.0020137859350848656 -0.00093249905107224197 0 -0.0026003991104456984 -0.001091259030674205 0 -0.0025994060362736597 -0.0010504018616561608 0 -0.0026197752723720515 -0.0010714321154239293 0 -0.0026003991104456984 -0.001091259030674205 0 -0.0025994060362736597 -0.0010504018616561608 0 -0.0025074680445671769 -0.0010518128315944414 0 -0.0025994060362736597 -0.0010504018616561608 0 -0.0025074680445671769 -0.0010518128315944414 0 -0.0026339149711094808 -0.00088719106251415624 0 -0.0021460415722830005 -0.00077224955102843309 0 -0.0025074680445671769 -0.0010518128315944414 0 -0.002509197398213924 -0.00085504384890002178 0 -0.0021460415722830005 -0.00077224955102843309 0 -0.0018237445398189395 -0.0008078462951388852 0 -0.0015151629176758258 -0.00086137087511017495 0 -0.0020890268075652416 -0.0007614273494021221 0 -0.0020137859350848656 -0.00093249905107224197 0 -0.0021460415722830005 -0.00077224955102843309 0 -0.002509197398213924 -0.00085504384890002178 0 -0.0026342977757550065 -0.00067661037011408263 0 -0.002509197398213924 -0.00085504384890002178 0 -0.0026339149711094808 -0.00088719106251415624 0 -0.0026342977757550065 -0.00067661037011408263 0 -0.0025074680445671769 -0.0010518128315944414 0 -0.002509197398213924 -0.00085504384890002178 0 -0.0026339149711094808 -0.00088719106251415624 0 -0.0026339149711094808 -0.00088719106251415624 0 -0.0026342977757550065 -0.00067661037011408263 0 -0.002701364483816404 -0.00078394885020237131 0 -0.0026548289356935957 -0.00061598884560104582 0 -0.0026342977757550065 -0.00067661037011408263 0 -0.002701364483816404 -0.00078394885020237131 0 -0.0023428121069557525 -0.0003834839587586049 0 -0.0021460415722830005 -0.00077224955102843309 0 -0.0026342977757550065 -0.00067661037011408263 0 -0.0028101563369460013 -0.00066914407556033955 0 -0.002701364483816404 -0.00078394885020237131 0 -0.0027970974036347269 -0.00095300279082965393 0 -0.0030472473002677801 -0.00062553146938625136 0 -0.0028101563369460013 -0.00066914407556033955 0 -0.0027970974036347269 -0.00095300279082965393 0 -0.0026548289356935957 -0.00061598884560104582 0 -0.0028101563369460013 -0.00066914407556033955 0 -0.002701364483816404 -0.00078394885020237131 0 -0.0026339149711094808 -0.00088719106251415624 0 -0.002701364483816404 -0.00078394885020237131 0 -0.0027970974036347269 -0.00095300279082965393 0 -0.0026339149711094808 -0.00088719106251415624 0 -0.0027970974036347269 -0.00095300279082965393 0 -0.0026702113182214245 -0.0010324565321519462 0 -0.0027064753657387404 -0.0010324067721005023 0 -0.0026702113182214245 -0.0010324565321519462 0 -0.0026538283407986263 -0.0010730920264536781 0 -0.0027970974036347269 -0.00095300279082965393 0 -0.0027064753657387404 -0.0010324067721005023 0 -0.0026702113182214245 -0.0010324565321519462 0 -0.0025994060362736597 -0.0010504018616561608 0 -0.0026339149711094808 -0.00088719106251415624 0 -0.0026702113182214245 -0.0010324565321519462 0 -0.0025994060362736597 -0.0010504018616561608 0 -0.0026702113182214245 -0.0010324565321519462 0 -0.0026197752723720515 -0.0010714321154239293 0 -0.0026003991104456984 -0.001091259030674205 0 -0.0026197752723720515 -0.0010714321154239293 0 -0.0026239069482648287 -0.0010870466164783646 0 -0.0026702113182214245 -0.0010324565321519462 0 -0.0026239069482648287 -0.0010870466164783646 0 -0.0026538283407986263 -0.0010730920264536781 0 -0.0026702113182214245 -0.0010324565321519462 0 -0.0026197752723720515 -0.0010714321154239293 0 -0.0026239069482648287 -0.0010870466164783646 0 -0.0027064753657387404 -0.0010324067721005023 0 -0.0026538283407986263 -0.0010730920264536781 0 -0.0026319029103706411 -0.0011006734203003643 0 -0.0026130398773251936 -0.0010910625453356563 0 -0.0026538283407986263 -0.0010730920264536781 0 -0.0026319029103706411 -0.0011006734203003643 0 -0.0026130398773251936 -0.0010910625453356563 0 -0.0026239069482648287 -0.0010870466164783646 0 -0.0026538283407986263 -0.0010730920264536781 0 -0.0031736929695571287 -0.00025808901486575601 0 0.0015853963685281025 -0.0019709191537604122 0 -0.0025798253785203644 -0.0010816888192354071 0 -0.0026319029103706411 -0.0011006734203003643 0 -0.0025878198044675324 -0.0011194263394608769 0 -0.0027064753657387404 -0.0010324067721005023 0 -0.0026319029103706411 -0.0011006734203003643 0 -0.0027195178640872807 -0.0010631613336518915 0 0.0086862880739121424 -0.0024595532127373032 0 0.009282888831040028 -0.0023181013137161337 0 0.0089402081341512698 -0.0020822027941160399 0 0.0086862880739121424 -0.0024595532127373032 0 0.0091651519935141632 -0.0027450745738947365 0 0.009282888831040028 -0.0023181013137161337 0 0.0015853963685281025 -0.0019709191537604122 0 0.0068412175581232205 -0.0029451235352432174 0 0.0015313618888889411 -0.0020252859077416322 0 0.0017622860313048121 -0.0021938776491234923 0 0.0015899848626931797 -0.0021904214926773769 0 -0.0027970974036347269 -0.00095300279082965393 0 -0.0027064753657387404 -0.0010324067721005023 0 -0.0027490249660808495 -0.0010030572487657692 0 -0.0027064753657387404 -0.0010324067721005023 0 -0.0027195178640872807 -0.0010631613336518915 0 -0.0027490249660808495 -0.0010030572487657692 0 0.0015853963685281025 -0.0019709191537604122 0 -0.00059958176461110551 -0.0015140152471979371 0 -0.0027970974036347269 -0.00095300279082965393 0 -0.0027490249660808495 -0.0010030572487657692 0 -0.0027441406646574974 -0.0010089002108774334 0 -0.0032350521949642674 -0.00082138729314516811 0 -0.0020780478156385302 -0.00160334406746243 0 -0.0027970974036347269 -0.00095300279082965393 0 -0.0033700119865970051 -0.0010653956640438989 0 -0.0031970778961497083 -0.00084812135031460964 0 0.0017622860313048121 -0.0021938776491234923 0 0.0015899848626931797 -0.0021904214926773769 0 0.0016421495361278716 -0.0023564935892306177 0 -0.00059958176461110551 -0.0015140152471979371 0 -0.0020780478156385302 -0.00160334406746243 0 -0.0033657884994732702 -0.0010813009847736466 0 -0.0034178139034915169 -0.0009573850427647575 0 -0.0039761120128195132 -0.0010984359036299814 0 -0.0020780478156385302 -0.00160334406746243 0 -0.0026382928213602697 -0.00098518993563534787 0 -0.0033700119865970051 -0.0010653956640438989 0 -0.0034178139034915169 -0.0009573850427647575 0 -0.0031970778961497083 -0.00084812135031460964 0 -0.0033814936508539876 -0.00064654684904748012 0 -0.0034178139034915169 -0.0009573850427647575 0 -0.0031970778961497083 -0.00084812135031460964 0 -0.0033814936508539876 -0.00064654684904748012 0 -0.0034178139034915169 -0.0009573850427647575 0 -0.0037741910351210078 -0.00076712537090429026 0 -0.0030472473002677801 -0.00062553146938625136 0 -0.0027970974036347269 -0.00095300279082965393 0 -0.0031970778961497083 -0.00084812135031460964 0 -0.0030472473002677801 -0.00062553146938625136 0 -0.0033814936508539876 -0.00064654684904748012 0 -0.0031970778961497083 -0.00084812135031460964 0 -0.0042209908885162449 -0.00092691942174559353 0 -0.0040535582268592931 -0.00078045354538078477 0 -0.0039761120128195132 -0.0010984359036299814 0 -0.0051686705687855874 8.4813616427375943e-05 0 0.0014800071889955236 -0.0022290964157197554 0 -0.004322140199404685 -0.00057432055338768238 0 -0.0042209908885162449 -0.00092691942174559353 0 -0.0040535582268592931 -0.00078045354538078477 0 -0.0039897635576433962 -0.00050306727307363819 0 -0.0040535582268592931 -0.00078045354538078477 0 -0.0037741910351210078 -0.00076712537090429026 0 -0.0034178139034915169 -0.0009573850427647575 0 -0.0037741910351210078 -0.00076712537090429026 0 -0.0039761120128195132 -0.0010984359036299814 0 -0.0040535582268592931 -0.00078045354538078477 0 -0.0037741910351210078 -0.00076712537090429026 0 -0.0039761120128195132 -0.0010984359036299814 0 -0.0020780478156385302 -0.00160334406746243 0 0.0014800071889955236 -0.0022290964157197554 0 0.0017622860313048121 -0.0021938776491234923 0 0.0016421495361278716 -0.0023564935892306177 0 0.0019786081741560461 -0.0023566046249248402 0 0.0068412175581232205 -0.0029451235352432174 0 0.0014800071889955236 -0.0022290964157197554 0 -0.0046063041667141107 -0.0011695475829498502 0 -0.0042209908885162449 -0.00092691942174559353 0 -0.0038300044631470061 -0.0012082735493552691 0 0.0098198302867196288 -0.0027451048142977824 0 0.0095337675007531007 -0.0029802305885998741 0 0.0096158115273399444 -0.0025674745123424807 0 0.010004717577214661 -0.0024441247260789055 0 0.0098198302867196288 -0.0027451048142977824 0 0.0096158115273399444 -0.0025674745123424807 0 0.0091651519935141632 -0.0027450745738947365 0 0.0095337675007531007 -0.0029802305885998741 0 0.0096158115273399444 -0.0025674745123424807 0 0.0091651519935141632 -0.0027450745738947365 0 0.0096158115273399444 -0.0025674745123424807 0 0.009282888831040028 -0.0023181013137161337 0 0.0096158115273399444 -0.0025674745123424807 0 0.009282888831040028 -0.0023181013137161337 0 0.0098818503099222608 -0.00208981041548237 0 0.010004717577214661 -0.0024441247260789055 0 0.0096158115273399444 -0.0025674745123424807 0 0.0098818503099222608 -0.00208981041548237 0 0.009909777126827491 -0.0020548666227025291 0 0.010063164224861205 -0.0015239551484431469 0 0.0098818503099222608 -0.00208981041548237 0 0.010081125605595855 -0.0014834246574204975 0 0.0095954063919022094 -0.0014742754074444872 0 0.009375136669237184 -0.0018947225845982656 0 0.0090551156761262529 -0.001639875526120512 0 0.0095954063919022094 -0.0014742754074444872 0 0.0098818503099222608 -0.00208981041548237 0 0.009375136669237184 -0.0018947225845982656 0 0.0095954063919022094 -0.0014742754074444872 0 0.009282888831040028 -0.0023181013137161337 0 0.0098818503099222608 -0.00208981041548237 0 0.009375136669237184 -0.0018947225845982656 0 0.009375136669237184 -0.0018947225845982656 0 0.0089402081341512698 -0.0020822027941160399 0 0.0090551156761262529 -0.001639875526120512 0 0.009282888831040028 -0.0023181013137161337 0 0.009375136669237184 -0.0018947225845982656 0 0.0089402081341512698 -0.0020822027941160399 0 0.0084153919097575657 -0.0018748813510628549 0 0.0086862880739121424 -0.0024595532127373032 0 0.0089402081341512698 -0.0020822027941160399 0 0.0031152962108403088 -0.0015372062991953549 0 0.0015853963685281025 -0.0019709191537604122 0 0.0084153919097575657 -0.0018748813510628549 0 0.0089402081341512698 -0.0020822027941160399 0 0.0090551156761262529 -0.001639875526120512 0 0.0084153919097575657 -0.0018748813510628549 0 0.0090551156761262529 -0.001639875526120512 0 0.008767238883307639 -0.0013261116279323845 0 0.0090551156761262529 -0.001639875526120512 0 0.0092647333129083232 -0.0011228775534593682 0 0.008767238883307639 -0.0013261116279323845 0 0.0092647333129083232 -0.0011228775534593682 0 0.008767238883307639 -0.0013261116279323845 0 0.0087578832943172435 -0.00094450796521566762 0 0.0090551156761262529 -0.001639875526120512 0 0.0092647333129083232 -0.0011228775534593682 0 0.0095954063919022094 -0.0014742754074444872 0 0.0084153919097575657 -0.0018748813510628549 0 0.008767238883307639 -0.0013261116279323845 0 0.008450464065915389 -0.0012322494278586933 0 0.008767238883307639 -0.0013261116279323845 0 0.008450464065915389 -0.0012322494278586933 0 0.0087578832943172435 -0.00094450796521566762 0 0.0082772434669868087 -0.00088205884466274363 0 0.0087578832943172435 -0.00094450796521566762 0 0.0087660454782511298 -0.00046652926793020458 0 0.0082772434669868087 -0.00088205884466274363 0 0.008450464065915389 -0.0012322494278586933 0 0.0087578832943172435 -0.00094450796521566762 0 0.0092647333129083232 -0.0011228775534593682 0 0.0087578832943172435 -0.00094450796521566762 0 0.0092841883123515288 -0.00068783393320013457 0 0.0087578832943172435 -0.00094450796521566762 0 0.0092841883123515288 -0.00068783393320013457 0 0.0087660454782511298 -0.00046652926793020458 0 0.0098293240252950147 -0.0010074911512887479 0 0.0100304591953607 -0.00072786128252423589 0 0.0097604924951273427 -0.00056078478089083945 0 0.0092647333129083232 -0.0011228775534593682 0 0.0092841883123515288 -0.00068783393320013457 0 0.0098293240252950147 -0.0010074911512887479 0 0.0092841883123515288 -0.00068783393320013457 0 0.0098293240252950147 -0.0010074911512887479 0 0.0097604924951273427 -0.00056078478089083945 0 0.0098293240252950147 -0.0010074911512887479 0 0.0100304591953607 -0.00072786128252423589 0 0.010310397669231752 -0.00081278148230645979 0 0.0098293240252950147 -0.0010074911512887479 0 0.010310397669231752 -0.00081278148230645979 0 0.010081125605595855 -0.0014834246574204975 0 0.0098293240252950147 -0.0010074911512887479 0 0.010081125605595855 -0.0014834246574204975 0 0.0095954063919022094 -0.0014742754074444872 0 0.010297897538263356 -0.00088449938401745408 0 0.010063164224861205 -0.0015239551484431469 0 0.0092647333129083232 -0.0011228775534593682 0 0.0098293240252950147 -0.0010074911512887479 0 0.0095954063919022094 -0.0014742754074444872 0 0.010330175896726227 -2.1508517501017819e-05 0 0.01009173847572783 1.1295807883301899e-05 0 0.010385276602008614 0.0001819574690147226 0 0.010330175896726227 -2.1508517501017819e-05 0 0.0098913257271298922 -0.0002306821380831061 0 0.0092617890876919226 0.00011774008071947199 0 0.010342117944848433 -4.7718210816698789e-06 0 0.0095616845756759678 4.8395841675064409e-05 0 0.010553737205175235 4.6680651971929054e-05 0 0.010330175896726227 -2.1508517501017819e-05 0 0.010385276602008614 0.0001819574690147226 0 0.010557292513073259 -0.00017590714367821486 0 0.010553737205175235 4.6680651971929054e-05 0 0.010330175896726227 -2.1508517501017819e-05 0 0.010557292513073259 -0.00017590714367821486 0 0.010330175896726227 -2.1508517501017819e-05 0 0.01017039513820862 -0.00042849021885950063 0 0.010330175896726227 -2.1508517501017819e-05 0 0.01017039513820862 -0.00042849021885950063 0 0.0098913257271298922 -0.0002306821380831061 0 0.010557292513073259 -0.00017590714367821486 0 0.010310397669231752 -0.00081278148230645979 0 0.01017039513820862 -0.00042849021885950063 0 0.0100304591953607 -0.00072786128252423589 0 0.010310397669231752 -0.00081278148230645979 0 0.01017039513820862 -0.00042849021885950063 0 0.0100304591953607 -0.00072786128252423589 0 0.01017039513820862 -0.00042849021885950063 0 0.0097604924951273427 -0.00056078478089083945 0 0.0097604924951273427 -0.00056078478089083945 0 0.0098913257271298922 -0.0002306821380831061 0 0.0092617890876919226 0.00011774008071947199 0 0.0092841883123515288 -0.00068783393320013457 0 0.0097604924951273427 -0.00056078478089083945 0 0.0092617890876919226 0.00011774008071947199 0 0.01017039513820862 -0.00042849021885950063 0 0.0097604924951273427 -0.00056078478089083945 0 0.0098913257271298922 -0.0002306821380831061 0 0.0092841883123515288 -0.00068783393320013457 0 0.0087660454782511298 -0.00046652926793020458 0 0.0092617890876919226 0.00011774008071947199 0 0.0087660454782511298 -0.00046652926793020458 0 0.0083640721698791439 0.00017348589369633059 0 0.0082137583291411673 -0.00034237911416490043 0 0.0082772434669868087 -0.00088205884466274363 0 0.0087660454782511298 -0.00046652926793020458 0 0.0082137583291411673 -0.00034237911416490043 0 0.01009173847572783 1.1295807883301899e-05 0 0.009911746689490266 0.00026669174182094321 0 0.0096470853127755829 -7.9558655341224382e-07 0 0.0095616845756759678 4.8395841675064409e-05 0 0.0095069999552789344 0.00016362268219967215 0 0.0087660454782511298 -0.00046652926793020458 0 0.0092617890876919226 0.00011774008071947199 0 0.0083640721698791439 0.00017348589369633059 0 0.01009173847572783 1.1295807883301899e-05 0 0.009911746689490266 0.00026669174182094321 0 0.010266642994190295 0.00037341964981010476 0 0.009911746689490266 0.00026669174182094321 0 0.009604690624523609 0.00048147982059947351 0 0.0096470853127755829 -7.9558655341224382e-07 0 0.009911746689490266 0.00026669174182094321 0 0.0099710581566765846 0.00057754709046464476 0 0.009604690624523609 0.00048147982059947351 0 0.0099710581566765846 0.00057754709046464476 0 0.0098032724708541803 0.00085285321896014156 0 0.009604690624523609 0.00048147982059947351 0 0.009911746689490266 0.00026669174182094321 0 0.0099710581566765846 0.00057754709046464476 0 0.010266642994190295 0.00037341964981010476 0 0.0099710581566765846 0.00057754709046464476 0 0.010266642994190295 0.00037341964981010476 0 0.010311204050369139 0.00075491252255697951 0 0.010266642994190295 0.00037341964981010476 0 0.010604701804810556 0.00064097035613615164 0 0.010311204050369139 0.00075491252255697951 0 0.010266642994190295 0.00037341964981010476 0 0.010385276602008614 0.0001819574690147226 0 0.010582287909861163 0.00039512531944148164 0 0.01009173847572783 1.1295807883301899e-05 0 0.010266642994190295 0.00037341964981010476 0 0.010385276602008614 0.0001819574690147226 0 0.010740228945618008 0.00022965583601092834 0 0.010553737205175235 4.6680651971929054e-05 0 0.010385276602008614 0.0001819574690147226 0 0.010740228945618008 0.00022965583601092834 0 0.010385276602008614 0.0001819574690147226 0 0.010582287909861163 0.00039512531944148164 0 0.010897321402619359 0.00051733376403689303 0 0.010582287909861163 0.00039512531944148164 0 0.010604701804810556 0.00064097035613615164 0 0.010266642994190295 0.00037341964981010476 0 0.010582287909861163 0.00039512531944148164 0 0.010604701804810556 0.00064097035613615164 0 0.01103294004237855 0.00086890492882603723 0 0.010604701804810556 0.00064097035613615164 0 0.010629734012712307 0.0009853897409979205 0 0.010604701804810556 0.00064097035613615164 0 0.010629734012712307 0.0009853897409979205 0 0.010311204050369139 0.00075491252255697951 0 0.010311204050369139 0.00075491252255697951 0 0.010389123914807506 0.0011073604065754495 0 0.010098696951386777 0.00098759694715841234 0 0.010629734012712307 0.0009853897409979205 0 0.010311204050369139 0.00075491252255697951 0 0.010389123914807506 0.0011073604065754495 0 0.010629734012712307 0.0009853897409979205 0 0.010389123914807506 0.0011073604065754495 0 0.010572288252864478 0.0014120942013647413 0 0.01103294004237855 0.00086890492882603723 0 0.010629734012712307 0.0009853897409979205 0 0.010876331995463846 0.0013014305046247228 0 0.010629734012712307 0.0009853897409979205 0 0.010876331995463846 0.0013014305046247228 0 0.010572288252864478 0.0014120942013647413 0 0.011014771089249803 0.0016282591868489889 0 0.010876331995463846 0.0013014305046247228 0 0.01074132063037741 0.0016604320622161726 0 0.010876331995463846 0.0013014305046247228 0 0.01074132063037741 0.0016604320622161726 0 0.010572288252864478 0.0014120942013647413 0 0.010389123914807506 0.0011073604065754495 0 0.010572288252864478 0.0014120942013647413 0 0.01024154123709351 0.0016467991892947418 0 0.010572288252864478 0.0014120942013647413 0 0.010539740959727342 0.0018412370770906673 0 0.01024154123709351 0.0016467991892947418 0 0.01074132063037741 0.0016604320622161726 0 0.010572288252864478 0.0014120942013647413 0 0.010539740959727342 0.0018412370770906673 0 0.018610656300712718 -0.00074089927560222902 0 0.01875637109794662 -0.00062329313425361064 0 0.01876700563071465 -0.00091629222750249175 0 0.01457222084429376 0.00054368470929213458 0 0.01441813258061932 0.00020943681444186114 0 0.018610656300712718 -0.00074089927560222902 0 0.018411961550494717 -0.00086125204810501201 0 0.018608494534461371 -0.00092651035118242165 0 0.01457222084429376 0.00054368470929213458 0 0.014811488255196506 0.00075517609500281419 0 0.01074132063037741 0.0016604320622161726 0 0.010539740959727342 0.0018412370770906673 0 0.010829517001274892 0.0020154517765490695 0 0.011530674284966404 0.0015606580879473969 0 0.011452201098663985 0.0014586631682917547 0 0.011479237073731453 0.0015831293452097188 0 0.011014771089249803 0.0016282591868489889 0 0.01074132063037741 0.0016604320622161726 0 0.010829517001274892 0.0020154517765490695 0 0.010793290273659118 0.0019239855771958426 0 0.014811488255196506 0.00075517609500281419 0 0.018533163421462526 -0.0014845789624560776 0 0.018267576402808863 -0.0024353144607306277 0 0.017844318291394146 -0.0016400739232410332 0 0.018533163421462526 -0.0014845789624560776 0 0.017844318291394146 -0.0016400739232410332 0 0.01809364466739433 -0.00092479348462427662 0 0.018533163421462526 -0.0014845789624560776 0 0.019071291534195997 -0.0018986431059235572 0 0.01924881952126432 -0.0011439451074294225 0 0.01441813258061932 0.00020943681444186114 0 0.018923079742818066 -0.0013613125301050529 0 0.010270752805371668 0.0014621105634365749 0 0.0098689707789497132 0.0012310737748382232 0 0.010098696951386777 0.00098759694715841234 0 0.018533163421462526 -0.0014845789624560776 0 0.019071291534195997 -0.0018986431059235572 0 0.018267576402808863 -0.0024353144607306277 0 0.01441813258061932 0.00020943681444186114 0 0.0089455842018465858 0.0014746828873750128 0 0.01441813258061932 0.00020943681444186114 0 0.014042829393746752 -0.00067920498478182801 0 0.0098689707789497132 0.0012310737748382232 0 0.0098032724708541803 0.00085285321896014156 0 0.0094779430822324005 0.00097892809264443531 0 0.0098689707789497132 0.0012310737748382232 0 0.010098696951386777 0.00098759694715841234 0 0.0098032724708541803 0.00085285321896014156 0 0.010389123914807506 0.0011073604065754495 0 0.01024154123709351 0.0016467991892947418 0 0.010098696951386777 0.00098759694715841234 0 0.0099710581566765846 0.00057754709046464476 0 0.010311204050369139 0.00075491252255697951 0 0.010098696951386777 0.00098759694715841234 0 0.0099710581566765846 0.00057754709046464476 0 0.010098696951386777 0.00098759694715841234 0 0.0098032724708541803 0.00085285321896014156 0 0.0098032724708541803 0.00085285321896014156 0 0.0094779430822324005 0.00097892809264443531 0 0.009604690624523609 0.00048147982059947351 0 0.0094779430822324005 0.00097892809264443531 0 0.0092961628164546853 0.00057990700869141201 0 0.009604690624523609 0.00048147982059947351 0 0.0094779430822324005 0.00097892809264443531 0 0.0090811372524759494 0.00072015303241705674 0 0.0092961628164546853 0.00057990700869141201 0 0.013699972156829658 -0.00088902468160553057 0 0.011531078403727519 -0.0017127836557860713 0 0.016742925729356897 -0.0027473525733411443 0 0.01742235168663249 -0.0029862154806718018 0 0.017582265975515498 -0.0022856085909199872 0 0.016742925729356897 -0.0027473525733411443 0 0.01742235168663249 -0.0029862154806718018 0 0.016531848361075407 -0.0035334883059607572 0 0.014042829393746752 -0.00067920498478182801 0 0.013699972156829658 -0.00088902468160553057 0 0.018267576402808863 -0.0024353144607306277 0 0.01742235168663249 -0.0029862154806718018 0 0.017582265975515498 -0.0022856085909199872 0 0.018267576402808863 -0.0024353144607306277 0 0.017582265975515498 -0.0022856085909199872 0 0.017844318291394146 -0.0016400739232410332 0 0.017582265975515498 -0.0022856085909199872 0 0.016947682254788602 -0.0019794755242877222 0 0.017844318291394146 -0.0016400739232410332 0 0.016742925729356897 -0.0027473525733411443 0 0.017582265975515498 -0.0022856085909199872 0 0.016947682254788602 -0.0019794755242877222 0 0.016979636069766983 -0.0029920327443238039 0 0.016935343780341009 -0.0019132583986020031 0 0.016947682254788602 -0.0019794755242877222 0 0.017844318291394146 -0.0016400739232410332 0 0.017137439578678262 -0.0012160234088461849 0 0.016935343780341009 -0.0019132583986020031 0 0.017110540392488591 -0.0012906440990738406 0 0.01693152399607779 -0.0019433902221608899 0 0.016612666783059664 -0.0014961809203713414 0 0.017137439578678262 -0.0012160234088461849 0 0.017844318291394146 -0.0016400739232410332 0 0.017660011013345193 -0.0011307475542267564 0 0.017137439578678262 -0.0012160234088461849 0 0.016046313849933012 -0.0014208993026447714 0 0.01567674577153421 -0.0019188975249491019 0 0.015537485970823455 -0.0012443928435406616 0 0.016003402888551576 -0.0014561098399032957 0 0.015499647331033446 -0.0020625005979619257 0 0.016046313849933012 -0.0014208993026447714 0 0.015537485970823455 -0.0012443928435406616 0 0.015701657040502429 -0.0010871089219446632 0 0.016046313849933012 -0.0014208993026447714 0 0.016612666783059664 -0.0014961809203713414 0 0.016458957159610627 -0.0010232980317636403 0 0.01693152399607779 -0.0019433902221608899 0 0.016612666783059664 -0.0014961809203713414 0 0.016259588039944355 -0.0020687574899309947 0 0.016046313849933012 -0.0014208993026447714 0 0.016612666783059664 -0.0014961809203713414 0 0.016259588039944355 -0.0020687574899309947 0 0.016733958827467862 -0.0027780829247086064 0 0.01693152399607779 -0.0019433902221608899 0 0.016259588039944355 -0.0020687574899309947 0 0.016046313849933012 -0.0014208993026447714 0 0.016259588039944355 -0.0020687574899309947 0 0.015370767653654849 -0.0021642743074343235 0 0.016259588039944355 -0.0020687574899309947 0 0.015932248148968379 -0.0027292825519885842 0 0.015370767653654849 -0.0021642743074343235 0 0.015932248148968379 -0.0027292825519885842 0 0.015517670872294177 -0.0034474956052780456 0 0.014749952177949353 -0.0029368319760720669 0 0.016733958827467862 -0.0027780829247086064 0 0.016259588039944355 -0.0020687574899309947 0 0.015932248148968379 -0.0027292825519885842 0 0.016733958827467862 -0.0027780829247086064 0 0.015932248148968379 -0.0027292825519885842 0 0.016512230839665805 -0.0036470021546572483 0 0.016979636069766983 -0.0029920327443238039 0 0.011531078403727519 -0.0017127836557860713 0 0.016512230839665805 -0.0036470021546572483 0 0.015517670872294177 -0.0034474956052780456 0 0.015390913519614444 -0.0043578072891139272 0 0.015932248148968379 -0.0027292825519885842 0 0.016512230839665805 -0.0036470021546572483 0 0.015517670872294177 -0.0034474956052780456 0 0.011531078403727519 -0.0017127836557860713 0 0.0084186257452249155 -0.0025249867798200292 0 0.0033099548919865228 -0.0014231646469375892 0 0.0032061260148924325 -0.0013684785252995693 0 0.003707691929377793 -0.0012276398570678468 0 0.0033099548919865228 -0.0014231646469375892 0 0.0034646168613664797 -0.0014886310771613212 0 0.003707691929377793 -0.0012276398570678468 0 0.0056332088748955334 -0.0014186833821003217 0 0.0084186257452249155 -0.0025249867798200292 0 0.0033099548919865228 -0.0014231646469375892 0 0.0032368033872236493 -0.0014436876395478102 0 0.0032091397375323422 -0.0015696752288224811 0 0.0033099548919865228 -0.0014231646469375892 0 0.0032091397375323422 -0.0015696752288224811 0 0.0033116444344558301 -0.0015239499647022342 0 0.0034646168613664797 -0.0014886310771613212 0 0.0032835858835616486 -0.0015976489442989588 0 0.0034898869508985172 -0.0017906166861807596 0 0.0034646168613664797 -0.0014886310771613212 0 0.0033116444344558301 -0.0015239499647022342 0 0.0032835858835616486 -0.0015976489442989588 0 0.0033099548919865228 -0.0014231646469375892 0 0.0034646168613664797 -0.0014886310771613212 0 0.0033116444344558301 -0.0015239499647022342 0 0.0032091397375323422 -0.0015696752288224811 0 0.0032835858835616486 -0.0015976489442989588 0 0.0030281390646116611 -0.0015711145267025314 0 0.0032091397375323422 -0.0015696752288224811 0 0.0033116444344558301 -0.0015239499647022342 0 0.0032835858835616486 -0.0015976489442989588 0 0.0056144210607680049 -0.00053403158323162567 0 0.0060383389837846456 -0.00054944418291371971 0 0.0034646168613664797 -0.0014886310771613212 0 0.0037096578591854163 -0.0013298466562801042 0 0.0034898869508985172 -0.0017906166861807596 0 0.0047554172619730297 -0.00038670385753301152 0 0.0050465547700964761 -0.0011808388454973438 0 0.0045892813690744496 -0.0011753622954619645 0 0.0056144210607680049 -0.00053403158323162567 0 0.0024832095064641398 -0.0017253686154808027 0 0.011531078403727519 -0.0017127836557860713 0 0.0056144210607680049 -0.00053403158323162567 0 0.0090811372524759494 0.00072015303241705674 0 0.0090033585416813382 0.00043458708552907894 0 0.0092961628164546853 0.00057990700869141201 0 0.0038727109052489567 -0.00091934504958105575 0 0.0037573644288864563 -0.0013586935706929695 0 0.003707691929377793 -0.0012276398570678468 0 0.0038727109052489567 -0.00091934504958105575 0 0.0032061260148924325 -0.0013684785252995693 0 0.003707691929377793 -0.0012276398570678468 0 0.0056144210607680049 -0.00053403158323162567 0 0.0051798653705317273 -0.00070643322858005161 0 0.0034646168613664797 -0.0014886310771613212 0 0.0037096578591854163 -0.0013298466562801042 0 0.003707691929377793 -0.0012276398570678468 0 0.0090033585416813382 0.00043458708552907894 0 0.0092961628164546853 0.00057990700869141201 0 0.0093121653866582426 0.00028956042233927896 0 0.0092961628164546853 0.00057990700869141201 0 0.009604690624523609 0.00048147982059947351 0 0.0093121653866582426 0.00028956042233927896 0 0.009604690624523609 0.00048147982059947351 0 0.0093121653866582426 0.00028956042233927896 0 0.0096470853127755829 -7.9558655341224382e-07 0 0.0090033585416813382 0.00043458708552907894 0 0.0093121653866582426 0.00028956042233927896 0 0.0091515137180252955 -5.4581879076274405e-06 0 0.0093121653866582426 0.00028956042233927896 0 0.0091515137180252955 -5.4581879076274405e-06 0 0.0096470853127755829 -7.9558655341224382e-07 0 0.0060383389837846456 -0.00054944418291371971 0 0.0095069999552789344 0.00016362268219967215 0 0.0074290832114711049 0.00019985247266065414 0 0.0083640721698791439 0.00017348589369633059 0 0.0082137583291411673 -0.00034237911416490043 0 0.0082772434669868087 -0.00088205884466274363 0 0.0082137583291411673 -0.00034237911416490043 0 0.0077187522443749436 -0.00054279907217278896 0 0.0074290832114711049 0.00019985247266065414 0 0.0082137583291411673 -0.00034237911416490043 0 0.0077187522443749436 -0.00054279907217278896 0 0.0005384340232943149 -0.0022685045876189021 0 -6.8040396349519806e-05 -0.00066683260123680656 0 0.001002732356652799 -0.001095811234739362 0 0.0060383389837846456 -0.00054944418291371971 0 0.0037282269156876241 -0.00059404336093277048 0 -6.8040396349519806e-05 -0.00066683260123680656 0 0.00077350610994625162 -0.00062264655520212237 0 0.001002732356652799 -0.001095811234739362 0 0.0019151926201371496 -0.0002879690968901933 0 0.001002732356652799 -0.001095811234739362 0 0.0015040420750846236 -0.0022893001184727388 0 0.0012297575156170824 -0.00028221961815042918 0 0.00077350610994625162 -0.00062264655520212237 0 0.001002732356652799 -0.001095811234739362 0 0.0016679306142851642 -0.00047088657800475756 0 0.0024832095064641398 -0.0017253686154808027 0 0.0019151926201371496 -0.0002879690968901933 0 0.0023859058423893573 -0.00096995350615408009 0 0.0018199751856112208 -0.0016307119448404743 0 0.0019151926201371496 -0.0002879690968901933 0 0.0024185528334824207 -0.00057758746616319589 0 0.0023859058423893573 -0.00096995350615408009 0 0.0024185528334824207 -0.00057758746616319589 0 0.0023859058423893573 -0.00096995350615408009 0 0.0029291322770814477 -0.00068643259101072262 0 0.0023859058423893573 -0.00096995350615408009 0 0.0018199751856112208 -0.0016307119448404743 0 0.0030281390646116611 -0.0015711145267025314 0 0.0024832095064641398 -0.0017253686154808027 0 0.0030829430900261418 -0.0016002884569668661 0 0.0032835858835616486 -0.0015976489442989588 0 0.0034898869508985172 -0.0017906166861807596 0 0.0030281390646116611 -0.0015711145267025314 0 0.0005384340232943149 -0.0022685045876189021 0 0.001002732356652799 -0.001095811234739362 0 0.0015040420750846236 -0.0022893001184727388 0 0.0060383389837846456 -0.00054944418291371971 0 0.0024832095064641398 -0.0017253686154808027 0 0.0034430782196576051 -0.0011701506667236212 0 0.0038963775245190045 -0.00076677830292215012 0 0.0039169902349024295 -0.0014958010023483279 0 0.0034430782196576051 -0.0011701506667236212 0 0.0039169902349024295 -0.0014958010023483279 0 0.0032690383035832251 -0.001737011583973955 0 0.0034430782196576051 -0.0011701506667236212 0 0.0030281390646116611 -0.0015711145267025314 0 0.0032690383035832251 -0.001737011583973955 0 0.0023859058423893573 -0.00096995350615408009 0 0.0030281390646116611 -0.0015711145267025314 0 0.0029291322770814477 -0.00068643259101072262 0 0.0034430782196576051 -0.0011701506667236212 0 0.0030281390646116611 -0.0015711145267025314 0 0.0029291322770814477 -0.00068643259101072262 0 0.0034958217079868272 -0.00041691996592529398 0 0.0034430782196576051 -0.0011701506667236212 0 0.0029291322770814477 -0.00068643259101072262 0 0.0034958217079868272 -0.00041691996592529398 0 0.0034430782196576051 -0.0011701506667236212 0 0.0038963775245190045 -0.00076677830292215012 0 0.0041623659607758221 -0.00044869125327085397 0 0.0038892395823223861 -0.00028489181136917698 0 0.0038963775245190045 -0.00076677830292215012 0 0.0041623659607758221 -0.00044869125327085397 0 0.0038963775245190045 -0.00076677830292215012 0 0.0043050218238535219 -0.00083100308279903171 0 0.0038963775245190045 -0.00076677830292215012 0 0.0043050218238535219 -0.00083100308279903171 0 0.0039169902349024295 -0.0014958010023483279 0 0.0045173181587091805 -0.00032870612402594881 0 0.0041623659607758221 -0.00044869125327085397 0 0.0043050218238535219 -0.00083100308279903171 0 0.0083303203488695014 -0.00085364673808300748 0 0.0085042457934055189 -0.00016137026173180125 0 0.0065844417503336701 -0.00055367152700281773 0 0.006614401778849417 -0.00048913686748145943 0 0.0064186158580958443 -0.00061426722323073126 0 0.010434345308287348 0.00021797194023307447 0 0.010516637503594418 0.00021729885951465633 0 0.010506545484489939 0.00013712569094194275 0 0.0045173181587091805 -0.00032870612402594881 0 0.0043050218238535219 -0.00083100308279903171 0 0.0047130263278999445 -0.00084268935366876179 0 0.0043050218238535219 -0.00083100308279903171 0 0.0047130263278999445 -0.00084268935366876179 0 0.0046204180984364355 -0.0010821294779862301 0 0.0062133743325652503 -0.00063351453421256953 0 0.0083303203488695014 -0.00085364673808300748 0 0.010434345308287348 0.00021797194023307447 0 0.010320404496562257 2.922033721741681e-05 0 0.01045860575291631 0.00011743759704625417 0 0.0083303203488695014 -0.00085364673808300748 0 0.010031123906677918 -0.0007721172487080805 0 0.010434345308287348 0.00021797194023307447 0 0.01045860575291631 0.00011743759704625417 0 0.010516637503594418 0.00021729885951465633 0 0.0083303203488695014 -0.00085364673808300748 0 0.0064635342124664177 -0.0019132513749120657 0 0.0094712019766791233 -0.0020266643855761275 0 0.009400489190496502 -0.0020938633920324465 0 0.0094541800983658063 -0.0021425240632589721 0 0.0083303203488695014 -0.00085364673808300748 0 0.0096706783792726639 -0.00199707378839952 0 0.0043050218238535219 -0.00083100308279903171 0 0.0046204180984364355 -0.0010821294779862301 0 0.0039169902349024295 -0.0014958010023483279 0 0.0094541800983658063 -0.0021425240632589721 0 0.0094366334243435115 -0.0021906384048031072 0 0.0094634522835815426 -0.0022837885624176699 0 0.0097796479842562657 -0.0018511407370357337 0 0.0096761864389161463 -0.0016810031125917802 0 0.0094634522835815426 -0.0022837885624176699 0 0.009868690173356346 -0.0010792913438419103 0 0.0097796479842562657 -0.0018511407370357337 0 0.0096761864389161463 -0.0016810031125917802 0 0.009400489190496502 -0.0020938633920324465 0 0.0094541800983658063 -0.0021425240632589721 0 0.0094051772804398734 -0.0021490493430378612 0 0.0094541800983658063 -0.0021425240632589721 0 0.0094366334243435115 -0.0021906384048031072 0 0.0094051772804398734 -0.0021490493430378612 0 0.010320404496562257 2.922033721741681e-05 0 0.01045860575291631 0.00011743759704625417 0 0.010469440802151427 -7.2819894913505952e-05 0 0.010344476603918946 -0.00018299297990467692 0 0.010469440802151427 -7.2819894913505952e-05 0 0.010433229670653917 -0.00030431894866907595 0 0.010320404496562257 2.922033721741681e-05 0 0.010344476603918946 -0.00018299297990467692 0 0.010469440802151427 -7.2819894913505952e-05 0 0.010469440802151427 -7.2819894913505952e-05 0 0.010433229670653917 -0.00030431894866907595 0 0.010576962924833963 -0.00025207831100578605 0 0.010320404496562257 2.922033721741681e-05 0 0.010344476603918946 -0.00018299297990467692 0 0.010229707100691588 -0.00036390641623575582 0 0.0096706783792726639 -0.00199707378839952 0 0.0094488689687021368 -0.0022361985024462586 0 0.010031123906677918 -0.0007721172487080805 0 0.011782199580755798 -0.0018230672861861599 0 0.0097796479842562657 -0.0018511407370357337 0 0.0094634522835815426 -0.0022837885624176699 0 0.009629236034763896 -0.0026290833550513008 0 0.0094366334243435115 -0.0021906384048031072 0 0.0094634522835815426 -0.0022837885624176699 0 0.0094529994276242035 -0.0022688483225163135 0 0.0094366334243435115 -0.0021906384048031072 0 0.0094529994276242035 -0.0022688483225163135 0 0.009412023939800512 -0.0022303529690365664 0 0.0093640951715754425 -0.0022351161812711037 0 0.0093056009091066726 -0.0021571799190179268 0 0.0093007874213330774 -0.0022919713856311237 0 0.0094529994276242035 -0.0022688483225163135 0 0.0093923209726289106 -0.0022779120595227717 0 0.0094162406710032436 -0.0023466367750370888 0 0.0094634522835815426 -0.0022837885624176699 0 0.0094529994276242035 -0.0022688483225163135 0 0.0093175564393982481 -0.0024502952237175557 0 0.010161874611971865 -0.0029857491066195862 0 0.012200971914365888 -0.0028481086205921899 0 0.0093923209726289106 -0.0022779120595227717 0 0.0093640951715754425 -0.0022351161812711037 0 0.0093007874213330774 -0.0022919713856311237 0 0.0093923209726289106 -0.0022779120595227717 0 0.0093007874213330774 -0.0022919713856311237 0 0.0094162406710032436 -0.0023466367750370888 0 0.012522965885392133 -0.0034311051415371959 0 0.012200971914365888 -0.0028481086205921899 0 0.0094529994276242035 -0.0022688483225163135 0 0.0093923209726289106 -0.0022779120595227717 0 0.009412023939800512 -0.0022303529690365664 0 0.0093923209726289106 -0.0022779120595227717 0 0.0093640951715754425 -0.0022351161812711037 0 0.009412023939800512 -0.0022303529690365664 0 0.0093640951715754425 -0.0022351161812711037 0 0.009412023939800512 -0.0022303529690365664 0 0.0093901440956922159 -0.0021898792902392129 0 0.0094366334243435115 -0.0021906384048031072 0 0.009412023939800512 -0.0022303529690365664 0 0.0093901440956922159 -0.0021898792902392129 0 0.0093901440956922159 -0.0021898792902392129 0 0.0094051772804398734 -0.0021490493430378612 0 0.0093056009091066726 -0.0021571799190179268 0 0.009400489190496502 -0.0020938633920324465 0 0.0094051772804398734 -0.0021490493430378612 0 0.0093056009091066726 -0.0021571799190179268 0 0.0064635342124664177 -0.0019132513749120657 0 0.0060566494488278567 -0.0019665245392051379 0 0.0094366334243435115 -0.0021906384048031072 0 0.0093901440956922159 -0.0021898792902392129 0 0.0094051772804398734 -0.0021490493430378612 0 0.0093640951715754425 -0.0022351161812711037 0 0.0093901440956922159 -0.0021898792902392129 0 0.0093056009091066726 -0.0021571799190179268 0 0.0032368033872236493 -0.0014436876395478102 0 0.0032091397375323422 -0.0015696752288224811 0 0.0032690383035832251 -0.001737011583973955 0 0.0084186257452249155 -0.0025249867798200292 0 0.0060566494488278567 -0.0019665245392051379 0 0.0032091397375323422 -0.0015696752288224811 0 0.0030281390646116611 -0.0015711145267025314 0 0.0032690383035832251 -0.001737011583973955 0 0.0084186257452249155 -0.0025249867798200292 0 0.012522965885392133 -0.0034311051415371959 0 0.0091854865202242991 -0.0022404048766387543 0 0.0093056009091066726 -0.0021571799190179268 0 0.0093007874213330774 -0.0022919713856311237 0 0.015517670872294177 -0.0034474956052780456 0 0.015390913519614444 -0.0043578072891139272 0 0.014784168273628337 -0.0040416364431804857 0 0.015517670872294177 -0.0034474956052780456 0 0.014784168273628337 -0.0040416364431804857 0 0.014749952177949353 -0.0029368319760720669 0 0.012200971914365888 -0.0028481086205921899 0 0.015225399027095165 -0.0026828645349875647 0 0.014779656428862762 -0.0031184313142250939 0 0.014769788698072588 -0.0026439636130477302 0 0.015236441795792725 -0.0025165645909247846 0 0.014784168273628337 -0.0040416364431804857 0 0.014153048713220292 -0.0037179901044912295 0 0.014749952177949353 -0.0029368319760720669 0 0.014779656428862762 -0.0031184313142250939 0 0.014769788698072588 -0.0026439636130477302 0 0.014368645412553905 -0.0029042270208189699 0 0.014769788698072588 -0.0026439636130477302 0 0.015236441795792725 -0.0025165645909247846 0 0.015002661141303223 -0.0021161498139921926 0 0.014769788698072588 -0.0026439636130477302 0 0.015002661141303223 -0.0021161498139921926 0 0.014527441106785268 -0.0023029061148596443 0 0.015932248148968379 -0.0027292825519885842 0 0.014749952177949353 -0.0029368319760720669 0 0.015370767653654849 -0.0021642743074343235 0 0.015225399027095165 -0.0026828645349875647 0 0.015499647331033446 -0.0020625005979619257 0 0.015236441795792725 -0.0025165645909247846 0 0.01567674577153421 -0.0019188975249491019 0 0.015002661141303223 -0.0021161498139921926 0 0.01567674577153421 -0.0019188975249491019 0 0.015222132791745042 -0.0017386699989387032 0 0.015002661141303223 -0.0021161498139921926 0 0.015002661141303223 -0.0021161498139921926 0 0.014680905581119345 -0.0017029945914933016 0 0.014527441106785268 -0.0023029061148596443 0 0.015222132791745042 -0.0017386699989387032 0 0.015002661141303223 -0.0021161498139921926 0 0.014680905581119345 -0.0017029945914933016 0 0.015340879862122443 -0.0012490911711817451 0 0.015353945502107219 -0.0011920714457133402 0 0.015537485970823455 -0.0012443928435406616 0 0.015222132791745042 -0.0017386699989387032 0 0.014680905581119345 -0.0017029945914933016 0 0.015537485970823455 -0.0012443928435406616 0 0.014638881464697537 -0.0012676787459159713 0 0.015637223146317637 -0.0012930063561245968 0 0.01532639361904287 -0.0012850996813968023 0 0.015340879862122443 -0.0012490911711817451 0 0.015537485970823455 -0.0012443928435406616 0 0.014638881464697537 -0.0012676787459159713 0 0.014867845234344817 -0.0011907548085795137 0 0.015335954084729649 -0.0012418048498812541 0 0.015340879862122443 -0.0012490911711817451 0 0.015342326931844825 -0.0012433829800304946 0 0.015340879862122443 -0.0012490911711817451 0 0.015353945502107219 -0.0011920714457133402 0 0.015342326931844825 -0.0012433829800304946 0 0.01567674577153421 -0.0019188975249491019 0 0.015222132791745042 -0.0017386699989387032 0 0.015537485970823455 -0.0012443928435406616 0 0.017608738484429832 -0.00012006861274732292 0 0.018925372071099709 8.3965382240480573e-05 0 0.018964706787261167 -0.00036326089915011278 0 0.019030971272792706 -0.00028541161978855203 0 0.018987132721116139 -0.00022178357197341655 0 0.016236348929742583 0.00019631061086272449 0 0.016501884291462418 8.4658448133505268e-05 0 0.016286322365587864 -0.00013151411452946352 0 0.018964706787261167 -0.00036326089915011278 0 0.019013226315277128 -0.00034624900577953909 0 0.019015920410061383 -0.00037837555363571786 0 0.018964706787261167 -0.00036326089915011278 0 0.019013226315277128 -0.00034624900577953909 0 0.019030971272792706 -0.00028541161978855203 0 0.017009448608645669 -0.00074484413080978915 0 0.017965859978619329 -0.00068684882068635752 0 0.015353945502107219 -0.0011920714457133402 0 0.015342326931844825 -0.0012433829800304946 0 0.015342643046832617 -0.0012462949695761264 0 0.019074951389200262 -0.00013974032185649226 0 0.019035670717613747 -0.00016998532409874005 0 0.019067988367519117 -0.00013746800178400341 0 0.019013226315277128 -0.00034624900577953909 0 0.019030971272792706 -0.00028541161978855203 0 0.019042342484495479 -0.00036102226371189397 0 0.015342326931844825 -0.0012433829800304946 0 0.015342190118393582 -0.0012424022283929641 0 0.015342643046832617 -0.0012462949695761264 0 0.015335954084729649 -0.0012418048498812541 0 0.015342326931844825 -0.0012433829800304946 0 0.015342190118393582 -0.0012424022283929641 0 0.019013226315277128 -0.00034624900577953909 0 0.019042342484495479 -0.00036102226371189397 0 0.019015920410061383 -0.00037837555363571786 0 0.015342190118393582 -0.0012424022283929641 0 0.015342643046832617 -0.0012462949695761264 0 0.015345566530904338 -0.0012368339041442045 0 0.017965859978619329 -0.00068684882068635752 0 0.01822046214228645 -0.00055450370926803669 0 0.01903684707383816 -0.00036603018032613536 0 0.019015920410061383 -0.00037837555363571786 0 0.018986457375317185 -0.00049415058057264091 0 0.014638881464697537 -0.0012676787459159713 0 0.014217266668764933 -0.0016501461093012349 0 0.013899220346812366 -0.00069056440355139907 0 0.013597072714431696 -0.00086804928755741416 0 0.013811057263838253 -0.0010357523350032058 0 0.017965859978619329 -0.00068684882068635752 0 0.015367679737290706 -0.00061766531772911048 0 0.015342643046832617 -0.0012462949695761264 0 0.015345566530904338 -0.0012368339041442045 0 0.015352879257846071 -0.0012257051606937681 0 0.015335954084729649 -0.0012418048498812541 0 0.015342190118393582 -0.0012424022283929641 0 0.015345566530904338 -0.0012368339041442045 0 0.015335954084729649 -0.0012418048498812541 0 0.015345566530904338 -0.0012368339041442045 0 0.015352879257846071 -0.0012257051606937681 0 0.014638881464697537 -0.0012676787459159713 0 0.015367679737290706 -0.00061766531772911048 0 0.017608738484429832 -0.00012006861274732292 0 0.016032581072471377 -8.2527168801281185e-05 0 0.016187641303690291 0.00052341388731953471 0 0.016445354243940089 0.00069584881224104102 0 0.016527851451259623 0.00035325927513222096 0 0.018964706787261167 -0.00036326089915011278 0 0.018986457375317185 -0.00049415058057264091 0 0.01893824789141333 -0.00051910493032519096 0 0.015367679737290706 -0.00061766531772911048 0 0.016032581072471377 -8.2527168801281185e-05 0 0.016236348929742583 0.00019631061086272449 0 0.016187641303690291 0.00052341388731953471 0 0.016527851451259623 0.00035325927513222096 0 0.018964706787261167 -0.00036326089915011278 0 0.019015920410061383 -0.00037837555363571786 0 0.018986457375317185 -0.00049415058057264091 0 0.014582615997708879 -0.00012631314148109078 0 0.014426174078698032 -0.00022033487714102098 0 0.014458940822777263 -0.0007380662502936003 0 0.010512908546661308 -0.00041906260406986254 0 0.010362362707755823 -0.0004272867040211191 0 0.010596381377402309 -0.00056293011347613746 0 0.013985079936887855 -0.00054019089154259839 0 0.013976376043817712 -0.00058630491468483195 0 0.013474351611606882 -0.0003279340355618402 0 0.016032581072471377 -8.2527168801281185e-05 0 0.013084013281438068 -0.00017945262281294055 0 0.013948709549508253 -4.1633792077320196e-05 0 0.013985079936887855 -0.00054019089154259839 0 0.013474351611606882 -0.0003279340355618402 0 0.016032581072471377 -8.2527168801281185e-05 0 0.012899115672367973 -0.00066211004607750427 0 0.012214959427241769 -0.00061997298758371695 0 0.013084013281438068 -0.00017945262281294055 0 0.015367679737290706 -0.00061766531772911048 0 0.012899115672367973 -0.00066211004607750427 0 0.014217266668764933 -0.0016501461093012349 0 0.011782199580755798 -0.0018230672861861599 0 0.013597072714431696 -0.00086804928755741416 0 0.013517849044514727 -0.0012423149724541205 0 0.013811057263838253 -0.0010357523350032058 0 0.014769788698072588 -0.0026439636130477302 0 0.014527441106785268 -0.0023029061148596443 0 0.014368645412553905 -0.0029042270208189699 0 0.013517849044514727 -0.0012423149724541205 0 0.013811057263838253 -0.0010357523350032058 0 0.013718054352028086 -0.0013820336406756449 0 0.010344476603918946 -0.00018299297990467692 0 0.010229707100691588 -0.00036390641623575582 0 0.010400937684594753 -0.00045183198445720909 0 0.013517849044514727 -0.0012423149724541205 0 0.013718054352028086 -0.0013820336406756449 0 0.013511892044133908 -0.0012713557209999375 0 0.011782199580755798 -0.0018230672861861599 0 0.012214959427241769 -0.00061997298758371695 0 0.012200971914365888 -0.0028481086205921899 0 0.011782199580755798 -0.0018230672861861599 0 0.0094634522835815426 -0.0022837885624176699 0 0.0093175564393982481 -0.0024502952237175557 0 0.009629236034763896 -0.0026290833550513008 0 0.010344476603918946 -0.00018299297990467692 0 0.010362362707755823 -0.0004272867040211191 0 0.010433229670653917 -0.00030431894866907595 0 0.01027910686598303 -8.2635815096758261e-05 0 0.012214959427241769 -0.00061997298758371695 0 0.010512908546661308 -0.00041906260406986254 0 0.010418110910952358 -0.00039151154014503898 0 0.010433229670653917 -0.00030431894866907595 0 0.010418110910952358 -0.00039151154014503898 0 0.010362362707755823 -0.0004272867040211191 0 0.010433229670653917 -0.00030431894866907595 0 0.010512908546661308 -0.00041906260406986254 0 0.010418110910952358 -0.00039151154014503898 0 0.010362362707755823 -0.0004272867040211191 0 0.012899115672367973 -0.00066211004607750427 0 0.012214959427241769 -0.00061997298758371695 0 0.010512908546661308 -0.00041906260406986254 0 0.010433229670653917 -0.00030431894866907595 0 0.010576962924833963 -0.00025207831100578605 0 0.010576962924833963 -0.00025207831100578605 0 0.010627334890442717 -0.00038279546948692206 0 0.010807826085372504 -0.00023560705401730447 0 0.010627334890442717 -0.00038279546948692206 0 0.010807826085372504 -0.00023560705401730447 0 0.010722890122417476 -0.00049527500166240545 0 0.010512908546661308 -0.00041906260406986254 0 0.010576962924833963 -0.00025207831100578605 0 0.010627334890442717 -0.00038279546948692206 0 0.010807826085372504 -0.00023560705401730447 0 0.010961798397817326 -0.00042973870265413023 0 0.010722890122417476 -0.00049527500166240545 0 0.010807826085372504 -0.00023560705401730447 0 0.010961798397817326 -0.00042973870265413023 0 0.011121151137358067 -0.00021393379529826041 0 0.010896216522105789 -0.00059456590851965157 0 0.010579970693135893 -0.00058762234942826193 0 0.010977708389037137 -0.00081338763294365782 0 0.010896216522105789 -0.00059456590851965157 0 0.010977708389037137 -0.00081338763294365782 0 0.011290589923633571 -0.00059738947097803352 0 0.010961798397817326 -0.00042973870265413023 0 0.010896216522105789 -0.00059456590851965157 0 0.010722890122417476 -0.00049527500166240545 0 0.013084013281438068 -0.00017945262281294055 0 0.013882600748626697 -0.00010966893703467775 0 0.010896216522105789 -0.00059456590851965157 0 0.010579970693135893 -0.00058762234942826193 0 0.010722890122417476 -0.00049527500166240545 0 0.010512908546661308 -0.00041906260406986254 0 0.010627334890442717 -0.00038279546948692206 0 0.010596381377402309 -0.00056293011347613746 0 0.010627334890442717 -0.00038279546948692206 0 0.010596381377402309 -0.00056293011347613746 0 0.010722890122417476 -0.00049527500166240545 0 0.013084013281438068 -0.00017945262281294055 0 0.010635445706563692 -0.00096087058359193601 0 0.016445354243940089 0.00069584881224104102 0 0.016527851451259623 0.00035325927513222096 0 0.016872245001868263 0.00050591859060187551 0 0.016527851451259623 0.00035325927513222096 0 0.016872245001868263 0.00050591859060187551 0 0.016785028659105229 0.00014211275712635956 0 0.016872245001868263 0.00050591859060187551 0 0.016785028659105229 0.00014211275712635956 0 0.017082234520852838 0.00014509409722307097 0 0.016785028659105229 0.00014211275712635956 0 0.016501884291462418 8.4658448133505268e-05 0 0.016699346366347706 -0.00014220896832276586 0 0.016527851451259623 0.00035325927513222096 0 0.016785028659105229 0.00014211275712635956 0 0.016501884291462418 8.4658448133505268e-05 0 0.016236348929742583 0.00019631061086272449 0 0.016527851451259623 0.00035325927513222096 0 0.016501884291462418 8.4658448133505268e-05 0 0.016848443636187236 -2.9645872889679219e-09 0 0.017403052229091814 0.00013628789378635289 0 0.018003415975445688 -1.8780548669135808e-08 0 0.016369142171150233 -0.00015872123291951751 0 0.01501167351960659 -0.0004129108178282358 0 0.016848443636187236 -2.9645872889679219e-09 0 0.017403052229091814 0.00013628789378635289 0 0.017500264908549858 -0.00033174287237706365 0 0.016845691913567034 -6.1256992791117583e-07 0 0.01501167351960659 -0.0004129108178282358 0 0.016785028659105229 0.00014211275712635956 0 0.017082234520852838 0.00014509409722307097 0 0.017142793360351318 -0.0001634093987450079 0 0.017403052229091814 0.00013628789378635289 0 0.017082234520852838 0.00014509409722307097 0 0.017142793360351318 -0.0001634093987450079 0 0.017403052229091814 0.00013628789378635289 0 0.017082234520852838 0.00014509409722307097 0 0.017340644880143981 0.00030697368052687383 0 0.016872245001868263 0.00050591859060187551 0 0.017082234520852838 0.00014509409722307097 0 0.017340644880143981 0.00030697368052687383 0 0.013882600748626697 -0.00010966893703467775 0 0.01501167351960659 -0.0004129108178282358 0 0.010977708389037137 -0.00081338763294365782 0 0.011449246625751424 -0.0010429957662581879 0 0.011290589923633571 -0.00059738947097803352 0 0.01501167351960659 -0.0004129108178282358 0 0.012481834169645805 -0.00024157823021588311 0 0.015489436849766589 -0.00015306441589710363 0 0.014919922349459875 3.2017895975559265e-07 0 0.014029622487630719 -5.1140772653433403e-05 0 0.016843056788697075 -1.1884927552252341e-06 0 0.015489436849766589 -0.00015306441589710363 0 0.014919922349459875 3.2017895975559265e-07 0 0.014919922349459875 3.2017895975559265e-07 0 0.014029622487630719 -5.1140772653433403e-05 0 0.013541362706011164 4.3817807810611623e-06 0 0.010961798397817326 -0.00042973870265413023 0 0.010896216522105789 -0.00059456590851965157 0 0.011290589923633571 -0.00059738947097803352 0 0.012481834169645805 -0.00024157823021588311 0 0.011778511811163258 -4.0517660800386095e-05 0 0.014029622487630719 -5.1140772653433403e-05 0 0.013541362706011164 4.3817807810611623e-06 0 0.012457393050744961 -5.6304130594070124e-06 0 0.010961798397817326 -0.00042973870265413023 0 0.011290589923633571 -0.00059738947097803352 0 0.011121151137358067 -0.00021393379529826041 0 0.014919922349459875 3.2017895975559265e-07 0 0.013541362706011164 4.3817807810611623e-06 0 0.012994349977541012 5.480895259556134e-09 0 0.013541362706011164 4.3817807810611623e-06 0 0.012994349977541012 5.480895259556134e-09 0 0.012457393050744961 -5.6304130594070124e-06 0 0.012994349977541012 5.480895259556134e-09 0 0.011792650064303824 7.7021173209780835e-05 0 0.012457393050744961 -5.6304130594070124e-06 0 0.011792650064303824 7.7021173209780835e-05 0 0.011069358985409321 3.2090080280870356e-07 0 0.01049769799275826 0.00023125785900163066 0 0.012994349977541012 5.480895259556134e-09 0 0.011792650064303824 7.7021173209780835e-05 0 0.011069358985409321 3.2090080280870356e-07 0 0.011792650064303824 7.7021173209780835e-05 0 0.010957928719319455 0.00015055169904407931 0 0.01049769799275826 0.00023125785900163066 0 0.011792650064303824 7.7021173209780835e-05 0 0.010957928719319455 0.00015055169904407931 0 0.012457393050744961 -5.6304130594070124e-06 0 0.011098292407802204 0.00022757581961464711 0 0.011778511811163258 -4.0517660800386095e-05 0 0.010807826085372504 -0.00023560705401730447 0 0.010957928719319455 0.00015055169904407931 0 0.011121151137358067 -0.00021393379529826041 0 0.010807826085372504 -0.00023560705401730447 0 0.010957928719319455 0.00015055169904407931 0 0.010655766632021169 -6.6959670413193175e-05 0 0.010469440802151427 -7.2819894913505952e-05 0 0.010655766632021169 -6.6959670413193175e-05 0 0.010553566967174022 9.5241382510146528e-05 0 0.010576962924833963 -0.00025207831100578605 0 0.010807826085372504 -0.00023560705401730447 0 0.010655766632021169 -6.6959670413193175e-05 0 0.010469440802151427 -7.2819894913505952e-05 0 0.010576962924833963 -0.00025207831100578605 0 0.010655766632021169 -6.6959670413193175e-05 0 0.01045860575291631 0.00011743759704625417 0 0.010469440802151427 -7.2819894913505952e-05 0 0.010553566967174022 9.5241382510146528e-05 0 0.01045860575291631 0.00011743759704625417 0 0.010553566967174022 9.5241382510146528e-05 0 0.010516637503594418 0.00021729885951465633 0 0.010957928719319455 0.00015055169904407931 0 0.010655766632021169 -6.6959670413193175e-05 0 0.010553566967174022 9.5241382510146528e-05 0 0.010957928719319455 0.00015055169904407931 0 0.010553566967174022 9.5241382510146528e-05 0 0.010583842208854962 0.00022183893256705458 0 0.010957928719319455 0.00015055169904407931 0 0.010583842208854962 0.00022183893256705458 0 0.010380697576642148 0.00028635170295777457 0 0.010583842208854962 0.00022183893256705458 0 0.010516637503594418 0.00021729885951465633 0 0.010380697576642148 0.00028635170295777457 0 0.010553566967174022 9.5241382510146528e-05 0 0.010583842208854962 0.00022183893256705458 0 0.010516637503594418 0.00021729885951465633 0 0.010516637503594418 0.00021729885951465633 0 0.010506545484489939 0.00013712569094194275 0 0.010380697576642148 0.00028635170295777457 0 0.010202914886000392 -0.00011908991755721726 0 0.010506545484489939 0.00013712569094194275 0 0.010380697576642148 0.00028635170295777457 0 0.010202914886000392 -0.00011908991755721726 0 0.010380697576642148 0.00028635170295777457 0 0.0096055109435109459 0.00014739843232910882 0 0.010380697576642148 0.00028635170295777457 0 0.0096055109435109459 0.00014739843232910882 0 0.01049769799275826 0.00023125785900163066 0 0.0096055109435109459 0.00014739843232910882 0 0.0091446168953979029 8.948792425908331e-07 0 0.01049769799275826 0.00023125785900163066 0 0.011069358985409321 3.2090080280870356e-07 0 0.0091446168953979029 8.948792425908331e-07 0 0.01049769799275826 0.00023125785900163066 0 0.010957928719319455 0.00015055169904407931 0 0.010380697576642148 0.00028635170295777457 0 0.01049769799275826 0.00023125785900163066 0 0.024062934777007515 0.000124074606706393 0 0.024395434524665111 -1.7362778636731565e-05 0 0.023931113288057849 0.00014458394638763169 0 0.027089844588351716 -0.00081366600069768789 0 0.02665730635797715 -0.00052238506888321466 0 0.027153030288526198 -0.00028724625760796367 0 0.02534530792779096 9.9602447829168659e-05 0 0.025597469787035105 -0.00024822237326797288 0 0.024031590701181972 0.00013729356245907593 0 0.024062934777007515 0.000124074606706393 0 0.024395434524665111 -1.7362778636731565e-05 0 0.024290502525913575 1.1189034295989231e-06 0 0.024395434524665111 -1.7362778636731565e-05 0 0.023931113288057849 0.00014458394638763169 0 0.024290502525913575 1.1189034295989231e-06 0 0.024395434524665111 -1.7362778636731565e-05 0 0.025968091329967517 -1.1863655729137197e-06 0 0.02665730635797715 -0.00052238506888321466 0 0.025974451436176754 5.2731608938563459e-08 0 0.026845715448401045 -6.6058382242209886e-05 0 0.025597469787035105 -0.00024822237326797288 0 0.025969677777974348 -2.3386677406433499e-08 0 0.02665730635797715 -0.00052238506888321466 0 0.027153030288526198 -0.00028724625760796367 0 0.026845715448401045 -6.6058382242209886e-05 0 0.021774068797321553 0.001138077601436818 0 0.021748937475717409 0.0011063203345511468 0 0.02168777075147315 0.0010582535401246463 0 0.021776078669918743 0.0011088003455991555 0 0.021774068797321553 0.001138077601436818 0 0.021784006919305633 0.0011645451732043891 0 0.021776078669918743 0.0011088003455991555 0 0.021774068797321553 0.001138077601436818 0 0.021816671885896127 0.0010573735478404541 0 0.026239313877481362 9.7006473754043616e-07 0 0.026364541030348944 -5.6956772497157613e-05 0 0.026187300347218518 -0.00034081104890358322 0 0.023932280328346423 0.00055210736837067297 0 0.027755811083428793 -0.00044106057666635254 0 0.026367385597698433 0.00028514410777771734 0 0.026239313877481362 9.7006473754043616e-07 0 0.026364541030348944 -5.6956772497157613e-05 0 0.021767511481656968 0.0011003452650838591 0 0.021773687796644604 0.0011038495379994372 0 0.021774068797321553 0.001138077601436818 0 0.021783121775406339 0.0011322290498032312 0 0.021784006919305633 0.0011645451732043891 0 0.021783121775406339 0.0011322290498032312 0 0.021882722338086392 0.0012054350328806166 0 0.021784006919305633 0.0011645451732043891 0 0.021774068797321553 0.001138077601436818 0 0.021748937475717409 0.0011063203345511468 0 0.021783121775406339 0.0011322290498032312 0 0.021748937475717409 0.0011063203345511468 0 0.021783121775406339 0.0011322290498032312 0 0.021740833638343421 0.0010600810020316676 0 0.021724940440186597 0.0009954261609305137 0 0.02168777075147315 0.0010582535401246463 0 0.021640495804565524 0.00093218860872255232 0 0.021783121775406339 0.0011322290498032312 0 0.021740833638343421 0.0010600810020316676 0 0.021817224391595821 0.0010477201060697283 0 0.021740833638343421 0.0010600810020316676 0 0.021724940440186597 0.0009954261609305137 0 0.021817224391595821 0.0010477201060697283 0 0.021748937475717409 0.0011063203345511468 0 0.021740833638343421 0.0010600810020316676 0 0.02168777075147315 0.0010582535401246463 0 0.021740833638343421 0.0010600810020316676 0 0.021724940440186597 0.0009954261609305137 0 0.02168777075147315 0.0010582535401246463 0 0.021724940440186597 0.0009954261609305137 0 0.021763196599731076 0.0009228724403160379 0 0.021817224391595821 0.0010477201060697283 0 0.021816671885896127 0.0010573735478404541 0 0.021775814295499539 0.00099240341535998707 0 0.021836554947133248 0.00094721391468362173 0 0.021773687796644604 0.0011038495379994372 0 0.022415315081751607 0.00061207293332558085 0 0.026367385597698433 0.00028514410777771734 0 0.026239313877481362 9.7006473754043616e-07 0 0.026290906405743837 0.00033729468949300211 0 0.02534530792779096 9.9602447829168659e-05 0 0.026742864106110743 -0.00015747405174700623 0 0.021776078669918743 0.0011088003455991555 0 0.021816671885896127 0.0010573735478404541 0 0.021775814295499539 0.00099240341535998707 0 0.023932280328346423 0.00055210736837067297 0 0.02431441817885123 0.00070399186164999664 0 0.02534530792779096 9.9602447829168659e-05 0 0.02431441817885123 0.00070399186164999664 0 0.024228945110862623 0.00085620017072049221 0 0.024391814788471758 0.00073905379227528405 0 0.024116709722645274 -9.1148006190331656e-05 0 0.02431441817885123 0.00070399186164999664 0 0.024162257741372751 -0.00017758529219042359 0 0.024256896089607148 0.000328987782043797 0 0.024464139946817096 0.00017875200374701158 0 0.024156482791996736 -0.00016900832760874382 0 0.02431441817885123 0.00070399186164999664 0 0.022415315081751607 0.00061207293332558085 0 0.021724940440186597 0.0009954261609305137 0 0.021654795366181367 0.0008627926725835091 0 0.021763196599731076 0.0009228724403160379 0 0.021596301681249697 0.00088456072948794569 0 0.021654795366181367 0.0008627926725835091 0 0.021606419665287046 0.00079808851529951483 0 0.021724940440186597 0.0009954261609305137 0 0.021640495804565524 0.00093218860872255232 0 0.021654795366181367 0.0008627926725835091 0 0.022415315081751607 0.00061207293332558085 0 0.021529978492298048 0.0010160017928476286 0 0.021654795366181367 0.0008627926725835091 0 0.021678183286394672 0.00082498239367521313 0 0.021763196599731076 0.0009228724403160379 0 0.021596301681249697 0.00088456072948794569 0 0.021606419665287046 0.00079808851529951483 0 0.021590039406628254 0.00078023221557967245 0 0.021606419665287046 0.00079808851529951483 0 0.021590039406628254 0.00078023221557967245 0 0.021522915632955376 0.0007447678954205125 0 0.021990316740956833 0.00044519196406449246 0 0.021225590187958984 0.00081802048227208797 0 0.021654795366181367 0.0008627926725835091 0 0.021606419665287046 0.00079808851529951483 0 0.021678183286394672 0.00082498239367521313 0 0.021606419665287046 0.00079808851529951483 0 0.021522915632955376 0.0007447678954205125 0 0.021678183286394672 0.00082498239367521313 0 0.024464139946817096 0.00017875200374701158 0 0.024488072807755626 -0.00039194096098920056 0 0.024156482791996736 -0.00016900832760874382 0 0.024488072807755626 -0.00039194096098920056 0 0.02397311275025386 -0.00040765411552490656 0 0.024156482791996736 -0.00016900832760874382 0 0.022415315081751607 0.00061207293332558085 0 0.021990316740956833 0.00044519196406449246 0 0.020553628426844325 8.2294883000648804e-05 0 0.020839625541011986 -0.00019232631124850574 0 0.02065019037438898 0.00018941025309039488 0 0.021990316740956833 0.00044519196406449246 0 0.022531635012615188 -0.00030454710478598529 0 0.02397311275025386 -0.00040765411552490656 0 0.024021439820461721 -0.00014661591954277407 0 0.023833394360151604 -1.1490900109692329e-05 0 0.024021439820461721 -0.00014661591954277407 0 0.023996155685073278 -4.7745589285710843e-05 0 0.023833394360151604 -1.1490900109692329e-05 0 0.02397311275025386 -0.00040765411552490656 0 0.024021439820461721 -0.00014661591954277407 0 0.024156482791996736 -0.00016900832760874382 0 0.024021439820461721 -0.00014661591954277407 0 0.024116709722645274 -9.1148006190331656e-05 0 0.023996155685073278 -4.7745589285710843e-05 0 0.024021439820461721 -0.00014661591954277407 0 0.024156482791996736 -0.00016900832760874382 0 0.024116709722645274 -9.1148006190331656e-05 0 0.024031590701181972 0.00013729356245907593 0 0.024116709722645274 -9.1148006190331656e-05 0 0.024017171451050832 5.8779850055411993e-05 0 0.024391814788471758 0.00073905379227528405 0 0.024156482791996736 -0.00016900832760874382 0 0.024116709722645274 -9.1148006190331656e-05 0 0.024116709722645274 -9.1148006190331656e-05 0 0.023996155685073278 -4.7745589285710843e-05 0 0.024017171451050832 5.8779850055411993e-05 0 0.02534530792779096 9.9602447829168659e-05 0 0.023933957060073941 6.9528840315092442e-05 0 0.023996155685073278 -4.7745589285710843e-05 0 0.023833394360151604 -1.1490900109692329e-05 0 0.024017171451050832 5.8779850055411993e-05 0 0.023833394360151604 -1.1490900109692329e-05 0 0.024017171451050832 5.8779850055411993e-05 0 0.023931113288057849 0.00014458394638763169 0 0.024062934777007515 0.000124074606706393 0 0.024017171451050832 5.8779850055411993e-05 0 0.023931113288057849 0.00014458394638763169 0 0.024031590701181972 0.00013729356245907593 0 0.024062934777007515 0.000124074606706393 0 0.024017171451050832 5.8779850055411993e-05 0 0.023833394360151604 -1.1490900109692329e-05 0 0.023931113288057849 0.00014458394638763169 0 0.02261385664513758 -1.0322111830289923e-06 0 0.024290502525913575 1.1189034295989231e-06 0 0.023931113288057849 0.00014458394638763169 0 0.02261385664513758 -1.0322111830289923e-06 0 0.020839625541011986 -0.00019232631124850574 0 0.022608651546601865 -1.137466106957658e-06 0 0.020935401409850826 0.00016116430332817049 0 0.02397311275025386 -0.00040765411552490656 0 0.023833394360151604 -1.1490900109692329e-05 0 0.02261385664513758 -1.0322111830289923e-06 0 0.022531635012615188 -0.00030454710478598529 0 0.022611111457904322 -1.0415741900093241e-07 0 0.021076819067002834 6.9351140202993136e-07 0 0.020935401409850826 0.00016116430332817049 0 0.020394123657596467 0.00024532615081928759 0 0.022608651546601865 -1.137466106957658e-06 0 0.021076819067002834 6.9351140202993136e-07 0 0.020935401409850826 0.00016116430332817049 0 0.020839625541011986 -0.00019232631124850574 0 0.020935401409850826 0.00016116430332817049 0 0.02065019037438898 0.00018941025309039488 0 0.020935401409850826 0.00016116430332817049 0 0.02065019037438898 0.00018941025309039488 0 0.020394123657596467 0.00024532615081928759 0 0.021076819067002834 6.9351140202993136e-07 0 0.020394123657596467 0.00024532615081928759 0 0.019541140159818716 7.3848619562909826e-07 0 0.019541140159818716 7.3848619562909826e-07 0 0.019769665306288209 2.8862182049863685e-05 0 0.0180094742124727 -1.838660882098828e-06 0 0.020394123657596467 0.00024532615081928759 0 0.019541140159818716 7.3848619562909826e-07 0 0.019769665306288209 2.8862182049863685e-05 0 0.019769665306288209 2.8862182049863685e-05 0 0.020080091109438973 -0.00065251413335480851 0 0.020506060396575376 -7.2799297537132822e-05 0 0.020394123657596467 0.00024532615081928759 0 0.019769665306288209 2.8862182049863685e-05 0 0.020506060396575376 -7.2799297537132822e-05 0 0.018617605430946853 -0.00035800226956540928 0 0.018006735750902662 -1.9211677715401268e-07 0 0.017403052229091814 0.00013628789378635289 0 0.017142793360351318 -0.0001634093987450079 0 0.018003415975445688 -1.8780548669135808e-08 0 0.019769665306288209 2.8862182049863685e-05 0 0.020080091109438973 -0.00065251413335480851 0 0.0180094742124727 -1.838660882098828e-06 0 0.018785396562620654 -0.0004306988636394272 0 0.018925372071099709 8.3965382240480573e-05 0 0.020891346308208988 -0.00062417011015468307 0 0.021507374963809722 -0.00061435520280890923 0 0.021443837238802603 -0.000580961866584266 0 0.020891346308208988 -0.00062417011015468307 0 0.021272820192876466 -0.00038250011488300976 0 0.021443837238802603 -0.000580961866584266 0 0.016501884291462418 8.4658448133505268e-05 0 0.016699346366347706 -0.00014220896832276586 0 0.016286322365587864 -0.00013151411452946352 0 0.018617605430946853 -0.00035800226956540928 0 0.018785396562620654 -0.0004306988636394272 0 0.020080091109438973 -0.00065251413335480851 0 0.020891346308208988 -0.00062417011015468307 0 0.020506060396575376 -7.2799297537132822e-05 0 0.016785028659105229 0.00014211275712635956 0 0.017142793360351318 -0.0001634093987450079 0 0.016699346366347706 -0.00014220896832276586 0 0.020506060396575376 -7.2799297537132822e-05 0 0.020997777493105829 -0.00015794396963643962 0 0.020794502406654949 0.00021381873345984714 0 0.020891346308208988 -0.00062417011015468307 0 0.020506060396575376 -7.2799297537132822e-05 0 0.020997777493105829 -0.00015794396963643962 0 0.020891346308208988 -0.00062417011015468307 0 0.020997777493105829 -0.00015794396963643962 0 0.021272820192876466 -0.00038250011488300976 0 0.020997777493105829 -0.00015794396963643962 0 0.021272820192876466 -0.00038250011488300976 0 0.021283116724899537 -0.00019569183773720185 0 0.020997777493105829 -0.00015794396963643962 0 0.021283116724899537 -0.00019569183773720185 0 0.021384509127024217 4.2637601408240813e-05 0 0.020997777493105829 -0.00015794396963643962 0 0.020794502406654949 0.00021381873345984714 0 0.021384509127024217 4.2637601408240813e-05 0 0.020794502406654949 0.00021381873345984714 0 0.021492730189196722 0.000410218194823424 0 0.021384509127024217 4.2637601408240813e-05 0 0.020394123657596467 0.00024532615081928759 0 0.020506060396575376 -7.2799297537132822e-05 0 0.020794502406654949 0.00021381873345984714 0 0.02065019037438898 0.00018941025309039488 0 0.020394123657596467 0.00024532615081928759 0 0.020794502406654949 0.00021381873345984714 0 0.020553628426844325 8.2294883000648804e-05 0 0.02065019037438898 0.00018941025309039488 0 0.020794502406654949 0.00021381873345984714 0 0.021990316740956833 0.00044519196406449246 0 0.020529297247231425 0.00022583338705393983 0 0.020905224622894791 0.00088631393531670821 0 0.020794502406654949 0.00021381873345984714 0 0.021522915632955376 0.0007447678954205125 0 0.020794502406654949 0.00021381873345984714 0 0.021522915632955376 0.0007447678954205125 0 0.021492730189196722 0.000410218194823424 0 0.021492730189196722 0.000410218194823424 0 0.021730288415504857 0.00022499123509615436 0 0.021910690990507905 0.00072997318322772225 0 0.021522915632955376 0.0007447678954205125 0 0.021492730189196722 0.000410218194823424 0 0.021910690990507905 0.00072997318322772225 0 0.020407342538759761 3.4582774584856571e-05 0 0.020503123185310307 0.00027666498948455498 0 0.01913048367573305 -0.00015395802827397029 0 0.019136858449051282 -0.00015368398238908699 0 0.019181640597308855 -0.00021471473538272278 0 0.01913048367573305 -0.00015395802827397029 0 0.019129445271706524 -0.00017932437414762469 0 0.019181640597308855 -0.00021471473538272278 0 0.01913048367573305 -0.00015395802827397029 0 0.019136858449051282 -0.00015368398238908699 0 0.019106100808240836 -0.0001715434670944007 0 0.021492730189196722 0.000410218194823424 0 0.021730288415504857 0.00022499123509615436 0 0.021384509127024217 4.2637601408240813e-05 0 0.021730288415504857 0.00022499123509615436 0 0.021495851622347528 -0.00029707164824913459 0 0.02149870214435811 -0.00041641919897880399 0 0.021283116724899537 -0.00019569183773720185 0 0.021384509127024217 4.2637601408240813e-05 0 0.021495851622347528 -0.00029707164824913459 0 0.020407342538759761 3.4582774584856571e-05 0 0.020530472987124203 -0.00036255618291939555 0 0.021730288415504857 0.00022499123509615436 0 0.021384509127024217 4.2637601408240813e-05 0 0.021495851622347528 -0.00029707164824913459 0 0.019136858449051282 -0.00015368398238908699 0 0.019106100808240836 -0.0001715434670944007 0 0.019059886455715547 -0.00019089345298870972 0 0.021272820192876466 -0.00038250011488300976 0 0.021495851622347528 -0.00029707164824913459 0 0.021499411876431229 -0.00041801238399844225 0 0.021272820192876466 -0.00038250011488300976 0 0.021283116724899537 -0.00019569183773720185 0 0.021495851622347528 -0.00029707164824913459 0 0.020717858323514277 -0.00038201196811233842 0 0.020530472987124203 -0.00036255618291939555 0 0.019106100808240836 -0.0001715434670944007 0 0.019059886455715547 -0.00019089345298870972 0 0.019079703708153053 -0.00019129690914263724 0 0.019088000065398441 -0.00020723782090983895 0 0.01922905548699784 -4.2084200210921286e-05 0 0.01913048367573305 -0.00015395802827397029 0 0.019106100808240836 -0.0001715434670944007 0 0.019110483259144453 -0.0001866362352607817 0 0.01913048367573305 -0.00015395802827397029 0 0.019074853596620877 -0.00012191471326705757 0 0.019093353761442222 -0.0001304348485596944 0 0.019074853596620877 -0.00012191471326705757 0 0.01908001068074244 -0.00012548420263807413 0 0.019093353761442222 -0.0001304348485596944 0 0.019106100808240836 -0.0001715434670944007 0 0.019110483259144453 -0.0001866362352607817 0 0.019079703708153053 -0.00019129690914263724 0 0.019110483259144453 -0.0001866362352607817 0 0.019052715760955682 -0.00022574687467191641 0 0.019079703708153053 -0.00019129690914263724 0 0.019035670717613747 -0.00016998532409874005 0 0.019074853596620877 -0.00012191471326705757 0 0.019067988367519117 -0.00013746800178400341 0 0.019030971272792706 -0.00028541161978855203 0 0.019042342484495479 -0.00036102226371189397 0 0.019110483259144453 -0.0001866362352607817 0 0.017965859978619329 -0.00068684882068635752 0 0.01922905548699784 -4.2084200210921286e-05 0 0.019074853596620877 -0.00012191471326705757 0 0.019067988367519117 -0.00013746800178400341 0 0.01908001068074244 -0.00012548420263807413 0 0.019030971272792706 -0.00028541161978855203 0 0.019110483259144453 -0.0001866362352607817 0 0.019052715760955682 -0.00022574687467191641 0 0.019030971272792706 -0.00028541161978855203 0 0.019052715760955682 -0.00022574687467191641 0 0.018987132721116139 -0.00022178357197341655 0 0.01902626744365046 -3.406166658051874e-05 0 0.018925372071099709 8.3965382240480573e-05 0 0.020853071875770617 -0.00037417309245985455 0 0.020530472987124203 -0.00036255618291939555 0 0.021507374963809722 -0.00061435520280890923 0 0.021443837238802603 -0.000580961866584266 0 0.021481104148010199 -0.00041928624793934716 0 0.021272820192876466 -0.00038250011488300976 0 0.021443837238802603 -0.000580961866584266 0 0.021499411876431229 -0.00041801238399844225 0 0.019047515149090449 -0.00022002400806174637 0 0.019059886455715547 -0.00019089345298870972 0 0.019079703708153053 -0.00019129690914263724 0 0.019052715760955682 -0.00022574687467191641 0 0.019047515149090449 -0.00022002400806174637 0 0.019079703708153053 -0.00019129690914263724 0 0.018925372071099709 8.3965382240480573e-05 0 0.020530472987124203 -0.00036255618291939555 0 0.015353945502107219 -0.0011920714457133402 0 0.015537485970823455 -0.0012443928435406616 0 0.015527716733674299 -0.00095283243039531642 0 0.017778573487507922 -0.00040118448350327286 0 0.019172391910388109 4.1453487172471197e-06 0 0.019069272313767625 -0.00011057060893472481 0 0.01906820477979666 -0.00012772305002849892 0 0.019077173358501304 -0.00012179785812211681 0 0.015537485970823455 -0.0012443928435406616 0 0.015527716733674299 -0.00095283243039531642 0 0.015701657040502429 -0.0010871089219446632 0 0.017009448608645669 -0.00074484413080978915 0 0.017778573487507922 -0.00040118448350327286 0 0.019074951389200262 -0.00013974032185649226 0 0.019056438393517505 -0.0001176805214136564 0 0.01906820477979666 -0.00012772305002849892 0 0.019074951389200262 -0.00013974032185649226 0 0.01906820477979666 -0.00012772305002849892 0 0.01908001068074244 -0.00012548420263807413 0 0.019074951389200262 -0.00013974032185649226 0 0.019067988367519117 -0.00013746800178400341 0 0.01908001068074244 -0.00012548420263807413 0 0.01906820477979666 -0.00012772305002849892 0 0.01908001068074244 -0.00012548420263807413 0 0.019077173358501304 -0.00012179785812211681 0 0.019077173358501304 -0.00012179785812211681 0 0.019090744035279272 -0.00012747080320084779 0 0.019077073792350022 -0.00011705134822093703 0 0.01908001068074244 -0.00012548420263807413 0 0.019077173358501304 -0.00012179785812211681 0 0.019090744035279272 -0.00012747080320084779 0 0.01908001068074244 -0.00012548420263807413 0 0.019093353761442222 -0.0001304348485596944 0 0.019090744035279272 -0.00012747080320084779 0 0.019093353761442222 -0.0001304348485596944 0 0.019105225705802593 -0.0001392423608870975 0 0.019090744035279272 -0.00012747080320084779 0 0.019105225705802593 -0.0001392423608870975 0 0.019090744035279272 -0.00012747080320084779 0 0.019106709985545981 -0.00014763709039708098 0 0.019090744035279272 -0.00012747080320084779 0 0.019088868184706741 -0.00013091018013284712 0 0.019077073792350022 -0.00011705134822093703 0 0.019090744035279272 -0.00012747080320084779 0 0.019088868184706741 -0.00013091018013284712 0 0.019106709985545981 -0.00014763709039708098 0 0.019088868184706741 -0.00013091018013284712 0 0.019077073792350022 -0.00011705134822093703 0 0.019073264528980755 -0.0001195002339298397 0 0.019069272313767625 -0.00011057060893472481 0 0.019077173358501304 -0.00012179785812211681 0 0.019077073792350022 -0.00011705134822093703 0 0.019077073792350022 -0.00011705134822093703 0 0.019063051897938155 -0.00010714065213772324 0 0.019073264528980755 -0.0001195002339298397 0 0.019069272313767625 -0.00011057060893472481 0 0.019077073792350022 -0.00011705134822093703 0 0.019063051897938155 -0.00010714065213772324 0 0.019063051897938155 -0.00010714065213772324 0 0.019073264528980755 -0.0001195002339298397 0 0.019054518777947206 -0.00010658954335215444 0 0.019073264528980755 -0.0001195002339298397 0 0.019061949280052989 -0.00012527328252334561 0 0.019054518777947206 -0.00010658954335215444 0 0.019061949280052989 -0.00012527328252334561 0 0.019085755013441202 -0.00014151188382085169 0 0.019073268305259149 -0.00016083956001240545 0 0.019073264528980755 -0.0001195002339298397 0 0.019061949280052989 -0.00012527328252334561 0 0.019085755013441202 -0.00014151188382085169 0 0.019088868184706741 -0.00013091018013284712 0 0.019073264528980755 -0.0001195002339298397 0 0.019085755013441202 -0.00014151188382085169 0 0.019085755013441202 -0.00014151188382085169 0 0.019103831533853758 -0.00017318547647613068 0 0.019106709985545981 -0.00014763709039708098 0 0.019085755013441202 -0.00014151188382085169 0 0.019103831533853758 -0.00017318547647613068 0 0.019073268305259149 -0.00016083956001240545 0 0.01913048367573305 -0.00015395802827397029 0 0.019093353761442222 -0.0001304348485596944 0 0.019105225705802593 -0.0001392423608870975 0 0.01913048367573305 -0.00015395802827397029 0 0.019105225705802593 -0.0001392423608870975 0 0.019106709985545981 -0.00014763709039708098 0 0.019088868184706741 -0.00013091018013284712 0 0.019085755013441202 -0.00014151188382085169 0 0.019106709985545981 -0.00014763709039708098 0 0.019103831533853758 -0.00017318547647613068 0 0.019106709985545981 -0.00014763709039708098 0 0.019129445271706524 -0.00017932437414762469 0 0.01913048367573305 -0.00015395802827397029 0 0.019106709985545981 -0.00014763709039708098 0 0.019129445271706524 -0.00017932437414762469 0 0.019129445271706524 -0.00017932437414762469 0 0.01912464110596224 -0.00020809025315669347 0 0.019181640597308855 -0.00021471473538272278 0 0.019103831533853758 -0.00017318547647613068 0 0.019129445271706524 -0.00017932437414762469 0 0.01912464110596224 -0.00020809025315669347 0 0.019103831533853758 -0.00017318547647613068 0 0.019073268305259149 -0.00016083956001240545 0 0.019090047310371526 -0.00021609842885331307 0 0.019103831533853758 -0.00017318547647613068 0 0.01912464110596224 -0.00020809025315669347 0 0.019090047310371526 -0.00021609842885331307 0 0.01912464110596224 -0.00020809025315669347 0 0.019090047310371526 -0.00021609842885331307 0 0.019122819541795941 -0.0002741850752629676 0 0.023743277273887645 -0.0010713018285654547 0 0.02444976270814414 0.00070174908718852993 0 0.022955293950252566 0.00038271372584197639 0 0.023743277273887645 -0.0010713018285654547 0 0.02444976270814414 0.00070174908718852993 0 0.025144662139546487 -0.00057281540006705745 0 0.023743277273887645 -0.0010713018285654547 0 0.021940033685505875 -0.0001939375995736237 0 0.022955293950252566 0.00038271372584197639 0 0.021428007351280261 -0.00072399160432990773 0 0.021026662859708348 0.00015258171840111504 0 0.019122819541795941 -0.0002741850752629676 0 0.019181640597308855 -0.00021471473538272278 0 0.019190859540041707 -0.00028902834480462006 0 0.01912464110596224 -0.00020809025315669347 0 0.019122819541795941 -0.0002741850752629676 0 0.019181640597308855 -0.00021471473538272278 0 0.021910690990507905 0.00072997318322772225 0 0.021777568739813492 0.00081277151120293112 0 0.021927894032093734 0.00088376801410382558 0 0.020503123185310307 0.00027666498948455498 0 0.021026662859708348 0.00015258171840111504 0 0.021522915632955376 0.0007447678954205125 0 0.021910690990507905 0.00072997318322772225 0 0.021777568739813492 0.00081277151120293112 0 0.021777568739813492 0.00081277151120293112 0 0.021678183286394672 0.00082498239367521313 0 0.021810907577131902 0.00087477458639655722 0 0.021522915632955376 0.0007447678954205125 0 0.021777568739813492 0.00081277151120293112 0 0.021678183286394672 0.00082498239367521313 0 0.021678183286394672 0.00082498239367521313 0 0.021810907577131902 0.00087477458639655722 0 0.021763196599731076 0.0009228724403160379 0 0.021777568739813492 0.00081277151120293112 0 0.021810907577131902 0.00087477458639655722 0 0.021927894032093734 0.00088376801410382558 0 0.021810907577131902 0.00087477458639655722 0 0.021927894032093734 0.00088376801410382558 0 0.021898499756197218 0.00094896150209752839 0 0.021810907577131902 0.00087477458639655722 0 0.021763196599731076 0.0009228724403160379 0 0.021898499756197218 0.00094896150209752839 0 0.021910690990507905 0.00072997318322772225 0 0.021927894032093734 0.00088376801410382558 0 0.022044001630688786 0.00090675912982053923 0 0.021927894032093734 0.00088376801410382558 0 0.021971606687028966 0.00092461811988939538 0 0.021898499756197218 0.00094896150209752839 0 0.021927894032093734 0.00088376801410382558 0 0.021971606687028966 0.00092461811988939538 0 0.02203341113236236 0.00090809623071783595 0 0.021971606687028966 0.00092461811988939538 0 0.02203341113236236 0.00090809623071783595 0 0.022054606718936724 0.00094424538563640998 0 0.02203341113236236 0.00090809623071783595 0 0.022086622575534884 0.00087458951561099048 0 0.022054606718936724 0.00094424538563640998 0 0.021927894032093734 0.00088376801410382558 0 0.02203341113236236 0.00090809623071783595 0 0.022044001630688786 0.00090675912982053923 0 0.021346500957832241 0.00018444183692311353 0 0.021026662859708348 0.00015258171840111504 0 0.022086622575534884 0.00087458951561099048 0 0.022135711353885992 0.00099832843640952195 0 0.022316821647932875 0.0010626496920694282 0 0.021026662859708348 0.00015258171840111504 0 0.022325530054290565 0.0011472827077670792 0 0.022086622575534884 0.00087458951561099048 0 0.022135711353885992 0.00099832843640952195 0 0.022054606718936724 0.00094424538563640998 0 0.022135711353885992 0.00099832843640952195 0 0.022054606718936724 0.00094424538563640998 0 0.022011919666110397 0.0009735452181022919 0 0.021971606687028966 0.00092461811988939538 0 0.022011919666110397 0.0009735452181022919 0 0.021898499756197218 0.00094896150209752839 0 0.021971606687028966 0.00092461811988939538 0 0.022054606718936724 0.00094424538563640998 0 0.022011919666110397 0.0009735452181022919 0 0.022011919666110397 0.0009735452181022919 0 0.022023202868605613 0.0010601197614231446 0 0.021898499756197218 0.00094896150209752839 0 0.022135711353885992 0.00099832843640952195 0 0.022011919666110397 0.0009735452181022919 0 0.022023202868605613 0.0010601197614231446 0 0.022135711353885992 0.00099832843640952195 0 0.022023202868605613 0.0010601197614231446 0 0.022316821647932875 0.0010626496920694282 0 0.022023202868605613 0.0010601197614231446 0 0.022359540546469076 0.001281772583073233 0 0.022316821647932875 0.0010626496920694282 0 0.022023202868605613 0.0010601197614231446 0 0.021898499756197218 0.00094896150209752839 0 0.021817224391595821 0.0010477201060697283 0 0.021763196599731076 0.0009228724403160379 0 0.021898499756197218 0.00094896150209752839 0 0.021817224391595821 0.0010477201060697283 0 0.022023202868605613 0.0010601197614231446 0 0.021817224391595821 0.0010477201060697283 0 0.021882722338086392 0.0012054350328806166 0 0.021783121775406339 0.0011322290498032312 0 0.021817224391595821 0.0010477201060697283 0 0.021882722338086392 0.0012054350328806166 0 0.022023202868605613 0.0010601197614231446 0 0.021882722338086392 0.0012054350328806166 0 0.022359540546469076 0.001281772583073233 0 0.026974569614087823 7.5789690900181808e-05 0 0.027783990439203293 -2.4345404621848554e-05 0 0.032493295581899201 -0.0012692468647657834 0 0.033094043746949256 -0.001285837500693049 0 0.032958438107857854 -0.00092032975194951546 0 0.033094043746949256 -0.001285837500693049 0 0.033259023397231142 -0.0010355863508931574 0 0.033385768891226485 -0.0011321708627551497 0 0.027783990439203293 -2.4345404621848554e-05 0 0.02885935921085972 -0.00017583546918283955 0 0.022359540546469076 0.001281772583073233 0 0.02444976270814414 0.00070174908718852993 0 0.022955293950252566 0.00038271372584197639 0 0.021940033685505875 -0.0001939375995736237 0 0.022955293950252566 0.00038271372584197639 0 0.022316821647932875 0.0010626496920694282 0 0.022359540546469076 0.001281772583073233 0 0.022955293950252566 0.00038271372584197639 0 0.022316821647932875 0.0010626496920694282 0 0.033259023397231142 -0.0010355863508931574 0 0.033110521534703022 -0.0010134310972227207 0 0.033385768891226485 -0.0011321708627551497 0 0.033259023397231142 -0.0010355863508931574 0 0.033110521534703022 -0.0010134310972227207 0 0.03307656725652483 -0.00089582223914416747 0 0.02885935921085972 -0.00017583546918283955 0 0.029685951613636897 -0.00046798821556763863 0 0.033110521534703022 -0.0010134310972227207 0 0.033051437940444295 -0.00091914813097271916 0 0.033047329716891026 -0.00091718914696987063 0 0.033110521534703022 -0.0010134310972227207 0 0.033051437940444295 -0.00091914813097271916 0 0.03306218065455286 -0.0009283362440770783 0 0.03305023153341529 -0.00088545279980304574 0 0.033057118483010003 -0.00085964471744021966 0 0.033055748710600116 -0.0008845196616426021 0 0.033051437940444295 -0.00091914813097271916 0 0.03305023153341529 -0.00088545279980304574 0 0.033055748710600116 -0.0008845196616426021 0 0.033051437940444295 -0.00091914813097271916 0 0.03305023153341529 -0.00088545279980304574 0 0.033044588931442728 -0.00090126248259321149 0 0.033051437940444295 -0.00091914813097271916 0 0.033044588931442728 -0.00090126248259321149 0 0.033047329716891026 -0.00091718914696987063 0 0.03305023153341529 -0.00088545279980304574 0 0.033045462394378035 -0.00088898198375670116 0 0.033047585934181424 -0.00085935591952168949 0 0.03305023153341529 -0.00088545279980304574 0 0.033044588931442728 -0.00090126248259321149 0 0.033045462394378035 -0.00088898198375670116 0 0.033044588931442728 -0.00090126248259321149 0 0.033045462394378035 -0.00088898198375670116 0 0.033041284265721511 -0.00090211595456841595 0 0.032147216981509082 -0.00099172284027957401 0 0.032325690225350548 -0.0010724464157011537 0 0.032431213668997746 -0.0010947219587329421 0 0.033034802493621562 -0.00090051778252502772 0 0.033020867794554279 -0.0008847147760662926 0 0.033053778220133674 -0.0009048197158817449 0 0.033041284265721511 -0.00090211595456841595 0 0.033034802493621562 -0.00090051778252502772 0 0.033053778220133674 -0.0009048197158817449 0 0.033045462394378035 -0.00088898198375670116 0 0.033041284265721511 -0.00090211595456841595 0 0.033053778220133674 -0.0009048197158817449 0 0.033041284265721511 -0.00090211595456841595 0 0.033034802493621562 -0.00090051778252502772 0 0.033047329716891026 -0.00091718914696987063 0 0.033044588931442728 -0.00090126248259321149 0 0.033041284265721511 -0.00090211595456841595 0 0.033047329716891026 -0.00091718914696987063 0 0.033034802493621562 -0.00090051778252502772 0 0.033047329716891026 -0.00091718914696987063 0 0.03307656725652483 -0.00089582223914416747 0 0.033110521534703022 -0.0010134310972227207 0 0.033047329716891026 -0.00091718914696987063 0 0.03307656725652483 -0.00089582223914416747 0 0.028698321692625661 -0.00079499642792761106 0 0.026933257377184341 -0.0013419797904722559 0 0.026566039976805726 -3.159119122124388e-05 0 0.033034802493621562 -0.00090051778252502772 0 0.033020867794554279 -0.0008847147760662926 0 0.03307656725652483 -0.00089582223914416747 0 0.031527328111961378 -0.00070815956288763882 0 0.029685951613636897 -0.00046798821556763863 0 0.031527328111961378 -0.00070815956288763882 0 0.03288473894163111 -0.0010044726040691759 0 0.032147216981509082 -0.00099172284027957401 0 0.032054960466822408 -0.00094939195080604257 0 0.032325690225350548 -0.0010724464157011537 0 0.032147216981509082 -0.00099172284027957401 0 0.031919505875265326 -0.00082010084145937964 0 0.032054960466822408 -0.00094939195080604257 0 0.031527328111961378 -0.00070815956288763882 0 0.032052216108017881 -0.0008844949737819046 0 0.031840936500510529 -0.00078226838995191172 0 0.031805449356333934 -0.00076849098377001785 0 0.031816943033267209 -0.00076720610281215884 0 0.031840936500510529 -0.00078226838995191172 0 0.031816943033267209 -0.00076720610281215884 0 0.031919505875265326 -0.00082010084145937964 0 0.031527328111961378 -0.00070815956288763882 0 0.029877880978013267 -0.0011249837399190396 0 0.028698321692625661 -0.00079499642792761106 0 0.028100385875126133 -0.0018318139230826321 0 0.026933257377184341 -0.0013419797904722559 0 0.028100385875126133 -0.0018318139230826321 0 0.026933257377184341 -0.0013419797904722559 0 0.027500861815676892 -0.0028597132107342567 0 0.026933257377184341 -0.0013419797904722559 0 0.025609068455316249 -0.0019628284789101301 0 0.027500861815676892 -0.0028597132107342567 0 0.026933257377184341 -0.0013419797904722559 0 0.025144662139546487 -0.00057281540006705745 0 0.025609068455316249 -0.0019628284789101301 0 0.026933257377184341 -0.0013419797904722559 0 0.026566039976805726 -3.159119122124388e-05 0 0.025144662139546487 -0.00057281540006705745 0 0.02444976270814414 0.00070174908718852993 0 0.026566039976805726 -3.159119122124388e-05 0 0.025144662139546487 -0.00057281540006705745 0 0.019090047310371526 -0.00021609842885331307 0 0.019122819541795941 -0.0002741850752629676 0 0.019041778780729254 -0.0002881625458516716 0 0.021428007351280261 -0.00072399160432990773 0 0.021955162099379626 -0.0011252439322254864 0 0.023743277273887645 -0.0010713018285654547 0 0.025144662139546487 -0.00057281540006705745 0 0.025609068455316249 -0.0019628284789101301 0 0.019090047310371526 -0.00021609842885331307 0 0.019041778780729254 -0.0002881625458516716 0 0.019042794006650682 -0.00019038300347420126 0 0.019041778780729254 -0.0002881625458516716 0 0.019042794006650682 -0.00019038300347420126 0 0.018969311355338438 -0.00018089745251761714 0 0.019073268305259149 -0.00016083956001240545 0 0.019090047310371526 -0.00021609842885331307 0 0.019042794006650682 -0.00019038300347420126 0 0.021955162099379626 -0.0011252439322254864 0 0.025099473274760666 -0.00098901388290698316 0 0.019041778780729254 -0.0002881625458516716 0 0.018969311355338438 -0.00018089745251761714 0 0.018780453887108927 -0.00026249017859934591 0 0.018969311355338438 -0.00018089745251761714 0 0.018871029561778913 -0.00015344394252804505 0 0.018780453887108927 -0.00026249017859934591 0 0.018925336038078649 -0.00011697751358946585 0 0.018872721307144628 -4.3287196961162116e-05 0 0.018871029561778913 -0.00015344394252804505 0 0.018969311355338438 -0.00018089745251761714 0 0.018925336038078649 -0.00011697751358946585 0 0.018871029561778913 -0.00015344394252804505 0 0.018969311355338438 -0.00018089745251761714 0 0.018972909318806117 -9.0167299945014795e-05 0 0.019034420369675512 -0.00012946620120983269 0 0.018969311355338438 -0.00018089745251761714 0 0.018925336038078649 -0.00011697751358946585 0 0.018972909318806117 -9.0167299945014795e-05 0 0.018925336038078649 -0.00011697751358946585 0 0.018972909318806117 -9.0167299945014795e-05 0 0.018872721307144628 -4.3287196961162116e-05 0 0.019073268305259149 -0.00016083956001240545 0 0.019042794006650682 -0.00019038300347420126 0 0.019034420369675512 -0.00012946620120983269 0 0.019042794006650682 -0.00019038300347420126 0 0.018969311355338438 -0.00018089745251761714 0 0.019034420369675512 -0.00012946620120983269 0 0.018972909318806117 -9.0167299945014795e-05 0 0.019016922594960232 -9.7771136998081509e-05 0 0.019034420369675512 -0.00012946620120983269 0 0.019016922594960232 -9.7771136998081509e-05 0 0.019034420369675512 -0.00012946620120983269 0 0.019037796778401304 -0.00010368151032354546 0 0.019061949280052989 -0.00012527328252334561 0 0.019073268305259149 -0.00016083956001240545 0 0.019034420369675512 -0.00012946620120983269 0 0.019061949280052989 -0.00012527328252334561 0 0.019034420369675512 -0.00012946620120983269 0 0.019037796778401304 -0.00010368151032354546 0 0.019037796778401304 -0.00010368151032354546 0 0.019054518777947206 -0.00010658954335215444 0 0.019023195962136596 -7.6728057484656427e-05 0 0.017778573487507922 -0.00040118448350327286 0 0.018777687923042751 -2.9228319655551379e-05 0 0.018015117346428917 -0.00028061784241622449 0 0.018255689589336502 -0.00011444048677607505 0 0.018307725001884184 -0.00014242384648485533 0 0.019069272313767625 -0.00011057060893472481 0 0.019063051897938155 -0.00010714065213772324 0 0.019023195962136596 -7.6728057484656427e-05 0 0.017778573487507922 -0.00040118448350327286 0 0.017078835670422569 -0.00040482370587160131 0 0.019063051897938155 -0.00010714065213772324 0 0.019054518777947206 -0.00010658954335215444 0 0.019023195962136596 -7.6728057484656427e-05 0 0.019061949280052989 -0.00012527328252334561 0 0.019037796778401304 -0.00010368151032354546 0 0.019054518777947206 -0.00010658954335215444 0 0.019016922594960232 -9.7771136998081509e-05 0 0.019037796778401304 -0.00010368151032354546 0 0.019023195962136596 -7.6728057484656427e-05 0 0.018972909318806117 -9.0167299945014795e-05 0 0.019016922594960232 -9.7771136998081509e-05 0 0.019023195962136596 -7.6728057484656427e-05 0 0.016270525960555716 -0.00053310464116304622 0 0.016923397293461647 -0.00072935209299169763 0 0.017278505633923032 -0.00017065944069460744 0 0.018307725001884184 -0.00014242384648485533 0 0.018485876880278636 -3.2073186142855886e-05 0 0.018439155548936395 -1.3579937554693549e-05 0 0.018972909318806117 -9.0167299945014795e-05 0 0.019023195962136596 -7.6728057484656427e-05 0 0.018872721307144628 -4.3287196961162116e-05 0 0.017078835670422569 -0.00040482370587160131 0 0.017929856805533488 -0.00010146985167382019 0 0.018777687923042751 -2.9228319655551379e-05 0 0.01861058186091212 -5.6840290785303589e-05 0 0.018255689589336502 -0.00011444048677607505 0 0.018307725001884184 -0.00014242384648485533 0 0.018439155548936395 -1.3579937554693549e-05 0 0.016270525960555716 -0.00053310464116304622 0 0.016458957159610627 -0.0010232980317636403 0 0.016923397293461647 -0.00072935209299169763 0 0.016612666783059664 -0.0014961809203713414 0 0.016458957159610627 -0.0010232980317636403 0 0.017137439578678262 -0.0012160234088461849 0 0.016270525960555716 -0.00053310464116304622 0 0.016458957159610627 -0.0010232980317636403 0 0.015971717397846797 -0.00098047016022677585 0 0.015527716733674299 -0.00095283243039531642 0 0.016270525960555716 -0.00053310464116304622 0 0.015971717397846797 -0.00098047016022677585 0 0.016046313849933012 -0.0014208993026447714 0 0.016458957159610627 -0.0010232980317636403 0 0.015971717397846797 -0.00098047016022677585 0 0.016046313849933012 -0.0014208993026447714 0 0.015701657040502429 -0.0010871089219446632 0 0.015971717397846797 -0.00098047016022677585 0 0.015527716733674299 -0.00095283243039531642 0 0.015701657040502429 -0.0010871089219446632 0 0.015971717397846797 -0.00098047016022677585 0 0.017844318291394146 -0.0016400739232410332 0 0.017660011013345193 -0.0011307475542267564 0 0.01809364466739433 -0.00092479348462427662 0 0.017660011013345193 -0.0011307475542267564 0 0.017509655862308841 -0.00073883052284918344 0 0.01809364466739433 -0.00092479348462427662 0 0.017660011013345193 -0.0011307475542267564 0 0.017137439578678262 -0.0012160234088461849 0 0.017509655862308841 -0.00073883052284918344 0 0.016458957159610627 -0.0010232980317636403 0 0.017137439578678262 -0.0012160234088461849 0 0.016923397293461647 -0.00072935209299169763 0 0.017137439578678262 -0.0012160234088461849 0 0.016923397293461647 -0.00072935209299169763 0 0.017509655862308841 -0.00073883052284918344 0 0.016923397293461647 -0.00072935209299169763 0 0.017278505633923032 -0.00017065944069460744 0 0.017509655862308841 -0.00073883052284918344 0 0.017278505633923032 -0.00017065944069460744 0 0.017509655862308841 -0.00073883052284918344 0 0.017957450551310317 -0.00043506015356029965 0 0.017509655862308841 -0.00073883052284918344 0 0.017957450551310317 -0.00043506015356029965 0 0.01809364466739433 -0.00092479348462427662 0 0.017929856805533488 -0.00010146985167382019 0 0.018345085157274798 -3.3457341947803171e-05 0 0.017278505633923032 -0.00017065944069460744 0 0.017957450551310317 -0.00043506015356029965 0 0.018419035776344767 -3.5310414512963348e-05 0 0.018485876880278636 -3.2073186142855886e-05 0 0.018382295882336495 -9.904093631836058e-06 0 0.018419035776344767 -3.5310414512963348e-05 0 0.018485876880278636 -3.2073186142855886e-05 0 0.018382295882336495 -9.904093631836058e-06 0 0.018519477513658313 -7.7649397279484227e-05 0 0.018485876880278636 -3.2073186142855886e-05 0 0.018439155548936395 -1.3579937554693549e-05 0 0.018519477513658313 -7.7649397279484227e-05 0 0.01861058186091212 -5.6840290785303589e-05 0 0.018532712750021104 -7.7508088150205008e-05 0 0.018872721307144628 -4.3287196961162116e-05 0 0.018871029561778913 -0.00015344394252804505 0 0.018519477513658313 -7.7649397279484227e-05 0 0.018871029561778913 -0.00015344394252804505 0 0.018780453887108927 -0.00026249017859934591 0 0.018519477513658313 -7.7649397279484227e-05 0 0.029877880978013267 -0.0011249837399190396 0 0.025099473274760666 -0.00098901388290698316 0 0.018382295882336495 -9.904093631836058e-06 0 0.018780453887108927 -0.00026249017859934591 0 0.018519477513658313 -7.7649397279484227e-05 0 0.031805449356333934 -0.00076849098377001785 0 0.031777606036606953 -0.00074976213387171608 0 0.031816943033267209 -0.00076720610281215884 0 0.025055141931046358 -0.00029902163268316346 0 0.025099473274760666 -0.00098901388290698316 0 0.031768150683555867 -0.00068446449732650558 0 0.031777606036606953 -0.00074976213387171608 0 0.031816943033267209 -0.00076720610281215884 0 0.031768150683555867 -0.00068446449732650558 0 0.031705157801647108 -0.00072590313548608672 0 0.031608529562505427 -0.0006864963387144664 0 0.031768150683555867 -0.00068446449732650558 0 0.031816943033267209 -0.00076720610281215884 0 0.031705157801647108 -0.00072590313548608672 0 0.031816943033267209 -0.00076720610281215884 0 0.031705157801647108 -0.00072590313548608672 0 0.031729702144397104 -0.00076742067113935123 0 0.031705157801647108 -0.00072590313548608672 0 0.031593700808823892 -0.00071049708563518117 0 0.031729702144397104 -0.00076742067113935123 0 0.031705157801647108 -0.00072590313548608672 0 0.031593700808823892 -0.00071049708563518117 0 0.031608529562505427 -0.0006864963387144664 0 0.031593700808823892 -0.00071049708563518117 0 0.031608529562505427 -0.0006864963387144664 0 0.031500385668457871 -0.00070690681183440773 0 0.031616737143000659 -0.00058992167163293154 0 0.03137480818967589 -0.00057033036562860581 0 0.031500385668457871 -0.00070690681183440773 0 0.031608529562505427 -0.0006864963387144664 0 0.031616737143000659 -0.00058992167163293154 0 0.031500385668457871 -0.00070690681183440773 0 0.031616737143000659 -0.00058992167163293154 0 0.031367986202615376 -0.00048067961141753425 0 0.03137480818967589 -0.00057033036562860581 0 0.031768150683555867 -0.00068446449732650558 0 0.031608529562505427 -0.0006864963387144664 0 0.031616737143000659 -0.00058992167163293154 0 0.018382295882336495 -9.904093631836058e-06 0 0.018657430694561352 -8.5913467334816626e-05 0 0.018419035776344767 -3.5310414512963348e-05 0 0.025055141931046358 -0.00029902163268316346 0 0.025345240354007967 -0.00038283060155195285 0 0.018657430694561352 -8.5913467334816626e-05 0 0.018419035776344767 -3.5310414512963348e-05 0 0.018444347464212682 -0.00044112077020727055 0 0.017957450551310317 -0.00043506015356029965 0 0.018419035776344767 -3.5310414512963348e-05 0 0.018444347464212682 -0.00044112077020727055 0 0.017957450551310317 -0.00043506015356029965 0 0.018444347464212682 -0.00044112077020727055 0 0.01809364466739433 -0.00092479348462427662 0 0.018904301478883365 -0.00052141957591577846 0 0.01924881952126432 -0.0011439451074294225 0 0.019432262360765121 -0.00040104564064045024 0 0.025345240354007967 -0.00038283060155195285 0 0.024253409374477009 -0.00064332786476242439 0 0.018657430694561352 -8.5913467334816626e-05 0 0.018904301478883365 -0.00052141957591577846 0 0.019432262360765121 -0.00040104564064045024 0 0.018657430694561352 -8.5913467334816626e-05 0 0.018444347464212682 -0.00044112077020727055 0 0.018904301478883365 -0.00052141957591577846 0 0.018444347464212682 -0.00044112077020727055 0 0.018904301478883365 -0.00052141957591577846 0 0.018656055954427937 -0.0008971812950122845 0 0.018904301478883365 -0.00052141957591577846 0 0.018656055954427937 -0.0008971812950122845 0 0.01924881952126432 -0.0011439451074294225 0 0.018533163421462526 -0.0014845789624560776 0 0.018656055954427937 -0.0008971812950122845 0 0.01924881952126432 -0.0011439451074294225 0 0.018444347464212682 -0.00044112077020727055 0 0.018656055954427937 -0.0008971812950122845 0 0.01809364466739433 -0.00092479348462427662 0 0.018533163421462526 -0.0014845789624560776 0 0.018656055954427937 -0.0008971812950122845 0 0.01809364466739433 -0.00092479348462427662 0 0.020761069427606783 0.0015249545123485685 0 0.022744405145382254 -0.0022016697938735037 0 0.018339176954523181 -8.606374146362759e-05 0 0.018411961550494717 -0.00086125204810501201 0 0.018608494534461371 -0.00092651035118242165 0 0.018639718778934101 -0.0012017747516973227 0 0.014811488255196506 0.00075517609500281419 0 0.026165280639290071 -0.0017459653972955206 0 0.014811488255196506 0.00075517609500281419 0 0.020155021280876501 0.00028162069296362941 0 0.018923079742818066 -0.0013613125301050529 0 0.024253409374477009 -0.00064332786476242439 0 0.018608494534461371 -0.00092651035118242165 0 0.01876700563071465 -0.00091629222750249175 0 0.018639718778934101 -0.0012017747516973227 0 0.018610656300712718 -0.00074089927560222902 0 0.018608494534461371 -0.00092651035118242165 0 0.01876700563071465 -0.00091629222750249175 0 0.01876700563071465 -0.00091629222750249175 0 0.018639718778934101 -0.0012017747516973227 0 0.018771405149942098 -0.0012600943755090622 0 0.024253409374477009 -0.00064332786476242439 0 0.028487286330905626 -0.0010252860812662923 0 0.031533661072529008 -0.0013139889357087638 0 0.031465477669738499 -0.00098626720629231904 0 0.031622091769430614 -0.0010337077065751803 0 0.026539778401568369 -0.00082991634311341863 0 0.026697137623886088 -0.0009042910023828566 0 0.026670340446285308 -0.0010687591177801958 0 0.026165280639290071 -0.0017459653972955206 0 0.028487286330905626 -0.0010252860812662923 0 0.026165280639290071 -0.0017459653972955206 0 0.024253409374477009 -0.00064332786476242439 0 0.031533661072529008 -0.0013139889357087638 0 0.031841241113909048 -0.0012031502796570439 0 0.031622091769430614 -0.0010337077065751803 0 0.026165280639290071 -0.0017459653972955206 0 0.020155021280876501 0.00028162069296362941 0 0.031533661072529008 -0.0013139889357087638 0 0.031841241113909048 -0.0012031502796570439 0 0.032183469373438939 -0.0017066552895709049 0 0.031841241113909048 -0.0012031502796570439 0 0.03192242057480725 -0.0010228711030781359 0 0.032121230064112022 -0.0012228010355829723 0 0.031841241113909048 -0.0012031502796570439 0 0.03192242057480725 -0.0010228711030781359 0 0.03177225876457563 -0.00097563949741994783 0 0.032442879988662229 -0.0011087573005718878 0 0.032737265919424059 -0.0011267695602877449 0 0.03192242057480725 -0.0010228711030781359 0 0.032121230064112022 -0.0012228010355829723 0 0.032057833644768448 -0.00098694290084578424 0 0.032002516118024599 -0.00078349891230701128 0 0.031712706780885266 -0.00062713449985422475 0 0.032294479225516363 -0.00081496370204991271 0 0.031958164901773979 -0.00089125429500813529 0 0.032057833644768448 -0.00098694290084578424 0 0.03207342550571473 -0.0008759119678544441 0 0.031958164901773979 -0.00089125429500813529 0 0.03192242057480725 -0.0010228711030781359 0 0.032057833644768448 -0.00098694290084578424 0 0.031958164901773979 -0.00089125429500813529 0 0.031888263073990737 -0.00093870228695540499 0 0.03192242057480725 -0.0010228711030781359 0 0.031888263073990737 -0.00093870228695540499 0 0.03192242057480725 -0.0010228711030781359 0 0.03177225876457563 -0.00097563949741994783 0 0.031888263073990737 -0.00093870228695540499 0 0.031822691982729488 -0.00090900377104394269 0 0.031871934592976277 -0.00088090175237302392 0 0.031958164901773979 -0.00089125429500813529 0 0.031888263073990737 -0.00093870228695540499 0 0.031871934592976277 -0.00088090175237302392 0 0.031841241113909048 -0.0012031502796570439 0 0.03177225876457563 -0.00097563949741994783 0 0.031622091769430614 -0.0010337077065751803 0 0.031649169550323805 -0.00094335036047232313 0 0.03177225876457563 -0.00097563949741994783 0 0.031622091769430614 -0.0010337077065751803 0 0.031649169550323805 -0.00094335036047232313 0 0.031699667351907386 -0.00089932463679192687 0 0.03177225876457563 -0.00097563949741994783 0 0.031649169550323805 -0.00094335036047232313 0 0.031699667351907386 -0.00089932463679192687 0 0.03164157648549356 -0.00087085994482590022 0 0.031699667351907386 -0.00089932463679192687 0 0.03177225876457563 -0.00097563949741994783 0 0.031761295171202145 -0.00088340872209650859 0 0.031888263073990737 -0.00093870228695540499 0 0.03177225876457563 -0.00097563949741994783 0 0.031822691982729488 -0.00090900377104394269 0 0.03177225876457563 -0.00097563949741994783 0 0.031822691982729488 -0.00090900377104394269 0 0.031761295171202145 -0.00088340872209650859 0 0.031822691982729488 -0.00090900377104394269 0 0.031819209261816458 -0.00086351856950730901 0 0.031761295171202145 -0.00088340872209650859 0 0.031819209261816458 -0.00086351856950730901 0 0.031761295171202145 -0.00088340872209650859 0 0.031776137232473731 -0.00082771907045560737 0 0.031761295171202145 -0.00088340872209650859 0 0.031776137232473731 -0.00082771907045560737 0 0.031699275268618279 -0.00081845548522173632 0 0.031819209261816458 -0.00086351856950730901 0 0.031776137232473731 -0.00082771907045560737 0 0.031867129852998236 -0.00081638221712933181 0 0.031699667351907386 -0.00089932463679192687 0 0.031699275268618279 -0.00081845548522173632 0 0.03164157648549356 -0.00087085994482590022 0 0.031699667351907386 -0.00089932463679192687 0 0.031761295171202145 -0.00088340872209650859 0 0.031699275268618279 -0.00081845548522173632 0 0.031699275268618279 -0.00081845548522173632 0 0.031757354945321351 -0.00075292918908251771 0 0.031647416821048956 -0.00072414621438055026 0 0.031699275268618279 -0.00081845548522173632 0 0.031626322095066134 -0.00079826684281123026 0 0.031647416821048956 -0.00072414621438055026 0 0.031776137232473731 -0.00082771907045560737 0 0.031699275268618279 -0.00081845548522173632 0 0.031757354945321351 -0.00075292918908251771 0 0.031776137232473731 -0.00082771907045560737 0 0.031757354945321351 -0.00075292918908251771 0 0.031867129852998236 -0.00081638221712933181 0 0.031757354945321351 -0.00075292918908251771 0 0.032002516118024599 -0.00078349891230701128 0 0.031867129852998236 -0.00081638221712933181 0 0.031958164901773979 -0.00089125429500813529 0 0.032002516118024599 -0.00078349891230701128 0 0.031867129852998236 -0.00081638221712933181 0 0.031958164901773979 -0.00089125429500813529 0 0.032002516118024599 -0.00078349891230701128 0 0.03207342550571473 -0.0008759119678544441 0 0.031958164901773979 -0.00089125429500813529 0 0.031871934592976277 -0.00088090175237302392 0 0.031867129852998236 -0.00081638221712933181 0 0.031819209261816458 -0.00086351856950730901 0 0.031871934592976277 -0.00088090175237302392 0 0.031867129852998236 -0.00081638221712933181 0 0.031822691982729488 -0.00090900377104394269 0 0.031819209261816458 -0.00086351856950730901 0 0.031871934592976277 -0.00088090175237302392 0 0.031465477669738499 -0.00098626720629231904 0 0.031547562145375879 -0.00090345582235759505 0 0.031539498521993732 -0.00082383391177553783 0 0.031547562145375879 -0.00090345582235759505 0 0.031593788346517652 -0.00092535977500669917 0 0.031585873192667299 -0.00084386960358443083 0 0.031547562145375879 -0.00090345582235759505 0 0.031538954289188952 -0.00096151494854536932 0 0.031593788346517652 -0.00092535977500669917 0 0.031465477669738499 -0.00098626720629231904 0 0.031547562145375879 -0.00090345582235759505 0 0.031538954289188952 -0.00096151494854536932 0 0.031465477669738499 -0.00098626720629231904 0 0.031538954289188952 -0.00096151494854536932 0 0.031622091769430614 -0.0010337077065751803 0 0.031649169550323805 -0.00094335036047232313 0 0.031622091769430614 -0.0010337077065751803 0 0.031593788346517652 -0.00092535977500669917 0 0.031538954289188952 -0.00096151494854536932 0 0.031622091769430614 -0.0010337077065751803 0 0.031593788346517652 -0.00092535977500669917 0 0.031593788346517652 -0.00092535977500669917 0 0.03164157648549356 -0.00087085994482590022 0 0.031585873192667299 -0.00084386960358443083 0 0.031649169550323805 -0.00094335036047232313 0 0.031593788346517652 -0.00092535977500669917 0 0.03164157648549356 -0.00087085994482590022 0 0.031699275268618279 -0.00081845548522173632 0 0.03164157648549356 -0.00087085994482590022 0 0.031626322095066134 -0.00079826684281123026 0 0.03164157648549356 -0.00087085994482590022 0 0.031626322095066134 -0.00079826684281123026 0 0.031585873192667299 -0.00084386960358443083 0 0.031626322095066134 -0.00079826684281123026 0 0.031577910944805769 -0.00074745116655135116 0 0.031585873192667299 -0.00084386960358443083 0 0.031626322095066134 -0.00079826684281123026 0 0.031577910944805769 -0.00074745116655135116 0 0.031647416821048956 -0.00072414621438055026 0 0.031577910944805769 -0.00074745116655135116 0 0.031585873192667299 -0.00084386960358443083 0 0.031539498521993732 -0.00082383391177553783 0 0.031547562145375879 -0.00090345582235759505 0 0.031585873192667299 -0.00084386960358443083 0 0.031539498521993732 -0.00082383391177553783 0 0.031465477669738499 -0.00098626720629231904 0 0.031539498521993732 -0.00082383391177553783 0 0.031500385668457871 -0.00070690681183440773 0 0.031577910944805769 -0.00074745116655135116 0 0.031539498521993732 -0.00082383391177553783 0 0.031500385668457871 -0.00070690681183440773 0 0.028487286330905626 -0.0010252860812662923 0 0.031115027660822334 -0.0012271040973121149 0 0.031576445884491322 -0.00069462614503483023 0 0.031712706780885266 -0.00062713449985422475 0 0.031555254144281515 -0.00073663666800510852 0 0.032442879988662229 -0.0011087573005718878 0 0.032287135806734452 -0.0011124204319272171 0 0.031577910944805769 -0.00074745116655135116 0 0.031500385668457871 -0.00070690681183440773 0 0.031576445884491322 -0.00069462614503483023 0 0.031593700808823892 -0.00071049708563518117 0 0.031500385668457871 -0.00070690681183440773 0 0.031576445884491322 -0.00069462614503483023 0 0.031576445884491322 -0.00069462614503483023 0 0.031647416821048956 -0.00072414621438055026 0 0.031712706780885266 -0.00062713449985422475 0 0.031577910944805769 -0.00074745116655135116 0 0.031576445884491322 -0.00069462614503483023 0 0.031647416821048956 -0.00072414621438055026 0 0.031593700808823892 -0.00071049708563518117 0 0.031576445884491322 -0.00069462614503483023 0 0.031555254144281515 -0.00073663666800510852 0 0.03313113956028902 -0.0015449421849792362 0 0.033170141589312939 -0.0015068977770754729 0 0.033007981706625528 -0.0014907487854544041 0 0.03313113956028902 -0.0015449421849792362 0 0.033170141589312939 -0.0015068977770754729 0 0.033184681773039675 -0.0015831548456093111 0 0.031757354945321351 -0.00075292918908251771 0 0.032002516118024599 -0.00078349891230701128 0 0.031712706780885266 -0.00062713449985422475 0 0.031757354945321351 -0.00075292918908251771 0 0.031647416821048956 -0.00072414621438055026 0 0.031712706780885266 -0.00062713449985422475 0 0.033061575664078351 -0.0011733234605649128 0 0.033050585234782312 -0.00097008377515038805 0 0.032880055269732082 -0.00075235400957065514 0 0.032975056703385443 -0.00062060668711071674 0 0.032951059273298999 -0.00067122130607318053 0 0.033170141589312939 -0.0015068977770754729 0 0.033135336922912692 -0.0013298182555450701 0 0.033007981706625528 -0.0014907487854544041 0 0.032975056703385443 -0.00062060668711071674 0 0.033005470877918823 -0.00061050694277184467 0 0.032951059273298999 -0.00067122130607318053 0 0.032975056703385443 -0.00062060668711071674 0 0.033028963772708551 -0.00060544447718310934 0 0.033005470877918823 -0.00061050694277184467 0 0.033135336922912692 -0.0013298182555450701 0 0.033007981706625528 -0.0014907487854544041 0 0.032951000692026659 -0.0012541528749619292 0 0.031555254144281515 -0.00073663666800510852 0 0.031729702144397104 -0.00076742067113935123 0 0.031727714378979865 -0.00092710942501206522 0 0.032287135806734452 -0.0011124204319272171 0 0.032255872835922357 -0.0011393183308841407 0 0.031593700808823892 -0.00071049708563518117 0 0.031555254144281515 -0.00073663666800510852 0 0.031729702144397104 -0.00076742067113935123 0 0.031816943033267209 -0.00076720610281215884 0 0.031729702144397104 -0.00076742067113935123 0 0.031919505875265326 -0.00082010084145937964 0 0.031729702144397104 -0.00076742067113935123 0 0.031919505875265326 -0.00082010084145937964 0 0.031727714378979865 -0.00092710942501206522 0 0.032054960466822408 -0.00094939195080604257 0 0.031727714378979865 -0.00092710942501206522 0 0.032325690225350548 -0.0010724464157011537 0 0.032771541848677893 -0.0013981903087475448 0 0.032325690225350548 -0.0010724464157011537 0 0.032674001577057049 -0.0011724077992595354 0 0.032255872835922357 -0.0011393183308841407 0 0.032291963340794462 -0.00108406478504053 0 0.031919505875265326 -0.00082010084145937964 0 0.032054960466822408 -0.00094939195080604257 0 0.031727714378979865 -0.00092710942501206522 0 0.033007981706625528 -0.0014907487854544041 0 0.032951000692026659 -0.0012541528749619292 0 0.032771541848677893 -0.0013981903087475448 0 0.032951000692026659 -0.0012541528749619292 0 0.032771541848677893 -0.0013981903087475448 0 0.032674001577057049 -0.0011724077992595354 0 0.032861481515539095 -0.0011030827985462495 0 0.032865733437572806 -0.00098938182525295159 0 0.033076904100927049 -0.001036469322328366 0 0.032951000692026659 -0.0012541528749619292 0 0.032861481515539095 -0.0011030827985462495 0 0.033076904100927049 -0.001036469322328366 0 0.032951000692026659 -0.0012541528749619292 0 0.032861481515539095 -0.0011030827985462495 0 0.032674001577057049 -0.0011724077992595354 0 0.032861481515539095 -0.0011030827985462495 0 0.032674001577057049 -0.0011724077992595354 0 0.032669923527423858 -0.00109380455709396 0 0.032861481515539095 -0.0011030827985462495 0 0.032669923527423858 -0.00109380455709396 0 0.032865733437572806 -0.00098938182525295159 0 0.032325690225350548 -0.0010724464157011537 0 0.032516100494239634 -0.0011037279375765959 0 0.032431213668997746 -0.0010947219587329421 0 0.032325690225350548 -0.0010724464157011537 0 0.032516100494239634 -0.0011037279375765959 0 0.032674001577057049 -0.0011724077992595354 0 0.032516100494239634 -0.0011037279375765959 0 0.032674001577057049 -0.0011724077992595354 0 0.032669923527423858 -0.00109380455709396 0 0.032669923527423858 -0.00109380455709396 0 0.032431213668997746 -0.0010947219587329421 0 0.032865733437572806 -0.00098938182525295159 0 0.032516100494239634 -0.0011037279375765959 0 0.032669923527423858 -0.00109380455709396 0 0.032431213668997746 -0.0010947219587329421 0 0.033053778220133674 -0.0009048197158817449 0 0.033047585934181424 -0.00085935591952168949 0 0.033023545701788816 -0.00080402683227070147 0 0.032431213668997746 -0.0010947219587329421 0 0.032865733437572806 -0.00098938182525295159 0 0.033023545701788816 -0.00080402683227070147 0 0.03288473894163111 -0.0010044726040691759 0 0.032938521024789183 -0.00084101445587217146 0 0.033045462394378035 -0.00088898198375670116 0 0.033053778220133674 -0.0009048197158817449 0 0.033047585934181424 -0.00085935591952168949 0 0.033047585934181424 -0.00085935591952168949 0 0.033023545701788816 -0.00080402683227070147 0 0.033052304559594806 -0.00083930012563876108 0 0.03305023153341529 -0.00088545279980304574 0 0.033047585934181424 -0.00085935591952168949 0 0.033057118483010003 -0.00085964471744021966 0 0.033047585934181424 -0.00085935591952168949 0 0.033057118483010003 -0.00085964471744021966 0 0.033052304559594806 -0.00083930012563876108 0 0.032865733437572806 -0.00098938182525295159 0 0.033015900181149527 -0.00089402746948001729 0 0.033023545701788816 -0.00080402683227070147 0 0.033015900181149527 -0.00089402746948001729 0 0.033076904100927049 -0.001036469322328366 0 0.033126929719067215 -0.00076423454430336153 0 0.032865733437572806 -0.00098938182525295159 0 0.033015900181149527 -0.00089402746948001729 0 0.033076904100927049 -0.001036469322328366 0 0.033085661369634402 -0.00083467596603735883 0 0.03311088079871545 -0.00075999059795367268 0 0.033095324194950891 -0.00063267696407484631 0 0.033109969420855825 -0.00069710029377725022 0 0.033126929719067215 -0.00076423454430336153 0 0.033028963772708551 -0.00060544447718310934 0 0.033095324194950891 -0.00063267696407484631 0 0.033109969420855825 -0.00069710029377725022 0 0.033028963772708551 -0.00060544447718310934 0 0.033109969420855825 -0.00069710029377725022 0 0.033036755285782371 -0.00066886119959590922 0 0.032975056703385443 -0.00062060668711071674 0 0.033028963772708551 -0.00060544447718310934 0 0.033095324194950891 -0.00063267696407484631 0 0.033135336922912692 -0.0013298182555450701 0 0.032951000692026659 -0.0012541528749619292 0 0.033076904100927049 -0.001036469322328366 0 0.033050585234782312 -0.00097008377515038805 0 0.033085661369634402 -0.00083467596603735883 0 0.033466008105358144 -0.00071150971728349706 0 0.033406125438142795 -0.0006424218777531216 0 0.033153698312058513 -0.0007626970644443251 0 0.033166180291268117 -0.00074351149890461812 0 0.033238542686431206 -0.00075405259207617049 0 0.033153698312058513 -0.0007626970644443251 0 0.033238542686431206 -0.00075405259207617049 0 0.033423171588379416 -0.00065659387676226416 0 0.033804025955244815 -0.00070371806258481785 0 0.033780704181229027 -0.0005668476032616366 0 0.033933172026595036 -0.00058068700719865181 0 0.033153698312058513 -0.0007626970644443251 0 0.033109969420855825 -0.00069710029377725022 0 0.033036755285782371 -0.00066886119959590922 0 0.033466008105358144 -0.00071150971728349706 0 0.033438031543342316 -0.00063608409993850233 0 0.033804025955244815 -0.00070371806258481785 0 0.033860560762962878 -0.00061314551537177883 0 0.033838976104379193 -0.00059999080521500384 0 0.033153698312058513 -0.0007626970644443251 0 0.033166180291268117 -0.00074351149890461812 0 0.033109969420855825 -0.00069710029377725022 0 0.033166180291268117 -0.00074351149890461812 0 0.033109969420855825 -0.00069710029377725022 0 0.033126929719067215 -0.00076423454430336153 0 0.033126929719067215 -0.00076423454430336153 0 0.033117091971595063 -0.00079339357336422024 0 0.033238542686431206 -0.00075405259207617049 0 0.033166180291268117 -0.00074351149890461812 0 0.033126929719067215 -0.00076423454430336153 0 0.033238542686431206 -0.00075405259207617049 0 0.033015900181149527 -0.00089402746948001729 0 0.033126929719067215 -0.00076423454430336153 0 0.033023545701788816 -0.00080402683227070147 0 0.033126929719067215 -0.00076423454430336153 0 0.033023545701788816 -0.00080402683227070147 0 0.033117091971595063 -0.00079339357336422024 0 0.033057118483010003 -0.00085964471744021966 0 0.033071293584494697 -0.00083614540745302688 0 0.033063967216984527 -0.00085928665598521614 0 0.033057118483010003 -0.00085964471744021966 0 0.033052304559594806 -0.00083930012563876108 0 0.033071293584494697 -0.00083614540745302688 0 0.033023545701788816 -0.00080402683227070147 0 0.033052304559594806 -0.00083930012563876108 0 0.033071293584494697 -0.00083614540745302688 0 0.033023545701788816 -0.00080402683227070147 0 0.033071293584494697 -0.00083614540745302688 0 0.033117091971595063 -0.00079339357336422024 0 0.033071293584494697 -0.00083614540745302688 0 0.033077419653222244 -0.00082123503739085888 0 0.033063967216984527 -0.00085928665598521614 0 0.033071293584494697 -0.00083614540745302688 0 0.033117091971595063 -0.00079339357336422024 0 0.033077419653222244 -0.00082123503739085888 0 0.033117091971595063 -0.00079339357336422024 0 0.03310996465437864 -0.00077259361173774522 0 0.033077419653222244 -0.00082123503739085888 0 0.033117091971595063 -0.00079339357336422024 0 0.033168432362850886 -0.00073727911208754853 0 0.03310996465437864 -0.00077259361173774522 0 0.03310996465437864 -0.00077259361173774522 0 0.033077864563609435 -0.00077143450709751989 0 0.033077419653222244 -0.00082123503739085888 0 0.033168432362850886 -0.00073727911208754853 0 0.03310996465437864 -0.00077259361173774522 0 0.033103333854069335 -0.00072645614992776183 0 0.03310996465437864 -0.00077259361173774522 0 0.033103333854069335 -0.00072645614992776183 0 0.033077864563609435 -0.00077143450709751989 0 0.033168432362850886 -0.00073727911208754853 0 0.033238542686431206 -0.00075405259207617049 0 0.033423171588379416 -0.00065659387676226416 0 0.033117091971595063 -0.00079339357336422024 0 0.033168432362850886 -0.00073727911208754853 0 0.033238542686431206 -0.00075405259207617049 0 0.033168432362850886 -0.00073727911208754853 0 0.033423171588379416 -0.00065659387676226416 0 0.033394239794905696 -0.00045641036012448712 0 0.033188155666107493 -0.00073014014592401582 0 0.033351625528565666 -0.00052122540192814924 0 0.033423171588379416 -0.00065659387676226416 0 0.033394239794905696 -0.00045641036012448712 0 0.033588061190090356 -0.00051822187783186018 0 0.033134017987657485 -0.00065675602278898152 0 0.03312470546818122 -0.00051960150843884914 0 0.033039264803717376 -0.0007082079720985092 0 0.033168432362850886 -0.00073727911208754853 0 0.033134017987657485 -0.00065675602278898152 0 0.033300233952674292 -0.00058404441428236257 0 0.033103333854069335 -0.00072645614992776183 0 0.033134017987657485 -0.00065675602278898152 0 0.033039264803717376 -0.0007082079720985092 0 0.033168432362850886 -0.00073727911208754853 0 0.033103333854069335 -0.00072645614992776183 0 0.033134017987657485 -0.00065675602278898152 0 0.033134017987657485 -0.00065675602278898152 0 0.03312470546818122 -0.00051960150843884914 0 0.033300233952674292 -0.00058404441428236257 0 0.033323236236280793 -0.00045086385850737844 0 0.03314871215078094 -0.00069197390945565241 0 0.033498104873988778 -0.00040397168083333512 0 0.033481230750399209 -0.00020329097895864311 0 0.033341889305141086 -0.00041049051352065006 0 0.033300233952674292 -0.00058404441428236257 0 0.033459156021203695 -0.00032589983716196816 0 0.033285029481601926 -0.0004278396063305009 0 0.03312470546818122 -0.00051960150843884914 0 0.033300233952674292 -0.00058404441428236257 0 0.033285029481601926 -0.0004278396063305009 0 0.033351625528565666 -0.00052122540192814924 0 0.033501496922451295 -0.00027358618371669678 0 0.033394239794905696 -0.00045641036012448712 0 0.033751708183874414 -0.00040750695406789942 0 0.033660804254571686 -0.00019716523501928229 0 0.033394239794905696 -0.00045641036012448712 0 0.033751708183874414 -0.00040750695406789942 0 0.033588061190090356 -0.00051822187783186018 0 0.033751708183874414 -0.00040750695406789942 0 0.033588061190090356 -0.00051822187783186018 0 0.033780704181229027 -0.0005668476032616366 0 0.033804025955244815 -0.00070371806258481785 0 0.033423171588379416 -0.00065659387676226416 0 0.033780704181229027 -0.0005668476032616366 0 0.033423171588379416 -0.00065659387676226416 0 0.033588061190090356 -0.00051822187783186018 0 0.033780704181229027 -0.0005668476032616366 0 0.033780704181229027 -0.0005668476032616366 0 0.033958207571935101 -0.00046587201066765403 0 0.033933172026595036 -0.00058068700719865181 0 0.033751708183874414 -0.00040750695406789942 0 0.033958207571935101 -0.00046587201066765403 0 0.03395154658879064 -0.00034071391388352151 0 0.033751708183874414 -0.00040750695406789942 0 0.033780704181229027 -0.0005668476032616366 0 0.033958207571935101 -0.00046587201066765403 0 0.033751708183874414 -0.00040750695406789942 0 0.03395154658879064 -0.00034071391388352151 0 0.033879448358173442 -0.00025657579702083484 0 0.033958207571935101 -0.00046587201066765403 0 0.03395154658879064 -0.00034071391388352151 0 0.034094269437958707 -0.00032247034679591625 0 0.034911791833644325 -1.5283813139547102e-05 0 0.035000230718799492 9.9007934337664133e-08 0 0.034998234686257262 -3.1130792905622648e-07 0 0.03395154658879064 -0.00034071391388352151 0 0.034107960534384009 -0.00018960046060238046 0 0.034094269437958707 -0.00032247034679591625 0 0.03395154658879064 -0.00034071391388352151 0 0.034107960534384009 -0.00018960046060238046 0 0.033879448358173442 -0.00025657579702083484 0 0.034107960534384009 -0.00018960046060238046 0 0.033879448358173442 -0.00025657579702083484 0 0.033951192733293604 -8.8127974619899222e-05 0 0.033751708183874414 -0.00040750695406789942 0 0.033879448358173442 -0.00025657579702083484 0 0.033660804254571686 -0.00019716523501928229 0 0.033879448358173442 -0.00025657579702083484 0 0.033660804254571686 -0.00019716523501928229 0 0.033951192733293604 -8.8127974619899222e-05 0 0.033660804254571686 -0.00019716523501928229 0 0.033951192733293604 -8.8127974619899222e-05 0 0.03390771111304193 0.00021710480532174183 0 0.033459156021203695 -0.00032589983716196816 0 0.033617816617864706 -9.323203436337536e-06 0 0.033483531936134882 1.2913000032091275e-05 0 0.033501496922451295 -0.00027358618371669678 0 0.034265623686900511 5.4211730913035195e-05 0 0.034107960534384009 -0.00018960046060238046 0 0.034446669661801134 6.8204603262102815e-05 0 0.034343906756552349 -0.00012480764350372164 0 0.034265623686900511 5.4211730913035195e-05 0 0.034474404024311275 8.9852167390547108e-05 0 0.033951192733293604 -8.8127974619899222e-05 0 0.03390771111304193 0.00021710480532174183 0 0.034446669661801134 6.8204603262102815e-05 0 0.034107960534384009 -0.00018960046060238046 0 0.033951192733293604 -8.8127974619899222e-05 0 0.034446669661801134 6.8204603262102815e-05 0 0.034446669661801134 6.8204603262102815e-05 0 0.03482893721179723 -2.5944711199703327e-05 0 0.034757838048914254 -7.3501257160940256e-06 0 0.03482893721179723 -2.5944711199703327e-05 0 0.034911791833644325 -1.5283813139547102e-05 0 0.034757838048914254 -7.3501257160940256e-06 0 0.034841950362031013 0.00011709778871265232 0 0.034446669661801134 6.8204603262102815e-05 0 0.03482893721179723 -2.5944711199703327e-05 0 0.034249140100533267 6.1200590394103598e-05 0 0.035041225910067551 2.5421178642016781e-05 0 0.034265623686900511 5.4211730913035195e-05 0 0.034745638234747252 6.7210835545160989e-05 0 0.03482893721179723 -2.5944711199703327e-05 0 0.034732820637128931 -5.3632801293482119e-05 0 0.034911791833644325 -1.5283813139547102e-05 0 0.034943219185166095 4.7239558334739092e-05 0 0.034947795795700703 2.0204910232898296e-05 0 0.034911791833644325 -1.5283813139547102e-05 0 0.034785081475469423 -7.0547715705811118e-05 0 0.03482893721179723 -2.5944711199703327e-05 0 0.034732820637128931 -5.3632801293482119e-05 0 0.034265623686900511 5.4211730913035195e-05 0 0.034249140100533267 6.1200590394103598e-05 0 0.034947795795700703 2.0204910232898296e-05 0 0.034911791833644325 -1.5283813139547102e-05 0 0.034956866208038742 8.0196931463877268e-06 0 0.034911791833644325 -1.5283813139547102e-05 0 0.035000230718799492 9.9007934337664133e-08 0 0.034956866208038742 8.0196931463877268e-06 0 0.035000230718799492 9.9007934337664133e-08 0 0.034984897759605588 9.5921011836015897e-06 0 0.03496683027027906 2.6856216917097055e-05 0 0.035000230718799492 9.9007934337664133e-08 0 0.034956866208038742 8.0196931463877268e-06 0 0.034984897759605588 9.5921011836015897e-06 0 0.034956866208038742 8.0196931463877268e-06 0 0.034984897759605588 9.5921011836015897e-06 0 0.034969214524288479 2.6985997349863527e-05 0 0.034984897759605588 9.5921011836015897e-06 0 0.034969214524288479 2.6985997349863527e-05 0 0.034993834289496442 3.5020213232297162e-05 0 0.034249140100533267 6.1200590394103598e-05 0 0.034610123261931428 1.9734330242349039e-05 0 0.034943219185166095 4.7239558334739092e-05 0 0.034969214524288479 2.6985997349863527e-05 0 0.034993834289496442 3.5020213232297162e-05 0 0.033987813861713602 0.0002318502851510798 0 0.03358821315360571 0.00030165443805066589 0 0.0337564106757864 0.00014003948517815764 0 0.034947795795700703 2.0204910232898296e-05 0 0.034956866208038742 8.0196931463877268e-06 0 0.034969214524288479 2.6985997349863527e-05 0 0.034943219185166095 4.7239558334739092e-05 0 0.034947795795700703 2.0204910232898296e-05 0 0.034969214524288479 2.6985997349863527e-05 0 0.034984897759605588 9.5921011836015897e-06 0 0.03498018758959457 3.8850604534865441e-06 0 0.03496683027027906 2.6856216917097055e-05 0 0.035006588571242427 5.9929361713575685e-05 0 0.034610123261931428 1.9734330242349039e-05 0 0.03358821315360571 0.00030165443805066589 0 0.033611056681803121 3.7226243880893927e-05 0 0.033429952978692244 -1.1631724646863912e-05 0 0.034610123261931428 1.9734330242349039e-05 0 0.034200445550021698 6.5223659207136938e-05 0 0.03358821315360571 0.00030165443805066589 0 0.033611056681803121 3.7226243880893927e-05 0 0.0337564106757864 0.00014003948517815764 0 0.033987813861713602 0.0002318502851510798 0 0.0337564106757864 0.00014003948517815764 0 0.033747019145045819 -8.9519573117838501e-05 0 0.034249140100533267 6.1200590394103598e-05 0 0.033449028861256912 -0.0001992193076309848 0 0.033459156021203695 -0.00032589983716196816 0 0.033483531936134882 1.2913000032091275e-05 0 0.033275804981273811 -0.00027256938420952841 0 0.033611056681803121 3.7226243880893927e-05 0 0.0337564106757864 0.00014003948517815764 0 0.033747019145045819 -8.9519573117838501e-05 0 0.03312470546818122 -0.00051960150843884914 0 0.033275804981273811 -0.00027256938420952841 0 0.033285029481601926 -0.0004278396063305009 0 0.033459156021203695 -0.00032589983716196816 0 0.033275804981273811 -0.00027256938420952841 0 0.033285029481601926 -0.0004278396063305009 0 0.033323236236280793 -0.00045086385850737844 0 0.033449028861256912 -0.0001992193076309848 0 0.033498104873988778 -0.00040397168083333512 0 0.033747019145045819 -8.9519573117838501e-05 0 0.033481230750399209 -0.00020329097895864311 0 0.033429952978692244 -1.1631724646863912e-05 0 0.033481230750399209 -0.00020329097895864311 0 0.033297655835591342 -0.00029995619657162544 0 0.033611056681803121 3.7226243880893927e-05 0 0.033429952978692244 -1.1631724646863912e-05 0 0.033481230750399209 -0.00020329097895864311 0 0.033611056681803121 3.7226243880893927e-05 0 0.033747019145045819 -8.9519573117838501e-05 0 0.033481230750399209 -0.00020329097895864311 0 0.034200445550021698 6.5223659207136938e-05 0 0.033809334981542052 -0.00042880799469886989 0 0.034935647405676631 3.6437269941533262e-05 0 0.034900798688458724 -2.4990031127612948e-05 0 0.034947472634405619 -9.2191356279322775e-05 0 0.034935647405676631 3.6437269941533262e-05 0 0.034900798688458724 -2.4990031127612948e-05 0 0.034861232375199419 3.7609508840845658e-05 0 0.033429952978692244 -1.1631724646863912e-05 0 0.033297655835591342 -0.00029995619657162544 0 0.033272384896284223 -0.00032308542489094716 0 0.033481230750399209 -0.00020329097895864311 0 0.033297655835591342 -0.00029995619657162544 0 0.033341889305141086 -0.00041049051352065006 0 0.03376575176162773 -0.00044568734243594012 0 0.033809334981542052 -0.00042880799469886989 0 0.034881525223238161 -8.5395764615004373e-05 0 0.034900798688458724 -2.4990031127612948e-05 0 0.034832747991196199 -6.8375346819575522e-05 0 0.034881525223238161 -8.5395764615004373e-05 0 0.034900798688458724 -2.4990031127612948e-05 0 0.034947472634405619 -9.2191356279322775e-05 0 0.034900798688458724 -2.4990031127612948e-05 0 0.034832747991196199 -6.8375346819575522e-05 0 0.034861232375199419 3.7609508840845658e-05 0 0.034704127648593659 -4.8158738490162226e-05 0 0.034861232375199419 3.7609508840845658e-05 0 0.034756813601743965 0.00010270023445371225 0 0.034704127648593659 -4.8158738490162226e-05 0 0.034832747991196199 -6.8375346819575522e-05 0 0.034727419646437087 -0.00018857671569409115 0 0.034881525223238161 -8.5395764615004373e-05 0 0.034832747991196199 -6.8375346819575522e-05 0 0.034822079571519123 -0.00016697991851942953 0 0.034704127648593659 -4.8158738490162226e-05 0 0.034832747991196199 -6.8375346819575522e-05 0 0.034861232375199419 3.7609508840845658e-05 0 0.034861232375199419 3.7609508840845658e-05 0 0.034918901546981622 5.7532658672066112e-05 0 0.034756813601743965 0.00010270023445371225 0 0.034935647405676631 3.6437269941533262e-05 0 0.034861232375199419 3.7609508840845658e-05 0 0.034918901546981622 5.7532658672066112e-05 0 0.035000230718799492 9.9007934337664133e-08 0 0.03496683027027906 2.6856216917097055e-05 0 0.034999644618138245 -4.6805766727269434e-09 0 0.034918901546981622 5.7532658672066112e-05 0 0.03496683027027906 2.6856216917097055e-05 0 0.034999644618138245 -4.6805766727269434e-09 0 0.034939416704347651 5.1736958526396527e-05 0 0.034935647405676631 3.6437269941533262e-05 0 0.034918901546981622 5.7532658672066112e-05 0 0.03498018758959457 3.8850604534865441e-06 0 0.034918901546981622 5.7532658672066112e-05 0 0.03496683027027906 2.6856216917097055e-05 0 0.034610123261931428 1.9734330242349039e-05 0 0.035071283791286059 4.4922235267593941e-05 0 0.034918901546981622 5.7532658672066112e-05 0 0.034830395564729513 7.2035087108316624e-05 0 0.034756813601743965 0.00010270023445371225 0 0.034999644618138245 -4.6805766727269434e-09 0 0.034830395564729513 7.2035087108316624e-05 0 0.034917370487137417 1.1489115382998587e-05 0 0.034918901546981622 5.7532658672066112e-05 0 0.034999644618138245 -4.6805766727269434e-09 0 0.034830395564729513 7.2035087108316624e-05 0 0.034830395564729513 7.2035087108316624e-05 0 0.034626824948786897 0.00017867843961502522 0 0.034917370487137417 1.1489115382998587e-05 0 0.034830395564729513 7.2035087108316624e-05 0 0.034626824948786897 0.00017867843961502522 0 0.034756813601743965 0.00010270023445371225 0 0.034704127648593659 -4.8158738490162226e-05 0 0.034756813601743965 0.00010270023445371225 0 0.034471310528749632 -1.9739068588497903e-05 0 0.034626824948786897 0.00017867843961502522 0 0.034756813601743965 0.00010270023445371225 0 0.034471310528749632 -1.9739068588497903e-05 0 0.034626824948786897 0.00017867843961502522 0 0.034471310528749632 -1.9739068588497903e-05 0 0.034113116671209268 2.8947008686985749e-06 0 0.034626824948786897 0.00017867843961502522 0 0.034113116671209268 2.8947008686985749e-06 0 0.033672171715943243 0.00039616774482702357 0 0.034114295217422298 -0.00027470481175333227 0 0.034269101783745842 -0.00047817335701981066 0 0.034510817378434026 -0.00022818377177368613 0 0.034471310528749632 -1.9739068588497903e-05 0 0.034114295217422298 -0.00027470481175333227 0 0.034510817378434026 -0.00022818377177368613 0 0.034471310528749632 -1.9739068588497903e-05 0 0.034113116671209268 2.8947008686985749e-06 0 0.034114295217422298 -0.00027470481175333227 0 0.034269101783745842 -0.00047817335701981066 0 0.034153882423097762 -0.00085793489394409895 0 0.03380780238925183 -0.00063527288979226524 0 0.034114295217422298 -0.00027470481175333227 0 0.034269101783745842 -0.00047817335701981066 0 0.03380780238925183 -0.00063527288979226524 0 0.034269101783745842 -0.00047817335701981066 0 0.034510817378434026 -0.00022818377177368613 0 0.034720789002311493 -0.00042679940093295139 0 0.034269101783745842 -0.00047817335701981066 0 0.034720789002311493 -0.00042679940093295139 0 0.034153882423097762 -0.00085793489394409895 0 0.033994774140183398 -0.00077065897810646618 0 0.033664829607694548 -0.00099705881162037539 0 0.034510817378434026 -0.00022818377177368613 0 0.034727419646437087 -0.00018857671569409115 0 0.034720789002311493 -0.00042679940093295139 0 0.034704127648593659 -4.8158738490162226e-05 0 0.034471310528749632 -1.9739068588497903e-05 0 0.034510817378434026 -0.00022818377177368613 0 0.034704127648593659 -4.8158738490162226e-05 0 0.034510817378434026 -0.00022818377177368613 0 0.034727419646437087 -0.00018857671569409115 0 0.033289025550375655 -0.00096611998369199893 0 0.033171851191197033 -0.0011091767927650243 0 0.033219779063608984 -0.0011112994330858561 0 0.033809334981542052 -0.00042880799469886989 0 0.033994774140183398 -0.00077065897810646618 0 0.034822079571519123 -0.00016697991851942953 0 0.034947472634405619 -9.2191356279322775e-05 0 0.034720789002311493 -0.00042679940093295139 0 0.034727419646437087 -0.00018857671569409115 0 0.034822079571519123 -0.00016697991851942953 0 0.034720789002311493 -0.00042679940093295139 0 0.034832747991196199 -6.8375346819575522e-05 0 0.034727419646437087 -0.00018857671569409115 0 0.034822079571519123 -0.00016697991851942953 0 0.033498104873988778 -0.00040397168083333512 0 0.033341889305141086 -0.00041049051352065006 0 0.033249018359732464 -0.00068073349912901795 0 0.033809334981542052 -0.00042880799469886989 0 0.033093539069801448 -0.00094370291639691228 0 0.033271787410651746 -0.00032435248192237725 0 0.03325056600171325 -0.00051591220724341155 0 0.033114415290606367 -0.00065162532867523793 0 0.033341889305141086 -0.00041049051352065006 0 0.03325056600171325 -0.00051591220724341155 0 0.033249018359732464 -0.00068073349912901795 0 0.033341889305141086 -0.00041049051352065006 0 0.033271787410651746 -0.00032435248192237725 0 0.03325056600171325 -0.00051591220724341155 0 0.033297655835591342 -0.00029995619657162544 0 0.033341889305141086 -0.00041049051352065006 0 0.033271787410651746 -0.00032435248192237725 0 0.034881525223238161 -8.5395764615004373e-05 0 0.034822079571519123 -0.00016697991851942953 0 0.034947472634405619 -9.2191356279322775e-05 0 0.033249018359732464 -0.00068073349912901795 0 0.033114415290606367 -0.00065162532867523793 0 0.033054841817417725 -0.00085276755246614048 0 0.03325056600171325 -0.00051591220724341155 0 0.033249018359732464 -0.00068073349912901795 0 0.033114415290606367 -0.00065162532867523793 0 0.033103333854069335 -0.00072645614992776183 0 0.033039264803717376 -0.0007082079720985092 0 0.033077864563609435 -0.00077143450709751989 0 0.033171851191197033 -0.0011091767927650243 0 0.033219779063608984 -0.0011112994330858561 0 0.033151783722227803 -0.0011486837713248045 0 0.033114415290606367 -0.00065162532867523793 0 0.033054841817417725 -0.00085276755246614048 0 0.033012498327844697 -0.00086225394503965666 0 0.033093539069801448 -0.00094370291639691228 0 0.03310505440348141 -0.00098046481075089601 0 0.033054841817417725 -0.00085276755246614048 0 0.033012498327844697 -0.00086225394503965666 0 0.033058640433004931 -0.00088152076165125834 0 0.033054841817417725 -0.00085276755246614048 0 0.033059473116621468 -0.00085076052436894214 0 0.033058640433004931 -0.00088152076165125834 0 0.033039264803717376 -0.0007082079720985092 0 0.033054841817417725 -0.00085276755246614048 0 0.033061462474027241 -0.00081469040459125662 0 0.033039264803717376 -0.0007082079720985092 0 0.033077864563609435 -0.00077143450709751989 0 0.033061462474027241 -0.00081469040459125662 0 0.03314871215078094 -0.00069197390945565241 0 0.033063356882133084 -0.00083281353075459702 0 0.033054841817417725 -0.00085276755246614048 0 0.033061462474027241 -0.00081469040459125662 0 0.033059473116621468 -0.00085076052436894214 0 0.033061462474027241 -0.00081469040459125662 0 0.033059473116621468 -0.00085076052436894214 0 0.033061443213562962 -0.00085988087896577683 0 0.033061462474027241 -0.00081469040459125662 0 0.033077419653222244 -0.00082123503739085888 0 0.033061443213562962 -0.00085988087896577683 0 0.033077864563609435 -0.00077143450709751989 0 0.033061462474027241 -0.00081469040459125662 0 0.033077419653222244 -0.00082123503739085888 0 0.033077419653222244 -0.00082123503739085888 0 0.033061443213562962 -0.00085988087896577683 0 0.033063967216984527 -0.00085928665598521614 0 0.033061443213562962 -0.00085988087896577683 0 0.0330573764888491 -0.00089667646690681183 0 0.033063967216984527 -0.00085928665598521614 0 0.033059473116621468 -0.00085076052436894214 0 0.033061443213562962 -0.00085988087896577683 0 0.033058640433004931 -0.00088152076165125834 0 0.033061443213562962 -0.00085988087896577683 0 0.0330573764888491 -0.00089667646690681183 0 0.033058640433004931 -0.00088152076165125834 0 0.033051437940444295 -0.00091914813097271916 0 0.0330573764888491 -0.00089667646690681183 0 0.033055748710600116 -0.0008845196616426021 0 0.0330573764888491 -0.00089667646690681183 0 0.033063967216984527 -0.00085928665598521614 0 0.033055748710600116 -0.0008845196616426021 0 0.033057118483010003 -0.00085964471744021966 0 0.033063967216984527 -0.00085928665598521614 0 0.033055748710600116 -0.0008845196616426021 0 0.033110521534703022 -0.0010134310972227207 0 0.033012498327844697 -0.00086225394503965666 0 0.03306218065455286 -0.0009283362440770783 0 0.033012498327844697 -0.00086225394503965666 0 0.033058640433004931 -0.00088152076165125834 0 0.03306218065455286 -0.0009283362440770783 0 0.033051437940444295 -0.00091914813097271916 0 0.0330573764888491 -0.00089667646690681183 0 0.03306218065455286 -0.0009283362440770783 0 0.0330573764888491 -0.00089667646690681183 0 0.033058640433004931 -0.00088152076165125834 0 0.03306218065455286 -0.0009283362440770783 0 0.033105456157759339 -0.0010057205144697039 0 0.03310505440348141 -0.00098046481075089601 0 0.033110521534703022 -0.0010134310972227207 0 0.033151783722227803 -0.0011486837713248045 0 0.033170763805057922 -0.0011166382841586854 0 0.033110521534703022 -0.0010134310972227207 0 0.033170763805057922 -0.0011166382841586854 0 0.033385768891226485 -0.0011321708627551497 0 0.033170763805057922 -0.0011166382841586854 0 0.033191066079690808 -0.0011628092517868944 0 0.033385768891226485 -0.0011321708627551497 0 0.033664829607694548 -0.00099705881162037539 0 0.033427911104465469 -0.0011208144858107123 0 0.034153882423097762 -0.00085793489394409895 0 0.033385768891226485 -0.0011321708627551497 0 0.03380780238925183 -0.00063527288979226524 0 0.033171851191197033 -0.0011091767927650243 0 0.033151783722227803 -0.0011486837713248045 0 0.033191066079690808 -0.0011628092517868944 0 0.033151783722227803 -0.0011486837713248045 0 0.033170763805057922 -0.0011166382841586854 0 0.033191066079690808 -0.0011628092517868944 0 0.03336247977387595 -0.00070026862253624454 0 0.033385768891226485 -0.0011321708627551497 0 0.032958438107857854 -0.00092032975194951546 0 0.03336247977387595 -0.00070026862253624454 0 0.032958438107857854 -0.00092032975194951546 0 0.033094282743295948 -0.00048791271008812118 0 0.03336247977387595 -0.00070026862253624454 0 0.033385768891226485 -0.0011321708627551497 0 0.03380780238925183 -0.00063527288979226524 0 0.033094043746949256 -0.001285837500693049 0 0.033385768891226485 -0.0011321708627551497 0 0.032958438107857854 -0.00092032975194951546 0 0.032493295581899201 -0.0012692468647657834 0 0.03233031418099435 -0.0008571638873672143 0 0.032958438107857854 -0.00092032975194951546 0 0.03233031418099435 -0.0008571638873672143 0 0.032291808396144081 -0.00054099926773636922 0 0.032665823188883052 -0.00047268221966850711 0 0.03233031418099435 -0.0008571638873672143 0 0.032958438107857854 -0.00092032975194951546 0 0.032665823188883052 -0.00047268221966850711 0 0.032958438107857854 -0.00092032975194951546 0 0.033094282743295948 -0.00048791271008812118 0 0.032665823188883052 -0.00047268221966850711 0 0.033094282743295948 -0.00048791271008812118 0 0.032665823188883052 -0.00047268221966850711 0 0.033066383907887548 -0.00010163482099022606 0 0.032665823188883052 -0.00047268221966850711 0 0.032314296792381236 1.0381806311666991e-06 0 0.032230195344513615 -0.00030250941158179448 0 0.032291808396144081 -0.00054099926773636922 0 0.032665823188883052 -0.00047268221966850711 0 0.032230195344513615 -0.00030250941158179448 0 0.032664783586530237 -0.00048951562120683884 0 0.0323388391893338 2.8568945819067321e-05 0 0.032665823188883052 -0.00047268221966850711 0 0.032541497446148128 -0.00010685162037716199 0 0.033066383907887548 -0.00010163482099022606 0 0.033094282743295948 -0.00048791271008812118 0 0.033066383907887548 -0.00010163482099022606 0 0.033589070288373921 -0.0002406610086322104 0 0.03336247977387595 -0.00070026862253624454 0 0.033094282743295948 -0.00048791271008812118 0 0.033589070288373921 -0.0002406610086322104 0 0.03336247977387595 -0.00070026862253624454 0 0.03380780238925183 -0.00063527288979226524 0 0.033589070288373921 -0.0002406610086322104 0 0.034114295217422298 -0.00027470481175333227 0 0.03380780238925183 -0.00063527288979226524 0 0.033589070288373921 -0.0002406610086322104 0 0.034113116671209268 2.8947008686985749e-06 0 0.034114295217422298 -0.00027470481175333227 0 0.033589070288373921 -0.0002406610086322104 0 0.034113116671209268 2.8947008686985749e-06 0 0.033589070288373921 -0.0002406610086322104 0 0.033672171715943243 0.00039616774482702357 0 0.034999644618138245 -4.6805766727269434e-09 0 0.034917370487137417 1.1489115382998587e-05 0 0.034999543394780133 2.7854890448064743e-07 0 0.033066383907887548 -0.00010163482099022606 0 0.033589070288373921 -0.0002406610086322104 0 0.033672171715943243 0.00039616774482702357 0 0.033066383907887548 -0.00010163482099022606 0 0.033672171715943243 0.00039616774482702357 0 0.032965048004912387 0.00037149858361955926 0 0.034924649335441198 7.9824162789656714e-05 0 0.034936280773034595 7.0370284894289756e-06 0 0.034888308120309408 -7.0936714213690644e-05 0 0.034276467586442594 0.00022012350820641425 0 0.033966336233526122 0.00015967924273165002 0 0.034626824948786897 0.00017867843961502522 0 0.034924649335441198 7.9824162789656714e-05 0 0.034917370487137417 1.1489115382998587e-05 0 0.034924649335441198 7.9824162789656714e-05 0 0.034917370487137417 1.1489115382998587e-05 0 0.034936280773034595 7.0370284894289756e-06 0 0.03458888237339644 0.0001949763411470473 0 0.034276467586442594 0.00022012350820641425 0 0.034917370487137417 1.1489115382998587e-05 0 0.034936280773034595 7.0370284894289756e-06 0 0.034999543394780133 2.7854890448064743e-07 0 0.034999543394780133 2.7854890448064743e-07 0 0.034804217641796607 -1.5904244532308707e-05 0 0.034475879265383085 0.00014737330236604343 0 0.034936280773034595 7.0370284894289756e-06 0 0.034999543394780133 2.7854890448064743e-07 0 0.034804217641796607 -1.5904244532308707e-05 0 0.034804217641796607 -1.5904244532308707e-05 0 0.034888308120309408 -7.0936714213690644e-05 0 0.034690984751548054 -0.00015953720150321991 0 0.034936280773034595 7.0370284894289756e-06 0 0.034804217641796607 -1.5904244532308707e-05 0 0.034888308120309408 -7.0936714213690644e-05 0 0.032541497446148128 -0.00010685162037716199 0 0.033066383907887548 -0.00010163482099022606 0 0.032965048004912387 0.00037149858361955926 0 0.0323388391893338 2.8568945819067321e-05 0 0.033320582194485797 3.5638779656805581e-05 0 0.033966336233526122 0.00015967924273165002 0 0.033320582194485797 3.5638779656805581e-05 0 0.032541497446148128 -0.00010685162037716199 0 0.032965048004912387 0.00037149858361955926 0 0.032368073279227055 0.00031155144328772074 0 0.032314296792381236 1.0381806311666991e-06 0 0.032037089230894739 0.00023643621856605758 0 0.031984409359799369 9.3383810592568854e-05 0 0.032037089230894739 0.00023643621856605758 0 0.031868698244489194 7.5950282191016366e-05 0 0.031984409359799369 9.3383810592568854e-05 0 0.034999543394780133 2.7854890448064743e-07 0 0.034475879265383085 0.00014737330236604343 0 0.034997006772794277 1.8483233188135656e-07 0 0.033320582194485797 3.5638779656805581e-05 0 0.032715991509316665 -7.3328248756144982e-05 0 0.033625822400476658 -0.00028084369195290407 0 0.033583875902058108 0.00014730873631844943 0 0.03230600716446342 -3.0998336653142555e-05 0 0.032715991509316665 -7.3328248756144982e-05 0 0.032427219132163565 -5.9777878638671545e-05 0 0.031868698244489194 7.5950282191016366e-05 0 0.03230600716446342 -3.0998336653142555e-05 0 0.031714845289611722 0.00011228870664415993 0 0.031868698244489194 7.5950282191016366e-05 0 0.031714845289611722 0.00011228870664415993 0 0.031984409359799369 9.3383810592568854e-05 0 0.033625822400476658 -0.00028084369195290407 0 0.033583875902058108 0.00014730873631844943 0 0.03396856312380598 0.00016936903113093802 0 0.033320582194485797 3.5638779656805581e-05 0 0.034368360765503425 -2.7063927544896113e-05 0 0.034804217641796607 -1.5904244532308707e-05 0 0.034690984751548054 -0.00015953720150321991 0 0.034596927668038284 -4.6562941186996021e-05 0 0.034104154293251289 -0.00025455540012594551 0 0.033625822400476658 -0.00028084369195290407 0 0.03396856312380598 0.00016936903113093802 0 0.034368360765503425 -2.7063927544896113e-05 0 0.034378527064660748 0.00019734782032132338 0 0.034804217641796607 -1.5904244532308707e-05 0 0.034596927668038284 -4.6562941186996021e-05 0 0.034475879265383085 0.00014737330236604343 0 0.033583875902058108 0.00014730873631844943 0 0.03396856312380598 0.00016936903113093802 0 0.034475879265383085 0.00014737330236604343 0 0.033583875902058108 0.00014730873631844943 0 0.034475879265383085 0.00014737330236604343 0 0.033449685967821101 0.00014593511918663436 0 0.034997006772794277 1.8483233188135656e-07 0 0.033449685967821101 0.00014593511918663436 0 0.031988075171601883 1.216060451141783e-06 0 0.034475879265383085 0.00014737330236604343 0 0.034997006772794277 1.8483233188135656e-07 0 0.033449685967821101 0.00014593511918663436 0 0.033583875902058108 0.00014730873631844943 0 0.033449685967821101 0.00014593511918663436 0 0.03230600716446342 -3.0998336653142555e-05 0 0.033449685967821101 0.00014593511918663436 0 0.031988075171601883 1.216060451141783e-06 0 0.03230600716446342 -3.0998336653142555e-05 0 0.031988075171601883 1.216060451141783e-06 0 0.03230600716446342 -3.0998336653142555e-05 0 0.030769771412337266 7.8879781642401982e-05 0 0.031988075171601883 1.216060451141783e-06 0 0.030769771412337266 7.8879781642401982e-05 0 0.027859714699491767 -3.047842400397186e-06 0 0.030769771412337266 7.8879781642401982e-05 0 0.030480063607151039 -0.00019093870416447825 0 0.027859714699491767 -3.047842400397186e-06 0 0.030480063607151039 -0.00019093870416447825 0 0.031504665173073938 -8.8451064612795837e-05 0 0.030723340672576632 -0.00080653817770630083 0 0.030769771412337266 7.8879781642401982e-05 0 0.030480063607151039 -0.00019093870416447825 0 0.031361247449591588 7.5120586566289896e-05 0 0.030480063607151039 -0.00019093870416447825 0 0.031361247449591588 7.5120586566289896e-05 0 0.031504665173073938 -8.8451064612795837e-05 0 0.03230600716446342 -3.0998336653142555e-05 0 0.030769771412337266 7.8879781642401982e-05 0 0.031361247449591588 7.5120586566289896e-05 0 0.031361247449591588 7.5120586566289896e-05 0 0.031714845289611722 0.00011228870664415993 0 0.031504665173073938 -8.8451064612795837e-05 0 0.03230600716446342 -3.0998336653142555e-05 0 0.031361247449591588 7.5120586566289896e-05 0 0.031714845289611722 0.00011228870664415993 0 0.031837605820895808 7.6907228236995222e-05 0 0.032402668158071989 -0.00036927699762894173 0 0.032314296792381236 1.0381806311666991e-06 0 0.031984409359799369 9.3383810592568854e-05 0 0.032230195344513615 -0.00030250941158179448 0 0.031714845289611722 0.00011228870664415993 0 0.031984409359799369 9.3383810592568854e-05 0 0.031741719665350838 -0.00019735132592571387 0 0.031984409359799369 9.3383810592568854e-05 0 0.032230195344513615 -0.00030250941158179448 0 0.031984504140378178 -0.00051729402478757462 0 0.032291808396144081 -0.00054099926773636922 0 0.032230195344513615 -0.00030250941158179448 0 0.031984504140378178 -0.00051729402478757462 0 0.031714845289611722 0.00011228870664415993 0 0.031741719665350838 -0.00019735132592571387 0 0.031504665173073938 -8.8451064612795837e-05 0 0.031504665173073938 -8.8451064612795837e-05 0 0.031180555435816094 -0.0016834617111381334 0 0.030723340672576632 -0.00080653817770630083 0 0.031741719665350838 -0.00019735132592571387 0 0.031504665173073938 -8.8451064612795837e-05 0 0.031385843263058905 -0.00067956921533521752 0 0.031741719665350838 -0.00019735132592571387 0 0.031385843263058905 -0.00067956921533521752 0 0.031559818297571471 -0.00074635626563255425 0 0.032402668158071989 -0.00036927699762894173 0 0.027755811083428793 -0.00044106057666635254 0 0.032129600641682556 -0.00030035668815651701 0 0.029021947041665386 -0.00070824081588305042 0 0.03233031418099435 -0.0008571638873672143 0 0.032291808396144081 -0.00054099926773636922 0 0.031984504140378178 -0.00051729402478757462 0 0.03233031418099435 -0.0008571638873672143 0 0.031984504140378178 -0.00051729402478757462 0 0.031841447280548607 -0.0011020303426265052 0 0.032493295581899201 -0.0012692468647657834 0 0.03233031418099435 -0.0008571638873672143 0 0.031841447280548607 -0.0011020303426265052 0 0.026974569614087823 7.5789690900181808e-05 0 0.027755811083428793 -0.00044106057666635254 0 0.026742864106110743 -0.00015747405174700623 0 0.029021947041665386 -0.00070824081588305042 0 0.026364541030348944 -5.6956772497157613e-05 0 0.026361230490758947 -0.00040458117271987415 0 0.026187300347218518 -0.00034081104890358322 0 0.029021947041665386 -0.00070824081588305042 0 0.027755811083428793 -0.00044106057666635254 0 0.027153030288526198 -0.00028724625760796367 0 0.027162834958814889 0.00010671315219847315 0 0.026845715448401045 -6.6058382242209886e-05 0 0.029021947041665386 -0.00070824081588305042 0 0.028543544812323039 -0.00054647330871433384 0 0.027162834958814889 0.00010671315219847315 0 0.026845715448401045 -6.6058382242209886e-05 0 0.026970133302005449 0.00016811873967792463 0 0.025974451436176754 5.2731608938563459e-08 0 0.02785073384315526 -5.47038006268261e-08 0 0.026970133302005449 0.00016811873967792463 0 0.025974451436176754 5.2731608938563459e-08 0 0.026845715448401045 -6.6058382242209886e-05 0 0.026970133302005449 0.00016811873967792463 0 0.030480063607151039 -0.00019093870416447825 0 0.027859714699491767 -3.047842400397186e-06 0 0.030004842882981591 -0.001345597960935556 0 0.027855282108065746 -2.7129794750416446e-07 0 0.028543544812323039 -0.00054647330871433384 0 0.031180555435816094 -0.0016834617111381334 0 0.030004842882981591 -0.001345597960935556 0 0.030723340672576632 -0.00080653817770630083 0 0.030480063607151039 -0.00019093870416447825 0 0.030004842882981591 -0.001345597960935556 0 0.030723340672576632 -0.00080653817770630083 0 0.018129384063373093 0.0001569111563518032 0 0.018269065094049439 5.0115114765974797e-05 0 0.01809849056791079 3.3836638124053279e-05 0 0.018129384063373093 0.0001569111563518032 0 0.017920394348369274 0.0001731308502380212 0 0.01809849056791079 3.3836638124053279e-05 0 0.017920394348369274 0.0001731308502380212 0 0.01809849056791079 3.3836638124053279e-05 0 0.018018599942532174 0.00022614557145654072 0 0.017920394348369274 0.0001731308502380212 0 0.017796021877978876 8.5655195758437935e-05 0 0.018111258506108931 0.00035930611014459228 0 0.018129384063373093 0.0001569111563518032 0 0.018274739931397617 0.00018908846172721315 0 0.018111258506108931 0.00035930611014459228 0 0.018129384063373093 0.0001569111563518032 0 0.017920394348369274 0.0001731308502380212 0 0.018111258506108931 0.00035930611014459228 0 0.018465584942391644 0.00027130042989329 0 0.018111258506108931 0.00035930611014459228 0 0.018557724195299823 0.00042762896117423129 0 0.018274739931397617 0.00018908846172721315 0 0.018465584942391644 0.00027130042989329 0 0.018111258506108931 0.00035930611014459228 0 0.018465584942391644 0.00027130042989329 0 0.018575398154305561 0.00016457117611782821 0 0.018557724195299823 0.00042762896117423129 0 0.018575398154305561 0.00016457117611782821 0 0.018557724195299823 0.00042762896117423129 0 0.018806704219704283 9.9926399294238331e-05 0 0.018465584942391644 0.00027130042989329 0 0.018575398154305561 0.00016457117611782821 0 0.018414034459435843 0.00012069802857109852 0 0.018223190541899897 0.00086279507194530569 0 0.022183829965634026 -0.00037823017561148907 0 0.018575398154305561 0.00016457117611782821 0 0.018414034459435843 0.00012069802857109852 0 0.018581536441111116 -4.8566499323468744e-05 0 0.022183829965634026 -0.00037823017561148907 0 0.021976118087365621 -0.00014745907333096864 0 0.018575398154305561 0.00016457117611782821 0 0.018581536441111116 -4.8566499323468744e-05 0 0.018806704219704283 9.9926399294238331e-05 0 0.018414034459435843 0.00012069802857109852 0 0.018269065094049439 5.0115114765974797e-05 0 0.01837337750686395 -0.0001049518284471607 0 0.018129384063373093 0.0001569111563518032 0 0.018274739931397617 0.00018908846172721315 0 0.018269065094049439 5.0115114765974797e-05 0 0.018274739931397617 0.00018908846172721315 0 0.018414034459435843 0.00012069802857109852 0 0.018269065094049439 5.0115114765974797e-05 0 0.018274739931397617 0.00018908846172721315 0 0.018465584942391644 0.00027130042989329 0 0.018414034459435843 0.00012069802857109852 0 0.027131693310722516 4.9213107416565414e-05 0 0.026815701541393427 -0.0001579451307478238 0 0.022800705460610225 0.0011797332134737487 0 0.018269065094049439 5.0115114765974797e-05 0 0.01837337750686395 -0.0001049518284471607 0 0.01809849056791079 3.3836638124053279e-05 0 0.02558959960739356 -0.00061906842154897744 0 0.026185838691622297 -0.00077258175681459834 0 0.025445733914717029 -0.00071472357933343139 0 0.024426778537371026 -0.00048063565472144235 0 0.028680002035837163 0.00061856143752280412 0 0.024426778537371026 -0.00048063565472144235 0 0.025625079173621536 -0.00073244464131021496 0 0.018414034459435843 0.00012069802857109852 0 0.01837337750686395 -0.0001049518284471607 0 0.018565987488533085 2.5133358911313274e-06 0 0.026185838691622297 -0.00077258175681459834 0 0.025445733914717029 -0.00071472357933343139 0 0.027687219758355974 -0.0014428339351339416 0 0.028680002035837163 0.00061856143752280412 0 0.031030833010370046 -0.00084255949373292921 0 0.022183829965634026 -0.00037823017561148907 0 0.026825894721845 -0.0014895701335103442 0 0.024426778537371026 -0.00048063565472144235 0 0.022183829965634026 -0.00037823017561148907 0 0.025590549899060851 -0.00062483290157965866 0 0.026185838691622297 -0.00077258175681459834 0 0.027015929078407188 0.00031837571368757348 0 0.026185838691622297 -0.00077258175681459834 0 0.027015929078407188 0.00031837571368757348 0 0.027306019692430825 -0.0011076453055873924 0 0.027015929078407188 0.00031837571368757348 0 0.027306019692430825 -0.0011076453055873924 0 0.028124036281925963 -0.00081180556509971179 0 0.026185838691622297 -0.00077258175681459834 0 0.027306019692430825 -0.0011076453055873924 0 0.027687219758355974 -0.0014428339351339416 0 0.027306019692430825 -0.0011076453055873924 0 0.027680082749689364 -0.0014331054287893862 0 0.028124036281925963 -0.00081180556509971179 0 0.03449077766753423 -1.3839824601898681e-05 0 0.034478443303933924 6.0657169935369771e-05 0 0.034493904028248708 5.117173172989393e-05 0 0.02947392511578081 -0.00028044945684888099 0 0.031030833010370046 -0.00084255949373292921 0 0.03449077766753423 -1.3839824601898681e-05 0 0.034695808762890017 3.8741186756171096e-05 0 0.034523763674168886 8.3777135250801614e-05 0 0.03449077766753423 -1.3839824601898681e-05 0 0.034523763674168886 8.3777135250801614e-05 0 0.034493904028248708 5.117173172989393e-05 0 0.028680002035837163 0.00061856143752280412 0 0.032303657854647248 0.0011259117491885736 0 0.034695808762890017 3.8741186756171096e-05 0 0.034712955957707965 4.379155657723365e-05 0 0.034523763674168886 8.3777135250801614e-05 0 0.028133995928712342 0.0014158469117147633 0 0.028896585335903408 0.001914056218764262 0 0.02880495746951452 0.0012092204226747795 0 0.028680002035837163 0.00061856143752280412 0 0.022885066317162098 0.0010058352611631812 0 0.024426778537371026 -0.00048063565472144235 0 0.022885066317162098 0.0010058352611631812 0 0.022885066317162098 0.0010058352611631812 0 0.020657933578029915 0.00071797872317342151 0 0.022885066317162098 0.0010058352611631812 0 0.027307002594025447 0.0010415889374463731 0 0.02880495746951452 0.0012092204226747795 0 0.029364448051372748 0.0016486368436526128 0 0.029518897153138126 0.0010477239716356742 0 0.022700266666882744 0.0014096296136636337 0 0.023922896137124498 0.0012145040650466236 0 0.023945281602966655 0.0011192302197976249 0 0.028896585335903408 0.001914056218764262 0 0.029364448051372748 0.0016486368436526128 0 0.029654247177915708 0.00238208978102668 0 0.028896585335903408 0.001914056218764262 0 0.02880495746951452 0.0012092204226747795 0 0.029364448051372748 0.0016486368436526128 0 0.034695808762890017 3.8741186756171096e-05 0 0.034712955957707965 4.379155657723365e-05 0 0.034755492545365044 5.2497683736021376e-05 0 0.029364448051372748 0.0016486368436526128 0 0.029933870828183527 0.001677748148192967 0 0.029654247177915708 0.00238208978102668 0 0.029933870828183527 0.001677748148192967 0 0.030232248514924925 0.0022668281086407754 0 0.029654247177915708 0.00238208978102668 0 0.029933870828183527 0.001677748148192967 0 0.030686414645770526 0.0017227203433250412 0 0.030232248514924925 0.0022668281086407754 0 0.029933870828183527 0.001677748148192967 0 0.030686414645770526 0.0017227203433250412 0 0.030213693450830983 0.00089045141379449596 0 0.030686414645770526 0.0017227203433250412 0 0.030893134753201077 0.00073131412756226766 0 0.030213693450830983 0.00089045141379449596 0 0.029364448051372748 0.0016486368436526128 0 0.029933870828183527 0.001677748148192967 0 0.029518897153138126 0.0010477239716356742 0 0.029933870828183527 0.001677748148192967 0 0.029518897153138126 0.0010477239716356742 0 0.030213693450830983 0.00089045141379449596 0 0.034677729500647562 0.0009087860133251103 0 0.035130664235076277 0.00089056986445948513 0 0.034872250543593691 0.0015819047994923405 0 0.03499531607125457 0.0014162595634964782 0 0.034546126670434399 0.0020374275743272139 0 0.034561744415565809 0.0023078512646231555 0 0.034479104701939406 0.0021851134111797264 0 0.034340369699918084 0.0023976938156665619 0 0.034561744415565809 0.0023078512646231555 0 0.034422125858394936 0.0025202694253076436 0 0.034501984635934027 0.002656982231524435 0 0.032764310669894506 0.0021854404261607836 0 0.0305377346841697 0.0015709621464255164 0 0.034561744415565809 0.0023078512646231555 0 0.034340369699918084 0.0023976938156665619 0 0.034422125858394936 0.0025202694253076436 0 0.034546126670434399 0.0020374275743272139 0 0.034232948448529463 0.002492259191210064 0 0.034340369699918084 0.0023976938156665619 0 0.034341474526128131 0.0025836802958941279 0 0.034191095344431238 0.0025467211666765337 0 0.034340369699918084 0.0023976938156665619 0 0.034422125858394936 0.0025202694253076436 0 0.034341474526128131 0.0025836802958941279 0 0.034341474526128131 0.0025836802958941279 0 0.034328373833042138 0.0028916690966018536 0 0.034191095344431238 0.0025467211666765337 0 0.034341474526128131 0.0025836802958941279 0 0.034410923517828998 0.0026996831740933418 0 0.034328373833042138 0.0028916690966018536 0 0.034422125858394936 0.0025202694253076436 0 0.034341474526128131 0.0025836802958941279 0 0.034410923517828998 0.0026996831740933418 0 0.026921653773753874 0.0002935848775972137 0 0.026839926146229882 0.00064322205556905222 0 0.025354676184795401 0.00074525117266604167 0 0.034410923517828998 0.0026996831740933418 0 0.034446851060966691 0.0026979182358423909 0 0.034441954087824578 0.002675452927475661 0 0.034230542587409131 0.0017187066610726423 0 0.0305377346841697 0.0015709621464255164 0 0.026597472143532787 0.0016255280814191767 0 0.0305377346841697 0.0015709621464255164 0 0.034422125858394936 0.0025202694253076436 0 0.034410923517828998 0.0026996831740933418 0 0.034501984635934027 0.002656982231524435 0 0.018791142370389615 0.00034868014880623781 0 0.018947705173541388 -6.1845677010460525e-05 0 0.01837646983081723 0.00010543206822036678 0 0.026597472143532787 0.0016255280814191767 0 0.022466501994620806 0.00046662829657485687 0 0.034410923517828998 0.0026996831740933418 0 0.034446851060966691 0.0026979182358423909 0 0.034328373833042138 0.0028916690966018536 0 0.02550631241943932 0.0026959363484226903 0 0.025949649162905458 0.00072386880725677815 0 0.027787579493497618 0.0019785284834796355 0 0.026597472143532787 0.0016255280814191767 0 0.031816120619776872 0.0023099744676485078 0 0.025949649162905458 0.00072386880725677815 0 0.027787579493497618 0.0019785284834796355 0 0.028238959140913865 -8.9817679377231613e-06 0 0.023945281602966655 0.0011192302197976249 0 0.025354676184795401 0.00074525117266604167 0 0.025304280535794994 0.00096374760530662951 0 0.023922896137124498 0.0012145040650466236 0 0.023945281602966655 0.0011192302197976249 0 0.025304280535794994 0.00096374760530662951 0 0.017920394348369274 0.0001731308502380212 0 0.018018599942532174 0.00022614557145654072 0 0.018207009212635253 0.00035967027900439476 0 0.020657933578029915 0.00071797872317342151 0 0.021233628894373122 0.00057043686976088334 0 0.027307002594025447 0.0010415889374463731 0 0.027384106476590474 0.00094647806446246569 0 0.026597472143532787 0.0016255280814191767 0 0.021233628894373122 0.00057043686976088334 0 0.0305377346841697 0.0015709621464255164 0 0.027384106476590474 0.00094647806446246569 0 0.026839926146229882 0.00064322205556905222 0 0.025354676184795401 0.00074525117266604167 0 0.025304280535794994 0.00096374760530662951 0 0.018207009212635253 0.00035967027900439476 0 0.01837646983081723 0.00010543206822036678 0 0.017796021877978876 8.5655195758437935e-05 0 0.018791142370389615 0.00034868014880623781 0 0.018207009212635253 0.00035967027900439476 0 0.01837646983081723 0.00010543206822036678 0 0.017920394348369274 0.0001731308502380212 0 0.018207009212635253 0.00035967027900439476 0 0.017796021877978876 8.5655195758437935e-05 0 0.017796021877978876 8.5655195758437935e-05 0 0.018228464160705851 -0.00016976324511231577 0 0.018181714232261798 -0.00060153856848407577 0 0.01837646983081723 0.00010543206822036678 0 0.018228464160705851 -0.00016976324511231577 0 0.018686840210916451 -0.00040381413195297628 0 0.018228464160705851 -0.00016976324511231577 0 0.018181714232261798 -0.00060153856848407577 0 0.018686840210916451 -0.00040381413195297628 0 0.01837646983081723 0.00010543206822036678 0 0.017796021877978876 8.5655195758437935e-05 0 0.018228464160705851 -0.00016976324511231577 0 0.018181714232261798 -0.00060153856848407577 0 0.018686840210916451 -0.00040381413195297628 0 0.018705988220068529 -0.00084575108260700506 0 0.018181714232261798 -0.00060153856848407577 0 0.018705988220068529 -0.00084575108260700506 0 0.018115724197711611 -0.0012398488029919863 0 0.017796021877978876 8.5655195758437935e-05 0 0.018181714232261798 -0.00060153856848407577 0 0.017568660470127839 -0.0011256524084758425 0 0.018181714232261798 -0.00060153856848407577 0 0.017568660470127839 -0.0011256524084758425 0 0.018115724197711611 -0.0012398488029919863 0 0.025949649162905458 0.00072386880725677815 0 0.026392445477566702 -0.0012650097124729906 0 0.028238959140913865 -8.9817679377231613e-06 0 0.023014531614032406 -0.0003478367917601779 0 0.025939073628653827 0.0002677463000211593 0 0.025398989253919872 0.0012844688602809994 0 0.022959558445097603 -0.00080164444627512364 0 0.026846996169752255 0.00065526732236697053 0 0.018947705173541388 -6.1845677010460525e-05 0 0.018686840210916451 -0.00040381413195297628 0 0.019129440215364654 -0.00054121061428949902 0 0.018947705173541388 -6.1845677010460525e-05 0 0.01837646983081723 0.00010543206822036678 0 0.018686840210916451 -0.00040381413195297628 0 0.022466501994620806 0.00046662829657485687 0 0.022959558445097603 -0.00080164444627512364 0 0.018686840210916451 -0.00040381413195297628 0 0.019060794266433454 -0.000592689326086939 0 0.019129440215364654 -0.00054121061428949902 0 0.018686840210916451 -0.00040381413195297628 0 0.018705988220068529 -0.00084575108260700506 0 0.018853261562066952 -0.00066561522457751732 0 0.018705988220068529 -0.00084575108260700506 0 0.019186095805215322 -0.0011063387449770318 0 0.018624398895045406 -0.0012414084481900934 0 0.018705988220068529 -0.00084575108260700506 0 0.018989193994782896 -0.00081728710197818554 0 0.019100820470747858 -0.0010551068173687494 0 0.018676274209243532 -0.00075916523879812235 0 0.019849067359227496 -0.0010485151398428626 0 0.018686840210916451 -0.00040381413195297628 0 0.018853261562066952 -0.00066561522457751732 0 0.019060794266433454 -0.000592689326086939 0 0.018989193994782896 -0.00081728710197818554 0 0.018853261562066952 -0.00066561522457751732 0 0.019060794266433454 -0.000592689326086939 0 0.018705988220068529 -0.00084575108260700506 0 0.018989193994782896 -0.00081728710197818554 0 0.018853261562066952 -0.00066561522457751732 0 0.021913272445165631 -0.00066410523901743704 0 0.024469933611610029 0.00045972082288870775 0 0.023014531614032406 -0.0003478367917601779 0 0.02342884142003223 -0.0021512322240936528 0 0.025939073628653827 0.0002677463000211593 0 0.022563622805997951 0.00021515799785381436 0 0.023081724062651271 -9.0946344778828364e-05 0 0.023417199385135461 0.00022241068913478735 0 0.022959558445097603 -0.00080164444627512364 0 0.021913272445165631 -0.00066410523901743704 0 0.018989193994782896 -0.00081728710197818554 0 0.019060794266433454 -0.000592689326086939 0 0.019241204651078109 -0.00092444432781683516 0 0.019060794266433454 -0.000592689326086939 0 0.019144511103160313 -0.00053809059760161475 0 0.019241204651078109 -0.00092444432781683516 0 0.022208437068597646 -0.0011046426495797674 0 0.022959558445097603 -0.00080164444627512364 0 0.018989193994782896 -0.00081728710197818554 0 0.019241204651078109 -0.00092444432781683516 0 0.019100820470747858 -0.0010551068173687494 0 0.021197049422044738 -0.00094508498105859114 0 0.021164144013372414 -0.00080874276178336706 0 0.021273199775363148 -0.00086879840913998497 0 0.021913272445165631 -0.00066410523901743704 0 0.019849067359227496 -0.0010485151398428626 0 0.021913272445165631 -0.00066410523901743704 0 0.021137746758831583 -0.00084818396220529588 0 0.020006527153855366 -0.0012613674531913404 0 0.019816136665476162 -0.00094155322291557763 0 0.02059279764524264 -0.0013552606095480774 0 0.021137746758831583 -0.00084818396220529588 0 0.021698638655175087 -0.00061855014937985163 0 0.022630675392502232 -8.5815683025060465e-05 0 0.023329471251691023 -0.00046459219126452868 0 0.023081724062651271 -9.0946344778828364e-05 0 0.020126762970534218 -0.0014616276030064146 0 0.020006527153855366 -0.0012613674531913404 0 0.02059279764524264 -0.0013552606095480774 0 0.020126762970534218 -0.0014616276030064146 0 0.020006527153855366 -0.0012613674531913404 0 0.019741462244360252 -0.0013562552257658908 0 0.022563622805997951 0.00021515799785381436 0 0.022630675392502232 -8.5815683025060465e-05 0 0.023081724062651271 -9.0946344778828364e-05 0 0.019816136665476162 -0.00094155322291557763 0 0.019668421023007684 -0.0011063438292258771 0 0.019810306633336675 -0.0011757655094107389 0 0.020006527153855366 -0.0012613674531913404 0 0.019816136665476162 -0.00094155322291557763 0 0.019810306633336675 -0.0011757655094107389 0 0.021137746758831583 -0.00084818396220529588 0 0.019849067359227496 -0.0010485151398428626 0 0.019816136665476162 -0.00094155322291557763 0 0.01954422318902296 -0.00079644416015888745 0 0.019668421023007684 -0.0011063438292258771 0 0.019668421023007684 -0.0011063438292258771 0 0.019741462244360252 -0.0013562552257658908 0 0.019337688506652923 -0.0014099343694004261 0 0.019668421023007684 -0.0011063438292258771 0 0.019810306633336675 -0.0011757655094107389 0 0.019741462244360252 -0.0013562552257658908 0 0.020006527153855366 -0.0012613674531913404 0 0.019810306633336675 -0.0011757655094107389 0 0.019741462244360252 -0.0013562552257658908 0 0.019849067359227496 -0.0010485151398428626 0 0.018446524507166308 -0.0017096636841524837 0 0.01954422318902296 -0.00079644416015888745 0 0.019337688506652923 -0.0014099343694004261 0 0.018716384950983111 -0.0015988757408870236 0 0.019186095805215322 -0.0011063387449770318 0 0.018624398895045406 -0.0012414084481900934 0 0.018498939834941927 -0.001771539752425115 0 0.01954422318902296 -0.00079644416015888745 0 0.019668421023007684 -0.0011063438292258771 0 0.019337688506652923 -0.0014099343694004261 0 0.018851025147526491 -0.0023762345502616692 0 0.018607940797704517 -0.0022201957669939084 0 0.017895467120296053 -0.0020539509017984126 0 0.019337688506652923 -0.0014099343694004261 0 0.019090904579904672 -0.002119768898700268 0 0.018716384950983111 -0.0015988757408870236 0 0.018674379797190527 -0.0019692819747449352 0 0.018446524507166308 -0.0017096636841524837 0 0.018607940797704517 -0.0022201957669939084 0 0.018708123481482666 -0.0021822185135791246 0 0.018347957372880478 -0.0016835065159972334 0 0.018851025147526491 -0.0023762345502616692 0 0.018607940797704517 -0.0022201957669939084 0 0.018710685299660877 -0.0021809133186795125 0 0.018657478406554892 -0.0019879011910459714 0 0.018674379797190527 -0.0019692819747449352 0 0.018250092586178872 -0.0014066262866198763 0 0.018230693176433152 -0.0013791042673357999 0 0.018337539214756154 -0.0013350574145817821 0 0.018674379797190527 -0.0019692819747449352 0 0.01899778677167089 -0.0016206384534899344 0 0.01804550218316955 -0.0019731609978390118 0 0.018674379797190527 -0.0019692819747449352 0 0.019337688506652923 -0.0014099343694004261 0 0.019090904579904672 -0.002119768898700268 0 0.019828461304047161 -0.0018414797065539345 0 0.019741462244360252 -0.0013562552257658908 0 0.019337688506652923 -0.0014099343694004261 0 0.019828461304047161 -0.0018414797065539345 0 0.020126762970534218 -0.0014616276030064146 0 0.019741462244360252 -0.0013562552257658908 0 0.019828461304047161 -0.0018414797065539345 0 0.01899778677167089 -0.0016206384534899344 0 0.020034324881764418 -0.0010134700513694962 0 0.020126762970534218 -0.0014616276030064146 0 0.019828461304047161 -0.0018414797065539345 0 0.020568907402975244 -0.0015602962296877812 0 0.017568660470127839 -0.0011256524084758425 0 0.017848088643493153 -0.001628643841782549 0 0.018115724197711611 -0.0012398488029919863 0 0.017568660470127839 -0.0011256524084758425 0 0.017848088643493153 -0.001628643841782549 0 0.017421848218714793 -0.0017849052904667581 0 0.017848088643493153 -0.001628643841782549 0 0.018115724197711611 -0.0012398488029919863 0 0.018312408454866647 -0.0017527288789564012 0 0.018705988220068529 -0.00084575108260700506 0 0.018624398895045406 -0.0012414084481900934 0 0.018115724197711611 -0.0012398488029919863 0 0.018131928436065772 -0.0013019395554201203 0 0.018446524507166308 -0.0017096636841524837 0 0.018624398895045406 -0.0012414084481900934 0 0.018115724197711611 -0.0012398488029919863 0 0.018498939834941927 -0.001771539752425115 0 0.017848088643493153 -0.001628643841782549 0 0.017956925280542813 -0.0018558147333851674 0 0.018312408454866647 -0.0017527288789564012 0 0.017956925280542813 -0.0018558147333851674 0 0.017895467120296053 -0.0020539509017984126 0 0.017726982509921236 -0.0019445133640172071 0 0.01804550218316955 -0.0019731609978390118 0 0.017966051259391016 -0.0021299481400523027 0 0.017956925280542813 -0.0018558147333851674 0 0.018093331012834255 -0.0019319619998657393 0 0.017895467120296053 -0.0020539509017984126 0 0.018607940797704517 -0.0022201957669939084 0 0.018347957372880478 -0.0016835065159972334 0 0.018093331012834255 -0.0019319619998657393 0 0.017956925280542813 -0.0018558147333851674 0 0.018312408454866647 -0.0017527288789564012 0 0.018093331012834255 -0.0019319619998657393 0 0.018446524507166308 -0.0017096636841524837 0 0.018222467789804089 -0.0018774842836079596 0 0.018607940797704517 -0.0022201957669939084 0 0.018093331012834255 -0.0019319619998657393 0 0.017895467120296053 -0.0020539509017984126 0 0.017791471196473452 -0.0020683637681000455 0 0.017895467120296053 -0.0020539509017984126 0 0.017799539595521652 -0.0020726087628912607 0 0.017895467120296053 -0.0020539509017984126 0 0.017799539595521652 -0.0020726087628912607 0 0.017726982509921236 -0.0019445133640172071 0 0.017767173558189062 -0.0021794900746749165 0 0.017799539595521652 -0.0020726087628912607 0 0.017726982509921236 -0.0019445133640172071 0 0.017767173558189062 -0.0021794900746749165 0 0.017726982509921236 -0.0019445133640172071 0 0.017421848218714793 -0.0017849052904667581 0 0.017848088643493153 -0.001628643841782549 0 0.017956925280542813 -0.0018558147333851674 0 0.017726982509921236 -0.0019445133640172071 0 0.017848088643493153 -0.001628643841782549 0 0.017726982509921236 -0.0019445133640172071 0 0.017421848218714793 -0.0017849052904667581 0 0.014043625874813198 -0.00097168209087097044 0 0.013664724431554087 -0.0011471429801049289 0 0.017767173558189062 -0.0021794900746749165 0 0.017421848218714793 -0.0017849052904667581 0 0.016736558892472851 -0.0020773410964296641 0 0.011417575136860564 0.00033762427026713421 0 0.010589313554619067 -0.00024429211366622293 0 0.011519215487912307 -0.00024375652378957207 0 0.016783859034789374 -0.0013742200866990518 0 0.016166397056480337 -0.00085095078664186574 0 0.015853858390426252 -0.0016153445000174035 0 0.016736558892472851 -0.0020773410964296641 0 0.016783859034789374 -0.0013742200866990518 0 0.015853858390426252 -0.0016153445000174035 0 0.016736558892472851 -0.0020773410964296641 0 0.015853858390426252 -0.0016153445000174035 0 0.015133160201972003 -0.0016314243780986759 0 0.013664724431554087 -0.0011471429801049289 0 0.013525946789665622 -0.0011836604855339646 0 0.017568660470127839 -0.0011256524084758425 0 0.017421848218714793 -0.0017849052904667581 0 0.016783859034789374 -0.0013742200866990518 0 0.017421848218714793 -0.0017849052904667581 0 0.016736558892472851 -0.0020773410964296641 0 0.016783859034789374 -0.0013742200866990518 0 0.017796021877978876 8.5655195758437935e-05 0 0.017568660470127839 -0.0011256524084758425 0 0.016906205829512296 -0.00063968164867579159 0 0.017568660470127839 -0.0011256524084758425 0 0.016783859034789374 -0.0013742200866990518 0 0.016906205829512296 -0.00063968164867579159 0 0.016783859034789374 -0.0013742200866990518 0 0.016906205829512296 -0.00063968164867579159 0 0.016166397056480337 -0.00085095078664186574 0 0.016906205829512296 -0.00063968164867579159 0 0.016166397056480337 -0.00085095078664186574 0 0.016242025778768279 0.00024482070369694607 0 0.017796021877978876 8.5655195758437935e-05 0 0.016906205829512296 -0.00063968164867579159 0 0.016242025778768279 0.00024482070369694607 0 0.017732964288548439 0.00013410656332063305 0 0.017286481572787001 0.00023583831832989314 0 0.014179428806837417 0.00045601167348016978 0 0.014925971698298899 -0.00053558148656049581 0 0.013744783174202153 -0.00020078422656444916 0 0.016334771546371637 0.00068441012128772269 0 0.014975258724551908 -0.00058632359927729568 0 0.017286481572787001 0.00023583831832989314 0 0.016334771546371637 0.00068441012128772269 0 0.016166397056480337 -0.00085095078664186574 0 0.016242025778768279 0.00024482070369694607 0 0.015422872532591381 -0.00066141453745846514 0 0.016242025778768279 0.00024482070369694607 0 0.014883601102573231 0.00028293799162951221 0 0.015422872532591381 -0.00066141453745846514 0 0.014975258724551908 -0.00058632359927729568 0 0.015869022920767906 -0.0016042247502428266 0 0.016166397056480337 -0.00085095078664186574 0 0.015422872532591381 -0.00066141453745846514 0 0.015853858390426252 -0.0016153445000174035 0 0.014272791839359636 -0.00078201789891937218 0 0.015133160201972003 -0.0016314243780986759 0 0.013329946446554809 -0.00088237660421528635 0 0.014925971698298899 -0.00053558148656049581 0 0.014272791839359636 -0.00078201789891937218 0 0.013744783174202153 -0.00020078422656444916 0 0.014925971698298899 -0.00053558148656049581 0 0.014272791839359636 -0.00078201789891937218 0 0.015133160201972003 -0.0016314243780986759 0 0.01276798668705577 -0.00054008763257384364 0 0.011958939153260153 -0.00081683617779975673 0 0.013329946446554809 -0.00088237660421528635 0 0.01276798668705577 -0.00054008763257384364 0 0.011958939153260153 -0.00081683617779975673 0 0.012116976417848337 -0.00026217775575184142 0 0.013525946789665622 -0.0011836604855339646 0 0.013301795355106505 -0.0009114851463710344 0 0.014925971698298899 -0.00053558148656049581 0 0.015853858390426252 -0.0016153445000174035 0 0.015133160201972003 -0.0016314243780986759 0 0.010589313554619067 -0.00024429211366622293 0 0.011958939153260153 -0.00081683617779975673 0 0.011519215487912307 -0.00024375652378957207 0 0.011958939153260153 -0.00081683617779975673 0 0.011519215487912307 -0.00024375652378957207 0 0.012116976417848337 -0.00026217775575184142 0 0.011417575136860564 0.00033762427026713421 0 0.011519215487912307 -0.00024375652378957207 0 0.012116976417848337 -0.00026217775575184142 0 0.011417575136860564 0.00033762427026713421 0 0.012116976417848337 -0.00026217775575184142 0 0.012800462977204089 -7.8909055647864476e-06 0 0.01276798668705577 -0.00054008763257384364 0 0.012116976417848337 -0.00026217775575184142 0 0.012800462977204089 -7.8909055647864476e-06 0 0.010356398105601593 0.00022070597041007938 0 0.012193286549857463 0.00012892838558978292 0 0.01276798668705577 -0.00054008763257384364 0 0.012800462977204089 -7.8909055647864476e-06 0 0.01321203228694425 -0.00061285263156150036 0 0.012800462977204089 -7.8909055647864476e-06 0 0.01321203228694425 -0.00061285263156150036 0 0.013495176788025818 -0.00039065328057257605 0 0.01276798668705577 -0.00054008763257384364 0 0.01321203228694425 -0.00061285263156150036 0 0.013329946446554809 -0.00088237660421528635 0 0.01321203228694425 -0.00061285263156150036 0 0.013329946446554809 -0.00088237660421528635 0 0.013264499524400659 -0.00075091967076225538 0 0.01321203228694425 -0.00061285263156150036 0 0.013387837968269898 -0.00073368194933073178 0 0.013495176788025818 -0.00039065328057257605 0 0.015309419585950839 0.00016088944168255121 0 0.015290287791657316 0.00020076134603345258 0 0.015320285508465151 0.00019433742015560209 0 0.01702307014231752 0.00020177628208939126 0 0.012193286549857463 0.00012892838558978292 0 0.01321203228694425 -0.00061285263156150036 0 0.013387837968269898 -0.00073368194933073178 0 0.013264499524400659 -0.00075091967076225538 0 0.01702307014231752 0.00020177628208939126 0 0.016805930028713535 0.00056788499280277494 0 0.0081382471565303281 0.00027587961464472876 0 0.0085290171346062704 0.00040004479553519502 0 0.0081439579553655248 0.00048398157959080696 0 0.012193286549857463 0.00012892838558978292 0 0.016805930028713535 0.00056788499280277494 0 0.012686153945582777 0.00014539961797754009 0 0.013179133404496873 0.00051916237532383884 0 0.013587115303040213 -0.00012931348928877848 0 0.012539460093615496 0.0015906525637233023 0 0.013179133404496873 0.00051916237532383884 0 0.013903966046542966 0.00046953631056469863 0 0.010334875833199178 0.00065654365388761852 0 0.012193286549857463 0.00012892838558978292 0 0.012539460093615496 0.0015906525637233023 0 0.012686153945582777 0.00014539961797754009 0 0.013179133404496873 0.00051916237532383884 0 0.015238520196385693 0.00030508756362362211 0 0.015398876834272981 0.00061039470134935457 0 0.016078949788692058 4.3401678443319584e-05 0 0.012604550898322527 0.00065364343119019735 0 0.012531698157294381 0.00048222097204567567 0 0.012699678810727321 0.00057800746453332127 0 0.012604550898322527 0.00065364343119019735 0 0.012491451371835879 0.00064950245667893538 0 0.012565505165951191 0.00058488962535203914 0 0.010334875833199178 0.00065654365388761852 0 0.013946038584128646 0.00042820244252192658 0 0.012528948758540966 0.00046896722021663934 0 0.013946038584128646 0.00042820244252192658 0 0.013946038584128646 0.00042820244252192658 0 0.016360851171167232 0.00025108186364259939 0 0.016805930028713535 0.00056788499280277494 0 0.013946038584128646 0.00042820244252192658 0 0.013179133404496873 0.00051916237532383884 0 0.013587115303040213 -0.00012931348928877848 0 0.013903966046542966 0.00046953631056469863 0 0.012531698157294381 0.00048222097204567567 0 0.012699678810727321 0.00057800746453332127 0 0.012706003866110519 0.00043956021105035186 0 0.012531698157294381 0.00048222097204567567 0 0.012706003866110519 0.00043956021105035186 0 0.012681840381289519 0.00035201264408352086 0 0.012811724607190834 0.00064869770207568974 0 0.012699678810727321 0.00057800746453332127 0 0.012813258294027676 0.00050423321391707696 0 0.012699678810727321 0.00057800746453332127 0 0.012706003866110519 0.00043956021105035186 0 0.012813258294027676 0.00050423321391707696 0 0.012706003866110519 0.00043956021105035186 0 0.012806931184858823 0.00038373453624328605 0 0.012813258294027676 0.00050423321391707696 0 0.012806931184858823 0.00038373453624328605 0 0.012728209528259503 0.00033697355361834996 0 0.012875168804089151 0.00020013433845112317 0 0.012728209528259503 0.00033697355361834996 0 0.012689636010478707 0.00034975804342291471 0 0.012875168804089151 0.00020013433845112317 0 0.016360851171167232 0.00025108186364259939 0 0.015644999495723712 0.00030305068825459076 0 0.021055596964158697 0.00076030740369732806 0 0.021047367756331231 0.00086020764897626377 0 0.020913708826983294 0.00087632436166252907 0 0.012706003866110519 0.00043956021105035186 0 0.012806931184858823 0.00038373453624328605 0 0.012728209528259503 0.00033697355361834996 0 0.012706003866110519 0.00043956021105035186 0 0.012728209528259503 0.00033697355361834996 0 0.012681840381289519 0.00035201264408352086 0 0.014960112960232849 0.00055218427805387793 0 0.016360851171167232 0.00025108186364259939 0 0.021055596964158697 0.00076030740369732806 0 0.021047367756331231 0.00086020764897626377 0 0.02110097194373272 0.00083490049787059346 0 0.016805930028713535 0.00056788499280277494 0 0.016360851171167232 0.00025108186364259939 0 0.021187538453496302 0.00071502223234547072 0 0.021055596964158697 0.00076030740369732806 0 0.021160070273652968 0.00081021914534820617 0 0.021272921174247159 0.0008333365190930401 0 0.021187538453496302 0.00071502223234547072 0 0.021160070273652968 0.00081021914534820617 0 0.021055596964158697 0.00076030740369732806 0 0.02110097194373272 0.00083490049787059346 0 0.021160070273652968 0.00081021914534820617 0 0.02110097194373272 0.00083490049787059346 0 0.021160070273652968 0.00081021914534820617 0 0.021140917730780254 0.00091171403736125059 0 0.021272921174247159 0.0008333365190930401 0 0.021160070273652968 0.00081021914534820617 0 0.021221422438759237 0.00093167411432275586 0 0.021160070273652968 0.00081021914534820617 0 0.021221422438759237 0.00093167411432275586 0 0.021140917730780254 0.00091171403736125059 0 0.021221422438759237 0.00093167411432275586 0 0.021140917730780254 0.00091171403736125059 0 0.021195246729789161 0.00099482684601323937 0 0.021140917730780254 0.00091171403736125059 0 0.021195246729789161 0.00099482684601323937 0 0.021128581159344673 0.0010119710291377722 0 0.021221422438759237 0.00093167411432275586 0 0.021195246729789161 0.00099482684601323937 0 0.021248715029834157 0.0010270059862870463 0 0.021221422438759237 0.00093167411432275586 0 0.021248715029834157 0.0010270059862870463 0 0.021300895189434621 0.0010014329323138587 0 0.021047367756331231 0.00086020764897626377 0 0.021047797362405581 0.0009372663709012423 0 0.020913708826983294 0.00087632436166252907 0 0.021047367756331231 0.00086020764897626377 0 0.021140917730780254 0.00091171403736125059 0 0.021047797362405581 0.0009372663709012423 0 0.021047367756331231 0.00086020764897626377 0 0.02110097194373272 0.00083490049787059346 0 0.021140917730780254 0.00091171403736125059 0 0.021140917730780254 0.00091171403736125059 0 0.021047797362405581 0.0009372663709012423 0 0.021128581159344673 0.0010119710291377722 0 0.021047797362405581 0.0009372663709012423 0 0.021128581159344673 0.0010119710291377722 0 0.020994002274263922 0.0010302385311665395 0 0.021047797362405581 0.0009372663709012423 0 0.020994002274263922 0.0010302385311665395 0 0.020913708826983294 0.00087632436166252907 0 0.02536603263775912 0.00050085648516830391 0 0.034142053358866171 -0.00076469001709775577 0 0.021128581159344673 0.0010119710291377722 0 0.020994002274263922 0.0010302385311665395 0 0.021237093284004055 0.0011544358798944016 0 0.02536603263775912 0.00050085648516830391 0 0.027994330142931321 0.00025230148361630572 0 0.032888536318355879 -0.0010869820567427357 0 0.033279413112483169 -0.00087564130440635584 0 0.033134681836410301 -0.00071595338330508588 0 0.021272318081807347 0.0010935339202452284 0 0.021300895189434621 0.0010014329323138587 0 0.021329489756273884 0.0011541597104748635 0 0.021248715029834157 0.0010270059862870463 0 0.021272318081807347 0.0010935339202452284 0 0.021300895189434621 0.0010014329323138587 0 0.021248715029834157 0.0010270059862870463 0 0.021222932771254598 0.0010810557717809892 0 0.021272318081807347 0.0010935339202452284 0 0.021195246729789161 0.00099482684601323937 0 0.021128581159344673 0.0010119710291377722 0 0.021222932771254598 0.0010810557717809892 0 0.021128581159344673 0.0010119710291377722 0 0.021222932771254598 0.0010810557717809892 0 0.021237093284004055 0.0011544358798944016 0 0.021195246729789161 0.00099482684601323937 0 0.021248715029834157 0.0010270059862870463 0 0.021222932771254598 0.0010810557717809892 0 0.021222932771254598 0.0010810557717809892 0 0.021233207572357297 0.0011336401408779833 0 0.021272318081807347 0.0010935339202452284 0 0.02542440722079756 0.0012391195165945383 0 0.027994330142931321 0.00025230148361630572 0 0.021233207572357297 0.0011336401408779833 0 0.021272318081807347 0.0010935339202452284 0 0.021297842283212517 0.0011577121471392688 0 0.021272318081807347 0.0010935339202452284 0 0.021329489756273884 0.0011541597104748635 0 0.021297842283212517 0.0011577121471392688 0 0.018362671511103545 0.00014901068114085421 0 0.018301645798075035 0.00025699664916659185 0 0.018189060629323541 5.4836713001138831e-05 0 0.018362671511103545 0.00014901068114085421 0 0.018189060629323541 5.4836713001138831e-05 0 0.018472063573686876 4.8229085833636878e-05 0 0.018362671511103545 0.00014901068114085421 0 0.018429802205089767 0.00025507520904751601 0 0.018472063573686876 4.8229085833636878e-05 0 0.019867418044536764 0.00068498602413633513 0 0.021801601534217025 0.00062777245426120685 0 0.018362671511103545 0.00014901068114085421 0 0.018429802205089767 0.00025507520904751601 0 0.018301645798075035 0.00025699664916659185 0 0.013744783174202153 -0.00020078422656444916 0 0.013098993376490882 -0.00052458626798259288 0 0.013447291340595939 0.00041156991756362038 0 0.015498603730757106 -0.00035714698858005091 0 0.017454364829369878 0.0004658481540376748 0 0.014179428806837417 0.00045601167348016978 0 0.013744783174202153 -0.00020078422656444916 0 0.013447291340595939 0.00041156991756362038 0 0.013744783174202153 -0.00020078422656444916 0 0.013329946446554809 -0.00088237660421528635 0 0.013098993376490882 -0.00052458626798259288 0 0.014272791839359636 -0.00078201789891937218 0 0.013744783174202153 -0.00020078422656444916 0 0.013329946446554809 -0.00088237660421528635 0 0.013329946446554809 -0.00088237660421528635 0 0.013264499524400659 -0.00075091967076225538 0 0.013098993376490882 -0.00052458626798259288 0 0.013387837968269898 -0.00073368194933073178 0 0.013264499524400659 -0.00075091967076225538 0 0.013098993376490882 -0.00052458626798259288 0 0.018394760835119352 0.00044220938299730487 0 0.018429802205089767 0.00025507520904751601 0 0.018301645798075035 0.00025699664916659185 0 0.01702307014231752 0.00020177628208939126 0 0.019867418044536764 0.00068498602413633513 0 0.01702307014231752 0.00020177628208939126 0 0.015498603730757106 -0.00035714698858005091 0 0.021272921174247159 0.0008333365190930401 0 0.021221422438759237 0.00093167411432275586 0 0.021300895189434621 0.0010014329323138587 0 0.032121230064112022 -0.0012228010355829723 0 0.032444223012743474 -0.001337617597287992 0 0.032183469373438939 -0.0017066552895709049 0 0.020155021280876501 0.00028162069296362941 0 0.020476598767009409 0.00077005052199024106 0 0.032444223012743474 -0.001337617597287992 0 0.032183469373438939 -0.0017066552895709049 0 0.032735454900746905 -0.0013787904969971639 0 0.031841241113909048 -0.0012031502796570439 0 0.032121230064112022 -0.0012228010355829723 0 0.032183469373438939 -0.0017066552895709049 0 0.032121230064112022 -0.0012228010355829723 0 0.032319621780543782 -0.0011726502391018515 0 0.032444223012743474 -0.001337617597287992 0 0.032121230064112022 -0.0012228010355829723 0 0.032319621780543782 -0.0011726502391018515 0 0.032196096275757043 -0.0010664092911441176 0 0.032319621780543782 -0.0011726502391018515 0 0.032536407265296607 -0.0012207536080042381 0 0.032483913139932742 -0.0010847542151479728 0 0.032536407265296607 -0.0012207536080042381 0 0.032648040770779915 -0.0010876980138574887 0 0.032483913139932742 -0.0010847542151479728 0 0.032319621780543782 -0.0011726502391018515 0 0.032536407265296607 -0.0012207536080042381 0 0.032444223012743474 -0.001337617597287992 0 0.011530674284966404 0.0015606580879473969 0 0.011479237073731453 0.0015831293452097188 0 0.011574539315231192 0.001678057789530496 0 0.011627314924800939 0.0015477977108987089 0 0.011530674284966404 0.0015606580879473969 0 0.011574539315231192 0.001678057789530496 0 0.011808013541678795 0.0014898252846168793 0 0.012949299938318603 0.0010701318740204671 0 0.012181302230047842 0.00062248102447903103 0 0.011634134368035707 0.0016560678250425508 0 0.011808013541678795 0.0014898252846168793 0 0.012181302230047842 0.00062248102447903103 0 0.0087865899641379804 0.0023993097678918214 0 0.020155021280876501 0.00028162069296362941 0 0.011138770805263962 0.0014337098918950403 0 0.020476598767009409 0.00077005052199024106 0 0.013014263498626761 0.00067052718879763743 0 0.01290974602087923 0.0010608550872811262 0 0.013098067527825609 0.0010078123532570591 0 0.011808013541678795 0.0014898252846168793 0 0.011627314924800939 0.0015477977108987089 0 0.011574539315231192 0.001678057789530496 0 0.032732746081735008 -0.0013423302543219575 0 0.03311194654654135 -0.0010603833876172901 0 0.032885311835000819 -0.0010397962620950186 0 0.032444223012743474 -0.001337617597287992 0 0.032735454900746905 -0.0013787904969971639 0 0.032720046269914205 -0.0013012573157138139 0 0.020476598767009409 0.00077005052199024106 0 0.021516685350513532 -0.00022081050132354561 0 0.032720046269914205 -0.0013012573157138139 0 0.032680255869803457 -0.0012016601819002013 0 0.03276661396229652 -0.0011339987674914315 0 0.032536407265296607 -0.0012207536080042381 0 0.032444223012743474 -0.001337617597287992 0 0.032720046269914205 -0.0013012573157138139 0 0.032732746081735008 -0.0013423302543219575 0 0.032720046269914205 -0.0013012573157138139 0 0.03276661396229652 -0.0011339987674914315 0 0.032536407265296607 -0.0012207536080042381 0 0.032720046269914205 -0.0013012573157138139 0 0.032680255869803457 -0.0012016601819002013 0 0.032536407265296607 -0.0012207536080042381 0 0.032680255869803457 -0.0012016601819002013 0 0.032648040770779915 -0.0010876980138574887 0 0.032680255869803457 -0.0012016601819002013 0 0.03276661396229652 -0.0011339987674914315 0 0.032648040770779915 -0.0010876980138574887 0 0.032732746081735008 -0.0013423302543219575 0 0.03276661396229652 -0.0011339987674914315 0 0.032885311835000819 -0.0010397962620950186 0 0.01290974602087923 0.0010608550872811262 0 0.013098067527825609 0.0010078123532570591 0 0.013298334420043842 0.0014249708716843462 0 0.020476598767009409 0.00077005052199024106 0 0.023291441998834289 9.8948347466108242e-05 0 0.013280272250696822 0.0011176294468507684 0 0.013098067527825609 0.0010078123532570591 0 0.013298334420043842 0.0014249708716843462 0 0.013280272250696822 0.0011176294468507684 0 0.013098067527825609 0.0010078123532570591 0 0.01316430627879721 0.00087479493131353522 0 0.013014263498626761 0.00067052718879763743 0 0.013098067527825609 0.0010078123532570591 0 0.01316430627879721 0.00087479493131353522 0 0.012984807638190335 0.00066161283897379366 0 0.01316430627879721 0.00087479493131353522 0 0.013594661457306211 0.0010521787281199365 0 0.012963445787289425 0.00069850814269356934 0 0.013512560005001223 0.00062364966227755364 0 0.012984807638190335 0.00066161283897379366 0 0.012813258294027676 0.00050423321391707696 0 0.012898679100119525 0.0003273456099476829 0 0.012806931184858823 0.00038373453624328605 0 0.012813258294027676 0.00050423321391707696 0 0.012898679100119525 0.0003273456099476829 0 0.012806931184858823 0.00038373453624328605 0 0.012898679100119525 0.0003273456099476829 0 0.012875168804089151 0.00020013433845112317 0 0.013594661457306211 0.0010521787281199365 0 0.013830211923024258 0.0013871234202353997 0 0.013298334420043842 0.0014249708716843462 0 0.013280272250696822 0.0011176294468507684 0 0.01316430627879721 0.00087479493131353522 0 0.013594661457306211 0.0010521787281199365 0 0.013280272250696822 0.0011176294468507684 0 0.013594661457306211 0.0010521787281199365 0 0.013298334420043842 0.0014249708716843462 0 0.013512560005001223 0.00062364966227755364 0 0.015644999495723712 0.00030305068825459076 0 0.033354773695807895 -0.0008939940475560412 0 0.033200693836503738 -0.00082599105434895425 0 0.03311194654654135 -0.0010603833876172901 0 0.02536603263775912 0.00050085648516830391 0 0.023291441998834289 9.8948347466108242e-05 0 0.014097077064446186 0.0019473918346795131 0 0.013830211923024258 0.0013871234202353997 0 0.013298334420043842 0.0014249708716843462 0 0.02536603263775912 0.00050085648516830391 0 0.015644999495723712 0.00030305068825459076 0 0.033354773695807895 -0.0008939940475560412 0 0.033200693836503738 -0.00082599105434895425 0 0.033328024671665853 -0.00071584576359337375 0 0.033354773695807895 -0.0008939940475560412 0 0.033328024671665853 -0.00071584576359337375 0 0.033467593178868792 -0.000649931400011962 0 0.033200693836503738 -0.00082599105434895425 0 0.033060874174848189 -0.00076875488477244874 0 0.033245279205035248 -0.00067655163084670415 0 0.033200693836503738 -0.00082599105434895425 0 0.033013439822109074 -0.00089957283013613785 0 0.033060874174848189 -0.00076875488477244874 0 0.033200693836503738 -0.00082599105434895425 0 0.033013439822109074 -0.00089957283013613785 0 0.03311194654654135 -0.0010603833876172901 0 0.033013439822109074 -0.00089957283013613785 0 0.03311194654654135 -0.0010603833876172901 0 0.032885311835000819 -0.0010397962620950186 0 0.03276661396229652 -0.0011339987674914315 0 0.032885311835000819 -0.0010397962620950186 0 0.032752126882847607 -0.00098591747273509608 0 0.032885311835000819 -0.0010397962620950186 0 0.032752126882847607 -0.00098591747273509608 0 0.032866652500510365 -0.00093243760264793908 0 0.03276661396229652 -0.0011339987674914315 0 0.032648040770779915 -0.0010876980138574887 0 0.032752126882847607 -0.00098591747273509608 0 0.032648040770779915 -0.0010876980138574887 0 0.032752126882847607 -0.00098591747273509608 0 0.032615708283724183 -0.00097114795434379497 0 0.032866652500510365 -0.00093243760264793908 0 0.032915166906012927 -0.00085342851851092716 0 0.032784467404534612 -0.0009108529536498767 0 0.032752126882847607 -0.00098591747273509608 0 0.032866652500510365 -0.00093243760264793908 0 0.032784467404534612 -0.0009108529536498767 0 0.033013439822109074 -0.00089957283013613785 0 0.032885311835000819 -0.0010397962620950186 0 0.032866652500510365 -0.00093243760264793908 0 0.033013439822109074 -0.00089957283013613785 0 0.033060874174848189 -0.00076875488477244874 0 0.032915166906012927 -0.00085342851851092716 0 0.033013439822109074 -0.00089957283013613785 0 0.032866652500510365 -0.00093243760264793908 0 0.032915166906012927 -0.00085342851851092716 0 0.033060874174848189 -0.00076875488477244874 0 0.032915166906012927 -0.00085342851851092716 0 0.032914058131834463 -0.00079727752648312195 0 0.032915166906012927 -0.00085342851851092716 0 0.032844756998953624 -0.00085459084671931545 0 0.032914058131834463 -0.00079727752648312195 0 0.032915166906012927 -0.00085342851851092716 0 0.032844756998953624 -0.00085459084671931545 0 0.032784467404534612 -0.0009108529536498767 0 0.033061575664078351 -0.0011733234605649128 0 0.032737265919424059 -0.0011267695602877449 0 0.032844756998953624 -0.00085459084671931545 0 0.032787788673154974 -0.00088796693776561865 0 0.032784467404534612 -0.0009108529536498767 0 0.032880055269732082 -0.00075235400957065514 0 0.032833359645078664 -0.00083368540466891678 0 0.032740183923558541 -0.00093346916846771333 0 0.032844756998953624 -0.00085459084671931545 0 0.032914058131834463 -0.00079727752648312195 0 0.032833359645078664 -0.00083368540466891678 0 0.032844756998953624 -0.00085459084671931545 0 0.032833359645078664 -0.00083368540466891678 0 0.032787788673154974 -0.00088796693776561865 0 0.032914058131834463 -0.00079727752648312195 0 0.032833359645078664 -0.00083368540466891678 0 0.032901311244286448 -0.00076127464562785461 0 0.032880055269732082 -0.00075235400957065514 0 0.032833359645078664 -0.00083368540466891678 0 0.032901311244286448 -0.00076127464562785461 0 0.032002516118024599 -0.00078349891230701128 0 0.032173521670664451 -0.00082328590631779836 0 0.032294479225516363 -0.00081496370204991271 0 0.032002516118024599 -0.00078349891230701128 0 0.032173521670664451 -0.00082328590631779836 0 0.03207342550571473 -0.0008759119678544441 0 0.032173521670664451 -0.00082328590631779836 0 0.032294479225516363 -0.00081496370204991271 0 0.032259910484768596 -0.00087880556207645707 0 0.032833359645078664 -0.00083368540466891678 0 0.032787788673154974 -0.00088796693776561865 0 0.032740183923558541 -0.00093346916846771333 0 0.032787788673154974 -0.00088796693776561865 0 0.032784467404534612 -0.0009108529536498767 0 0.032748850671556688 -0.00092263676861532092 0 0.032784467404534612 -0.0009108529536498767 0 0.032705781780213439 -0.00094105414401655951 0 0.032748850671556688 -0.00092263676861532092 0 0.032752126882847607 -0.00098591747273509608 0 0.032784467404534612 -0.0009108529536498767 0 0.032705781780213439 -0.00094105414401655951 0 0.032787788673154974 -0.00088796693776561865 0 0.032748850671556688 -0.00092263676861532092 0 0.032740183923558541 -0.00093346916846771333 0 0.032705781780213439 -0.00094105414401655951 0 0.032748850671556688 -0.00092263676861532092 0 0.032740183923558541 -0.00093346916846771333 0 0.032705781780213439 -0.00094105414401655951 0 0.032740183923558541 -0.00093346916846771333 0 0.032615708283724183 -0.00097114795434379497 0 0.032297215612103206 -0.0007564032855764272 0 0.032358283873941331 -0.00086738312928245269 0 0.032615708283724183 -0.00097114795434379497 0 0.032737265919424059 -0.0011267695602877449 0 0.032700609841521226 -0.0010729786729829021 0 0.032737265919424059 -0.0011267695602877449 0 0.032622753502305119 -0.0010119266478582454 0 0.032358283873941331 -0.00086738312928245269 0 0.032615708283724183 -0.00097114795434379497 0 0.032434316476556146 -0.00098905836881768247 0 0.032358283873941331 -0.00086738312928245269 0 0.032434316476556146 -0.00098905836881768247 0 0.03231067510682796 -0.0010205733505516757 0 0.032752126882847607 -0.00098591747273509608 0 0.032705781780213439 -0.00094105414401655951 0 0.032615708283724183 -0.00097114795434379497 0 0.032648040770779915 -0.0010876980138574887 0 0.032615708283724183 -0.00097114795434379497 0 0.032483913139932742 -0.0010847542151479728 0 0.032319621780543782 -0.0011726502391018515 0 0.032483913139932742 -0.0010847542151479728 0 0.03231067510682796 -0.0010205733505516757 0 0.032434316476556146 -0.00098905836881768247 0 0.032483913139932742 -0.0010847542151479728 0 0.03231067510682796 -0.0010205733505516757 0 0.032615708283724183 -0.00097114795434379497 0 0.032434316476556146 -0.00098905836881768247 0 0.032483913139932742 -0.0010847542151479728 0 0.032319621780543782 -0.0011726502391018515 0 0.032196096275757043 -0.0010664092911441176 0 0.03231067510682796 -0.0010205733505516757 0 0.032121230064112022 -0.0012228010355829723 0 0.032196096275757043 -0.0010664092911441176 0 0.032057833644768448 -0.00098694290084578424 0 0.032196096275757043 -0.0010664092911441176 0 0.03231067510682796 -0.0010205733505516757 0 0.032179643451880693 -0.00091854834690719876 0 0.032196096275757043 -0.0010664092911441176 0 0.032057833644768448 -0.00098694290084578424 0 0.032179643451880693 -0.00091854834690719876 0 0.032057833644768448 -0.00098694290084578424 0 0.03207342550571473 -0.0008759119678544441 0 0.032179643451880693 -0.00091854834690719876 0 0.032173521670664451 -0.00082328590631779836 0 0.03207342550571473 -0.0008759119678544441 0 0.032179643451880693 -0.00091854834690719876 0 0.032173521670664451 -0.00082328590631779836 0 0.032259910484768596 -0.00087880556207645707 0 0.032179643451880693 -0.00091854834690719876 0 0.032294479225516363 -0.00081496370204991271 0 0.032358283873941331 -0.00086738312928245269 0 0.032259910484768596 -0.00087880556207645707 0 0.03231067510682796 -0.0010205733505516757 0 0.032259910484768596 -0.00087880556207645707 0 0.032179643451880693 -0.00091854834690719876 0 0.032358283873941331 -0.00086738312928245269 0 0.03231067510682796 -0.0010205733505516757 0 0.032259910484768596 -0.00087880556207645707 0 0.033005470877918823 -0.00061050694277184467 0 0.032951059273298999 -0.00067122130607318053 0 0.032973400131846894 -0.0007170571945894085 0 0.032880055269732082 -0.00075235400957065514 0 0.032951059273298999 -0.00067122130607318053 0 0.032901311244286448 -0.00076127464562785461 0 0.032951059273298999 -0.00067122130607318053 0 0.032901311244286448 -0.00076127464562785461 0 0.032973400131846894 -0.0007170571945894085 0 0.032914058131834463 -0.00079727752648312195 0 0.032901311244286448 -0.00076127464562785461 0 0.032973400131846894 -0.0007170571945894085 0 0.033005470877918823 -0.00061050694277184467 0 0.032973400131846894 -0.0007170571945894085 0 0.033120283143634743 -0.00066658888566663028 0 0.033060874174848189 -0.00076875488477244874 0 0.032914058131834463 -0.00079727752648312195 0 0.032973400131846894 -0.0007170571945894085 0 0.033060874174848189 -0.00076875488477244874 0 0.032973400131846894 -0.0007170571945894085 0 0.033120283143634743 -0.00066658888566663028 0 0.033005470877918823 -0.00061050694277184467 0 0.033120283143634743 -0.00066658888566663028 0 0.033308042483440124 -0.00053762524660583939 0 0.033308042483440124 -0.00053762524660583939 0 0.033245279205035248 -0.00067655163084670415 0 0.033373796847531355 -0.0006005096834126258 0 0.033120283143634743 -0.00066658888566663028 0 0.033308042483440124 -0.00053762524660583939 0 0.033245279205035248 -0.00067655163084670415 0 0.033060874174848189 -0.00076875488477244874 0 0.033120283143634743 -0.00066658888566663028 0 0.033245279205035248 -0.00067655163084670415 0 0.033200693836503738 -0.00082599105434895425 0 0.033245279205035248 -0.00067655163084670415 0 0.033328024671665853 -0.00071584576359337375 0 0.033245279205035248 -0.00067655163084670415 0 0.033328024671665853 -0.00071584576359337375 0 0.033373796847531355 -0.0006005096834126258 0 0.033328024671665853 -0.00071584576359337375 0 0.033373796847531355 -0.0006005096834126258 0 0.033467593178868792 -0.000649931400011962 0 0.033308042483440124 -0.00053762524660583939 0 0.033373796847531355 -0.0006005096834126258 0 0.033456168806426614 -0.00052328003137475359 0 0.033373796847531355 -0.0006005096834126258 0 0.033456168806426614 -0.00052328003137475359 0 0.033448978320244953 -0.00055750125880041422 0 0.033456168806426614 -0.00052328003137475359 0 0.033448978320244953 -0.00055750125880041422 0 0.033472659495748215 -0.00052384692509148498 0 0.033456168806426614 -0.00052328003137475359 0 0.033511131370940438 -0.00049898041267497676 0 0.033472659495748215 -0.00052384692509148498 0 0.033456168806426614 -0.00052328003137475359 0 0.033505424186246802 -0.00050345331452356329 0 0.033511131370940438 -0.00049898041267497676 0 0.033511131370940438 -0.00049898041267497676 0 0.033571840190373008 -0.00050001708748467516 0 0.033554021091013908 -0.00048897800999293535 0 0.033571840190373008 -0.00050001708748467516 0 0.033554021091013908 -0.00048897800999293535 0 0.033610231508224307 -0.00050689361647243236 0 0.033505424186246802 -0.00050345331452356329 0 0.033511131370940438 -0.00049898041267497676 0 0.033571840190373008 -0.00050001708748467516 0 0.033505424186246802 -0.00050345331452356329 0 0.033571840190373008 -0.00050001708748467516 0 0.033588021615833276 -0.00051782966797588969 0 0.033571840190373008 -0.00050001708748467516 0 0.033588021615833276 -0.00051782966797588969 0 0.033681602282037482 -0.00052540345877509194 0 0.033308042483440124 -0.00053762524660583939 0 0.033505424186246802 -0.00050345331452356329 0 0.033588021615833276 -0.00051782966797588969 0 0.033308042483440124 -0.00053762524660583939 0 0.033456168806426614 -0.00052328003137475359 0 0.033505424186246802 -0.00050345331452356329 0 0.033005470877918823 -0.00061050694277184467 0 0.033308042483440124 -0.00053762524660583939 0 0.033056953653977622 -0.00054459671736615026 0 0.033308042483440124 -0.00053762524660583939 0 0.033588021615833276 -0.00051782966797588969 0 0.033678709566473751 -0.00050296057681273971 0 0.033336780161632398 -0.0005506027126720547 0 0.033374674026279867 -0.00054441566225893663 0 0.033588021615833276 -0.00051782966797588969 0 0.033678709566473751 -0.00050296057681273971 0 0.033749845199427315 -0.00056809575480329833 0 0.033374674026279867 -0.00054441566225893663 0 0.033438031543342316 -0.00063608409993850233 0 0.033678709566473751 -0.00050296057681273971 0 0.033838976104379193 -0.00059999080521500384 0 0.033749845199427315 -0.00056809575480329833 0 0.033028963772708551 -0.00060544447718310934 0 0.033056953653977622 -0.00054459671736615026 0 0.033036755285782371 -0.00066886119959590922 0 0.033028963772708551 -0.00060544447718310934 0 0.033005470877918823 -0.00061050694277184467 0 0.033056953653977622 -0.00054459671736615026 0 0.026553910391585635 -0.000172298599056276 0 0.02536873758314534 0.00017846142234956248 0 0.027475098294420523 0.0015663782396573584 0 0.026553910391585635 -0.000172298599056276 0 0.027475098294420523 0.0015663782396573584 0 0.0277349807418125 -0.00085939809160534011 0 0.024090717345720401 -0.00065359223976321431 0 0.025626408923345369 -0.00024177649197011506 0 0.02536352269472502 0.00018625684672938554 0 0.026553910391585635 -0.000172298599056276 0 0.025626408923345369 -0.00024177649197011506 0 0.02536873758314534 0.00017846142234956248 0 0.02330149646040074 -0.00078847652285176967 0 0.021976118087365621 -0.00014745907333096864 0 0.017958364075167037 0.0015826142200012763 0 0.019645127326086555 -0.0011945424399951948 0 0.019519480889444281 0.00087864843905586523 0 0.019645127326086555 -0.0011945424399951948 0 0.019519480889444281 0.00087864843905586523 0 0.022702425500735889 0.00082268706586236516 0 0.019519480889444281 0.00087864843905586523 0 0.019869186723034435 0.001536524985837665 0 0.022702425500735889 0.00082268706586236516 0 0.016334771546371637 0.00068441012128772269 0 0.021976118087365621 -0.00014745907333096864 0 0.017958364075167037 0.0015826142200012763 0 0.019519480889444281 0.00087864843905586523 0 0.019862634121583525 0.0015292305134440459 0 0.016334771546371637 0.00068441012128772269 0 0.017454364829369878 0.0004658481540376748 0 0.018397461424326477 0.0012573153067242998 0 0.017454364829369878 0.0004658481540376748 0 0.017454364829369878 0.0004658481540376748 0 0.021801601534217025 0.00062777245426120685 0 0.019869186723034435 0.001536524985837665 0 0.022640004675248845 0.0014643354418945711 0 0.022702425500735889 0.00082268706586236516 0 0.021976118087365621 -0.00014745907333096864 0 0.025640385795546623 0.0009483497674433423 0 0.021801601534217025 0.00062777245426120685 0 0.025640385795546623 0.0009483497674433423 0 0.03308408749300483 0.00025561858883856134 0 0.032973506880058935 0.00017196864141346771 0 0.033202652045832698 -1.4233912922916902e-05 0 0.021233207572357297 0.0011336401408779833 0 0.021360985537796164 0.0012103720797656398 0 0.021297842283212517 0.0011577121471392688 0 0.021801601534217025 0.00062777245426120685 0 0.021471964874428501 0.000765142377980643 0 0.027994330142931321 0.00025230148361630572 0 0.033792715474114339 -0.00046722064480216497 0 0.027994330142931321 0.00025230148361630572 0 0.025640385795546623 0.0009483497674433423 0 0.021366758945065348 0.0011515675733596814 0 0.021360985537796164 0.0012103720797656398 0 0.021297842283212517 0.0011577121471392688 0 0.033279413112483169 -0.00087564130440635584 0 0.033134681836410301 -0.00071595338330508588 0 0.033373515160519909 -0.00058169147555209939 0 0.033467593178868792 -0.000649931400011962 0 0.033448978320244953 -0.00055750125880041422 0 0.033447109804970648 -0.0005261146750193173 0 0.033373796847531355 -0.0006005096834126258 0 0.033467593178868792 -0.000649931400011962 0 0.033448978320244953 -0.00055750125880041422 0 0.033134681836410301 -0.00071595338330508588 0 0.033373515160519909 -0.00058169147555209939 0 0.033447109804970648 -0.0005261146750193173 0 0.034142053358866171 -0.00076469001709775577 0 0.033237469564306774 -0.00056682978082206166 0 0.032973506880058935 0.00017196864141346771 0 0.033202652045832698 -1.4233912922916902e-05 0 0.033129096636327501 -0.00014080574514656178 0 0.025640385795546623 0.0009483497674433423 0 0.031102343507602347 -0.00058099899144527147 0 0.033792715474114339 -0.00046722064480216497 0 0.033377620793421249 -0.00033914598370790019 0 0.033202652045832698 -1.4233912922916902e-05 0 0.033129096636327501 -0.00014080574514656178 0 0.033348211280165199 -0.00026699735160923261 0 0.033373515160519909 -0.00058169147555209939 0 0.033514325431197312 -0.00048478597269468516 0 0.033447109804970648 -0.0005261146750193173 0 0.033511131370940438 -0.00049898041267497676 0 0.033514325431197312 -0.00048478597269468516 0 0.033472659495748215 -0.00052384692509148498 0 0.033448978320244953 -0.00055750125880041422 0 0.033472659495748215 -0.00052384692509148498 0 0.033447109804970648 -0.0005261146750193173 0 0.033514325431197312 -0.00048478597269468516 0 0.033472659495748215 -0.00052384692509148498 0 0.033447109804970648 -0.0005261146750193173 0 0.033511131370940438 -0.00049898041267497676 0 0.033514325431197312 -0.00048478597269468516 0 0.033554021091013908 -0.00048897800999293535 0 0.033514325431197312 -0.00048478597269468516 0 0.033554021091013908 -0.00048897800999293535 0 0.03352679716591575 -0.0004966549408225257 0 0.033377620793421249 -0.00033914598370790019 0 0.033520143899156203 -0.00051695680923366538 0 0.033129096636327501 -0.00014080574514656178 0 0.033348211280165199 -0.00026699735160923261 0 0.033330159479402481 -0.0004219612962303734 0 0.033348211280165199 -0.00026699735160923261 0 0.033330159479402481 -0.0004219612962303734 0 0.03352679716591575 -0.0004966549408225257 0 0.031102343507602347 -0.00058099899144527147 0 0.030130792659912302 -0.0017107429253271724 0 0.031025988572097807 -0.0011233667442448751 0 0.029895345393339465 -0.00076672095063465978 0 0.030506711860887274 -0.0013836693099143346 0 0.027993672353813847 -0.0032923651030258888 0 0.026564560014295253 -0.0015120178904632967 0 0.026142224046470659 -0.0027154831427700964 0 0.030130792659912302 -0.0017107429253271724 0 0.028926582120920055 -0.0013624789758302331 0 0.028926582120920055 -0.0013624789758302331 0 0.031324280926116312 -0.0012151207334365917 0 0.0277349807418125 -0.00085939809160534011 0 0.027993672353813847 -0.0032923651030258888 0 0.026564560014295253 -0.0015120178904632967 0 0.026553910391585635 -0.000172298599056276 0 0.025626408923345369 -0.00024177649197011506 0 0.026564560014295253 -0.0015120178904632967 0 0.026553910391585635 -0.000172298599056276 0 0.0277349807418125 -0.00085939809160534011 0 0.026564560014295253 -0.0015120178904632967 0 0.024090717345720401 -0.00065359223976321431 0 0.025626408923345369 -0.00024177649197011506 0 0.025118702995221336 -0.0016892606041452425 0 0.026564560014295253 -0.0015120178904632967 0 0.025118702995221336 -0.0016892606041452425 0 0.026142224046470659 -0.0027154831427700964 0 0.025626408923345369 -0.00024177649197011506 0 0.026564560014295253 -0.0015120178904632967 0 0.025118702995221336 -0.0016892606041452425 0 0.031030833010370046 -0.00084255949373292921 0 0.033593056673460693 -0.0004352038682348306 0 0.031013286617940918 -0.00027035919092451835 0 0.031612160918161297 -0.00045630744840016014 0 0.031848476602632007 -0.00098525635514631698 0 0.027680082749689364 -0.0014331054287893862 0 0.028124036281925963 -0.00081180556509971179 0 0.029198766165072689 -0.0019196041265507769 0 0.031030833010370046 -0.00084255949373292921 0 0.028926582120920055 -0.0013624789758302331 0 0.026825894721845 -0.0014895701335103442 0 0.028926582120920055 -0.0013624789758302331 0 0.034478443303933924 6.0657169935369771e-05 0 0.034626877907561339 2.9434226193137195e-05 0 0.034510628018352606 1.7846632420095118e-05 0 0.034664766531992491 -1.8285056942393805e-05 0 0.034626877907561339 2.9434226193137195e-05 0 0.034510628018352606 1.7846632420095118e-05 0 0.034663457326521839 -1.5761292427856063e-05 0 0.034683961175684438 -3.0962954447042637e-06 0 0.034777513109141192 -1.2187603822883274e-05 0 0.034859968293016193 -3.4641870288634577e-05 0 0.034855630687442289 2.5221166268998068e-06 0 0.034777513109141192 -1.2187603822883274e-05 0 0.034845085895902614 4.3131086071257453e-06 0 0.034855630687442289 2.5221166268998068e-06 0 0.034777513109141192 -1.2187603822883274e-05 0 0.034664766531992491 -1.8285056942393805e-05 0 0.034859968293016193 -3.4641870288634577e-05 0 0.034782288154401451 -1.765134059711109e-05 0 0.034780930602595087 8.127142879447999e-06 0 0.034664766531992491 -1.8285056942393805e-05 0 0.034626877907561339 2.9434226193137195e-05 0 0.034660534762352202 -1.4602087974796817e-05 0 0.034664766531992491 -1.8285056942393805e-05 0 0.034705286067780602 2.6916951998939927e-05 0 0.034669864727910664 1.3643428129771887e-05 0 0.034777513109141192 -1.2187603822883274e-05 0 0.034664766531992491 -1.8285056942393805e-05 0 0.034705286067780602 2.6916951998939927e-05 0 0.031848476602632007 -0.00098525635514631698 0 0.032034488245761494 -0.00087689522194402505 0 0.032453701596795483 -0.0012903117913772488 0 0.033593056673460693 -0.0004352038682348306 0 0.033283186848161506 -0.00072368893939239525 0 0.031612160918161297 -0.00045630744840016014 0 0.031848476602632007 -0.00098525635514631698 0 0.032034488245761494 -0.00087689522194402505 0 0.031025988572097807 -0.0011233667442448751 0 0.030506711860887274 -0.0013836693099143346 0 0.031117292941319038 -0.0019957808552048561 0 0.031848476602632007 -0.00098525635514631698 0 0.032471916262527781 -0.0015126824755598094 0 0.032453701596795483 -0.0012903117913772488 0 0.030130792659912302 -0.0017107429253271724 0 0.032561286219493855 -0.0010265423204027814 0 0.033330159479402481 -0.0004219612962303734 0 0.03352679716591575 -0.0004966549408225257 0 0.033439083284041597 -0.00055964855319804807 0 0.03352679716591575 -0.0004966549408225257 0 0.033439083284041597 -0.00055964855319804807 0 0.03352318586585569 -0.00055223135461045908 0 0.031324280926116312 -0.0012151207334365917 0 0.032561286219493855 -0.0010265423204027814 0 0.033554021091013908 -0.00048897800999293535 0 0.033591024147745126 -0.00051207329336172027 0 0.033610231508224307 -0.00050689361647243236 0 0.033554021091013908 -0.00048897800999293535 0 0.03352679716591575 -0.0004966549408225257 0 0.033591024147745126 -0.00051207329336172027 0 0.03352679716591575 -0.0004966549408225257 0 0.033566457279946088 -0.00053699240351514114 0 0.033591024147745126 -0.00051207329336172027 0 0.033566457279946088 -0.00053699240351514114 0 0.033591024147745126 -0.00051207329336172027 0 0.033617986006998155 -0.0005470429361207319 0 0.03352679716591575 -0.0004966549408225257 0 0.033566457279946088 -0.00053699240351514114 0 0.03352318586585569 -0.00055223135461045908 0 0.033653968501775003 -0.00052890325067490071 0 0.033591024147745126 -0.00051207329336172027 0 0.033610231508224307 -0.00050689361647243236 0 0.033653968501775003 -0.00052890325067490071 0 0.033591024147745126 -0.00051207329336172027 0 0.033617986006998155 -0.0005470429361207319 0 0.033689377870293233 -0.00057789227900843093 0 0.033538117111180099 -0.00060338631012531196 0 0.033770887910238953 -0.00059009690448763347 0 0.033653968501775003 -0.00052890325067490071 0 0.03368660459037516 -0.00055425168169892665 0 0.033617986006998155 -0.0005470429361207319 0 0.03368660459037516 -0.00055425168169892665 0 0.033617986006998155 -0.0005470429361207319 0 0.033613324301052093 -0.0005701565143571317 0 0.033617986006998155 -0.0005470429361207319 0 0.033573398949782375 -0.00055773760049648553 0 0.033613324301052093 -0.0005701565143571317 0 0.033566457279946088 -0.00053699240351514114 0 0.033617986006998155 -0.0005470429361207319 0 0.033573398949782375 -0.00055773760049648553 0 0.033566457279946088 -0.00053699240351514114 0 0.033573398949782375 -0.00055773760049648553 0 0.03352318586585569 -0.00055223135461045908 0 0.033573398949782375 -0.00055773760049648553 0 0.033613324301052093 -0.0005701565143571317 0 0.033540010224757555 -0.00058212520201940485 0 0.033613324301052093 -0.0005701565143571317 0 0.033689377870293233 -0.00057789227900843093 0 0.033538117111180099 -0.00060338631012531196 0 0.033613324301052093 -0.0005701565143571317 0 0.033540010224757555 -0.00058212520201940485 0 0.033538117111180099 -0.00060338631012531196 0 0.03368660459037516 -0.00055425168169892665 0 0.033613324301052093 -0.0005701565143571317 0 0.033689377870293233 -0.00057789227900843093 0 0.034664766531992491 -1.8285056942393805e-05 0 0.034660534762352202 -1.4602087974796817e-05 0 0.034654108796289856 -5.2910354812646886e-06 0 0.034664766531992491 -1.8285056942393805e-05 0 0.034654108796289856 -5.2910354812646886e-06 0 0.034669864727910664 1.3643428129771887e-05 0 0.033283186848161506 -0.00072368893939239525 0 0.032561286219493855 -0.0010265423204027814 0 0.032561286219493855 -0.0010265423204027814 0 0.033250130141693882 -0.00086457746273896591 0 0.033439083284041597 -0.00055964855319804807 0 0.03352318586585569 -0.00055223135461045908 0 0.033540010224757555 -0.00058212520201940485 0 0.033573398949782375 -0.00055773760049648553 0 0.03352318586585569 -0.00055223135461045908 0 0.033540010224757555 -0.00058212520201940485 0 0.033499525885083856 -0.00057764052861807101 0 0.033494030994698006 -0.00054400594929410304 0 0.033540010224757555 -0.00058212520201940485 0 0.033283186848161506 -0.00072368893939239525 0 0.033919422794754177 -0.00043463890491762553 0 0.033499525885083856 -0.00057764052861807101 0 0.033540010224757555 -0.00058212520201940485 0 0.033538117111180099 -0.00060338631012531196 0 0.034654828629560722 2.5221696239281128e-05 0 0.03468663211338506 3.6065419379180981e-05 0 0.034669864727910664 1.3643428129771887e-05 0 0.034654108796289856 -5.2910354812646886e-06 0 0.034654828629560722 2.5221696239281128e-05 0 0.034669864727910664 1.3643428129771887e-05 0 0.033538117111180099 -0.00060338631012531196 0 0.033770887910238953 -0.00059009690448763347 0 0.033840185814593068 -0.00062668558456473547 0 0.033919422794754177 -0.00043463890491762553 0 0.034281928020136826 -0.00038386719834382967 0 0.034654108796289856 -5.2910354812646886e-06 0 0.034654828629560722 2.5221696239281128e-05 0 0.034621873807647578 2.1393989687231432e-05 0 0.034654828629560722 2.5221696239281128e-05 0 0.034640265860823333 3.5671029856179863e-05 0 0.034621873807647578 2.1393989687231432e-05 0 0.034640265860823333 3.5671029856179863e-05 0 0.034621873807647578 2.1393989687231432e-05 0 0.034627662572645691 4.6006849848040004e-05 0 0.034654828629560722 2.5221696239281128e-05 0 0.034640265860823333 3.5671029856179863e-05 0 0.034655581367167683 4.9903268468309547e-05 0 0.034654828629560722 2.5221696239281128e-05 0 0.03468663211338506 3.6065419379180981e-05 0 0.034655581367167683 4.9903268468309547e-05 0 0.034848551622380916 3.3604693793708735e-05 0 0.034833100176424679 4.338875805831777e-05 0 0.034848551622380916 3.3604693793708735e-05 0 0.034967648328791394 2.0470617496200678e-06 0 0.034883573224828227 1.5537477947255612e-06 0 0.03488906859023172 -1.0495937796455811e-06 0 0.034900667631179591 -2.4545800378976585e-06 0 0.034980044509812264 2.2220163596100053e-05 0 0.034973448184296804 3.3809413459747743e-05 0 0.034978860036824648 1.8814141392220452e-05 0 0.034980044509812264 2.2220163596100053e-05 0 0.034973448184296804 3.3809413459747743e-05 0 0.034992203714477782 1.7522721150123103e-05 0 0.03488906859023172 -1.0495937796455811e-06 0 0.034868502216372575 3.2057725357018997e-06 0 0.034880314324363712 -6.6685369208615719e-07 0 0.03488906859023172 -1.0495937796455811e-06 0 0.034907590464210353 -1.5975402091774377e-06 0 0.034880314324363712 -6.6685369208615719e-07 0 0.034883573224828227 1.5537477947255612e-06 0 0.03488906859023172 -1.0495937796455811e-06 0 0.034868502216372575 3.2057725357018997e-06 0 0.034868502216372575 3.2057725357018997e-06 0 0.034845085895902614 4.3131086071257453e-06 0 0.034855630687442289 2.5221166268998068e-06 0 0.034868502216372575 3.2057725357018997e-06 0 0.034880314324363712 -6.6685369208615719e-07 0 0.034855630687442289 2.5221166268998068e-06 0 0.034883573224828227 1.5537477947255612e-06 0 0.034868502216372575 3.2057725357018997e-06 0 0.034845085895902614 4.3131086071257453e-06 0 0.034848551622380916 3.3604693793708735e-05 0 0.034780930602595087 8.127142879447999e-06 0 0.03468663211338506 3.6065419379180981e-05 0 0.034705286067780602 2.6916951998939927e-05 0 0.034669864727910664 1.3643428129771887e-05 0 0.033860560762962878 -0.00061314551537177883 0 0.033950231281935035 -0.00056482502286786388 0 0.033933172026595036 -0.00058068700719865181 0 0.033804025955244815 -0.00070371806258481785 0 0.033860560762962878 -0.00061314551537177883 0 0.033933172026595036 -0.00058068700719865181 0 0.033860560762962878 -0.00061314551537177883 0 0.033838976104379193 -0.00059999080521500384 0 0.033749845199427315 -0.00056809575480329833 0 0.033860560762962878 -0.00061314551537177883 0 0.033749845199427315 -0.00056809575480329833 0 0.033773033514323751 -0.00056409735523681658 0 0.033588021615833276 -0.00051782966797588969 0 0.033749845199427315 -0.00056809575480329833 0 0.033773033514323751 -0.00056409735523681658 0 0.033860560762962878 -0.00061314551537177883 0 0.033773033514323751 -0.00056409735523681658 0 0.033950231281935035 -0.00056482502286786388 0 0.033796204163267389 -0.00054978958565123602 0 0.033773033514323751 -0.00056409735523681658 0 0.033950231281935035 -0.00056482502286786388 0 0.033796204163267389 -0.00054978958565123602 0 0.033891510130637452 -0.00055802776126351132 0 0.033950231281935035 -0.00056482502286786388 0 0.033588021615833276 -0.00051782966797588969 0 0.033773033514323751 -0.00056409735523681658 0 0.033681602282037482 -0.00052540345877509194 0 0.033796204163267389 -0.00054978958565123602 0 0.033773033514323751 -0.00056409735523681658 0 0.033681602282037482 -0.00052540345877509194 0 0.033571840190373008 -0.00050001708748467516 0 0.033681602282037482 -0.00052540345877509194 0 0.033610231508224307 -0.00050689361647243236 0 0.033653968501775003 -0.00052890325067490071 0 0.033681602282037482 -0.00052540345877509194 0 0.033610231508224307 -0.00050689361647243236 0 0.033653968501775003 -0.00052890325067490071 0 0.033681602282037482 -0.00052540345877509194 0 0.033732831066359763 -0.00054476515902209303 0 0.033653968501775003 -0.00052890325067490071 0 0.03368660459037516 -0.00055425168169892665 0 0.033732831066359763 -0.00054476515902209303 0 0.033796204163267389 -0.00054978958565123602 0 0.033681602282037482 -0.00052540345877509194 0 0.033732831066359763 -0.00054476515902209303 0 0.033796204163267389 -0.00054978958565123602 0 0.033797073348702425 -0.00056285436350397801 0 0.033891510130637452 -0.00055802776126351132 0 0.033796204163267389 -0.00054978958565123602 0 0.033732831066359763 -0.00054476515902209303 0 0.033797073348702425 -0.00056285436350397801 0 0.03368660459037516 -0.00055425168169892665 0 0.033732831066359763 -0.00054476515902209303 0 0.033797073348702425 -0.00056285436350397801 0 0.03368660459037516 -0.00055425168169892665 0 0.033689377870293233 -0.00057789227900843093 0 0.033797073348702425 -0.00056285436350397801 0 0.033884357893850955 -0.0005701433997406199 0 0.033869313421965898 -0.00060864437209094105 0 0.0340126515301385 -0.00053537974684480898 0 0.033797073348702425 -0.00056285436350397801 0 0.033770887910238953 -0.00059009690448763347 0 0.033884357893850955 -0.0005701433997406199 0 0.033689377870293233 -0.00057789227900843093 0 0.033797073348702425 -0.00056285436350397801 0 0.033770887910238953 -0.00059009690448763347 0 0.033797073348702425 -0.00056285436350397801 0 0.033884357893850955 -0.0005701433997406199 0 0.033891510130637452 -0.00055802776126351132 0 0.033770887910238953 -0.00059009690448763347 0 0.033884357893850955 -0.0005701433997406199 0 0.033839786062400762 -0.00060502405791674899 0 0.033770887910238953 -0.00059009690448763347 0 0.033839786062400762 -0.00060502405791674899 0 0.033840185814593068 -0.00062668558456473547 0 0.033884357893850955 -0.0005701433997406199 0 0.033839786062400762 -0.00060502405791674899 0 0.033869313421965898 -0.00060864437209094105 0 0.034228769050606817 -0.00046989681396388813 0 0.034281928020136826 -0.00038386719834382967 0 0.034624507384158398 -0.00068408719952561673 0 0.034276360472640842 -0.00038533995222182505 0 0.034646800294040124 -0.0003613972582208225 0 0.034281928020136826 -0.00038386719834382967 0 0.034642562739932589 -0.00014758564512817242 0 0.034281928020136826 -0.00038386719834382967 0 0.034247309691122822 -0.00048077428396612465 0 0.03412172437039835 -0.00047324012404276167 0 0.0340126515301385 -0.00053537974684480898 0 0.034276360472640842 -0.00038533995222182505 0 0.033869313421965898 -0.00060864437209094105 0 0.0340126515301385 -0.00053537974684480898 0 0.034276360472640842 -0.00038533995222182505 0 0.03412172437039835 -0.00047324012404276167 0 0.0340126515301385 -0.00053537974684480898 0 0.033950231281935035 -0.00056482502286786388 0 0.0340126515301385 -0.00053537974684480898 0 0.033891510130637452 -0.00055802776126351132 0 0.033950231281935035 -0.00056482502286786388 0 0.033884357893850955 -0.0005701433997406199 0 0.0340126515301385 -0.00053537974684480898 0 0.033891510130637452 -0.00055802776126351132 0 0.033950231281935035 -0.00056482502286786388 0 0.034100065264381259 -0.00044546139847857367 0 0.033933172026595036 -0.00058068700719865181 0 0.03412172437039835 -0.00047324012404276167 0 0.033950231281935035 -0.00056482502286786388 0 0.034100065264381259 -0.00044546139847857367 0 0.03412172437039835 -0.00047324012404276167 0 0.034100065264381259 -0.00044546139847857367 0 0.034303680929676665 -0.00025755183674284863 0 0.033958207571935101 -0.00046587201066765403 0 0.034100065264381259 -0.00044546139847857367 0 0.034094269437958707 -0.00032247034679591625 0 0.034100065264381259 -0.00044546139847857367 0 0.034094269437958707 -0.00032247034679591625 0 0.0342208793581062 -0.00028637525023717371 0 0.033958207571935101 -0.00046587201066765403 0 0.034100065264381259 -0.00044546139847857367 0 0.033933172026595036 -0.00058068700719865181 0 0.034446669661801134 6.8204603262102815e-05 0 0.034343906756552349 -0.00012480764350372164 0 0.034528068674426975 -2.5843464224886603e-07 0 0.034343906756552349 -0.00012480764350372164 0 0.034444757250028664 -8.291914669685987e-05 0 0.034528068674426975 -2.5843464224886603e-07 0 0.034107960534384009 -0.00018960046060238046 0 0.034343906756552349 -0.00012480764350372164 0 0.034094269437958707 -0.00032247034679591625 0 0.034343906756552349 -0.00012480764350372164 0 0.034094269437958707 -0.00032247034679591625 0 0.0342208793581062 -0.00028637525023717371 0 0.034100065264381259 -0.00044546139847857367 0 0.0342208793581062 -0.00028637525023717371 0 0.034303680929676665 -0.00025755183674284863 0 0.034343906756552349 -0.00012480764350372164 0 0.0342208793581062 -0.00028637525023717371 0 0.034303680929676665 -0.00025755183674284863 0 0.034343906756552349 -0.00012480764350372164 0 0.034303680929676665 -0.00025755183674284863 0 0.034444757250028664 -8.291914669685987e-05 0 0.034303680929676665 -0.00025755183674284863 0 0.034444757250028664 -8.291914669685987e-05 0 0.034388365811448787 -0.00017384775199025517 0 0.034444757250028664 -8.291914669685987e-05 0 0.034477605852427172 -5.4854795529717446e-05 0 0.034388365811448787 -0.00017384775199025517 0 0.034477605852427172 -5.4854795529717446e-05 0 0.034467840163528496 -0.00015715028132386619 0 0.034502264042562174 -4.3747398127858155e-05 0 0.034477605852427172 -5.4854795529717446e-05 0 0.034467840163528496 -0.00015715028132386619 0 0.034388365811448787 -0.00017384775199025517 0 0.034467840163528496 -0.00015715028132386619 0 0.034388365811448787 -0.00017384775199025517 0 0.034276360472640842 -0.00038533995222182505 0 0.034467840163528496 -0.00015715028132386619 0 0.034276360472640842 -0.00038533995222182505 0 0.034532361974825294 -0.00023680451351368437 0 0.03412172437039835 -0.00047324012404276167 0 0.034303680929676665 -0.00025755183674284863 0 0.034276360472640842 -0.00038533995222182505 0 0.034303680929676665 -0.00025755183674284863 0 0.034388365811448787 -0.00017384775199025517 0 0.034276360472640842 -0.00038533995222182505 0 0.034276360472640842 -0.00038533995222182505 0 0.034532361974825294 -0.00023680451351368437 0 0.034646800294040124 -0.0003613972582208225 0 0.034642562739932589 -0.00014758564512817242 0 0.034726383533551862 -3.9857325995478382e-05 0 0.034532361974825294 -0.00023680451351368437 0 0.034646800294040124 -0.0003613972582208225 0 0.034624079149481866 -0.00012211325205321871 0 0.034467840163528496 -0.00015715028132386619 0 0.034532361974825294 -0.00023680451351368437 0 0.034624079149481866 -0.00012211325205321871 0 0.034726383533551862 -3.9857325995478382e-05 0 0.034469390366222194 -3.2430821296359561e-05 0 0.034467840163528496 -0.00015715028132386619 0 0.034624079149481866 -0.00012211325205321871 0 0.034502264042562174 -4.3747398127858155e-05 0 0.03449720732495714 -3.4852823940748248e-05 0 0.034496842800471744 -3.6268409464220796e-05 0 0.034502264042562174 -4.3747398127858155e-05 0 0.034726383533551862 -3.9857325995478382e-05 0 0.034843556842760394 7.8283217758395502e-06 0 0.03499748889020745 1.2444094299499872e-06 0 0.034999079824005679 4.7591579661533983e-07 0 0.034998896974269202 1.1476871580053493e-06 0 0.034496842800471744 -3.6268409464220796e-05 0 0.034505660154290956 -4.9193616564384693e-05 0 0.034502264042562174 -4.3747398127858155e-05 0 0.034843556842760394 7.8283217758395502e-06 0 0.034737441381589323 -1.0098966592685914e-05 0 0.034995895955162157 3.274566854036753e-06 0 0.03499748889020745 1.2444094299499872e-06 0 0.034998896974269202 1.1476871580053493e-06 0 0.034843556842760394 7.8283217758395502e-06 0 0.035002982568784827 2.4280017969139452e-06 0 0.034999079824005679 4.7591579661533983e-07 0 0.034999998225872443 8.7841621802422768e-10 0 0.034999996247611312 1.6865560522810873e-10 0 0.03499748889020745 1.2444094299499872e-06 0 0.034999079824005679 4.7591579661533983e-07 0 0.034999996247611312 1.6865560522810873e-10 0 0.034999079824005679 4.7591579661533983e-07 0 0.034999998225872443 8.7841621802422768e-10 0 0.034998896974269202 1.1476871580053493e-06 0 0.034477605852427172 -5.4854795529717446e-05 0 0.034505660154290956 -4.9193616564384693e-05 0 0.034502264042562174 -4.3747398127858155e-05 0 0.034444757250028664 -8.291914669685987e-05 0 0.034630143946998419 -1.007833550879434e-05 0 0.034528068674426975 -2.5843464224886603e-07 0 0.034444757250028664 -8.291914669685987e-05 0 0.034477605852427172 -5.4854795529717446e-05 0 0.034630143946998419 -1.007833550879434e-05 0 0.034477605852427172 -5.4854795529717446e-05 0 0.034505660154290956 -4.9193616564384693e-05 0 0.034630143946998419 -1.007833550879434e-05 0 0.034737441381589323 -1.0098966592685914e-05 0 0.034999897101518525 5.0677634120522996e-09 0 0.034505660154290956 -4.9193616564384693e-05 0 0.034630143946998419 -1.007833550879434e-05 0 0.034998234686257262 -3.1130792905622648e-07 0 0.034999998225872443 8.7841621802422768e-10 0 0.034998896974269202 1.1476871580053493e-06 0 0.035000000236135878 -2.8350834423791096e-10 0 0.034630143946998419 -1.007833550879434e-05 0 0.034998234686257262 -3.1130792905622648e-07 0 0.034757838048914254 -7.3501257160940256e-06 0 0.034911791833644325 -1.5283813139547102e-05 0 0.034998234686257262 -3.1130792905622648e-07 0 0.034757838048914254 -7.3501257160940256e-06 0 0.034630143946998419 -1.007833550879434e-05 0 0.034757838048914254 -7.3501257160940256e-06 0 0.034528068674426975 -2.5843464224886603e-07 0 0.034446669661801134 6.8204603262102815e-05 0 0.034757838048914254 -7.3501257160940256e-06 0 0.034528068674426975 -2.5843464224886603e-07 0 0.034998158278136342 -8.9883593514471102e-07 0 0.034997120819825332 -2.8458249964305159e-06 0 0.034996870695471277 -1.2205647192306691e-06 0 0.034998158278136342 -8.9883593514471102e-07 0 0.034996870695471277 -1.2205647192306691e-06 0 0.03499786539947216 2.0274896783761632e-07 0 0.034920622526835553 -9.6512959456238503e-08 0 0.034910534497483103 -2.1889082466145046e-06 0 0.034939459623604938 2.235659134240761e-07 0 0.034920622526835553 -9.6512959456238503e-08 0 0.034954249905125162 3.4124224745459535e-06 0 0.034939459623604938 2.235659134240761e-07 0 0.034910534497483103 -2.1889082466145046e-06 0 0.034939459623604938 2.235659134240761e-07 0 0.034907590464210353 -1.5975402091774377e-06 0 0.03488906859023172 -1.0495937796455811e-06 0 0.034910534497483103 -2.1889082466145046e-06 0 0.034907590464210353 -1.5975402091774377e-06 0 0.034958098327930717 -3.6872909782263068e-06 0 0.034967648328791394 2.0470617496200678e-06 0 0.03488906859023172 -1.0495937796455811e-06 0 0.034910534497483103 -2.1889082466145046e-06 0 0.034900667631179591 -2.4545800378976585e-06 0 0.034967648328791394 2.0470617496200678e-06 0 0.034992610246897253 3.8510813678442887e-06 0 0.034920622526835553 -9.6512959456238503e-08 0 0.034910534497483103 -2.1889082466145046e-06 0 0.034900667631179591 -2.4545800378976585e-06 0 0.034971488202971246 1.0916452581330335e-05 0 0.034967648328791394 2.0470617496200678e-06 0 0.034980044509812264 2.2220163596100053e-05 0 0.034979681747891178 1.9094055813804838e-05 0 0.034992203714477782 1.7522721150123103e-05 0 0.034979681747891178 1.9094055813804838e-05 0 0.034992203714477782 1.7522721150123103e-05 0 0.034990258604418678 1.2505599238998503e-05 0 0.034979681747891178 1.9094055813804838e-05 0 0.034990258604418678 1.2505599238998503e-05 0 0.03498742205986307 8.0711787388186096e-06 0 0.034992203714477782 1.7522721150123103e-05 0 0.034990258604418678 1.2505599238998503e-05 0 0.034995002830063418 1.148860736323121e-05 0 0.034627662572645691 4.6006849848040004e-05 0 0.034630519745798213 6.6816629355612484e-05 0 0.034655581367167683 4.9903268468309547e-05 0 0.034726383533551862 -3.9857325995478382e-05 0 0.034833100176424679 4.338875805831777e-05 0 0.034998231233682293 6.7931682980114083e-06 0 0.034992203714477782 1.7522721150123103e-05 0 0.034995002830063418 1.148860736323121e-05 0 0.034640265860823333 3.5671029856179863e-05 0 0.034627662572645691 4.6006849848040004e-05 0 0.034655581367167683 4.9903268468309547e-05 0 0.034995002830063418 1.148860736323121e-05 0 0.03499688275477035 4.1755536867618903e-06 0 0.034992949514674618 8.2166659987831312e-06 0 0.035000458499341663 6.5682125215750905e-06 0 0.034995002830063418 1.148860736323121e-05 0 0.03499688275477035 4.1755536867618903e-06 0 0.034843556842760394 7.8283217758395502e-06 0 0.03502001074920176 -1.7909664958761262e-05 0 0.034998231233682293 6.7931682980114083e-06 0 0.034997945129544177 5.6138557996842874e-06 0 0.034995002830063418 1.148860736323121e-05 0 0.034996870695471277 -1.2205647192306691e-06 0 0.034995959402491249 1.2557674272279893e-06 0 0.03499786539947216 2.0274896783761632e-07 0 0.034992610246897253 3.8510813678442887e-06 0 0.034994838170874169 1.7043447681487679e-06 0 0.03498742205986307 8.0711787388186096e-06 0 0.034992949514674618 8.2166659987831312e-06 0 0.034995959402491249 1.2557674272279893e-06 0 0.03499688275477035 4.1755536867618903e-06 0 0.034992949514674618 8.2166659987831312e-06 0 0.034995959402491249 1.2557674272279893e-06 0 0.034990258604418678 1.2505599238998503e-05 0 0.03498742205986307 8.0711787388186096e-06 0 0.034992949514674618 8.2166659987831312e-06 0 0.034990258604418678 1.2505599238998503e-05 0 0.034995002830063418 1.148860736323121e-05 0 0.034992949514674618 8.2166659987831312e-06 0 0.034995959402491249 1.2557674272279893e-06 0 0.034998218697568889 5.0755830249815687e-07 0 0.034998506536214523 7.3464842425180599e-07 0 0.03499688275477035 4.1755536867618903e-06 0 0.034995959402491249 1.2557674272279893e-06 0 0.034998218697568889 5.0755830249815687e-07 0 0.035000458499341663 6.5682125215750905e-06 0 0.034999952916632181 1.343806249752293e-06 0 0.03499688275477035 4.1755536867618903e-06 0 0.034999952916632181 1.343806249752293e-06 0 0.03499688275477035 4.1755536867618903e-06 0 0.034998218697568889 5.0755830249815687e-07 0 0.035002982568784827 2.4280017969139452e-06 0 0.034999998861415818 -3.5643033421123321e-10 0 0.034999952916632181 1.343806249752293e-06 0 0.034999999791418393 -9.5794809300703578e-10 0 0.034998218697568889 5.0755830249815687e-07 0 0.034999999791418393 -9.5794809300703578e-10 0 0.034998218697568889 5.0755830249815687e-07 0 0.034999995597180728 1.1978887512994558e-09 0 0.034998218697568889 5.0755830249815687e-07 0 0.034999995597180728 1.1978887512994558e-09 0 0.034998506536214523 7.3464842425180599e-07 0 0.034998506536214523 7.3464842425180599e-07 0 0.034998935230683245 4.9292850774042913e-07 0 0.034999999540093051 4.4370835772937303e-10 0 0.034999995597180728 1.1978887512994558e-09 0 0.034998506536214523 7.3464842425180599e-07 0 0.034999999540093051 4.4370835772937303e-10 0 0.034998158278136342 -8.9883593514471102e-07 0 0.03499786539947216 2.0274896783761632e-07 0 0.034998935230683245 4.9292850774042913e-07 0 0.034958098327930717 -3.6872909782263068e-06 0 0.034976673868624811 -6.9543912740413572e-07 0 0.034995959402491249 1.2557674272279893e-06 0 0.034998506536214523 7.3464842425180599e-07 0 0.03499786539947216 2.0274896783761632e-07 0 0.034998506536214523 7.3464842425180599e-07 0 0.03499786539947216 2.0274896783761632e-07 0 0.034998935230683245 4.9292850774042913e-07 0 0.034954249905125162 3.4124224745459535e-06 0 0.034970969327644423 2.5931497245624643e-06 0 0.034939459623604938 2.235659134240761e-07 0 0.034954249905125162 3.4124224745459535e-06 0 0.034999939915406793 1.0529698336463904e-08 0 0.034970969327644423 2.5931497245624643e-06 0 0.034976673868624811 -6.9543912740413572e-07 0 0.034999986395864574 -5.1813789860376274e-09 0 0.034999939915406793 1.0529698336463904e-08 0 0.034999975096574799 1.9757720021395059e-09 0 0.034970969327644423 2.5931497245624643e-06 0 0.034999975096574799 1.9757720021395059e-09 0 0.034968731198920737 2.4565952649604084e-06 0 0.034970969327644423 2.5931497245624643e-06 0 0.034999975096574799 1.9757720021395059e-09 0 0.034999977427496588 2.9697804764060404e-10 0 0.034968731198920737 2.4565952649604084e-06 0 0.034999981960386839 -2.572229022874102e-09 0 0.034959619689034965 -2.203004208785476e-06 0 0.034968731198920737 2.4565952649604084e-06 0 0.034970969327644423 2.5931497245624643e-06 0 0.034939459623604938 2.235659134240761e-07 0 0.034999926898292316 5.6022455582595037e-10 0 0.034999944006699708 -9.1741551566726929e-09 0 0.034980705910480268 -3.3285016101006594e-06 0 0.034980705910480268 -3.3285016101006594e-06 0 0.034955077492043247 -6.9995208835498117e-06 0 0.034987670285623766 -5.8168329117351776e-06 0 0.034999944006699708 -9.1741551566726929e-09 0 0.034980705910480268 -3.3285016101006594e-06 0 0.034987670285623766 -5.8168329117351776e-06 0 0.034999926898292316 5.6022455582595037e-10 0 0.034949925600989591 -4.9192554924144892e-06 0 0.034964467916662995 -4.2931132026527497e-06 0 0.034999926898292316 5.6022455582595037e-10 0 0.034980705910480268 -3.3285016101006594e-06 0 0.034964467916662995 -4.2931132026527497e-06 0 0.034949925600989591 -4.9192554924144892e-06 0 0.034964467916662995 -4.2931132026527497e-06 0 0.034934506492218867 -6.7978658166163599e-06 0 0.034964467916662995 -4.2931132026527497e-06 0 0.034955077492043247 -6.9995208835498117e-06 0 0.034934506492218867 -6.7978658166163599e-06 0 0.034980705910480268 -3.3285016101006594e-06 0 0.034964467916662995 -4.2931132026527497e-06 0 0.034955077492043247 -6.9995208835498117e-06 0 0.034916927052177055 -6.5387529457024214e-06 0 0.034934506492218867 -6.7978658166163599e-06 0 0.034901662124279059 -8.0111030522796597e-06 0 0.034955077492043247 -6.9995208835498117e-06 0 0.034916927052177055 -6.5387529457024214e-06 0 0.034934506492218867 -6.7978658166163599e-06 0 0.034934506492218867 -6.7978658166163599e-06 0 0.034901662124279059 -8.0111030522796597e-06 0 0.034910058384538707 -8.5174995196766292e-06 0 0.034949925600989591 -4.9192554924144892e-06 0 0.034934506492218867 -6.7978658166163599e-06 0 0.034910058384538707 -8.5174995196766292e-06 0 0.034901662124279059 -8.0111030522796597e-06 0 0.034910058384538707 -8.5174995196766292e-06 0 0.034880571308742822 -1.1122710655466561e-05 0 0.034901662124279059 -8.0111030522796597e-06 0 0.034891881537192714 -5.7872643008804316e-06 0 0.034877298735721166 -7.517860809030052e-06 0 0.034916927052177055 -6.5387529457024214e-06 0 0.034901662124279059 -8.0111030522796597e-06 0 0.034891881537192714 -5.7872643008804316e-06 0 0.034939459623604938 2.235659134240761e-07 0 0.034934532673961523 -5.31207129800764e-07 0 0.034907590464210353 -1.5975402091774377e-06 0 0.034968731198920737 2.4565952649604084e-06 0 0.034939459623604938 2.235659134240761e-07 0 0.034934532673961523 -5.31207129800764e-07 0 0.034959619689034965 -2.203004208785476e-06 0 0.034922560074688615 -4.6065272202515568e-06 0 0.034910058384538707 -8.5174995196766292e-06 0 0.03487726378640639 -1.3348239957147188e-05 0 0.034880571308742822 -1.1122710655466561e-05 0 0.034922560074688615 -4.6065272202515568e-06 0 0.034889416921073044 -6.8684370535224116e-06 0 0.034934532673961523 -5.31207129800764e-07 0 0.034907590464210353 -1.5975402091774377e-06 0 0.034900008700995855 -1.5654308958661825e-06 0 0.034907590464210353 -1.5975402091774377e-06 0 0.034880314324363712 -6.6685369208615719e-07 0 0.034900008700995855 -1.5654308958661825e-06 0 0.034880314324363712 -6.6685369208615719e-07 0 0.034865644476948079 -8.8898236191406814e-06 0 0.034855630687442289 2.5221166268998068e-06 0 0.03487067063802602 -7.8004206263890625e-06 0 0.034889416921073044 -6.8684370535224116e-06 0 0.034880314324363712 -6.6685369208615719e-07 0 0.034865644476948079 -8.8898236191406814e-06 0 0.034900008700995855 -1.5654308958661825e-06 0 0.034865644476948079 -8.8898236191406814e-06 0 0.03487726378640639 -1.3348239957147188e-05 0 0.034861140699118887 -1.2549348191651343e-05 0 0.034901662124279059 -8.0111030522796597e-06 0 0.034880571308742822 -1.1122710655466561e-05 0 0.034877298735721166 -7.517860809030052e-06 0 0.034880571308742822 -1.1122710655466561e-05 0 0.034853615634363309 -9.4137413800689298e-06 0 0.034861140699118887 -1.2549348191651343e-05 0 0.03487726378640639 -1.3348239957147188e-05 0 0.034880571308742822 -1.1122710655466561e-05 0 0.034861140699118887 -1.2549348191651343e-05 0 0.034877298735721166 -7.517860809030052e-06 0 0.034853615634363309 -9.4137413800689298e-06 0 0.03487049566695035 -4.6531551654403721e-06 0 0.034891881537192714 -5.7872643008804316e-06 0 0.034877298735721166 -7.517860809030052e-06 0 0.03487049566695035 -4.6531551654403721e-06 0 0.034880571308742822 -1.1122710655466561e-05 0 0.034877298735721166 -7.517860809030052e-06 0 0.034853615634363309 -9.4137413800689298e-06 0 0.034853615634363309 -9.4137413800689298e-06 0 0.03485082601958675 -5.9282793638735589e-06 0 0.03487049566695035 -4.6531551654403721e-06 0 0.034853615634363309 -9.4137413800689298e-06 0 0.034828967779061963 -7.7083151087872448e-06 0 0.03485082601958675 -5.9282793638735589e-06 0 0.034853615634363309 -9.4137413800689298e-06 0 0.034828967779061963 -7.7083151087872448e-06 0 0.034832732095442936 -7.8793433016458765e-06 0 0.034865644476948079 -8.8898236191406814e-06 0 0.034861140699118887 -1.2549348191651343e-05 0 0.034832732095442936 -7.8793433016458765e-06 0 0.034853615634363309 -9.4137413800689298e-06 0 0.034861140699118887 -1.2549348191651343e-05 0 0.034832732095442936 -7.8793433016458765e-06 0 0.034832732095442936 -7.8793433016458765e-06 0 0.034813749925473099 1.773203750591563e-06 0 0.034791513532740348 -1.165745711563933e-06 0 0.034865644476948079 -8.8898236191406814e-06 0 0.034832732095442936 -7.8793433016458765e-06 0 0.034813749925473099 1.773203750591563e-06 0 0.034813749925473099 1.773203750591563e-06 0 0.034791513532740348 -1.165745711563933e-06 0 0.034763295874053975 3.0464161561275546e-05 0 0.034828967779061963 -7.7083151087872448e-06 0 0.034832732095442936 -7.8793433016458765e-06 0 0.034791513532740348 -1.165745711563933e-06 0 0.034828967779061963 -7.7083151087872448e-06 0 0.034791513532740348 -1.165745711563933e-06 0 0.034852924242911018 -1.1165378863100093e-05 0 0.034712955957707965 4.379155657723365e-05 0 0.034763295874053975 3.0464161561275546e-05 0 0.034755492545365044 5.2497683736021376e-05 0 0.032303657854647248 0.0011259117491885736 0 0.031963845344404107 0.0012136271598502035 0 0.034791513532740348 -1.165745711563933e-06 0 0.034763295874053975 3.0464161561275546e-05 0 0.034755492545365044 5.2497683736021376e-05 0 0.034712955957707965 4.379155657723365e-05 0 0.034763295874053975 3.0464161561275546e-05 0 0.03477895972587719 2.2468066610146736e-05 0 0.034813749925473099 1.773203750591563e-06 0 0.03477895972587719 2.2468066610146736e-05 0 0.034849976896960844 2.3918563028113976e-05 0 0.034713452467508059 4.5371191935897992e-05 0 0.034688613613400102 4.6494825713291794e-05 0 0.034712955957707965 4.379155657723365e-05 0 0.03477895972587719 2.2468066610146736e-05 0 0.034849976896960844 2.3918563028113976e-05 0 0.034813749925473099 1.773203750591563e-06 0 0.034763295874053975 3.0464161561275546e-05 0 0.03477895972587719 2.2468066610146736e-05 0 0.034813749925473099 1.773203750591563e-06 0 0.034849976896960844 2.3918563028113976e-05 0 0.034863229621560264 -8.3187653598277173e-06 0 0.034688613613400102 4.6494825713291794e-05 0 0.034683961175684438 -3.0962954447042637e-06 0 0.034849976896960844 2.3918563028113976e-05 0 0.034859968293016193 -3.4641870288634577e-05 0 0.034863229621560264 -8.3187653598277173e-06 0 0.034523763674168886 8.3777135250801614e-05 0 0.034510628018352606 1.7846632420095118e-05 0 0.034493904028248708 5.117173172989393e-05 0 0.034478443303933924 6.0657169935369771e-05 0 0.034510628018352606 1.7846632420095118e-05 0 0.034493904028248708 5.117173172989393e-05 0 0.034859968293016193 -3.4641870288634577e-05 0 0.034863229621560264 -8.3187653598277173e-06 0 0.034855630687442289 2.5221166268998068e-06 0 0.034865644476948079 -8.8898236191406814e-06 0 0.034863229621560264 -8.3187653598277173e-06 0 0.034855630687442289 2.5221166268998068e-06 0 0.034865644476948079 -8.8898236191406814e-06 0 0.034813749925473099 1.773203750591563e-06 0 0.034863229621560264 -8.3187653598277173e-06 0 0.035117942283366246 0.00037151701458977115 0 0.03498847177497999 0.00041664859521446825 0 0.03503882474540105 0.0005783464358813219 0 0.035117942283366246 0.00037151701458977115 0 0.03503882474540105 0.0005783464358813219 0 0.035249596743718033 0.00052913676417648472 0 0.035117942283366246 0.00037151701458977115 0 0.03498847177497999 0.00041664859521446825 0 0.034906323646172445 0.00030804568376832268 0 0.034745481405077515 0.00045997477723272435 0 0.034906323646172445 0.00030804568376832268 0 0.034661385210464128 0.00020538472841490719 0 0.03498847177497999 0.00041664859521446825 0 0.034745481405077515 0.00045997477723272435 0 0.034906323646172445 0.00030804568376832268 0 0.03498847177497999 0.00041664859521446825 0 0.034745481405077515 0.00045997477723272435 0 0.03503882474540105 0.0005783464358813219 0 0.034745481405077515 0.00045997477723272435 0 0.034900812034366832 0.00070312138726497922 0 0.03503882474540105 0.0005783464358813219 0 0.034677729500647562 0.0009087860133251103 0 0.035130664235076277 0.00089056986445948513 0 0.034900812034366832 0.00070312138726497922 0 0.034677729500647562 0.0009087860133251103 0 0.034745481405077515 0.00045997477723272435 0 0.034900812034366832 0.00070312138726497922 0 0.03499531607125457 0.0014162595634964782 0 0.033654053971508648 0.0016136376891174712 0 0.034561744415565809 0.0023078512646231555 0 0.034479104701939406 0.0021851134111797264 0 0.034612389407498265 0.0019794499050047373 0 0.035130664235076277 0.00089056986445948513 0 0.03503882474540105 0.0005783464358813219 0 0.035249596743718033 0.00052913676417648472 0 0.035130664235076277 0.00089056986445948513 0 0.034900812034366832 0.00070312138726497922 0 0.03503882474540105 0.0005783464358813219 0 0.030686414645770526 0.0017227203433250412 0 0.030232248514924925 0.0022668281086407754 0 0.030486787155690444 0.0027125946851573467 0 0.032764310669894506 0.0021854404261607836 0 0.033654053971508648 0.0016136376891174712 0 0.030232248514924925 0.0022668281086407754 0 0.030393864512539937 0.002834956414831169 0 0.030486787155690444 0.0027125946851573467 0 0.030232248514924925 0.0022668281086407754 0 0.029654247177915708 0.00238208978102668 0 0.030393864512539937 0.002834956414831169 0 0.031963845344404107 0.0012136271598502035 0 0.033472737721777925 0.00077215330957464492 0 0.034755492545365044 5.2497683736021376e-05 0 0.034717133139516035 2.3908122809482425e-06 0 0.034620519712242406 7.3545699045505036e-06 0 0.034791513532740348 -1.165745711563933e-06 0 0.034755492545365044 5.2497683736021376e-05 0 0.034717133139516035 2.3908122809482425e-06 0 0.034791513532740348 -1.165745711563933e-06 0 0.034717133139516035 2.3908122809482425e-06 0 0.034704588385013842 -3.0049153712967437e-05 0 0.034717133139516035 2.3908122809482425e-06 0 0.034704588385013842 -3.0049153712967437e-05 0 0.034620519712242406 7.3545699045505036e-06 0 0.034704588385013842 -3.0049153712967437e-05 0 0.03472191220856144 -7.3450128849385042e-05 0 0.034668076948060393 -5.8808839327164123e-05 0 0.034791513532740348 -1.165745711563933e-06 0 0.034704588385013842 -3.0049153712967437e-05 0 0.03472191220856144 -7.3450128849385042e-05 0 0.034806128337143367 1.0640335412148795e-06 0 0.034763222333282578 -6.4452685310621957e-05 0 0.035117942283366246 0.00037151701458977115 0 0.035261179195519812 0.00045024260271761741 0 0.035249596743718033 0.00052913676417648472 0 0.034178228104354683 0.00065758606711255492 0 0.033654053971508648 0.0016136376891174712 0 0.034276293275837602 0.00080372189620927018 0 0.033993945106472981 0.00061630864416730921 0 0.033811830758265479 0.0013959389194668878 0 0.033472737721777925 0.00077215330957464492 0 0.034178228104354683 0.00065758606711255492 0 0.033472737721777925 0.00077215330957464492 0 0.033654053971508648 0.0016136376891174712 0 0.033472737721777925 0.00077215330957464492 0 0.034778165633175373 -0.00033282441017400637 0 0.034704588385013842 -3.0049153712967437e-05 0 0.034620519712242406 7.3545699045505036e-06 0 0.034668076948060393 -5.8808839327164123e-05 0 0.034587414332541824 3.9780017164254225e-05 0 0.034571736015827852 2.8614078175208702e-05 0 0.034668076948060393 -5.8808839327164123e-05 0 0.035117942283366246 0.00037151701458977115 0 0.035175858171156899 0.00041837087714467638 0 0.035136435421127932 0.00028482225086084187 0 0.034968079487936191 0.00070349760436131314 0 0.034178228104354683 0.00065758606711255492 0 0.034178228104354683 0.00065758606711255492 0 0.034963820287429566 -2.7174166790453764e-05 0 0.035175858171156899 0.00041837087714467638 0 0.035136435421127932 0.00028482225086084187 0 0.035213411714334071 0.00018228317388944328 0 0.034571736015827852 2.8614078175208702e-05 0 0.03463291491960712 -0.00017825202278350111 0 0.034668076948060393 -5.8808839327164123e-05 0 0.035136435421127932 0.00028482225086084187 0 0.035213411714334071 0.00018228317388944328 0 0.03502718776598724 0.00018911054421714491 0 0.034870712989959918 -5.5365734949430266e-06 0 0.034862531916829149 -6.0651830197327567e-06 0 0.03487049566695035 -4.6531551654403721e-06 0 0.034828967779061963 -7.7083151087872448e-06 0 0.034852924242911018 -1.1165378863100093e-05 0 0.03485082601958675 -5.9282793638735589e-06 0 0.034852924242911018 -1.1165378863100093e-05 0 0.034862531916829149 -6.0651830197327567e-06 0 0.03485082601958675 -5.9282793638735589e-06 0 0.03463291491960712 -0.00017825202278350111 0 0.03472191220856144 -7.3450128849385042e-05 0 0.034668076948060393 -5.8808839327164123e-05 0 0.034963820287429566 -2.7174166790453764e-05 0 0.034763222333282578 -6.4452685310621957e-05 0 0.034870712989959918 -5.5365734949430266e-06 0 0.034852924242911018 -1.1165378863100093e-05 0 0.034862531916829149 -6.0651830197327567e-06 0 0.034862531916829149 -6.0651830197327567e-06 0 0.03485082601958675 -5.9282793638735589e-06 0 0.03487049566695035 -4.6531551654403721e-06 0 0.034870712989959918 -5.5365734949430266e-06 0 0.03487049566695035 -4.6531551654403721e-06 0 0.034890511098243503 -4.1614586537313983e-06 0 0.034963820287429566 -2.7174166790453764e-05 0 0.035014761685601546 5.4980926859127716e-05 0 0.034971367833300585 3.6246663739346266e-05 0 0.034947555884346615 1.3140817060754505e-05 0 0.034979537274757382 -9.4014030476460276e-07 0 0.034963820287429566 -2.7174166790453764e-05 0 0.034929580885734897 9.2354093711740059e-06 0 0.035213411714334071 0.00018228317388944328 0 0.035022906480654314 3.3570792718904915e-05 0 0.03502718776598724 0.00018911054421714491 0 0.035022906480654314 3.3570792718904915e-05 0 0.03502718776598724 0.00018911054421714491 0 0.034850772298415891 7.5776658770667832e-05 0 0.035117942283366246 0.00037151701458977115 0 0.03502718776598724 0.00018911054421714491 0 0.034906323646172445 0.00030804568376832268 0 0.03502718776598724 0.00018911054421714491 0 0.034906323646172445 0.00030804568376832268 0 0.034850772298415891 7.5776658770667832e-05 0 0.035117942283366246 0.00037151701458977115 0 0.035136435421127932 0.00028482225086084187 0 0.03502718776598724 0.00018911054421714491 0 0.034906323646172445 0.00030804568376832268 0 0.034850772298415891 7.5776658770667832e-05 0 0.034661385210464128 0.00020538472841490719 0 0.034850772298415891 7.5776658770667832e-05 0 0.034906565691064491 -2.9154743110565936e-05 0 0.034820525519312459 -3.5130894346708688e-05 0 0.035022906480654314 3.3570792718904915e-05 0 0.034850772298415891 7.5776658770667832e-05 0 0.034906565691064491 -2.9154743110565936e-05 0 0.034947555884346615 1.3140817060754505e-05 0 0.034906565691064491 -2.9154743110565936e-05 0 0.034961248192676798 -1.7229188089905756e-05 0 0.035014761685601546 5.4980926859127716e-05 0 0.034904146880383249 -3.8089596067636385e-05 0 0.034906565691064491 -2.9154743110565936e-05 0 0.034961248192676798 -1.7229188089905756e-05 0 0.034964853796257661 -3.0085284646621006e-05 0 0.034906565691064491 -2.9154743110565936e-05 0 0.034922632252266654 -4.3055705345560767e-05 0 0.034964853796257661 -3.0085284646621006e-05 0 0.034906565691064491 -2.9154743110565936e-05 0 0.034922632252266654 -4.3055705345560767e-05 0 0.034820525519312459 -3.5130894346708688e-05 0 0.034916927052177055 -6.5387529457024214e-06 0 0.034891881537192714 -5.7872643008804316e-06 0 0.034890511098243503 -4.1614586537313983e-06 0 0.034891881537192714 -5.7872643008804316e-06 0 0.03487049566695035 -4.6531551654403721e-06 0 0.034890511098243503 -4.1614586537313983e-06 0 0.034947555884346615 1.3140817060754505e-05 0 0.034979537274757382 -9.4014030476460276e-07 0 0.034961248192676798 -1.7229188089905756e-05 0 0.034961248192676798 -1.7229188089905756e-05 0 0.034982821542734313 -2.150273794675657e-05 0 0.034964853796257661 -3.0085284646621006e-05 0 0.034979537274757382 -9.4014030476460276e-07 0 0.034961248192676798 -1.7229188089905756e-05 0 0.034982821542734313 -2.150273794675657e-05 0 0.034929580885734897 9.2354093711740059e-06 0 0.034958739331111051 -1.376597144748409e-05 0 0.034916927052177055 -6.5387529457024214e-06 0 0.034890511098243503 -4.1614586537313983e-06 0 0.03493021632009416 -7.8510611502617374e-06 0 0.034955077492043247 -6.9995208835498117e-06 0 0.034916927052177055 -6.5387529457024214e-06 0 0.03493021632009416 -7.8510611502617374e-06 0 0.034955077492043247 -6.9995208835498117e-06 0 0.03493021632009416 -7.8510611502617374e-06 0 0.034987670285623766 -5.8168329117351776e-06 0 0.034982821542734313 -2.150273794675657e-05 0 0.034983738073121738 -1.7354419444428711e-05 0 0.034987670285623766 -5.8168329117351776e-06 0 0.034958739331111051 -1.376597144748409e-05 0 0.034980226000961831 -4.2641195635017996e-06 0 0.034982821542734313 -2.150273794675657e-05 0 0.034983738073121738 -1.7354419444428711e-05 0 0.034964853796257661 -3.0085284646621006e-05 0 0.034983738073121738 -1.7354419444428711e-05 0 0.034999983031617873 -8.9466301258362587e-09 0 0.034964853796257661 -3.0085284646621006e-05 0 0.034983738073121738 -1.7354419444428711e-05 0 0.034999983031617873 -8.9466301258362587e-09 0 0.034987670285623766 -5.8168329117351776e-06 0 0.034999944006699708 -9.1741551566726929e-09 0 0.034999983031617873 -8.9466301258362587e-09 0 0.034987670285623766 -5.8168329117351776e-06 0 0.034922632252266654 -4.3055705345560767e-05 0 0.034964853796257661 -3.0085284646621006e-05 0 0.034999910510019411 -4.9365809946082018e-08 0 0.034999983031617873 -8.9466301258362587e-09 0 0.034964853796257661 -3.0085284646621006e-05 0 0.034999910510019411 -4.9365809946082018e-08 0 0.034922632252266654 -4.3055705345560767e-05 0 0.034999910510019411 -4.9365809946082018e-08 0 0.03492910812575057 -3.4554020092601677e-05 0 0.034999910510019411 -4.9365809946082018e-08 0 0.03492910812575057 -3.4554020092601677e-05 0 0.034999834781503043 -4.4427113746349169e-08 0 0.034922632252266654 -4.3055705345560767e-05 0 0.03492910812575057 -3.4554020092601677e-05 0 0.034823644681080665 -6.4830251288648528e-05 0 0.034888651930638469 -3.6252067840976744e-05 0 0.034728667729300208 -8.8129114073404026e-05 0 0.034823644681080665 -6.4830251288648528e-05 0 0.03492910812575057 -3.4554020092601677e-05 0 0.034888651930638469 -3.6252067840976744e-05 0 0.034823644681080665 -6.4830251288648528e-05 0 0.03492910812575057 -3.4554020092601677e-05 0 0.034999834781503043 -4.4427113746349169e-08 0 0.034888651930638469 -3.6252067840976744e-05 0 0.034999848470271211 3.3680015697070616e-09 0 0.034913912698410182 -2.6581395664543167e-05 0 0.034888651930638469 -3.6252067840976744e-05 0 0.034999834781503043 -4.4427113746349169e-08 0 0.034999848470271211 3.3680015697070616e-09 0 0.034888651930638469 -3.6252067840976744e-05 0 0.034999848470271211 3.3680015697070616e-09 0 0.034913912698410182 -2.6581395664543167e-05 0 0.034959495583091547 -1.4219045121939348e-05 0 0.034823097681282361 -6.1823733565461177e-05 0 0.034959495583091547 -1.4219045121939348e-05 0 0.034935578326626436 -9.469259969970051e-05 0 0.034913912698410182 -2.6581395664543167e-05 0 0.034823097681282361 -6.1823733565461177e-05 0 0.034959495583091547 -1.4219045121939348e-05 0 0.034913912698410182 -2.6581395664543167e-05 0 0.034888651930638469 -3.6252067840976744e-05 0 0.034823097681282361 -6.1823733565461177e-05 0 0.034888651930638469 -3.6252067840976744e-05 0 0.034728667729300208 -8.8129114073404026e-05 0 0.034823097681282361 -6.1823733565461177e-05 0 0.034728667729300208 -8.8129114073404026e-05 0 0.034823097681282361 -6.1823733565461177e-05 0 0.034563136824495841 -0.00013518775643507977 0 0.034823097681282361 -6.1823733565461177e-05 0 0.034563136824495841 -0.00013518775643507977 0 0.034902039786144139 -9.1639038525186345e-05 0 0.034570762174140353 -0.00018462034603038482 0 0.034454277808789749 -0.00031784019472825002 0 0.034921634165185921 -0.00013564839295512692 0 0.034454277808789749 -0.00031784019472825002 0 0.034101106313242535 -0.00020790641494959785 0 0.034563136824495841 -0.00013518775643507977 0 0.034153341334060242 0.00013026585095953806 0 0.034101106313242535 -0.00020790641494959785 0 0.034563136824495841 -0.00013518775643507977 0 0.034033516600276842 -0.00071550794673372049 0 0.034728667729300208 -8.8129114073404026e-05 0 0.034563136824495841 -0.00013518775643507977 0 0.034684681156048877 5.3827959298627116e-07 0 0.034684681156048877 5.3827959298627116e-07 0 0.034820525519312459 -3.5130894346708688e-05 0 0.034823644681080665 -6.4830251288648528e-05 0 0.034850772298415891 7.5776658770667832e-05 0 0.034684681156048877 5.3827959298627116e-07 0 0.034820525519312459 -3.5130894346708688e-05 0 0.034922632252266654 -4.3055705345560767e-05 0 0.034820525519312459 -3.5130894346708688e-05 0 0.034823644681080665 -6.4830251288648528e-05 0 0.034728667729300208 -8.8129114073404026e-05 0 0.034684681156048877 5.3827959298627116e-07 0 0.034823644681080665 -6.4830251288648528e-05 0 0.034591979501742802 -0.00034461931034124608 0 0.034998564485917108 -2.7997054170011242e-07 0 0.034999959772870792 -7.4072421304950583e-08 0 0.034999860936225702 -6.0766679852209818e-08 0 0.034688831997094938 -0.00015058857454980723 0 0.034591979501742802 -0.00034461931034124608 0 0.034998564485917108 -2.7997054170011242e-07 0 0.034565435181826518 -0.00035072543420075394 0 0.034998564485917108 -2.7997054170011242e-07 0 0.034565435181826518 -0.00035072543420075394 0 0.034332363855080629 -0.0002816795500576514 0 0.034591979501742802 -0.00034461931034124608 0 0.034565435181826518 -0.00035072543420075394 0 0.034477314564395345 -0.00051202055942436986 0 0.034565435181826518 -0.00035072543420075394 0 0.034332363855080629 -0.0002816795500576514 0 0.034421680203514715 -0.00044142886985769938 0 0.034332363855080629 -0.0002816795500576514 0 0.034139080630672634 -0.00048270404861911024 0 0.034312394489500159 -0.00044718052834634962 0 0.034332363855080629 -0.0002816795500576514 0 0.034312394489500159 -0.00044718052834634962 0 0.034421680203514715 -0.00044142886985769938 0 0.035000013173776268 -4.6205765650681465e-09 0 0.035005773258254602 -1.7938596041058591e-05 0 0.035000003226682654 -2.1999478704373104e-09 0 0.035005773258254602 -1.7938596041058591e-05 0 0.035000003226682654 -2.1999478704373104e-09 0 0.034959495583091547 -1.4219045121939348e-05 0 0.034999848470271211 3.3680015697070616e-09 0 0.035000003226682654 -2.1999478704373104e-09 0 0.034959495583091547 -1.4219045121939348e-05 0 0.035005773258254602 -1.7938596041058591e-05 0 0.034959495583091547 -1.4219045121939348e-05 0 0.034935578326626436 -9.469259969970051e-05 0 0.034688831997094938 -0.00015058857454980723 0 0.034454277808789749 -0.00031784019472825002 0 0.034033516600276842 -0.00071550794673372049 0 0.033766327914209714 -0.00034832068781589582 0 0.033379289117238024 -0.00054167426130239391 0 0.034101106313242535 -0.00020790641494959785 0 0.034033516600276842 -0.00071550794673372049 0 0.033766327914209714 -0.00034832068781589582 0 0.034101106313242535 -0.00020790641494959785 0 0.033766327914209714 -0.00034832068781589582 0 0.033796297218764204 -7.9474744620468886e-05 0 0.033766327914209714 -0.00034832068781589582 0 0.033490095459383709 -0.00022005620799208381 0 0.033379289117238024 -0.00054167426130239391 0 0.033766327914209714 -0.00034832068781589582 0 0.033490095459383709 -0.00022005620799208381 0 0.033796297218764204 -7.9474744620468886e-05 0 0.033490095459383709 -0.00022005620799208381 0 0.033379289117238024 -0.00054167426130239391 0 0.033143354274528157 -0.00022874657465026969 0 0.034454277808789749 -0.00031784019472825002 0 0.033788978369360054 -0.00058103257982542963 0 0.034139080630672634 -0.00048270404861911024 0 0.034391459729744465 -0.00055206627433577191 0 0.034312394489500159 -0.00044718052834634962 0 0.034391459729744465 -0.00055206627433577191 0 0.034312394489500159 -0.00044718052834634962 0 0.034421680203514715 -0.00044142886985769938 0 0.034565435181826518 -0.00035072543420075394 0 0.034421680203514715 -0.00044142886985769938 0 0.034477314564395345 -0.00051202055942436986 0 0.034391459729744465 -0.00055206627433577191 0 0.034421680203514715 -0.00044142886985769938 0 0.034477314564395345 -0.00051202055942436986 0 0.034391459729744465 -0.00055206627433577191 0 0.034477314564395345 -0.00051202055942436986 0 0.034545893960027704 -0.00058958764614821797 0 0.033788978369360054 -0.00058103257982542963 0 0.033737925888155829 -0.00040827224235337044 0 0.033379289117238024 -0.00054167426130239391 0 0.033143354274528157 -0.00022874657465026969 0 0.032694843031864027 -0.00037677243993149639 0 0.034612311053238705 -0.00061163021383809398 0 0.033737925888155829 -0.00040827224235337044 0 0.033143354274528157 -0.00022874657465026969 0 0.032694843031864027 -0.00037677243993149639 0 0.032840897901136548 -0.00017244028773180124 0 0.032694843031864027 -0.00037677243993149639 0 0.032642961666728303 -0.00014283436847627412 0 0.032840897901136548 -0.00017244028773180124 0 0.033737925888155829 -0.00040827224235337044 0 0.03372858539645051 -0.00024580395455379869 0 0.033737925888155829 -0.00040827224235337044 0 0.031166315091000697 -0.0012398158831162269 0 0.033653267816013036 -0.00019582429646576035 0 0.033603939548702083 -0.00014599969357558169 0 0.033625786469012778 -0.0001864887357496756 0 0.033653267816013036 -0.00019582429646576035 0 0.033601412718088523 -0.00013655113229338464 0 0.033603939548702083 -0.00014599969357558169 0 0.032694843031864027 -0.00037677243993149639 0 0.032642961666728303 -0.00014283436847627412 0 0.032424331584659211 -0.00012264378596814939 0 0.034294880892673657 -0.00029124224147536692 0 0.034028122007686901 -0.00044176384420492457 0 0.033625786469012778 -0.0001864887357496756 0 0.034294880892673657 -0.00029124224147536692 0 0.034339420761984936 -0.00053233543192118598 0 0.034028122007686901 -0.00044176384420492457 0 0.034591979501742802 -0.00034461931034124608 0 0.034477314564395345 -0.00051202055942436986 0 0.034339420761984936 -0.00053233543192118598 0 0.034339420761984936 -0.00053233543192118598 0 0.03422428015143511 -0.00065561821447550502 0 0.034028122007686901 -0.00044176384420492457 0 0.034591979501742802 -0.00034461931034124608 0 0.034339420761984936 -0.00053233543192118598 0 0.03422428015143511 -0.00065561821447550502 0 0.034477314564395345 -0.00051202055942436986 0 0.034294880892673657 -0.00029124224147536692 0 0.034339420761984936 -0.00053233543192118598 0 0.032592866894917451 0.00058936441890323251 0 0.032597891747952842 0.00028653397685008932 0 0.032273747816626876 0.0004563596784929479 0 0.032592866894917451 0.00058936441890323251 0 0.032778048137041146 0.00033602899690461885 0 0.032933741634848107 0.00049754446454043839 0 0.032778048137041146 0.00033602899690461885 0 0.032774664907778167 0.00013024505081144744 0 0.032975822801681869 0.00019114067153817627 0 0.032778048137041146 0.00033602899690461885 0 0.032597891747952842 0.00028653397685008932 0 0.032774664907778167 0.00013024505081144744 0 0.032592866894917451 0.00058936441890323251 0 0.032778048137041146 0.00033602899690461885 0 0.032597891747952842 0.00028653397685008932 0 0.032597891747952842 0.00028653397685008932 0 0.03257337774633013 8.755395123390628e-05 0 0.032273747816626876 0.0004563596784929479 0 0.032597891747952842 0.00028653397685008932 0 0.03257337774633013 8.755395123390628e-05 0 0.032774664907778167 0.00013024505081144744 0 0.03257337774633013 8.755395123390628e-05 0 0.032642961666728303 -0.00014283436847627412 0 0.032424331584659211 -0.00012264378596814939 0 0.03257337774633013 8.755395123390628e-05 0 0.032642961666728303 -0.00014283436847627412 0 0.032757084287083509 -6.4671175134882919e-05 0 0.032840897901136548 -0.00017244028773180124 0 0.032757084287083509 -6.4671175134882919e-05 0 0.03295982600704437 -4.6551241801687643e-05 0 0.032642961666728303 -0.00014283436847627412 0 0.032840897901136548 -0.00017244028773180124 0 0.032757084287083509 -6.4671175134882919e-05 0 0.032757084287083509 -6.4671175134882919e-05 0 0.032774664907778167 0.00013024505081144744 0 0.03295982600704437 -4.6551241801687643e-05 0 0.03257337774633013 8.755395123390628e-05 0 0.032757084287083509 -6.4671175134882919e-05 0 0.032774664907778167 0.00013024505081144744 0 0.032774664907778167 0.00013024505081144744 0 0.032975822801681869 0.00019114067153817627 0 0.03295982600704437 -4.6551241801687643e-05 0 0.032975822801681869 0.00019114067153817627 0 0.03295982600704437 -4.6551241801687643e-05 0 0.033144970020398692 5.2754989496493643e-05 0 0.033143354274528157 -0.00022874657465026969 0 0.03295982600704437 -4.6551241801687643e-05 0 0.033144970020398692 5.2754989496493643e-05 0 0.033143354274528157 -0.00022874657465026969 0 0.032840897901136548 -0.00017244028773180124 0 0.03295982600704437 -4.6551241801687643e-05 0 0.033143354274528157 -0.00022874657465026969 0 0.033144970020398692 5.2754989496493643e-05 0 0.033430688516565749 5.5891115639221171e-05 0 0.032975822801681869 0.00019114067153817627 0 0.033144970020398692 5.2754989496493643e-05 0 0.033212570873864068 0.00029592250820505844 0 0.033144970020398692 5.2754989496493643e-05 0 0.033212570873864068 0.00029592250820505844 0 0.033430688516565749 5.5891115639221171e-05 0 0.032975822801681869 0.00019114067153817627 0 0.033212570873864068 0.00029592250820505844 0 0.032933741634848107 0.00049754446454043839 0 0.032778048137041146 0.00033602899690461885 0 0.032975822801681869 0.00019114067153817627 0 0.032933741634848107 0.00049754446454043839 0 0.033212570873864068 0.00029592250820505844 0 0.032933741634848107 0.00049754446454043839 0 0.033272929403872761 0.00065127859268984786 0 0.033526316458502917 0.0005528145591255963 0 0.03347605759134184 0.00037810658940715434 0 0.033272929403872761 0.00065127859268984786 0 0.033212570873864068 0.00029592250820505844 0 0.03347605759134184 0.00037810658940715434 0 0.033272929403872761 0.00065127859268984786 0 0.033526316458502917 0.0005528145591255963 0 0.03347605759134184 0.00037810658940715434 0 0.033733793396312453 0.00048107288317624419 0 0.033526316458502917 0.0005528145591255963 0 0.033733793396312453 0.00048107288317624419 0 0.033605289944457259 0.00068226993440567794 0 0.03347605759134184 0.00037810658940715434 0 0.033430688516565749 5.5891115639221171e-05 0 0.033779934052875826 0.00021875461776592919 0 0.03347605759134184 0.00037810658940715434 0 0.033779934052875826 0.00021875461776592919 0 0.033733793396312453 0.00048107288317624419 0 0.033212570873864068 0.00029592250820505844 0 0.03347605759134184 0.00037810658940715434 0 0.033430688516565749 5.5891115639221171e-05 0 0.033490095459383709 -0.00022005620799208381 0 0.033143354274528157 -0.00022874657465026969 0 0.033430688516565749 5.5891115639221171e-05 0 0.033490095459383709 -0.00022005620799208381 0 0.033430688516565749 5.5891115639221171e-05 0 0.033796297218764204 -7.9474744620468886e-05 0 0.033430688516565749 5.5891115639221171e-05 0 0.033796297218764204 -7.9474744620468886e-05 0 0.033779934052875826 0.00021875461776592919 0 0.033796297218764204 -7.9474744620468886e-05 0 0.033779934052875826 0.00021875461776592919 0 0.034153341334060242 0.00013026585095953806 0 0.034101106313242535 -0.00020790641494959785 0 0.033796297218764204 -7.9474744620468886e-05 0 0.034153341334060242 0.00013026585095953806 0 0.033779934052875826 0.00021875461776592919 0 0.033975692812638271 0.0003826297218820409 0 0.034153341334060242 0.00013026585095953806 0 0.033733793396312453 0.00048107288317624419 0 0.033975692812638271 0.0003826297218820409 0 0.033746239462828842 0.00079325223555145078 0 0.033779934052875826 0.00021875461776592919 0 0.033733793396312453 0.00048107288317624419 0 0.033975692812638271 0.0003826297218820409 0 0.033975692812638271 0.0003826297218820409 0 0.033902716900730608 0.00047750740489507066 0 0.034169341137819012 0.00038403034026888939 0 0.031659568695675044 -0.00040361012847953934 0 0.033149755063530031 1.4257406299798018e-06 0 0.033841773693516847 0.00024702215007335029 0 0.031659568695675044 -0.00040361012847953934 0 0.029882778394106042 -0.0012965741848841442 0 0.030726915407337851 -0.00017994056373862136 0 0.032037014379949824 -0.00054152647084611141 0 0.029882778394106042 -0.0012965741848841442 0 0.030726915407337851 -0.00017994056373862136 0 0.029807754903443284 0.00075396327045968901 0 0.031659568695675044 -0.00040361012847953934 0 0.028519317576331377 5.7340506482548667e-05 0 0.029882778394106042 -0.0012965741848841442 0 0.029807754903443284 0.00075396327045968901 0 0.028723026549533959 0.00053544409692570752 0 0.029771754479860624 -0.0014768061521821699 0 0.028789118504953234 -0.001059536715246185 0 0.028852450945842392 -0.00013253564727803871 0 0.029771754479860624 -0.0014768061521821699 0 0.029284417361001243 -0.0016458712874438714 0 0.028789118504953234 -0.001059536715246185 0 0.033746239462828842 0.00079325223555145078 0 0.033489795930736171 0.00070971350425227714 0 0.033605289944457259 0.00068226993440567794 0 0.033733793396312453 0.00048107288317624419 0 0.033746239462828842 0.00079325223555145078 0 0.033605289944457259 0.00068226993440567794 0 0.031659568695675044 -0.00040361012847953934 0 0.031994826016853807 0.000106012301033787 0 0.031994826016853807 0.000106012301033787 0 0.032636197965952567 9.1180189250022274e-05 0 0.033526316458502917 0.0005528145591255963 0 0.033506276387524118 0.00071212504303787901 0 0.033605289944457259 0.00068226993440567794 0 0.033526316458502917 0.0005528145591255963 0 0.033506276387524118 0.00071212504303787901 0 0.033272929403872761 0.00065127859268984786 0 0.031994826016853807 0.000106012301033787 0 0.033429757768257705 0.00065094592353559457 0 0.031994826016853807 0.000106012301033787 0 0.03050357027354941 -0.00032728102547172603 0 0.029284417361001243 -0.0016458712874438714 0 0.028789118504953234 -0.001059536715246185 0 0.027920733517737144 -0.0013185189807757526 0 0.033505857245751058 0.00072356514564997842 0 0.033272929403872761 0.00065127859268984786 0 0.032836455909328106 0.00090937927219618875 0 0.032933741634848107 0.00049754446454043839 0 0.033272929403872761 0.00065127859268984786 0 0.032836455909328106 0.00090937927219618875 0 0.028789118504953234 -0.001059536715246185 0 0.028116870635078076 -0.00072356331902434458 0 0.028852450945842392 -0.00013253564727803871 0 0.028789118504953234 -0.001059536715246185 0 0.028116870635078076 -0.00072356331902434458 0 0.027920733517737144 -0.0013185189807757526 0 0.028116870635078076 -0.00072356331902434458 0 0.028852450945842392 -0.00013253564727803871 0 0.027897011710923469 -0.00010002363379089662 0 0.028116870635078076 -0.00072356331902434458 0 0.027410151961323619 -0.0004755289013909581 0 0.027920733517737144 -0.0013185189807757526 0 0.027410151961323619 -0.0004755289013909581 0 0.027920733517737144 -0.0013185189807757526 0 0.026598184369731045 -0.00097671620502747056 0 0.028116870635078076 -0.00072356331902434458 0 0.027410151961323619 -0.0004755289013909581 0 0.027897011710923469 -0.00010002363379089662 0 0.032592866894917451 0.00058936441890323251 0 0.032836455909328106 0.00090937927219618875 0 0.032119518176037108 0.0010799670435589406 0 0.03050357027354941 -0.00032728102547172603 0 0.028253127533961569 0.00045560727500312625 0 0.032592866894917451 0.00058936441890323251 0 0.032933741634848107 0.00049754446454043839 0 0.032836455909328106 0.00090937927219618875 0 0.034661385210464128 0.00020538472841490719 0 0.03444476382965133 0.00016869790191600966 0 0.034305083088013694 0.00038599371459453838 0 0.034850772298415891 7.5776658770667832e-05 0 0.034684681156048877 5.3827959298627116e-07 0 0.034661385210464128 0.00020538472841490719 0 0.034684681156048877 5.3827959298627116e-07 0 0.034661385210464128 0.00020538472841490719 0 0.03444476382965133 0.00016869790191600966 0 0.034563136824495841 -0.00013518775643507977 0 0.03444476382965133 0.00016869790191600966 0 0.034153341334060242 0.00013026585095953806 0 0.034563136824495841 -0.00013518775643507977 0 0.034684681156048877 5.3827959298627116e-07 0 0.03444476382965133 0.00016869790191600966 0 0.033975692812638271 0.0003826297218820409 0 0.034153341334060242 0.00013026585095953806 0 0.034169341137819012 0.00038403034026888939 0 0.03444476382965133 0.00016869790191600966 0 0.034153341334060242 0.00013026585095953806 0 0.034169341137819012 0.00038403034026888939 0 0.03444476382965133 0.00016869790191600966 0 0.034169341137819012 0.00038403034026888939 0 0.034305083088013694 0.00038599371459453838 0 0.034169341137819012 0.00038403034026888939 0 0.034173260269868652 0.00048861839408366849 0 0.034305083088013694 0.00038599371459453838 0 0.033902716900730608 0.00047750740489507066 0 0.034169341137819012 0.00038403034026888939 0 0.034173260269868652 0.00048861839408366849 0 0.032037014379949824 -0.00054152647084611141 0 0.032546100927156291 0.0011889462195169066 0 0.031332485691313708 0.00074105895081239719 0 0.030726915407337851 -0.00017994056373862136 0 0.032037014379949824 -0.00054152647084611141 0 0.031332485691313708 0.00074105895081239719 0 0.034173260269868652 0.00048861839408366849 0 0.034081481791614056 0.00053458933392754699 0 0.034305083088013694 0.00038599371459453838 0 0.032037014379949824 -0.00054152647084611141 0 0.034081481791614056 0.00053458933392754699 0 0.032546100927156291 0.0011889462195169066 0 0.033149755063530031 1.4257406299798018e-06 0 0.034010829495461005 0.0004726639476980689 0 0.034745481405077515 0.00045997477723272435 0 0.034081481791614056 0.00053458933392754699 0 0.034305083088013694 0.00038599371459453838 0 0.034745481405077515 0.00045997477723272435 0 0.034661385210464128 0.00020538472841490719 0 0.034305083088013694 0.00038599371459453838 0 0.034677729500647562 0.0009087860133251103 0 0.034745481405077515 0.00045997477723272435 0 0.034081481791614056 0.00053458933392754699 0 0.034677729500647562 0.0009087860133251103 0 0.034872250543593691 0.0015819047994923405 0 0.034148009753637298 0.0015764328776602507 0 0.034677729500647562 0.0009087860133251103 0 0.034081481791614056 0.00053458933392754699 0 0.034148009753637298 0.0015764328776602507 0 0.034081481791614056 0.00053458933392754699 0 0.033376679335860922 0.0016700600149334329 0 0.034148009753637298 0.0015764328776602507 0 0.034081481791614056 0.00053458933392754699 0 0.033376679335860922 0.0016700600149334329 0 0.032546100927156291 0.0011889462195169066 0 0.033376679335860922 0.0016700600149334329 0 0.033561983061187975 0.0024279995661528912 0 0.03286424756158985 0.0021140452796600821 0 0.033376679335860922 0.0016700600149334329 0 0.034148009753637298 0.0015764328776602507 0 0.033561983061187975 0.0024279995661528912 0 0.034872250543593691 0.0015819047994923405 0 0.034148009753637298 0.0015764328776602507 0 0.034191095344431238 0.0025467211666765337 0 0.034148009753637298 0.0015764328776602507 0 0.034191095344431238 0.0025467211666765337 0 0.033561983061187975 0.0024279995661528912 0 0.034191095344431238 0.0025467211666765337 0 0.033561983061187975 0.0024279995661528912 0 0.033807337152861175 0.0032499265027822379 0 0.033561983061187975 0.0024279995661528912 0 0.033807337152861175 0.0032499265027822379 0 0.033018851549706206 0.0029256820902466311 0 0.030464359859304575 0.0020881864081237636 0 0.031963969680961407 0.0030286512821353835 0 0.029232536357849885 0.0018229665967127045 0 0.029740044285165839 0.0016601512769231644 0 0.031530636294728777 0.003406658337150125 0 0.028033302577473274 0.0022694688695031997 0 0.031963969680961407 0.0030286512821353835 0 0.030464359859304575 0.0020881864081237636 0 0.028033302577473274 0.0022694688695031997 0 0.031816120619776872 0.0023099744676485078 0 0.030464359859304575 0.0020881864081237636 0 0.034328373833042138 0.0028916690966018536 0 0.034191095344431238 0.0025467211666765337 0 0.033807337152861175 0.0032499265027822379 0 0.027787579493497618 0.0019785284834796355 0 0.030082107142305161 0.0012554172835437373 0 0.028238959140913865 -8.9817679377231613e-06 0 0.030430655278701067 0.0027237544668888077 0 0.029905379821590417 0.0030107633118637953 0 0.030710866713017492 0.0033016743942378196 0 0.030430655278701067 0.0027237544668888077 0 0.030004373876688143 0.0025040814956735695 0 0.029905379821590417 0.0030107633118637953 0 0.031388201772593688 0.0030501636448725103 0 0.030958623553263079 0.0025863710054177735 0 0.030710866713017492 0.0033016743942378196 0 0.030430655278701067 0.0027237544668888077 0 0.030958623553263079 0.0025863710054177735 0 0.030710866713017492 0.0033016743942378196 0 0.033561983061187975 0.0024279995661528912 0 0.033018851549706206 0.0029256820902466311 0 0.03286424756158985 0.0021140452796600821 0 0.030430655278701067 0.0027237544668888077 0 0.030958623553263079 0.0025863710054177735 0 0.030529682853494052 0.0022187956917604553 0 0.031963969680961407 0.0030286512821353835 0 0.031059481426670515 0.0018853000923860675 0 0.031963969680961407 0.0030286512821353835 0 0.030480744223639739 0.0021145353313975017 0 0.031361538653207253 0.0026682074922518418 0 0.030713015985057535 0.0022261301196643073 0 0.030426919754846994 0.0017639058604445505 0 0.033018851549706206 0.0029256820902466311 0 0.031680359606132469 0.0021648063863763402 0 0.03286424756158985 0.0021140452796600821 0 0.030529682853494052 0.0022187956917604553 0 0.030004373876688143 0.0025040814956735695 0 0.029973032083336744 0.0021030798200697594 0 0.030430655278701067 0.0027237544668888077 0 0.030529682853494052 0.0022187956917604553 0 0.030004373876688143 0.0025040814956735695 0 0.030480744223639739 0.0021145353313975017 0 0.030194547671590879 0.0018622863827490543 0 0.030529682853494052 0.0022187956917604553 0 0.030106748448317323 0.0017685548053449531 0 0.029973032083336744 0.0021030798200697594 0 0.030713015985057535 0.0022261301196643073 0 0.030426919754846994 0.0017639058604445505 0 0.030106748448317323 0.0017685548053449531 0 0.030426919754846994 0.0017639058604445505 0 0.030106748448317323 0.0017685548053449531 0 0.029956451734829706 0.0015214140321069523 0 0.031680359606132469 0.0021648063863763402 0 0.03286424756158985 0.0021140452796600821 0 0.032546100927156291 0.0011889462195169066 0 0.033376679335860922 0.0016700600149334329 0 0.03286424756158985 0.0021140452796600821 0 0.032546100927156291 0.0011889462195169066 0 0.031680359606132469 0.0021648063863763402 0 0.032546100927156291 0.0011889462195169066 0 0.031332485691313708 0.00074105895081239719 0 0.031680359606132469 0.0021648063863763402 0 0.031332485691313708 0.00074105895081239719 0 0.029807754903443284 0.00075396327045968901 0 0.030726915407337851 -0.00017994056373862136 0 0.031332485691313708 0.00074105895081239719 0 0.029807754903443284 0.00075396327045968901 0 0.031059481426670515 0.0018853000923860675 0 0.029840371297112291 0.00080771406615508853 0 0.029807754903443284 0.00075396327045968901 0 0.029956451734829706 0.0015214140321069523 0 0.029561645732428549 0.0015237914865384608 0 0.029807754903443284 0.00075396327045968901 0 0.029106515402572215 0.0012248300322816132 0 0.029561645732428549 0.0015237914865384608 0 0.029807754903443284 0.00075396327045968901 0 0.028723026549533959 0.00053544409692570752 0 0.029106515402572215 0.0012248300322816132 0 0.028723026549533959 0.00053544409692570752 0 0.029106515402572215 0.0012248300322816132 0 0.02866493897575273 0.0014763768787785564 0 0.029106515402572215 0.0012248300322816132 0 0.029080391537898098 0.0017914791190197315 0 0.029561645732428549 0.0015237914865384608 0 0.029106515402572215 0.0012248300322816132 0 0.029080391537898098 0.0017914791190197315 0 0.02866493897575273 0.0014763768787785564 0 0.029080391537898098 0.0017914791190197315 0 0.02866493897575273 0.0014763768787785564 0 0.028486408339469946 0.002032835357328329 0 0.029080391537898098 0.0017914791190197315 0 0.029561645732428549 0.0015237914865384608 0 0.029632665927548162 0.0020838116726994292 0 0.030426919754846994 0.0017639058604445505 0 0.029807754903443284 0.00075396327045968901 0 0.029956451734829706 0.0015214140321069523 0 0.029856990577154907 0.0017959932419675893 0 0.029561645732428549 0.0015237914865384608 0 0.029632665927548162 0.0020838116726994292 0 0.030106748448317323 0.0017685548053449531 0 0.029856990577154907 0.0017959932419675893 0 0.029973032083336744 0.0021030798200697594 0 0.029856990577154907 0.0017959932419675893 0 0.029973032083336744 0.0021030798200697594 0 0.029632665927548162 0.0020838116726994292 0 0.030106748448317323 0.0017685548053449531 0 0.029856990577154907 0.0017959932419675893 0 0.029956451734829706 0.0015214140321069523 0 0.029856990577154907 0.0017959932419675893 0 0.029956451734829706 0.0015214140321069523 0 0.029561645732428549 0.0015237914865384608 0 0.027328029112327214 0.00019979624631596309 0 0.027806135621262964 0.00058116155552732039 0 0.027046997727967634 0.00076601381335406245 0 0.027410151961323619 -0.0004755289013909581 0 0.027328029112327214 0.00019979624631596309 0 0.027897011710923469 -0.00010002363379089662 0 0.027328029112327214 0.00019979624631596309 0 0.027897011710923469 -0.00010002363379089662 0 0.027806135621262964 0.00058116155552732039 0 0.028519317576331377 5.7340506482548667e-05 0 0.027902686774039832 0.0015566922485800272 0 0.028852450945842392 -0.00013253564727803871 0 0.027897011710923469 -0.00010002363379089662 0 0.027806135621262964 0.00058116155552732039 0 0.028852450945842392 -0.00013253564727803871 0 0.027806135621262964 0.00058116155552732039 0 0.027909955519878817 0.0012829535726062763 0 0.028723026549533959 0.00053544409692570752 0 0.02866493897575273 0.0014763768787785564 0 0.027860786998695441 0.0017533963248247189 0 0.02866493897575273 0.0014763768787785564 0 0.027860786998695441 0.0017533963248247189 0 0.028486408339469946 0.002032835357328329 0 0.027909955519878817 0.0012829535726062763 0 0.026761345881209465 0.0018063756087417888 0 0.026740800373994747 0.00073187925121515974 0 0.027806135621262964 0.00058116155552732039 0 0.027909955519878817 0.0012829535726062763 0 0.026740800373994747 0.00073187925121515974 0 0.027654160083255112 0.00059994072683024386 0 0.026957100805307405 0.00075290944301092564 0 0.027860786998695441 0.0017533963248247189 0 0.02786060966224849 0.0024639123010723081 0 0.026768981666758555 0.0029971983963733412 0 0.027909955519878817 0.0012829535726062763 0 0.026768981666758555 0.0029971983963733412 0 0.026761345881209465 0.0018063756087417888 0 0.027902686774039832 0.0015566922485800272 0 0.026816115184716313 0.002942785219479539 0 0.02786060966224849 0.0024639123010723081 0 0.028353761899953488 0.0025350589780226548 0 0.027767117061473997 0.0030250456316144314 0 0.027860786998695441 0.0017533963248247189 0 0.02786060966224849 0.0024639123010723081 0 0.028486408339469946 0.002032835357328329 0 0.02786060966224849 0.0024639123010723081 0 0.028486408339469946 0.002032835357328329 0 0.028353761899953488 0.0025350589780226548 0 0.028486408339469946 0.002032835357328329 0 0.028353761899953488 0.0025350589780226548 0 0.028945796557308716 0.0023735474431241517 0 0.028568331003113821 0.0030527386966383648 0 0.028070418079513181 0.0036002709965959087 0 0.028970581570227846 0.0035912833318913671 0 0.028353761899953488 0.0025350589780226548 0 0.028568331003113821 0.0030527386966383648 0 0.027767117061473997 0.0030250456316144314 0 0.028568331003113821 0.0030527386966383648 0 0.028070418079513181 0.0036002709965959087 0 0.027767117061473997 0.0030250456316144314 0 0.028070418079513181 0.0036002709965959087 0 0.027767117061473997 0.0030250456316144314 0 0.027195093652678772 0.003940933235002355 0 0.02786060966224849 0.0024639123010723081 0 0.027767117061473997 0.0030250456316144314 0 0.026768981666758555 0.0029971983963733412 0 0.027767117061473997 0.0030250456316144314 0 0.027195093652678772 0.003940933235002355 0 0.026768981666758555 0.0029971983963733412 0 0.030004373876688143 0.0025040814956735695 0 0.029632665927548162 0.0020838116726994292 0 0.029421653695215193 0.0027665252514552726 0 0.030004373876688143 0.0025040814956735695 0 0.029973032083336744 0.0021030798200697594 0 0.029632665927548162 0.0020838116726994292 0 0.029632665927548162 0.0020838116726994292 0 0.028945796557308716 0.0023735474431241517 0 0.029421653695215193 0.0027665252514552726 0 0.029080391537898098 0.0017914791190197315 0 0.029632665927548162 0.0020838116726994292 0 0.028945796557308716 0.0023735474431241517 0 0.029080391537898098 0.0017914791190197315 0 0.028486408339469946 0.002032835357328329 0 0.028945796557308716 0.0023735474431241517 0 0.028353761899953488 0.0025350589780226548 0 0.028568331003113821 0.0030527386966383648 0 0.028945796557308716 0.0023735474431241517 0 0.028568331003113821 0.0030527386966383648 0 0.028945796557308716 0.0023735474431241517 0 0.029421653695215193 0.0027665252514552726 0 0.028568331003113821 0.0030527386966383648 0 0.029421653695215193 0.0027665252514552726 0 0.028970581570227846 0.0035912833318913671 0 0.029360186374128554 0.0028577836620136635 0 0.028966258213920747 0.0033314417253278725 0 0.029421653695215193 0.0027665252514552726 0 0.029905379821590417 0.0030107633118637953 0 0.02909309181123507 0.0032149338207397697 0 0.030004373876688143 0.0025040814956735695 0 0.029421653695215193 0.0027665252514552726 0 0.029905379821590417 0.0030107633118637953 0 0.029905379821590417 0.0030107633118637953 0 0.029938254739556011 0.003587186785632791 0 0.02909309181123507 0.0032149338207397697 0 0.028277050047990328 0.0022545854516627093 0 0.025138076947365584 0.0010854550923017423 0 0.02909309181123507 0.0032149338207397697 0 0.029110122425759805 0.0038469312004691084 0 0.028744537538062331 0.0037113490690737602 0 0.029938254739556011 0.003587186785632791 0 0.02909309181123507 0.0032149338207397697 0 0.029110122425759805 0.0038469312004691084 0 0.028966258213920747 0.0033314417253278725 0 0.02483388987563721 0.0018905510735173926 0 0.020925462055970762 -2.452418264426076e-05 0 0.020822803803140524 -1.0532701559145808e-06 0 0.020895712697669648 9.6387119078778912e-05 0 0.025138076947365584 0.0010854550923017423 0 0.02483388987563721 0.0018905510735173926 0 0.025138076947365584 0.0010854550923017423 0 0.020603112196408323 0.00070094292142112589 0 0.025642683818426999 0.00089884389501482926 0 0.026425957135563904 0.00064474620116081812 0 0.025520625308055139 0.00027458758659033541 0 0.020925462055970762 -2.452418264426076e-05 0 0.020895712697669648 9.6387119078778912e-05 0 0.021053102166735053 2.7220984885359994e-05 0 0.025138076947365584 0.0010854550923017423 0 0.022896673339047442 -1.8049833485638502e-05 0 0.018979331058094115 0.00056042596509737249 0 0.018820514615697784 9.5247738697213456e-05 0 0.019325345989961138 0.00022483923809736686 0 0.018979331058094115 0.00056042596509737249 0 0.018285421091766074 0.00022398046655403958 0 0.018820514615697784 9.5247738697213456e-05 0 0.028070418079513181 0.0036002709965959087 0 0.027195093652678772 0.003940933235002355 0 0.028477412368402028 0.0043775882057016649 0 0.022815702250943964 0.0022482153182019071 0 0.02483388987563721 0.0018905510735173926 0 0.028070418079513181 0.0036002709965959087 0 0.028970581570227846 0.0035912833318913671 0 0.028477412368402028 0.0043775882057016649 0 0.018285421091766074 0.00022398046655403958 0 0.018431180291799926 -4.7980985032524526e-05 0 0.018820514615697784 9.5247738697213456e-05 0 0.02483388987563721 0.0018905510735173926 0 0.020603112196408323 0.00070094292142112589 0 0.0247622231883519 0.00087412532497441197 0 0.023197756372068903 0.00028519185029246644 0 0.022371477655763989 0.0016373138313258678 0 0.020603112196408323 0.00070094292142112589 0 0.020303744165742411 -0.0001437625626480538 0 0.020603112196408323 0.00070094292142112589 0 0.01911812286254996 -0.00029462211912996319 0 0.019843275379865868 -0.0003083337996944555 0 0.019598058832187744 -0.00024142564898002076 0 0.019737622112064448 -0.00015020851531214935 0 0.018431180291799926 -4.7980985032524526e-05 0 0.018820514615697784 9.5247738697213456e-05 0 0.019061294897659519 -0.00034041513044207999 0 0.018820514615697784 9.5247738697213456e-05 0 0.019061294897659519 -0.00034041513044207999 0 0.019325345989961138 0.00022483923809736686 0 0.019598058832187744 -0.00024142564898002076 0 0.019581792514904377 -0.00013730571618640668 0 0.019737622112064448 -0.00015020851531214935 0 0.020303744165742411 -0.0001437625626480538 0 0.019229322392533606 -0.00028803673285758536 0 0.019581792514904377 -0.00013730571618640668 0 0.019737622112064448 -0.00015020851531214935 0 0.01963335680295291 1.1952907101128523e-05 0 0.020822803803140524 -1.0532701559145808e-06 0 0.020760039040859522 7.1688233198477153e-05 0 0.020895712697669648 9.6387119078778912e-05 0 0.020760039040859522 7.1688233198477153e-05 0 0.02079610267775045 0.00013574418033040307 0 0.020895712697669648 9.6387119078778912e-05 0 0.020760039040859522 7.1688233198477153e-05 0 0.02079610267775045 0.00013574418033040307 0 0.020700948239168959 0.00014740095398465319 0 0.02079610267775045 0.00013574418033040307 0 0.020895712697669648 9.6387119078778912e-05 0 0.020827654930031733 0.0002266134556641334 0 0.02079610267775045 0.00013574418033040307 0 0.020700948239168959 0.00014740095398465319 0 0.020827654930031733 0.0002266134556641334 0 0.019229322392533606 -0.00028803673285758536 0 0.019228167971170218 7.1090961038541701e-05 0 0.018271888158687886 0.00012170276613405453 0 0.017405959900488165 -0.00032489524766340369 0 0.018070063837511453 -0.00064664831199069813 0 0.019229322392533606 -0.00028803673285758536 0 0.01865294983667037 -0.00087323410600023904 0 0.020895712697669648 9.6387119078778912e-05 0 0.020965957871124794 0.00018447415168787692 0 0.021053102166735053 2.7220984885359994e-05 0 0.020895712697669648 9.6387119078778912e-05 0 0.020965957871124794 0.00018447415168787692 0 0.020827654930031733 0.0002266134556641334 0 0.020965957871124794 0.00018447415168787692 0 0.021090230354417622 0.0001422271981182735 0 0.021066808117292026 0.00024469805996149449 0 0.023201031887660185 5.9620587630762817e-05 0 0.022896673339047442 -1.8049833485638502e-05 0 0.021090230354417622 0.0001422271981182735 0 0.021175675658994128 7.6990194858011989e-05 0 0.021053102166735053 2.7220984885359994e-05 0 0.020965957871124794 0.00018447415168787692 0 0.021090230354417622 0.0001422271981182735 0 0.021053102166735053 2.7220984885359994e-05 0 0.021090230354417622 0.0001422271981182735 0 0.021185595641663786 0.00018191631667808015 0 0.021066808117292026 0.00024469805996149449 0 0.021090230354417622 0.0001422271981182735 0 0.021175675658994128 7.6990194858011989e-05 0 0.021185595641663786 0.00018191631667808015 0 0.019488646894359331 -0.00019173852864952072 0 0.019815720600618463 -0.00022300398482049362 0 0.01830400851864749 -0.00070282957629542325 0 0.018433336186815884 -0.00067480958703447762 0 0.018468377031082152 -0.00078981907430700357 0 0.019488646894359331 -0.00019173852864952072 0 0.021130602832722077 -0.00029556169761846659 0 0.020034324881764418 -0.0010134700513694962 0 0.016704726774817123 -0.0011051407090046754 0 0.018337539214756154 -0.0013350574145817821 0 0.018451889634734576 -0.0012902145043820232 0 0.018415849242513254 -0.001460449903953674 0 0.018433336186815884 -0.00067480958703447762 0 0.018504306169509526 -0.00077584806032561916 0 0.01850115904540002 -0.00059265496282444145 0 0.018433336186815884 -0.00067480958703447762 0 0.018504306169509526 -0.00077584806032561916 0 0.018468377031082152 -0.00078981907430700357 0 0.023330862014313291 -0.00042925371328317606 0 0.023705461633650515 -8.9697890496985807e-05 0 0.023417199385135461 0.00022241068913478735 0 0.023329471251691023 -0.00046459219126452868 0 0.023081724062651271 -9.0946344778828364e-05 0 0.023417199385135461 0.00022241068913478735 0 0.021698638655175087 -0.00061855014937985163 0 0.023327626853405527 0.00025303675464276808 0 0.020126762970534218 -0.0014616276030064146 0 0.020568907402975244 -0.0015602962296877812 0 0.02059279764524264 -0.0013552606095480774 0 0.020034324881764418 -0.0010134700513694962 0 0.021698638655175087 -0.00061855014937985163 0 0.023330862014313291 -0.00042925371328317606 0 0.023517932095131339 -0.0005308709933702988 0 0.023705461633650515 -8.9697890496985807e-05 0 0.020034324881764418 -0.0010134700513694962 0 0.021130602832722077 -0.00029556169761846659 0 0.021043574961377105 -0.00031738418366985866 0 0.021040927561765392 -0.00035666680302179912 0 0.020998877806855342 -0.00033318594256541754 0 0.021698638655175087 -0.00061855014937985163 0 0.021130602832722077 -0.00029556169761846659 0 0.023201031887660185 5.9620587630762817e-05 0 0.021130602832722077 -0.00029556169761846659 0 0.024548492916685368 -0.0001282264341613552 0 0.023517932095131339 -0.0005308709933702988 0 0.023705461633650515 -8.9697890496985807e-05 0 0.021175675658994128 7.6990194858011989e-05 0 0.021185595641663786 0.00018191631667808015 0 0.021294171056474295 0.00012002307865283668 0 0.024548492916685368 -0.0001282264341613552 0 0.023705461633650515 -8.9697890496985807e-05 0 0.024110326756178448 0.00060106496052932514 0 0.023705461633650515 -8.9697890496985807e-05 0 0.024110326756178448 0.00060106496052932514 0 0.023417199385135461 0.00022241068913478735 0 0.022563622805997951 0.00021515799785381436 0 0.023417199385135461 0.00022241068913478735 0 0.023258856984738192 0.00086746368523314536 0 0.024110326756178448 0.00060106496052932514 0 0.023417199385135461 0.00022241068913478735 0 0.023258856984738192 0.00086746368523314536 0 0.027808688224017983 0.0029322521219577501 0 0.02847764511792206 0.0027170563913551187 0 0.025939073628653827 0.0002677463000211593 0 0.028033302577473274 0.0022694688695031997 0 0.024469933611610029 0.00045972082288870775 0 0.027808688224017983 0.0029322521219577501 0 0.025939073628653827 0.0002677463000211593 0 0.025398989253919872 0.0012844688602809994 0 0.030464359859304575 0.0020881864081237636 0 0.026846996169752255 0.00065526732236697053 0 0.02394078087015665 0.0014958476503313643 0 0.024110326756178448 0.00060106496052932514 0 0.024813935588396594 0.001192137629517704 0 0.02394078087015665 0.0014958476503313643 0 0.024110326756178448 0.00060106496052932514 0 0.023258856984738192 0.00086746368523314536 0 0.028033302577473274 0.0022694688695031997 0 0.027594416473930617 0.0022772960658188311 0 0.024110326756178448 0.00060106496052932514 0 0.024813935588396594 0.001192137629517704 0 0.024935823829751517 0.00057024440746773915 0 0.029905379821590417 0.0030107633118637953 0 0.029938254739556011 0.003587186785632791 0 0.030710866713017492 0.0033016743942378196 0 0.028277050047990328 0.0022545854516627093 0 0.027594416473930617 0.0022772960658188311 0 0.025642683818426999 0.00089884389501482926 0 0.024813935588396594 0.001192137629517704 0 0.024935823829751517 0.00057024440746773915 0 0.024548492916685368 -0.0001282264341613552 0 0.025520625308055139 0.00027458758659033541 0 0.024935823829751517 0.00057024440746773915 0 0.025642683818426999 0.00089884389501482926 0 0.025520625308055139 0.00027458758659033541 0 0.024935823829751517 0.00057024440746773915 0 0.024548492916685368 -0.0001282264341613552 0 0.024110326756178448 0.00060106496052932514 0 0.024935823829751517 0.00057024440746773915 0 0.02388953902840945 -0.00087889537776989282 0 0.023857760298455641 0.00021570815982780819 0 0.025019488013977558 -0.00063297947565769139 0 0.02388953902840945 -0.00087889537776989282 0 0.025019488013977558 -0.00063297947565769139 0 0.024676618110187447 -0.0013397767470480673 0 0.02388953902840945 -0.00087889537776989282 0 0.022971124503049119 4.0961586018446927e-05 0 0.023857760298455641 0.00021570815982780819 0 0.02388953902840945 -0.00087889537776989282 0 0.022971124503049119 4.0961586018446927e-05 0 0.022399215650752875 -0.00068784386627546493 0 0.022971124503049119 4.0961586018446927e-05 0 0.023857760298455641 0.00021570815982780819 0 0.02300318844887363 0.0011058314138927339 0 0.023857760298455641 0.00021570815982780819 0 0.024828291791134115 0.0004038304271258896 0 0.025019488013977558 -0.00063297947565769139 0 0.024828291791134115 0.0004038304271258896 0 0.026401789201523623 -4.4805996974911199e-05 0 0.025019488013977558 -0.00063297947565769139 0 0.026401789201523623 -4.4805996974911199e-05 0 0.025903631983178566 -0.00065126417650022321 0 0.025019488013977558 -0.00063297947565769139 0 0.025903631983178566 -0.00065126417650022321 0 0.025019488013977558 -0.00063297947565769139 0 0.02520860386585896 -0.001352443060801745 0 0.025019488013977558 -0.00063297947565769139 0 0.024676618110187447 -0.0013397767470480673 0 0.02520860386585896 -0.001352443060801745 0 0.024676618110187447 -0.0013397767470480673 0 0.02520860386585896 -0.001352443060801745 0 0.024769386855072038 -0.0019490090090662317 0 0.025903631983178566 -0.00065126417650022321 0 0.02520860386585896 -0.001352443060801745 0 0.025535016208612239 -0.0012038878143352475 0 0.024769386855072038 -0.0019490090090662317 0 0.024803719439899865 -0.0018558973512985697 0 0.024490011382656253 -0.00199561783814256 0 0.02520860386585896 -0.001352443060801745 0 0.024769386855072038 -0.0019490090090662317 0 0.024803719439899865 -0.0018558973512985697 0 0.024676618110187447 -0.0013397767470480673 0 0.024769386855072038 -0.0019490090090662317 0 0.024329877838725037 -0.0019356861972872695 0 0.024769386855072038 -0.0019490090090662317 0 0.024329877838725037 -0.0019356861972872695 0 0.024907207496268052 -0.0018809574826194064 0 0.024329877838725037 -0.0019356861972872695 0 0.023393429177463648 -0.0024314817966087109 0 0.02452544073606918 -0.0032603066697689076 0 0.02388953902840945 -0.00087889537776989282 0 0.024676618110187447 -0.0013397767470480673 0 0.024329877838725037 -0.0019356861972872695 0 0.02388953902840945 -0.00087889537776989282 0 0.023138426012670125 -0.001448711761015471 0 0.022399215650752875 -0.00068784386627546493 0 0.02388953902840945 -0.00087889537776989282 0 0.024329877838725037 -0.0019356861972872695 0 0.023138426012670125 -0.001448711761015471 0 0.023138426012670125 -0.001448711761015471 0 0.023393429177463648 -0.0024314817966087109 0 0.022558692671611289 -0.001977072090158957 0 0.024329877838725037 -0.0019356861972872695 0 0.023138426012670125 -0.001448711761015471 0 0.023393429177463648 -0.0024314817966087109 0 0.023393429177463648 -0.0024314817966087109 0 0.022501132285480237 -0.0025905150725864133 0 0.022558692671611289 -0.001977072090158957 0 0.022501132285480237 -0.0025905150725864133 0 0.022558692671611289 -0.001977072090158957 0 0.021901519069826601 -0.002080453055764236 0 0.022558692671611289 -0.001977072090158957 0 0.021901519069826601 -0.002080453055764236 0 0.022105925491087745 -0.0013730439916514292 0 0.022501132285480237 -0.0025905150725864133 0 0.021901519069826601 -0.002080453055764236 0 0.021525925827939905 -0.0029281003796173604 0 0.021901519069826601 -0.002080453055764236 0 0.020964596268373926 -0.0014796018348085394 0 0.021525925827939905 -0.0029281003796173604 0 0.019165147601584782 -0.0015848743677426623 0 0.019738010544342412 -0.0021258395654048657 0 0.020964596268373926 -0.0014796018348085394 0 0.019206061786718371 -0.0015272414506237631 0 0.021525925827939905 -0.0029281003796173604 0 0.021901519069826601 -0.002080453055764236 0 0.020964596268373926 -0.0014796018348085394 0 0.022105925491087745 -0.0013730439916514292 0 0.020964596268373926 -0.0014796018348085394 0 0.021515582800510621 -0.00086358499463541616 0 0.022105925491087745 -0.0013730439916514292 0 0.020964596268373926 -0.0014796018348085394 0 0.020650925793208756 -0.00081998236439172168 0 0.020144580878430698 -0.0012360894920431522 0 0.020964596268373926 -0.0014796018348085394 0 0.020650925793208756 -0.00081998236439172168 0 0.021515582800510621 -0.00086358499463541616 0 0.021515582800510621 -0.00086358499463541616 0 0.022105925491087745 -0.0013730439916514292 0 0.022399215650752875 -0.00068784386627546493 0 0.023138426012670125 -0.001448711761015471 0 0.022105925491087745 -0.0013730439916514292 0 0.022399215650752875 -0.00068784386627546493 0 0.023138426012670125 -0.001448711761015471 0 0.022558692671611289 -0.001977072090158957 0 0.022105925491087745 -0.0013730439916514292 0 0.018990993887056998 -0.0012873329560121021 0 0.019206061786718371 -0.0015272414506237631 0 0.018769953318694705 -0.00088859288355491294 0 0.018900697442665301 -0.0012847469753655338 0 0.018990993887056998 -0.0012873329560121021 0 0.018769953318694705 -0.00088859288355491294 0 0.020964596268373926 -0.0014796018348085394 0 0.019206061786718371 -0.0015272414506237631 0 0.020144580878430698 -0.0012360894920431522 0 0.019206061786718371 -0.0015272414506237631 0 0.019678979999900474 -0.00086113998846458928 0 0.019323822591683928 -0.00086883919794005827 0 0.020650925793208756 -0.00081998236439172168 0 0.020144580878430698 -0.0012360894920431522 0 0.019968527226016775 -0.00099753266962196701 0 0.020650925793208756 -0.00081998236439172168 0 0.019968527226016775 -0.00099753266962196701 0 0.020228710038755912 -0.00069409936251850512 0 0.020650925793208756 -0.00081998236439172168 0 0.020228710038755912 -0.00069409936251850512 0 0.020466526226870101 -0.00041380143100293846 0 0.020228710038755912 -0.00069409936251850512 0 0.019940053047820958 -0.00071672405805077346 0 0.020118518613731626 -0.00053429664854946367 0 0.019968527226016775 -0.00099753266962196701 0 0.020228710038755912 -0.00069409936251850512 0 0.019940053047820958 -0.00071672405805077346 0 0.019968527226016775 -0.00099753266962196701 0 0.019940053047820958 -0.00071672405805077346 0 0.019678979999900474 -0.00086113998846458928 0 0.019940053047820958 -0.00071672405805077346 0 0.019876468955038244 -0.00055867777325687882 0 0.020118518613731626 -0.00053429664854946367 0 0.019940053047820958 -0.00071672405805077346 0 0.01978250914288809 -0.00071154615215457623 0 0.019678979999900474 -0.00086113998846458928 0 0.019940053047820958 -0.00071672405805077346 0 0.01978250914288809 -0.00071154615215457623 0 0.019876468955038244 -0.00055867777325687882 0 0.01978250914288809 -0.00071154615215457623 0 0.019714103138635801 -0.0007231952180018138 0 0.019876468955038244 -0.00055867777325687882 0 0.01978250914288809 -0.00071154615215457623 0 0.019678979999900474 -0.00086113998846458928 0 0.019714103138635801 -0.0007231952180018138 0 0.019613162213674842 -0.00066129802779202481 0 0.019479597162392229 -0.00058091414798071977 0 0.019206061786718371 -0.0015272414506237631 0 0.019968527226016775 -0.00099753266962196701 0 0.019678979999900474 -0.00086113998846458928 0 0.019206061786718371 -0.0015272414506237631 0 0.020144580878430698 -0.0012360894920431522 0 0.019968527226016775 -0.00099753266962196701 0 0.018900697442665301 -0.0012847469753655338 0 0.018990993887056998 -0.0012873329560121021 0 0.019323822591683928 -0.00086883919794005827 0 0.019581792514904377 -0.00013730571618640668 0 0.01963335680295291 1.1952907101128523e-05 0 0.01936054395995283 -0.00016976167273328113 0 0.019598058832187744 -0.00024142564898002076 0 0.019581792514904377 -0.00013730571618640668 0 0.01936054395995283 -0.00016976167273328113 0 0.019229322392533606 -0.00028803673285758536 0 0.019479597162392229 -0.00058091414798071977 0 0.01911812286254996 -0.00029462211912996319 0 0.019479597162392229 -0.00058091414798071977 0 0.018990993887056998 -0.0012873329560121021 0 0.019206061786718371 -0.0015272414506237631 0 0.019323822591683928 -0.00086883919794005827 0 0.019061294897659519 -0.00034041513044207999 0 0.019714103138635801 -0.0007231952180018138 0 0.019515196851387275 -0.00018621110608627752 0 0.019061294897659519 -0.00034041513044207999 0 0.019515196851387275 -0.00018621110608627752 0 0.019325345989961138 0.00022483923809736686 0 0.019515196851387275 -0.00018621110608627752 0 0.019951519429748835 -3.59662066547524e-05 0 0.019806649897518808 -0.0004232790947821829 0 0.019714103138635801 -0.0007231952180018138 0 0.019515196851387275 -0.00018621110608627752 0 0.019806649897518808 -0.0004232790947821829 0 0.019515196851387275 -0.00018621110608627752 0 0.019951519429748835 -3.59662066547524e-05 0 0.019847742318461363 0.00038189086037426019 0 0.019515196851387275 -0.00018621110608627752 0 0.019847742318461363 0.00038189086037426019 0 0.019325345989961138 0.00022483923809736686 0 0.019951519429748835 -3.59662066547524e-05 0 0.020096840576639647 -0.00028751413767138075 0 0.020424917883299351 0.00013727440304059293 0 0.019951519429748835 -3.59662066547524e-05 0 0.019806649897518808 -0.0004232790947821829 0 0.020096840576639647 -0.00028751413767138075 0 0.019806649897518808 -0.0004232790947821829 0 0.019876468955038244 -0.00055867777325687882 0 0.020096840576639647 -0.00028751413767138075 0 0.019714103138635801 -0.0007231952180018138 0 0.019806649897518808 -0.0004232790947821829 0 0.019876468955038244 -0.00055867777325687882 0 0.019876468955038244 -0.00055867777325687882 0 0.020118518613731626 -0.00053429664854946367 0 0.020096840576639647 -0.00028751413767138075 0 0.020118518613731626 -0.00053429664854946367 0 0.020096840576639647 -0.00028751413767138075 0 0.020466526226870101 -0.00041380143100293846 0 0.020228710038755912 -0.00069409936251850512 0 0.020118518613731626 -0.00053429664854946367 0 0.020466526226870101 -0.00041380143100293846 0 0.020466526226870101 -0.00041380143100293846 0 0.020424917883299351 0.00013727440304059293 0 0.021158795268459929 -0.00018390902454015228 0 0.020096840576639647 -0.00028751413767138075 0 0.020466526226870101 -0.00041380143100293846 0 0.020424917883299351 0.00013727440304059293 0 0.020424917883299351 0.00013727440304059293 0 0.020762080342395593 0.00077146934188476995 0 0.021158795268459929 -0.00018390902454015228 0 0.020762080342395593 0.00077146934188476995 0 0.019847742318461363 0.00038189086037426019 0 0.019925120843358578 0.0010996691981277949 0 0.020424917883299351 0.00013727440304059293 0 0.020762080342395593 0.00077146934188476995 0 0.019847742318461363 0.00038189086037426019 0 0.019951519429748835 -3.59662066547524e-05 0 0.020424917883299351 0.00013727440304059293 0 0.019847742318461363 0.00038189086037426019 0 0.019847742318461363 0.00038189086037426019 0 0.019325345989961138 0.00022483923809736686 0 0.019925120843358578 0.0010996691981277949 0 0.022815702250943964 0.0022482153182019071 0 0.022880492355040017 0.0022671793463339583 0 0.018979331058094115 0.00056042596509737249 0 0.019325345989961138 0.00022483923809736686 0 0.019925120843358578 0.0010996691981277949 0 0.022971124503049119 4.0961586018446927e-05 0 0.022399215650752875 -0.00068784386627546493 0 0.021908523293467187 0.00043851635817344865 0 0.022399215650752875 -0.00068784386627546493 0 0.021158795268459929 -0.00018390902454015228 0 0.021908523293467187 0.00043851635817344865 0 0.021515582800510621 -0.00086358499463541616 0 0.022399215650752875 -0.00068784386627546493 0 0.021158795268459929 -0.00018390902454015228 0 0.020650925793208756 -0.00081998236439172168 0 0.021515582800510621 -0.00086358499463541616 0 0.021158795268459929 -0.00018390902454015228 0 0.020650925793208756 -0.00081998236439172168 0 0.020466526226870101 -0.00041380143100293846 0 0.021158795268459929 -0.00018390902454015228 0 0.020762080342395593 0.00077146934188476995 0 0.021908523293467187 0.00043851635817344865 0 0.021341674436310822 0.0016508741005451027 0 0.020762080342395593 0.00077146934188476995 0 0.021158795268459929 -0.00018390902454015228 0 0.021908523293467187 0.00043851635817344865 0 0.022971124503049119 4.0961586018446927e-05 0 0.021908523293467187 0.00043851635817344865 0 0.02300318844887363 0.0011058314138927339 0 0.021908523293467187 0.00043851635817344865 0 0.021341674436310822 0.0016508741005451027 0 0.02300318844887363 0.0011058314138927339 0 0.021341674436310822 0.0016508741005451027 0 0.023154527500710679 0.0020305285045089461 0 0.02300318844887363 0.0011058314138927339 0 0.024165972019300718 0.0027281997337122192 0 0.024735254408839818 0.0019427236469722955 0 0.023875763592542704 0.0014964037590039366 0 0.024165972019300718 0.0027281997337122192 0 0.023154527500710679 0.0020305285045089461 0 0.023875763592542704 0.0014964037590039366 0 0.024135500183795715 0.0018863628923779397 0 0.023431527013203449 0.0020341927181798955 0 0.023154527500710679 0.0020305285045089461 0 0.023875763592542704 0.0014964037590039366 0 0.023334215857064709 0.0020564910227580534 0 0.02277204706889702 0.0021657465669982019 0 0.023110692616277777 0.0020836867070491202 0 0.025698785977600707 0.0034318434872058355 0 0.026768981666758555 0.0029971983963733412 0 0.025668471201747107 0.0022376007717178248 0 0.027195093652678772 0.003940933235002355 0 0.025698785977600707 0.0034318434872058355 0 0.026768981666758555 0.0029971983963733412 0 0.024165972019300718 0.0027281997337122192 0 0.025698785977600707 0.0034318434872058355 0 0.025668471201747107 0.0022376007717178248 0 0.02277204706889702 0.0021657465669982019 0 0.022880492355040017 0.0022671793463339583 0 0.020762080342395593 0.00077146934188476995 0 0.021341674436310822 0.0016508741005451027 0 0.019925120843358578 0.0010996691981277949 0 0.024165972019300718 0.0027281997337122192 0 0.024735254408839818 0.0019427236469722955 0 0.025668471201747107 0.0022376007717178248 0 0.024735254408839818 0.0019427236469722955 0 0.025668471201747107 0.0022376007717178248 0 0.025637308217932548 0.00096997442971708892 0 0.025668471201747107 0.0022376007717178248 0 0.026155168463956532 0.0015357264185172144 0 0.025637308217932548 0.00096997442971708892 0 0.026768981666758555 0.0029971983963733412 0 0.025668471201747107 0.0022376007717178248 0 0.026761345881209465 0.0018063756087417888 0 0.025668471201747107 0.0022376007717178248 0 0.026761345881209465 0.0018063756087417888 0 0.026155168463956532 0.0015357264185172144 0 0.026761345881209465 0.0018063756087417888 0 0.026740800373994747 0.00073187925121515974 0 0.026155168463956532 0.0015357264185172144 0 0.026740800373994747 0.00073187925121515974 0 0.026155168463956532 0.0015357264185172144 0 0.025637308217932548 0.00096997442971708892 0 0.026957100805307405 0.00075290944301092564 0 0.025719244216907092 0.0013890764692648309 0 0.024735254408839818 0.0019427236469722955 0 0.025637308217932548 0.00096997442971708892 0 0.023875763592542704 0.0014964037590039366 0 0.025719244216907092 0.0013890764692648309 0 0.024135500183795715 0.0018863628923779397 0 0.025548972521761529 0.0020411382354589848 0 0.024395289841760356 0.0022630941581971548 0 0.02482567749560248 0.0016382693514052288 0 0.025548972521761529 0.0020411382354589848 0 0.025214408426763289 0.0011530111249833128 0 0.025690195274690741 0.0012690189931208716 0 0.025548972521761529 0.0020411382354589848 0 0.025214408426763289 0.0011530111249833128 0 0.02482567749560248 0.0016382693514052288 0 0.025214408426763289 0.0011530111249833128 0 0.02482567749560248 0.0016382693514052288 0 0.024763536096775705 0.0011779207881409974 0 0.027046997727967634 0.00076601381335406245 0 0.026251247561933613 0.00096529556114992722 0 0.026422595327958882 -1.9857005057040834e-06 0 0.025719244216907092 0.0013890764692648309 0 0.026015588486486038 0.00058169870694789461 0 0.027410151961323619 -0.0004755289013909581 0 0.027328029112327214 0.00019979624631596309 0 0.026422595327958882 -1.9857005057040834e-06 0 0.027328029112327214 0.00019979624631596309 0 0.027046997727967634 0.00076601381335406245 0 0.026422595327958882 -1.9857005057040834e-06 0 0.023738725053768849 0.0019350908848392544 0 0.024395289841760356 0.0022630941581971548 0 0.023334215857064709 0.0020564910227580534 0 0.023738725053768849 0.0019350908848392544 0 0.024395289841760356 0.0022630941581971548 0 0.024277030926048451 0.0015810747136495754 0 0.024395289841760356 0.0022630941581971548 0 0.024277030926048451 0.0015810747136495754 0 0.02482567749560248 0.0016382693514052288 0 0.024277030926048451 0.0015810747136495754 0 0.024763536096775705 0.0011779207881409974 0 0.024404643798287311 0.00087624055214046499 0 0.024277030926048451 0.0015810747136495754 0 0.02482567749560248 0.0016382693514052288 0 0.024763536096775705 0.0011779207881409974 0 0.024277030926048451 0.0015810747136495754 0 0.023724309268724181 0.0013488722451171526 0 0.024404643798287311 0.00087624055214046499 0 0.023738725053768849 0.0019350908848392544 0 0.024277030926048451 0.0015810747136495754 0 0.023724309268724181 0.0013488722451171526 0 0.030196403509251412 -0.0001100679312955562 0 0.029638281571774075 -0.00039066675675644214 0 0.029377929073786082 -0.00039830545201318188 0 0.030196403509251412 -0.0001100679312955562 0 0.029638281571774075 -0.00039066675675644214 0 0.02998960936402742 -0.0002990508127163309 0 0.027016315086537075 0.00058721099116747244 0 0.026517486396226874 0.00088016228932957417 0 0.023738725053768849 0.0019350908848392544 0 0.023724309268724181 0.0013488722451171526 0 0.023540500547114988 0.0022444611514354966 0 0.029328536483311501 -0.00052402679236216929 0 0.028925741299006717 -0.0007341907448669959 0 0.029467119249498634 -0.00053926825955271567 0 0.029638281571774075 -0.00039066675675644214 0 0.029328536483311501 -0.00052402679236216929 0 0.029377929073786082 -0.00039830545201318188 0 0.029638281571774075 -0.00039066675675644214 0 0.029328536483311501 -0.00052402679236216929 0 0.029467119249498634 -0.00053926825955271567 0 0.029377929073786082 -0.00039830545201318188 0 0.02846096291192372 -0.0003599427162434449 0 0.028925741299006717 -0.0007341907448669959 0 0.029328536483311501 -0.00052402679236216929 0 0.029377929073786082 -0.00039830545201318188 0 0.028925741299006717 -0.0007341907448669959 0 0.023738725053768849 0.0019350908848392544 0 0.023540500547114988 0.0022444611514354966 0 0.023334215857064709 0.0020564910227580534 0 0.023540500547114988 0.0022444611514354966 0 0.023334215857064709 0.0020564910227580534 0 0.023429914061219009 0.0017817035268728315 0 0.023540500547114988 0.0022444611514354966 0 0.023429914061219009 0.0017817035268728315 0 0.023879582203865244 0.0013895685055961447 0 0.023154527500710679 0.0020305285045089461 0 0.023334215857064709 0.0020564910227580534 0 0.023429914061219009 0.0017817035268728315 0 0.023540500547114988 0.0022444611514354966 0 0.023879582203865244 0.0013895685055961447 0 0.02475548367717529 0.0017037285852593803 0 0.026517486396226874 0.00088016228932957417 0 0.026600826402756701 0.00058677228964179953 0 0.023857760298455641 0.00021570815982780819 0 0.024828291791134115 0.0004038304271258896 0 0.023879582203865244 0.0013895685055961447 0 0.024828291791134115 0.0004038304271258896 0 0.023879582203865244 0.0013895685055961447 0 0.02475548367717529 0.0017037285852593803 0 0.023429914061219009 0.0017817035268728315 0 0.023879582203865244 0.0013895685055961447 0 0.02300318844887363 0.0011058314138927339 0 0.023154527500710679 0.0020305285045089461 0 0.023429914061219009 0.0017817035268728315 0 0.02300318844887363 0.0011058314138927339 0 0.023857760298455641 0.00021570815982780819 0 0.023879582203865244 0.0013895685055961447 0 0.02300318844887363 0.0011058314138927339 0 0.026401789201523623 -4.4805996974911199e-05 0 0.027521776235727425 -0.0006428719151737876 0 0.026789003067221186 -0.00063748236478923764 0 0.026401789201523623 -4.4805996974911199e-05 0 0.02846096291192372 -0.0003599427162434449 0 0.027521776235727425 -0.0006428719151737876 0 0.024828291791134115 0.0004038304271258896 0 0.026401789201523623 -4.4805996974911199e-05 0 0.02475548367717529 0.0017037285852593803 0 0.026517089522970595 3.0756217176659624e-06 0 0.026600826402756701 0.00058677228964179953 0 0.02846096291192372 -0.0003599427162434449 0 0.027521776235727425 -0.0006428719151737876 0 0.028333228486425666 -0.00076839942456368977 0 0.027521776235727425 -0.0006428719151737876 0 0.028393274296348067 -0.0012141910008915233 0 0.028333228486425666 -0.00076839942456368977 0 0.02846096291192372 -0.0003599427162434449 0 0.028333228486425666 -0.00076839942456368977 0 0.028925741299006717 -0.0007341907448669959 0 0.028393274296348067 -0.0012141910008915233 0 0.028333228486425666 -0.00076839942456368977 0 0.028925741299006717 -0.0007341907448669959 0 0.028925741299006717 -0.0007341907448669959 0 0.029131164823423723 -0.00077195428789323848 0 0.029467119249498634 -0.00053926825955271567 0 0.028393274296348067 -0.0012141910008915233 0 0.028925741299006717 -0.0007341907448669959 0 0.029131164823423723 -0.00077195428789323848 0 0.028393274296348067 -0.0012141910008915233 0 0.029131164823423723 -0.00077195428789323848 0 0.029197558957177523 -0.00084407320436212117 0 0.028393274296348067 -0.0012141910008915233 0 0.029197558957177523 -0.00084407320436212117 0 0.029609451379022989 -0.00090010084797693013 0 0.029197558957177523 -0.00084407320436212117 0 0.029595857604960692 -0.00071671981272624708 0 0.029399119214533954 -0.00065443472377814545 0 0.029131164823423723 -0.00077195428789323848 0 0.029197558957177523 -0.00084407320436212117 0 0.029399119214533954 -0.00065443472377814545 0 0.029197558957177523 -0.00084407320436212117 0 0.029595857604960692 -0.00071671981272624708 0 0.029609451379022989 -0.00090010084797693013 0 0.029595857604960692 -0.00071671981272624708 0 0.029751268031316037 -0.00055865474450920722 0 0.029399119214533954 -0.00065443472377814545 0 0.029751268031316037 -0.00055865474450920722 0 0.029399119214533954 -0.00065443472377814545 0 0.029718652274455193 -0.00046644774407480859 0 0.029399119214533954 -0.00065443472377814545 0 0.029650014975082916 -0.00052004379374049172 0 0.029579980993258287 -0.00052118799246849573 0 0.029399119214533954 -0.00065443472377814545 0 0.029718652274455193 -0.00046644774407480859 0 0.029579980993258287 -0.00052118799246849573 0 0.029399119214533954 -0.00065443472377814545 0 0.029467119249498634 -0.00053926825955271567 0 0.029650014975082916 -0.00052004379374049172 0 0.029131164823423723 -0.00077195428789323848 0 0.029399119214533954 -0.00065443472377814545 0 0.029467119249498634 -0.00053926825955271567 0 0.029638281571774075 -0.00039066675675644214 0 0.029467119249498634 -0.00053926825955271567 0 0.02998960936402742 -0.0002990508127163309 0 0.029467119249498634 -0.00053926825955271567 0 0.02998960936402742 -0.0002990508127163309 0 0.030198562720683199 -0.00033450580530586238 0 0.02998960936402742 -0.0002990508127163309 0 0.030198562720683199 -0.00033450580530586238 0 0.030551389380992802 -0.00019936150943517604 0 0.030198562720683199 -0.00033450580530586238 0 0.029650014975082916 -0.00052004379374049172 0 0.029970925959845844 -0.00052790859438072335 0 0.030198562720683199 -0.00033450580530586238 0 0.029970925959845844 -0.00052790859438072335 0 0.031195058407471339 -0.00058032615903443139 0 0.029467119249498634 -0.00053926825955271567 0 0.030198562720683199 -0.00033450580530586238 0 0.029650014975082916 -0.00052004379374049172 0 0.029636919551045561 -0.00055359098680581042 0 0.029970925959845844 -0.00052790859438072335 0 0.029764289730393901 -0.00079891893524297163 0 0.029650014975082916 -0.00052004379374049172 0 0.029636919551045561 -0.00055359098680581042 0 0.029970925959845844 -0.00052790859438072335 0 0.029970925959845844 -0.00052790859438072335 0 0.029764289730393901 -0.00079891893524297163 0 0.031195058407471339 -0.00058032615903443139 0 0.031261486101130102 -0.0006907840660096209 0 0.031238151881302498 -0.0005944456921319251 0 0.032584980061431651 -0.00075604173800433467 0 0.031778179161299068 -0.00036292262417790978 0 0.032074554189054097 -9.6024125819321705e-05 0 0.032584980061431651 -0.00075604173800433467 0 0.031195058407471339 -0.00058032615903443139 0 0.031778179161299068 -0.00036292262417790978 0 0.031261486101130102 -0.0006907840660096209 0 0.031906239154545872 0.00016358126901107052 0 0.029764289730393901 -0.00079891893524297163 0 0.029642027947889088 -0.00040289030964746038 0 0.029581805726468197 4.2847357612295514e-05 0 0.029636919551045561 -0.00055359098680581042 0 0.029764289730393901 -0.00079891893524297163 0 0.029642027947889088 -0.00040289030964746038 0 0.029636919551045561 -0.00055359098680581042 0 0.029642027947889088 -0.00040289030964746038 0 0.029652977737573034 -0.00039483833961878302 0 0.029642027947889088 -0.00040289030964746038 0 0.029652977737573034 -0.00039483833961878302 0 0.029693386923651616 -0.00020571365357448173 0 0.029652977737573034 -0.00039483833961878302 0 0.029806484383368182 -0.00018047423628560986 0 0.029761756823243033 -0.00034847313804367385 0 0.029652977737573034 -0.00039483833961878302 0 0.029693386923651616 -0.00020571365357448173 0 0.029806484383368182 -0.00018047423628560986 0 0.029693386923651616 -0.00020571365357448173 0 0.029812124652152598 -3.8702230151968958e-05 0 0.029581805726468197 4.2847357612295514e-05 0 0.029642027947889088 -0.00040289030964746038 0 0.029693386923651616 -0.00020571365357448173 0 0.029581805726468197 4.2847357612295514e-05 0 0.029693386923651616 -0.00020571365357448173 0 0.029812124652152598 -3.8702230151968958e-05 0 0.029806484383368182 -0.00018047423628560986 0 0.029812124652152598 -3.8702230151968958e-05 0 0.029990779078266663 1.2129031640068028e-05 0 0.0300195349110636 0.00018817252837780279 0 0.029990779078266663 1.2129031640068028e-05 0 0.029969227222687217 -0.00014904736449010379 0 0.029806484383368182 -0.00018047423628560986 0 0.029812124652152598 -3.8702230151968958e-05 0 0.029990779078266663 1.2129031640068028e-05 0 0.029806484383368182 -0.00018047423628560986 0 0.030157146322746846 4.5279764167849947e-05 0 0.030177704093590399 0.00019945972085761676 0 0.030323240680836874 0.00024794924571757597 0 0.029990779078266663 1.2129031640068028e-05 0 0.030157146322746846 4.5279764167849947e-05 0 0.030177704093590399 0.00019945972085761676 0 0.029990779078266663 1.2129031640068028e-05 0 0.030157146322746846 4.5279764167849947e-05 0 0.029969227222687217 -0.00014904736449010379 0 0.029969227222687217 -0.00014904736449010379 0 0.029940554417482952 -0.00029472462667421871 0 0.030159281298418928 -0.00010870012599620583 0 0.030157146322746846 4.5279764167849947e-05 0 0.029969227222687217 -0.00014904736449010379 0 0.030159281298418928 -0.00010870012599620583 0 0.029969227222687217 -0.00014904736449010379 0 0.029761756823243033 -0.00034847313804367385 0 0.029940554417482952 -0.00029472462667421871 0 0.029969227222687217 -0.00014904736449010379 0 0.029806484383368182 -0.00018047423628560986 0 0.029761756823243033 -0.00034847313804367385 0 0.029761756823243033 -0.00034847313804367385 0 0.029940554417482952 -0.00029472462667421871 0 0.029718652274455193 -0.00046644774407480859 0 0.029940554417482952 -0.00029472462667421871 0 0.029718652274455193 -0.00046644774407480859 0 0.029945955926234648 -0.00040436041609089675 0 0.029751268031316037 -0.00055865474450920722 0 0.029718652274455193 -0.00046644774407480859 0 0.029945955926234648 -0.00040436041609089675 0 0.029761756823243033 -0.00034847313804367385 0 0.029718652274455193 -0.00046644774407480859 0 0.029579980993258287 -0.00052118799246849573 0 0.029650014975082916 -0.00052004379374049172 0 0.029636919551045561 -0.00055359098680581042 0 0.029579980993258287 -0.00052118799246849573 0 0.029636919551045561 -0.00055359098680581042 0 0.029652977737573034 -0.00039483833961878302 0 0.029579980993258287 -0.00052118799246849573 0 0.029652977737573034 -0.00039483833961878302 0 0.029761756823243033 -0.00034847313804367385 0 0.029579980993258287 -0.00052118799246849573 0 0.027402298634020408 0.00038986916124971512 0 0.026462778199338639 -0.00038216376185043244 0 0.027759396958815286 -0.0014813269353948827 0 0.032592866894917451 0.00058936441890323251 0 0.032119518176037108 0.0010799670435589406 0 0.032273747816626876 0.0004563596784929479 0 0.028253127533961569 0.00045560727500312625 0 0.030075805948660484 -0.00056236979834375196 0 0.027410151961323619 -0.0004755289013909581 0 0.026422595327958882 -1.9857005057040834e-06 0 0.026598184369731045 -0.00097671620502747056 0 0.026015588486486038 0.00058169870694789461 0 0.028253127533961569 0.00045560727500312625 0 0.025214408426763289 0.0011530111249833128 0 0.025833001659824283 0.00051621056666771884 0 0.025059150754261718 0.00071308651727092676 0 0.028253127533961569 0.00045560727500312625 0 0.025127229862425535 0.00077067400192897928 0 0.025214408426763289 0.0011530111249833128 0 0.025690195274690741 0.0012690189931208716 0 0.025833001659824283 0.00051621056666771884 0 0.025214408426763289 0.0011530111249833128 0 0.024763536096775705 0.0011779207881409974 0 0.025059150754261718 0.00071308651727092676 0 0.026462778199338639 -0.00038216376185043244 0 0.024866132630159115 9.1027606679827328e-05 0 0.026497238543620526 -0.0016409759055400822 0 0.025803571616156908 0.00072949912350143758 0 0.026462778199338639 -0.00038216376185043244 0 0.024866132630159115 9.1027606679827328e-05 0 0.027402298634020408 0.00038986916124971512 0 0.025803571616156908 0.00072949912350143758 0 0.026462778199338639 -0.00038216376185043244 0 0.028134286735412548 -2.5934742884140629e-06 0 0.029427692671857405 -0.00090346236192522184 0 0.031354550232165768 -5.6982288364227507e-05 0 0.03161211576846959 -0.00026143333201926374 0 0.032363256462447275 2.8713169077040096e-05 0 0.031354550232165768 -5.6982288364227507e-05 0 0.031068285652328234 -0.00028256524017409565 0 0.03161211576846959 -0.00026143333201926374 0 0.025803571616156908 0.00072949912350143758 0 0.024866132630159115 9.1027606679827328e-05 0 0.024404643798287311 0.00087624055214046499 0 0.024763536096775705 0.0011779207881409974 0 0.025059150754261718 0.00071308651727092676 0 0.024404643798287311 0.00087624055214046499 0 0.025127229862425535 0.00077067400192897928 0 0.024628977614941053 0.00085077757529021048 0 0.030196403509251412 -0.0001100679312955562 0 0.031354550232165768 -5.6982288364227507e-05 0 0.030551389380992802 -0.00019936150943517604 0 0.023724309268724181 0.0013488722451171526 0 0.024866132630159115 9.1027606679827328e-05 0 0.024404643798287311 0.00087624055214046499 0 0.030196403509251412 -0.0001100679312955562 0 0.02998960936402742 -0.0002990508127163309 0 0.030551389380992802 -0.00019936150943517604 0 0.027016315086537075 0.00058721099116747244 0 0.028134286735412548 -2.5934742884140629e-06 0 0.030198562720683199 -0.00033450580530586238 0 0.031068285652328234 -0.00028256524017409565 0 0.031195058407471339 -0.00058032615903443139 0 0.030198562720683199 -0.00033450580530586238 0 0.030551389380992802 -0.00019936150943517604 0 0.031068285652328234 -0.00028256524017409565 0 0.031354550232165768 -5.6982288364227507e-05 0 0.030551389380992802 -0.00019936150943517604 0 0.031068285652328234 -0.00028256524017409565 0 0.031068285652328234 -0.00028256524017409565 0 0.031195058407471339 -0.00058032615903443139 0 0.03161211576846959 -0.00026143333201926374 0 0.031195058407471339 -0.00058032615903443139 0 0.03162409588652574 -0.0003863916614673699 0 0.03161211576846959 -0.00026143333201926374 0 0.031778179161299068 -0.00036292262417790978 0 0.03162409588652574 -0.0003863916614673699 0 0.031854457058124494 -0.00029442029821067484 0 0.031778179161299068 -0.00036292262417790978 0 0.031854457058124494 -0.00029442029821067484 0 0.031825275320534537 -0.00026269714537604952 0 0.031195058407471339 -0.00058032615903443139 0 0.031778179161299068 -0.00036292262417790978 0 0.03162409588652574 -0.0003863916614673699 0 0.031854457058124494 -0.00029442029821067484 0 0.032076078838501408 -0.00020160015203347291 0 0.032306329156161891 -0.00030449737232682121 0 0.03162409588652574 -0.0003863916614673699 0 0.031854457058124494 -0.00029442029821067484 0 0.032076078838501408 -0.00020160015203347291 0 0.032076078838501408 -0.00020160015203347291 0 0.03161211576846959 -0.00026143333201926374 0 0.032363256462447275 2.8713169077040096e-05 0 0.03162409588652574 -0.0003863916614673699 0 0.032076078838501408 -0.00020160015203347291 0 0.03161211576846959 -0.00026143333201926374 0 0.026462778199338639 -0.00038216376185043244 0 0.026497238543620526 -0.0016409759055400822 0 0.027759396958815286 -0.0014813269353948827 0 0.032076078838501408 -0.00020160015203347291 0 0.032363256462447275 2.8713169077040096e-05 0 0.032802774099848719 -0.00015542536340379184 0 0.032076078838501408 -0.00020160015203347291 0 0.032802774099848719 -0.00015542536340379184 0 0.032306329156161891 -0.00030449737232682121 0 0.03257337774633013 8.755395123390628e-05 0 0.032424331584659211 -0.00012264378596814939 0 0.032273747816626876 0.0004563596784929479 0 0.032363256462447275 2.8713169077040096e-05 0 0.032802774099848719 -0.00015542536340379184 0 0.033573954590384376 -5.6944824808793194e-05 0 0.032802774099848719 -0.00015542536340379184 0 0.033573954590384376 -5.6944824808793194e-05 0 0.03340206035182073 -0.00013139298040667756 0 0.029427692671857405 -0.00090346236192522184 0 0.031166315091000697 -0.0012398158831162269 0 0.031166315091000697 -0.0012398158831162269 0 0.030075805948660484 -0.00056236979834375196 0 0.031166315091000697 -0.0012398158831162269 0 0.031234816395277979 -0.0011453335312171797 0 0.033573954590384376 -5.6944824808793194e-05 0 0.033603939548702083 -0.00014599969357558169 0 0.03353559681358928 -0.00013717773915701201 0 0.033573954590384376 -5.6944824808793194e-05 0 0.03353559681358928 -0.00013717773915701201 0 0.03340206035182073 -0.00013139298040667756 0 0.026497238543620526 -0.0016409759055400822 0 0.028131674457363656 -0.0033178020342953317 0 0.027759396958815286 -0.0014813269353948827 0 0.03422428015143511 -0.00065561821447550502 0 0.034028122007686901 -0.00044176384420492457 0 0.033740583700776927 -0.00041498263697881116 0 0.03422428015143511 -0.00065561821447550502 0 0.033740583700776927 -0.00041498263697881116 0 0.033087291318201803 -0.0003238528343509719 0 0.034028122007686901 -0.00044176384420492457 0 0.033740583700776927 -0.00041498263697881116 0 0.033625786469012778 -0.0001864887357496756 0 0.03353559681358928 -0.00013717773915701201 0 0.03340206035182073 -0.00013139298040667756 0 0.033625786469012778 -0.0001864887357496756 0 0.033603939548702083 -0.00014599969357558169 0 0.03353559681358928 -0.00013717773915701201 0 0.033625786469012778 -0.0001864887357496756 0 0.033740583700776927 -0.00041498263697881116 0 0.033625786469012778 -0.0001864887357496756 0 0.033087291318201803 -0.0003238528343509719 0 0.03340206035182073 -0.00013139298040667756 0 0.033625786469012778 -0.0001864887357496756 0 0.033087291318201803 -0.0003238528343509719 0 0.032802774099848719 -0.00015542536340379184 0 0.03340206035182073 -0.00013139298040667756 0 0.033087291318201803 -0.0003238528343509719 0 0.033087291318201803 -0.0003238528343509719 0 0.032258188637111149 -0.00079067628755313032 0 0.032306329156161891 -0.00030449737232682121 0 0.032802774099848719 -0.00015542536340379184 0 0.033087291318201803 -0.0003238528343509719 0 0.032306329156161891 -0.00030449737232682121 0 0.034168486567171731 -0.00065729407584132291 0 0.033540087877720566 -0.00062316879616264819 0 0.03422428015143511 -0.00065561821447550502 0 0.034910189889111834 -0.00046388491923695762 0 0.034783766997884449 -0.00021173424427094453 0 0.03422428015143511 -0.00065561821447550502 0 0.033087291318201803 -0.0003238528343509719 0 0.032258188637111149 -0.00079067628755313032 0 0.032258188637111149 -0.00079067628755313032 0 0.032306329156161891 -0.00030449737232682121 0 0.031895888677104418 -0.00030284299506144204 0 0.031854457058124494 -0.00029442029821067484 0 0.032306329156161891 -0.00030449737232682121 0 0.031895888677104418 -0.00030284299506144204 0 0.032258188637111149 -0.00079067628755313032 0 0.031895888677104418 -0.00030284299506144204 0 0.03177300502752619 -9.8572703257684011e-05 0 0.031854457058124494 -0.00029442029821067484 0 0.031895888677104418 -0.00030284299506144204 0 0.031825275320534537 -0.00026269714537604952 0 0.031895888677104418 -0.00030284299506144204 0 0.031825275320534537 -0.00026269714537604952 0 0.031835307190966132 -0.00018706573288878309 0 0.031778179161299068 -0.00036292262417790978 0 0.031825275320534537 -0.00026269714537604952 0 0.031862863847133535 -0.00017769102891704181 0 0.031825275320534537 -0.00026269714537604952 0 0.031835307190966132 -0.00018706573288878309 0 0.031862863847133535 -0.00017769102891704181 0 0.031895888677104418 -0.00030284299506144204 0 0.031794521490270483 -5.8385832828409844e-05 0 0.03177300502752619 -9.8572703257684011e-05 0 0.031895888677104418 -0.00030284299506144204 0 0.031835307190966132 -0.00018706573288878309 0 0.031794521490270483 -5.8385832828409844e-05 0 0.031835307190966132 -0.00018706573288878309 0 0.031862863847133535 -0.00017769102891704181 0 0.031794521490270483 -5.8385832828409844e-05 0 0.033551241126171964 -0.00012831412128162383 0 0.033733910001204438 -3.767013623429071e-06 0 0.034910189889111834 -0.00046388491923695762 0 0.035088228152216447 -0.00037399595745896228 0 0.035008045224097048 -0.00020175860819927292 0 0.035088228152216447 -0.00037399595745896228 0 0.035008045224097048 -0.00020175860819927292 0 0.035097386302807086 -0.00016159601067012311 0 0.033540087877720566 -0.00062316879616264819 0 0.033733910001204438 -3.767013623429071e-06 0 0.035008045224097048 -0.00020175860819927292 0 0.035000087414795697 -8.9843770391207057e-08 0 0.035097386302807086 -0.00016159601067012311 0 0.035008045224097048 -0.00020175860819927292 0 0.035000087414795697 -8.9843770391207057e-08 0 0.034999802805771259 -4.1810704319460138e-08 0 0.035008045224097048 -0.00020175860819927292 0 0.034999802805771259 -4.1810704319460138e-08 0 0.034783766997884449 -0.00021173424427094453 0 0.034910189889111834 -0.00046388491923695762 0 0.035008045224097048 -0.00020175860819927292 0 0.034783766997884449 -0.00021173424427094453 0 0.034999802805771259 -4.1810704319460138e-08 0 0.034783766997884449 -0.00021173424427094453 0 0.034999959772870792 -7.4072421304950583e-08 0 0.034591979501742802 -0.00034461931034124608 0 0.034783766997884449 -0.00021173424427094453 0 0.034999959772870792 -7.4072421304950583e-08 0 0.034591979501742802 -0.00034461931034124608 0 0.03422428015143511 -0.00065561821447550502 0 0.034783766997884449 -0.00021173424427094453 0 0.034438871753947262 9.6569357523333316e-05 0 0.034469365105185959 0.00017736845717665549 0 0.034246579570918603 0.00017813430988912869 0 0.034438871753947262 9.6569357523333316e-05 0 0.034321291527393882 0.00011968943748932191 0 0.034246579570918603 0.00017813430988912869 0 0.034438871753947262 9.6569357523333316e-05 0 0.034469365105185959 0.00017736845717665549 0 0.034647914966179985 7.5217415989636125e-05 0 0.034438871753947262 9.6569357523333316e-05 0 0.034647914966179985 7.5217415989636125e-05 0 0.034628824003357754 5.6411100335084302e-05 0 0.034438871753947262 9.6569357523333316e-05 0 0.034645524459636923 6.7123021868512942e-05 0 0.034501241499557474 7.6551432083466655e-05 0 0.034438871753947262 9.6569357523333316e-05 0 0.034645524459636923 6.7123021868512942e-05 0 0.034628824003357754 5.6411100335084302e-05 0 0.034645524459636923 6.7123021868512942e-05 0 0.034809585983723086 4.2411158692413984e-05 0 0.034703563726954552 -1.1316071574433685e-06 0 0.034645524459636923 6.7123021868512942e-05 0 0.034501241499557474 7.6551432083466655e-05 0 0.034703563726954552 -1.1316071574433685e-06 0 0.034501241499557474 7.6551432083466655e-05 0 0.034321291527393882 0.00011968943748932191 0 0.034703563726954552 -1.1316071574433685e-06 0 0.034438871753947262 9.6569357523333316e-05 0 0.034501241499557474 7.6551432083466655e-05 0 0.034321291527393882 0.00011968943748932191 0 0.030217677637189098 0.00038554110398095068 0 0.029581805726468197 4.2847357612295514e-05 0 0.030620913864190573 0.00078728729629543753 0 0.033879642258281911 0.00022603374610679421 0 0.030723377633256183 0.00057898300546355749 0 0.030620913864190573 0.00078728729629543753 0 0.034321291527393882 0.00011968943748932191 0 0.033879642258281911 0.00022603374610679421 0 0.034703563726954552 -1.1316071574433685e-06 0 0.034508603166291438 0.00021509958826654936 0 0.033879642258281911 0.00022603374610679421 0 0.030620913864190573 0.00078728729629543753 0 0.031906239154545872 0.00016358126901107052 0 0.030682048563592631 0.00055879869602157479 0 0.033839817521042724 0.00043584704317048965 0 0.032893546258015653 0.00032849983173458133 0 0.030217677637189098 0.00038554110398095068 0 0.0300195349110636 0.00018817252837780279 0 0.029581805726468197 4.2847357612295514e-05 0 0.030217677637189098 0.00038554110398095068 0 0.030391524028093943 0.00041277597088865722 0 0.03047505566345898 0.00055256490552940435 0 0.030203319025846085 0.00029715700179431864 0 0.030177704093590399 0.00019945972085761676 0 0.030391524028093943 0.00041277597088865722 0 0.030217677637189098 0.00038554110398095068 0 0.030203319025846085 0.00029715700179431864 0 0.030391524028093943 0.00041277597088865722 0 0.030217677637189098 0.00038554110398095068 0 0.030203319025846085 0.00029715700179431864 0 0.0300195349110636 0.00018817252837780279 0 0.029990779078266663 1.2129031640068028e-05 0 0.030177704093590399 0.00019945972085761676 0 0.0300195349110636 0.00018817252837780279 0 0.030203319025846085 0.00029715700179431864 0 0.030177704093590399 0.00019945972085761676 0 0.0300195349110636 0.00018817252837780279 0 0.029812124652152598 -3.8702230151968958e-05 0 0.0300195349110636 0.00018817252837780279 0 0.029581805726468197 4.2847357612295514e-05 0 0.032584980061431651 -0.00075604173800433467 0 0.034508603166291438 0.00021509958826654936 0 0.034329888932638761 0.0003947751170535004 0 0.034508603166291438 0.00021509958826654936 0 0.033879642258281911 0.00022603374610679421 0 0.034329888932638761 0.0003947751170535004 0 0.033879642258281911 0.00022603374610679421 0 0.034246579570918603 0.00017813430988912869 0 0.034329888932638761 0.0003947751170535004 0 0.034321291527393882 0.00011968943748932191 0 0.033879642258281911 0.00022603374610679421 0 0.034246579570918603 0.00017813430988912869 0 0.034469365105185959 0.00017736845717665549 0 0.034246579570918603 0.00017813430988912869 0 0.034329888932638761 0.0003947751170535004 0 0.032584980061431651 -0.00075604173800433467 0 0.034329888932638761 0.0003947751170535004 0 0.032824262216843737 0.00046184851476992634 0 0.034300476755853154 0.0003689521769691761 0 0.033795409645799336 0.00034937182869884139 0 0.034469365105185959 0.00017736845717665549 0 0.034329888932638761 0.0003947751170535004 0 0.034819437241015334 0.00026871033450338481 0 0.031840641053870605 8.2125876016767742e-05 0 0.032824262216843737 0.00046184851476992634 0 0.032074554189054097 -9.6024125819321705e-05 0 0.033733910001204438 -3.767013623429071e-06 0 0.033795409645799336 0.00034937182869884139 0 0.032584980061431651 -0.00075604173800433467 0 0.032824262216843737 0.00046184851476992634 0 0.032074554189054097 -9.6024125819321705e-05 0 0.031778179161299068 -0.00036292262417790978 0 0.031862863847133535 -0.00017769102891704181 0 0.032074554189054097 -9.6024125819321705e-05 0 0.031862863847133535 -0.00017769102891704181 0 0.031794521490270483 -5.8385832828409844e-05 0 0.032074554189054097 -9.6024125819321705e-05 0 0.031794521490270483 -5.8385832828409844e-05 0 0.031840641053870605 8.2125876016767742e-05 0 0.032074554189054097 -9.6024125819321705e-05 0 0.033733910001204438 -3.767013623429071e-06 0 0.035153775248325123 -4.9442158961447479e-05 0 0.034988488821320989 0.00020772426373959137 0 0.034819437241015334 0.00026871033450338481 0 0.034845928670660345 0.00010727636513353491 0 0.034988488821320989 0.00020772426373959137 0 0.034845928670660345 0.00010727636513353491 0 0.034900055331634566 1.9730593481729976e-05 0 0.034469365105185959 0.00017736845717665549 0 0.034647914966179985 7.5217415989636125e-05 0 0.034819437241015334 0.00026871033450338481 0 0.034647914966179985 7.5217415989636125e-05 0 0.034819437241015334 0.00026871033450338481 0 0.034845928670660345 0.00010727636513353491 0 0.034647914966179985 7.5217415989636125e-05 0 0.034845928670660345 0.00010727636513353491 0 0.034834824390671704 1.7442612523894836e-05 0 0.034845928670660345 0.00010727636513353491 0 0.034834824390671704 1.7442612523894836e-05 0 0.034900055331634566 1.9730593481729976e-05 0 0.035153775248325123 -4.9442158961447479e-05 0 0.034999880171725332 -1.5906203406199637e-07 0 0.035000087414795697 -8.9843770391207057e-08 0 0.035097386302807086 -0.00016159601067012311 0 0.035000169242463512 -3.0614820726953555e-08 0 0.03499975090608233 -6.4817420613711878e-08 0 0.034908753711182301 2.0136881479989307e-06 0 0.034999755701304647 1.6463540505062675e-08 0 0.034834824390671704 1.7442612523894836e-05 0 0.034900055331634566 1.9730593481729976e-05 0 0.03499975090608233 -6.4817420613711878e-08 0 0.034834824390671704 1.7442612523894836e-05 0 0.03499975090608233 -6.4817420613711878e-08 0 0.034908753711182301 2.0136881479989307e-06 0 0.034908753711182301 2.0136881479989307e-06 0 0.034999755701304647 1.6463540505062675e-08 0 0.034767617712752739 2.506165278185778e-05 0 0.034999755701304647 1.6463540505062675e-08 0 0.034767617712752739 2.506165278185778e-05 0 0.034797716822523812 4.627032526415465e-05 0 0.034834824390671704 1.7442612523894836e-05 0 0.034908753711182301 2.0136881479989307e-06 0 0.034767617712752739 2.506165278185778e-05 0 0.034647914966179985 7.5217415989636125e-05 0 0.034834824390671704 1.7442612523894836e-05 0 0.034767617712752739 2.506165278185778e-05 0 0.034647914966179985 7.5217415989636125e-05 0 0.034767617712752739 2.506165278185778e-05 0 0.034628824003357754 5.6411100335084302e-05 0 0.034767617712752739 2.506165278185778e-05 0 0.034628824003357754 5.6411100335084302e-05 0 0.034797716822523812 4.627032526415465e-05 0 0.034645524459636923 6.7123021868512942e-05 0 0.034797716822523812 4.627032526415465e-05 0 0.034809585983723086 4.2411158692413984e-05 0 0.034645524459636923 6.7123021868512942e-05 0 0.034628824003357754 5.6411100335084302e-05 0 0.034797716822523812 4.627032526415465e-05 0 0.034999755701304647 1.6463540505062675e-08 0 0.034797716822523812 4.627032526415465e-05 0 0.034999817323119325 6.1368025043735218e-08 0 0.034797716822523812 4.627032526415465e-05 0 0.034999817323119325 6.1368025043735218e-08 0 0.034946601640880294 2.8378911083744782e-05 0 0.034999896753123927 3.8253077606115581e-08 0 0.034946601640880294 2.8378911083744782e-05 0 0.034975024125811188 1.5779134358090963e-05 0 0.034999817323119325 6.1368025043735218e-08 0 0.034999896753123927 3.8253077606115581e-08 0 0.034946601640880294 2.8378911083744782e-05 0 0.030876896925913132 0.0013904513112800408 0 0.031376793186070444 0.0014541152119332804 0 0.031442934421167655 0.0019324144729265325 0 0.034946601640880294 2.8378911083744782e-05 0 0.034918696185234466 1.7712605633254023e-05 0 0.034975024125811188 1.5779134358090963e-05 0 0.032836083057232707 0.00072014669334727029 0 0.03379866719268481 0.00051468898800071641 0 0.034918696185234466 1.7712605633254023e-05 0 0.034809585983723086 4.2411158692413984e-05 0 0.034703563726954552 -1.1316071574433685e-06 0 0.034797716822523812 4.627032526415465e-05 0 0.034946601640880294 2.8378911083744782e-05 0 0.034809585983723086 4.2411158692413984e-05 0 0.034946601640880294 2.8378911083744782e-05 0 0.034918696185234466 1.7712605633254023e-05 0 0.034809585983723086 4.2411158692413984e-05 0 0.030876896925913132 0.0013904513112800408 0 0.030723377633256183 0.00057898300546355749 0 0.030825960873735011 0.00092052003566752219 0 0.030723377633256183 0.00057898300546355749 0 0.030620913864190573 0.00078728729629543753 0 0.030825960873735011 0.00092052003566752219 0 0.032836083057232707 0.00072014669334727029 0 0.032893546258015653 0.00032849983173458133 0 0.030620913864190573 0.00078728729629543753 0 0.030825960873735011 0.00092052003566752219 0 0.03063213200532245 0.00062525046810767029 0 0.030876896925913132 0.0013904513112800408 0 0.030825960873735011 0.00092052003566752219 0 0.031376793186070444 0.0014541152119332804 0 0.030825960873735011 0.00092052003566752219 0 0.031321763437247997 0.0009239507484709909 0 0.031376793186070444 0.0014541152119332804 0 0.030825960873735011 0.00092052003566752219 0 0.030857379957529477 0.00064232756854352491 0 0.03063213200532245 0.00062525046810767029 0 0.030825960873735011 0.00092052003566752219 0 0.030857379957529477 0.00064232756854352491 0 0.031321763437247997 0.0009239507484709909 0 0.030857379957529477 0.00064232756854352491 0 0.031040721290731342 0.00047049986308486907 0 0.031321763437247997 0.0009239507484709909 0 0.030857379957529477 0.00064232756854352491 0 0.03077837308701048 0.00039727139306425946 0 0.03064603164910169 0.00044503988004256675 0 0.030857379957529477 0.00064232756854352491 0 0.031040721290731342 0.00047049986308486907 0 0.03077837308701048 0.00039727139306425946 0 0.03077837308701048 0.00039727139306425946 0 0.03064603164910169 0.00044503988004256675 0 0.030599848533817378 0.00025516632166359488 0 0.03064603164910169 0.00044503988004256675 0 0.030599848533817378 0.00025516632166359488 0 0.030431850970345394 0.00023689649550535986 0 0.03064603164910169 0.00044503988004256675 0 0.030505991754209712 0.00040413976942043316 0 0.03063213200532245 0.00062525046810767029 0 0.03064603164910169 0.00044503988004256675 0 0.030505991754209712 0.00040413976942043316 0 0.030431850970345394 0.00023689649550535986 0 0.030323240680836874 0.00024794924571757597 0 0.030505991754209712 0.00040413976942043316 0 0.030431850970345394 0.00023689649550535986 0 0.030177704093590399 0.00019945972085761676 0 0.030323240680836874 0.00024794924571757597 0 0.030391524028093943 0.00041277597088865722 0 0.030323240680836874 0.00024794924571757597 0 0.030391524028093943 0.00041277597088865722 0 0.030505991754209712 0.00040413976942043316 0 0.030391524028093943 0.00041277597088865722 0 0.030505991754209712 0.00040413976942043316 0 0.03063213200532245 0.00062525046810767029 0 0.030217677637189098 0.00038554110398095068 0 0.030620913864190573 0.00078728729629543753 0 0.03047505566345898 0.00055256490552940435 0 0.030391524028093943 0.00041277597088865722 0 0.03047505566345898 0.00055256490552940435 0 0.03063213200532245 0.00062525046810767029 0 0.030620913864190573 0.00078728729629543753 0 0.03047505566345898 0.00055256490552940435 0 0.03063213200532245 0.00062525046810767029 0 0.030857379957529477 0.00064232756854352491 0 0.03064603164910169 0.00044503988004256675 0 0.03063213200532245 0.00062525046810767029 0 0.031858427610752478 0.00085187906092884427 0 0.032525102294430341 0.0011422471028211944 0 0.03236613264459446 0.00049890962729904058 0 0.031858427610752478 0.00085187906092884427 0 0.031783293140485488 0.00036339266784684226 0 0.03236613264459446 0.00049890962729904058 0 0.031858427610752478 0.00085187906092884427 0 0.031435510996054385 0.00051504769367434402 0 0.031783293140485488 0.00036339266784684226 0 0.031040721290731342 0.00047049986308486907 0 0.031435510996054385 0.00051504769367434402 0 0.031321763437247997 0.0009239507484709909 0 0.031858427610752478 0.00085187906092884427 0 0.031435510996054385 0.00051504769367434402 0 0.031321763437247997 0.0009239507484709909 0 0.031321763437247997 0.0009239507484709909 0 0.031885064309765579 0.0014651793667796776 0 0.031376793186070444 0.0014541152119332804 0 0.031858427610752478 0.00085187906092884427 0 0.031321763437247997 0.0009239507484709909 0 0.031885064309765579 0.0014651793667796776 0 0.031858427610752478 0.00085187906092884427 0 0.031885064309765579 0.0014651793667796776 0 0.032525102294430341 0.0011422471028211944 0 0.033325198759610965 0.00095373740040975089 0 0.033621698603654257 0.00071275467181811949 0 0.034951709950200034 0.00021272510163284752 0 0.03498018770186867 8.4172840731322783e-05 0 0.034908655378618599 7.103607807141232e-05 0 0.033325198759610965 0.00095373740040975089 0 0.03379866719268481 0.00051468898800071641 0 0.034951709950200034 0.00021272510163284752 0 0.035070347006728536 6.3843739899104582e-05 0 0.03498018770186867 8.4172840731322783e-05 0 0.031885064309765579 0.0014651793667796776 0 0.031376793186070444 0.0014541152119332804 0 0.031442934421167655 0.0019324144729265325 0 0.034999994089879242 2.7119292572925632e-09 0 0.034995737008172066 2.6606822057853524e-06 0 0.034999992823845846 1.0573152923301082e-09 0 0.035070347006728536 6.3843739899104582e-05 0 0.03498018770186867 8.4172840731322783e-05 0 0.035000016859237967 3.7194551095416153e-08 0 0.03379866719268481 0.00051468898800071641 0 0.035000368145723465 3.8237910711545764e-07 0 0.03500018891890571 -5.7526270954162914e-07 0 0.03379866719268481 0.00051468898800071641 0 0.03498018770186867 8.4172840731322783e-05 0 0.035000016859237967 3.7194551095416153e-08 0 0.034908655378618599 7.103607807141232e-05 0 0.035000016859237967 3.7194551095416153e-08 0 0.034908655378618599 7.103607807141232e-05 0 0.034999686418413244 4.7203545623589058e-08 0 0.034908655378618599 7.103607807141232e-05 0 0.034999686418413244 4.7203545623589058e-08 0 0.034632170702860211 0.00022433042174556123 0 0.034999686418413244 4.7203545623589058e-08 0 0.034632170702860211 0.00022433042174556123 0 0.034668090740701256 0.00016800432381484408 0 0.034951709950200034 0.00021272510163284752 0 0.034908655378618599 7.103607807141232e-05 0 0.034632170702860211 0.00022433042174556123 0 0.034999404582104925 5.5362562634107139e-08 0 0.034536355319552306 0.00024713490315876163 0 0.034764997993108164 0.00013906202530127013 0 0.034999686418413244 4.7203545623589058e-08 0 0.034999404582104925 5.5362562634107139e-08 0 0.034668090740701256 0.00016800432381484408 0 0.034668090740701256 0.00016800432381484408 0 0.034536355319552306 0.00024713490315876163 0 0.034425742669808981 0.00029704856166735673 0 0.034999404582104925 5.5362562634107139e-08 0 0.034668090740701256 0.00016800432381484408 0 0.034536355319552306 0.00024713490315876163 0 0.034230928994510731 0.0003980554326595451 0 0.034323565628684098 0.00038899502276964869 0 0.034053861322450175 0.00050774399545200593 0 0.034230928994510731 0.0003980554326595451 0 0.034010948884768723 0.00047225110855434854 0 0.034053861322450175 0.00050774399545200593 0 0.034536355319552306 0.00024713490315876163 0 0.034230928994510731 0.0003980554326595451 0 0.034323565628684098 0.00038899502276964869 0 0.034536355319552306 0.00024713490315876163 0 0.034230928994510731 0.0003980554326595451 0 0.034425742669808981 0.00029704856166735673 0 0.034230928994510731 0.0003980554326595451 0 0.034234756982612503 0.00039342589007541461 0 0.034010948884768723 0.00047225110855434854 0 0.034230928994510731 0.0003980554326595451 0 0.034234756982612503 0.00039342589007541461 0 0.034425742669808981 0.00029704856166735673 0 0.034668090740701256 0.00016800432381484408 0 0.034425742669808981 0.00029704856166735673 0 0.034321124077985578 0.00039896380308644425 0 0.034234756982612503 0.00039342589007541461 0 0.034425742669808981 0.00029704856166735673 0 0.034321124077985578 0.00039896380308644425 0 0.034321124077985578 0.00039896380308644425 0 0.03418372365227889 0.0005338252129231956 0 0.034102234796541196 0.00048032808282701025 0 0.03418372365227889 0.0005338252129231956 0 0.034033330882044327 0.00055631852911013449 0 0.034102234796541196 0.00048032808282701025 0 0.034234756982612503 0.00039342589007541461 0 0.034321124077985578 0.00039896380308644425 0 0.034102234796541196 0.00048032808282701025 0 0.034102234796541196 0.00048032808282701025 0 0.034010948884768723 0.00047225110855434854 0 0.033874265953995918 0.00056349106562705354 0 0.034234756982612503 0.00039342589007541461 0 0.034102234796541196 0.00048032808282701025 0 0.034010948884768723 0.00047225110855434854 0 0.034033330882044327 0.00055631852911013449 0 0.034102234796541196 0.00048032808282701025 0 0.033874265953995918 0.00056349106562705354 0 0.034033330882044327 0.00055631852911013449 0 0.033874265953995918 0.00056349106562705354 0 0.03353005524064348 0.00080855109954302087 0 0.034010948884768723 0.00047225110855434854 0 0.033874265953995918 0.00056349106562705354 0 0.03365001248460741 0.0006405575633506497 0 0.033874265953995918 0.00056349106562705354 0 0.03353005524064348 0.00080855109954302087 0 0.03365001248460741 0.0006405575633506497 0 0.034010948884768723 0.00047225110855434854 0 0.03365001248460741 0.0006405575633506497 0 0.034053861322450175 0.00050774399545200593 0 0.034632170702860211 0.00022433042174556123 0 0.034227134598484837 0.00047820317522026534 0 0.034626223205273768 0.0004455250342556678 0 0.034951709950200034 0.00021272510163284752 0 0.034632170702860211 0.00022433042174556123 0 0.034626223205273768 0.0004455250342556678 0 0.034632170702860211 0.00022433042174556123 0 0.034321124077985578 0.00039896380308644425 0 0.034227134598484837 0.00047820317522026534 0 0.034632170702860211 0.00022433042174556123 0 0.034668090740701256 0.00016800432381484408 0 0.034321124077985578 0.00039896380308644425 0 0.034321124077985578 0.00039896380308644425 0 0.03418372365227889 0.0005338252129231956 0 0.034227134598484837 0.00047820317522026534 0 0.03418372365227889 0.0005338252129231956 0 0.034227134598484837 0.00047820317522026534 0 0.033771783786202075 0.00050536171201701226 0 0.032525102294430341 0.0011422471028211944 0 0.033771783786202075 0.00050536171201701226 0 0.03236613264459446 0.00049890962729904058 0 0.034227134598484837 0.00047820317522026534 0 0.034626223205273768 0.0004455250342556678 0 0.033771783786202075 0.00050536171201701226 0 0.033621698603654257 0.00071275467181811949 0 0.03379677888409139 0.00048220923580508248 0 0.032717655504042334 -3.100023143443837e-06 0 0.033771783786202075 0.00050536171201701226 0 0.03236613264459446 0.00049890962729904058 0 0.032717655504042334 -3.100023143443837e-06 0 0.033771783786202075 0.00050536171201701226 0 0.033479664199318512 -6.2895494660902397e-06 0 0.033771783786202075 0.00050536171201701226 0 0.033479664199318512 -6.2895494660902397e-06 0 0.034280558402082814 0.00036825845267209165 0 0.03418372365227889 0.0005338252129231956 0 0.033771783786202075 0.00050536171201701226 0 0.034280558402082814 0.00036825845267209165 0 0.031378091134597837 -0.00025303261612480508 0 0.032557769225912796 0.00057635284258675311 0 0.033250347681185004 -0.00063415884626507506 0 0.033479664199318512 -6.2895494660902397e-06 0 0.034280558402082814 0.00036825845267209165 0 0.030433312137587459 0.00026969945949174086 0 0.02941235486744562 7.6956407411751741e-05 0 0.030921432262820039 0.00096574642732059196 0 0.030433312137587459 0.00026969945949174086 0 0.02941235486744562 7.6956407411751741e-05 0 0.029568631527325587 1.6972699726468414e-05 0 0.033250347681185004 -0.00063415884626507506 0 0.032796773463603809 -0.00031195305505395983 0 0.032288285181827088 -0.00060227895741013417 0 0.032717655504042334 -3.100023143443837e-06 0 0.032796773463603809 -0.00031195305505395983 0 0.032311158041153462 -0.00028368030257546725 0 0.033250347681185004 -0.00063415884626507506 0 0.032796773463603809 -0.00031195305505395983 0 0.033479664199318512 -6.2895494660902397e-06 0 0.032717655504042334 -3.100023143443837e-06 0 0.032796773463603809 -0.00031195305505395983 0 0.033479664199318512 -6.2895494660902397e-06 0 0.03353005524064348 0.00080855109954302087 0 0.032580350756101426 0.00070986285069107587 0 0.030921432262820039 0.00096574642732059196 0 0.03353005524064348 0.00080855109954302087 0 0.03365001248460741 0.0006405575633506497 0 0.03343787444917317 0.00066291096193571474 0 0.03353005524064348 0.00080855109954302087 0 0.033128763418762579 0.00064141633000543684 0 0.032580350756101426 0.00070986285069107587 0 0.033128763418762579 0.00064141633000543684 0 0.032580350756101426 0.00070986285069107587 0 0.032418829766085025 0.00049671927614839166 0 0.033347224808367056 0.00078641972012251729 0 0.032557769225912796 0.00057635284258675311 0 0.032580350756101426 0.00070986285069107587 0 0.030921432262820039 0.00096574642732059196 0 0.032418829766085025 0.00049671927614839166 0 0.034033330882044327 0.00055631852911013449 0 0.03353005524064348 0.00080855109954302087 0 0.034280558402082814 0.00036825845267209165 0 0.03418372365227889 0.0005338252129231956 0 0.034033330882044327 0.00055631852911013449 0 0.034280558402082814 0.00036825845267209165 0 0.030921432262820039 0.00096574642732059196 0 0.03172397043610712 0.00014328370298648556 0 0.032418829766085025 0.00049671927614839166 0 0.030433312137587459 0.00026969945949174086 0 0.030921432262820039 0.00096574642732059196 0 0.03172397043610712 0.00014328370298648556 0 0.030433312137587459 0.00026969945949174086 0 0.03172397043610712 0.00014328370298648556 0 0.03107436652719258 -0.00019053057787909861 0 0.033128763418762579 0.00064141633000543684 0 0.032418829766085025 0.00049671927614839166 0 0.032629248884934195 2.9353009565705299e-05 0 0.03172397043610712 0.00014328370298648556 0 0.032418829766085025 0.00049671927614839166 0 0.032629248884934195 2.9353009565705299e-05 0 0.031908224476851536 -0.00060732059011179651 0 0.033113983354721661 -0.00037136655739358125 0 0.032851817113456916 -0.0013859129539278924 0 0.032629248884934195 2.9353009565705299e-05 0 0.031908224476851536 -0.00060732059011179651 0 0.033113983354721661 -0.00037136655739358125 0 0.03172397043610712 0.00014328370298648556 0 0.032629248884934195 2.9353009565705299e-05 0 0.031908224476851536 -0.00060732059011179651 0 0.031908224476851536 -0.00060732059011179651 0 0.03107436652719258 -0.00019053057787909861 0 0.030117946503021419 -0.00075971616710198721 0 0.03172397043610712 0.00014328370298648556 0 0.031908224476851536 -0.00060732059011179651 0 0.03107436652719258 -0.00019053057787909861 0 0.03107436652719258 -0.00019053057787909861 0 0.030289472822154866 -0.00016203351529418917 0 0.030117946503021419 -0.00075971616710198721 0 0.030433312137587459 0.00026969945949174086 0 0.03107436652719258 -0.00019053057787909861 0 0.030289472822154866 -0.00016203351529418917 0 0.031908224476851536 -0.00060732059011179651 0 0.030953077787521741 -0.0019787870679126504 0 0.030117946503021419 -0.00075971616710198721 0 0.031908224476851536 -0.00060732059011179651 0 0.030953077787521741 -0.0019787870679126504 0 0.032851817113456916 -0.0013859129539278924 0 0.029119837483349422 -0.0018659636493331235 0 0.029942727354235133 -0.0015831304059845744 0 0.029447821807197884 -2.8299864496625271e-05 0 0.028596051779902223 -0.00053738444921623541 0 0.02941235486744562 7.6956407411751741e-05 0 0.029731017025666235 -0.00033376595116837754 0 0.029892171488968781 -0.00049822857208512306 0 0.031378091134597837 -0.00025303261612480508 0 0.030863346405579091 -0.00077350968183551917 0 0.02941235486744562 7.6956407411751741e-05 0 0.029568631527325587 1.6972699726468414e-05 0 0.029731017025666235 -0.00033376595116837754 0 0.029568631527325587 1.6972699726468414e-05 0 0.028542077725925308 -0.00094204996345438217 0 0.027392542211426313 -0.00063966793625292503 0 0.029568631527325587 1.6972699726468414e-05 0 0.030117946503021419 -0.00075971616710198721 0 0.028542077725925308 -0.00094204996345438217 0 0.029568631527325587 1.6972699726468414e-05 0 0.030289472822154866 -0.00016203351529418917 0 0.030117946503021419 -0.00075971616710198721 0 0.030433312137587459 0.00026969945949174086 0 0.029568631527325587 1.6972699726468414e-05 0 0.030289472822154866 -0.00016203351529418917 0 0.030953077787521741 -0.0019787870679126504 0 0.030117946503021419 -0.00075971616710198721 0 0.027917827826862005 -0.00183382164920643 0 0.030117946503021419 -0.00075971616710198721 0 0.028542077725925308 -0.00094204996345438217 0 0.027917827826862005 -0.00183382164920643 0 0.028542077725925308 -0.00094204996345438217 0 0.027680990796729456 -0.0012639249315297301 0 0.027917827826862005 -0.00183382164920643 0 0.028542077725925308 -0.00094204996345438217 0 0.027680990796729456 -0.0012639249315297301 0 0.027392542211426313 -0.00063966793625292503 0 0.027327025358996587 -0.0011976541943762126 0 0.027043904196273456 -0.0012712348467200086 0 0.027208347713124904 -0.0014657752601744236 0 0.028596051779902223 -0.00053738444921623541 0 0.028502701623694435 -0.0011177587895767158 0 0.027680990796729456 -0.0012639249315297301 0 0.027327025358996587 -0.0011976541943762126 0 0.027208347713124904 -0.0014657752601744236 0 0.029731017025666235 -0.00033376595116837754 0 0.029892171488968781 -0.00049822857208512306 0 0.030254957428254535 -0.00092373491609951889 0 0.027043904196273456 -0.0012712348467200086 0 0.027392542211426313 -0.00063966793625292503 0 0.026784271475450701 -0.0013371472579986356 0 0.027680990796729456 -0.0012639249315297301 0 0.027327025358996587 -0.0011976541943762126 0 0.027392542211426313 -0.00063966793625292503 0 0.027327025358996587 -0.0011976541943762126 0 0.027043904196273456 -0.0012712348467200086 0 0.027392542211426313 -0.00063966793625292503 0 0.033250347681185004 -0.00063415884626507506 0 0.03175874453759768 -0.0011546654634371739 0 0.032288285181827088 -0.00060227895741013417 0 0.03175874453759768 -0.0011546654634371739 0 0.031765363505120513 -0.00070662233107184351 0 0.031438786950881294 -0.00077301949705491546 0 0.031765363505120513 -0.00070662233107184351 0 0.031438786950881294 -0.00077301949705491546 0 0.031460485104643665 -0.0005231769329202611 0 0.03175874453759768 -0.0011546654634371739 0 0.031765363505120513 -0.00070662233107184351 0 0.032288285181827088 -0.00060227895741013417 0 0.03175874453759768 -0.0011546654634371739 0 0.031162706407775263 -0.00087029106799728188 0 0.030822007188623417 -0.00096285625751139285 0 0.031115299299211783 -0.00066559500157178984 0 0.030799981901303064 -0.00078576139194635347 0 0.030784549110657172 -0.00056267995895852756 0 0.031115299299211783 -0.00066559500157178984 0 0.031162706407775263 -0.00087029106799728188 0 0.030799981901303064 -0.00078576139194635347 0 0.031115299299211783 -0.00066559500157178984 0 0.031438786950881294 -0.00077301949705491546 0 0.031460485104643665 -0.0005231769329202611 0 0.031115299299211783 -0.00066559500157178984 0 0.031438786950881294 -0.00077301949705491546 0 0.031162706407775263 -0.00087029106799728188 0 0.03175874453759768 -0.0011546654634371739 0 0.031438786950881294 -0.00077301949705491546 0 0.031162706407775263 -0.00087029106799728188 0 0.030799981901303064 -0.00078576139194635347 0 0.030822007188623417 -0.00096285625751139285 0 0.030498835308831664 -0.00088236947762853279 0 0.031162706407775263 -0.00087029106799728188 0 0.030799981901303064 -0.00078576139194635347 0 0.030822007188623417 -0.00096285625751139285 0 0.030863346405579091 -0.00077350968183551917 0 0.030422617771668835 -0.001039212883868078 0 0.029892171488968781 -0.00049822857208512306 0 0.030254957428254535 -0.00092373491609951889 0 0.030322591631471888 -0.0010856315796527734 0 0.030822007188623417 -0.00096285625751139285 0 0.030322591631471888 -0.0010856315796527734 0 0.030448896083451964 -0.00098037374920307511 0 0.03175874453759768 -0.0011546654634371739 0 0.030822007188623417 -0.00096285625751139285 0 0.030322591631471888 -0.0010856315796527734 0 0.027043904196273456 -0.0012712348467200086 0 0.026784271475450701 -0.0013371472579986356 0 0.026903470550780774 -0.0014386784825485596 0 0.028502701623694435 -0.0011177587895767158 0 0.028601304138546613 -0.0013966230804434796 0 0.030254957428254535 -0.00092373491609951889 0 0.030322591631471888 -0.0010856315796527734 0 0.030140137399091934 -0.0012638256613541827 0 0.030322591631471888 -0.0010856315796527734 0 0.030243134243728008 -0.00096452801569187703 0 0.030140137399091934 -0.0012638256613541827 0 0.030243134243728008 -0.00096452801569187703 0 0.029969521718802006 -0.00074399760524448575 0 0.030304816118728404 -0.00081294204504737478 0 0.030322591631471888 -0.0010856315796527734 0 0.030243134243728008 -0.00096452801569187703 0 0.030448896083451964 -0.00098037374920307511 0 0.030243134243728008 -0.00096452801569187703 0 0.030448896083451964 -0.00098037374920307511 0 0.030498835308831664 -0.00088236947762853279 0 0.030822007188623417 -0.00096285625751139285 0 0.030448896083451964 -0.00098037374920307511 0 0.030498835308831664 -0.00088236947762853279 0 0.030243134243728008 -0.00096452801569187703 0 0.030498835308831664 -0.00088236947762853279 0 0.030304816118728404 -0.00081294204504737478 0 0.030243134243728008 -0.00096452801569187703 0 0.029609451379022989 -0.00090010084797693013 0 0.030140137399091934 -0.0012638256613541827 0 0.030243134243728008 -0.00096452801569187703 0 0.029609451379022989 -0.00090010084797693013 0 0.029969521718802006 -0.00074399760524448575 0 0.029595857604960692 -0.00071671981272624708 0 0.029609451379022989 -0.00090010084797693013 0 0.029969521718802006 -0.00074399760524448575 0 0.029595857604960692 -0.00071671981272624708 0 0.029969521718802006 -0.00074399760524448575 0 0.030026478962720156 -0.00053473397137983195 0 0.029969521718802006 -0.00074399760524448575 0 0.030026478962720156 -0.00053473397137983195 0 0.030214962211902452 -0.0006668186692909637 0 0.030026478962720156 -0.00053473397137983195 0 0.030214962211902452 -0.0006668186692909637 0 0.030329211739531046 -0.0005285991201067719 0 0.030026478962720156 -0.00053473397137983195 0 0.030329211739531046 -0.0005285991201067719 0 0.030264151826254165 -0.00042076464037400785 0 0.029595857604960692 -0.00071671981272624708 0 0.029751268031316037 -0.00055865474450920722 0 0.030026478962720156 -0.00053473397137983195 0 0.029751268031316037 -0.00055865474450920722 0 0.030026478962720156 -0.00053473397137983195 0 0.029945955926234648 -0.00040436041609089675 0 0.030799981901303064 -0.00078576139194635347 0 0.030498835308831664 -0.00088236947762853279 0 0.030465789243323084 -0.00069330543462395658 0 0.030498835308831664 -0.00088236947762853279 0 0.030304816118728404 -0.00081294204504737478 0 0.030465789243323084 -0.00069330543462395658 0 0.029969521718802006 -0.00074399760524448575 0 0.030304816118728404 -0.00081294204504737478 0 0.030214962211902452 -0.0006668186692909637 0 0.030304816118728404 -0.00081294204504737478 0 0.030214962211902452 -0.0006668186692909637 0 0.030465789243323084 -0.00069330543462395658 0 0.030214962211902452 -0.0006668186692909637 0 0.030329211739531046 -0.0005285991201067719 0 0.030465789243323084 -0.00069330543462395658 0 0.030329211739531046 -0.0005285991201067719 0 0.030465789243323084 -0.00069330543462395658 0 0.030567294829842374 -0.00048560196848864275 0 0.030799981901303064 -0.00078576139194635347 0 0.030465789243323084 -0.00069330543462395658 0 0.030784549110657172 -0.00056267995895852756 0 0.030465789243323084 -0.00069330543462395658 0 0.030784549110657172 -0.00056267995895852756 0 0.030567294829842374 -0.00048560196848864275 0 0.030784549110657172 -0.00056267995895852756 0 0.030780774123959714 -0.00032982120116134382 0 0.030567294829842374 -0.00048560196848864275 0 0.030780774123959714 -0.00032982120116134382 0 0.030567294829842374 -0.00048560196848864275 0 0.030497461135478382 -0.00030799673442515881 0 0.030329211739531046 -0.0005285991201067719 0 0.030497461135478382 -0.00030799673442515881 0 0.030264151826254165 -0.00042076464037400785 0 0.030329211739531046 -0.0005285991201067719 0 0.030567294829842374 -0.00048560196848864275 0 0.030497461135478382 -0.00030799673442515881 0 0.030497461135478382 -0.00030799673442515881 0 0.030756115544299266 -8.5761680198800179e-05 0 0.030455637933821732 -0.00013449626528498716 0 0.030780774123959714 -0.00032982120116134382 0 0.030497461135478382 -0.00030799673442515881 0 0.030756115544299266 -8.5761680198800179e-05 0 0.030780774123959714 -0.00032982120116134382 0 0.030756115544299266 -8.5761680198800179e-05 0 0.031089949083276436 -0.00011028403342895092 0 0.030026478962720156 -0.00053473397137983195 0 0.029945955926234648 -0.00040436041609089675 0 0.030214753373088564 -0.00030948449886720574 0 0.030026478962720156 -0.00053473397137983195 0 0.030264151826254165 -0.00042076464037400785 0 0.030214753373088564 -0.00030948449886720574 0 0.030497461135478382 -0.00030799673442515881 0 0.030264151826254165 -0.00042076464037400785 0 0.030214753373088564 -0.00030948449886720574 0 0.030497461135478382 -0.00030799673442515881 0 0.030455637933821732 -0.00013449626528498716 0 0.030214753373088564 -0.00030948449886720574 0 0.030455637933821732 -0.00013449626528498716 0 0.030269845144641112 -0.00015562778933607386 0 0.030214753373088564 -0.00030948449886720574 0 0.029945955926234648 -0.00040436041609089675 0 0.030214753373088564 -0.00030948449886720574 0 0.030102343114626035 -0.00025682759995882448 0 0.030269845144641112 -0.00015562778933607386 0 0.030214753373088564 -0.00030948449886720574 0 0.030102343114626035 -0.00025682759995882448 0 0.030269845144641112 -0.00015562778933607386 0 0.030102343114626035 -0.00025682759995882448 0 0.030159281298418928 -0.00010870012599620583 0 0.029940554417482952 -0.00029472462667421871 0 0.030102343114626035 -0.00025682759995882448 0 0.030159281298418928 -0.00010870012599620583 0 0.029940554417482952 -0.00029472462667421871 0 0.029945955926234648 -0.00040436041609089675 0 0.030102343114626035 -0.00025682759995882448 0 0.030269845144641112 -0.00015562778933607386 0 0.030159281298418928 -0.00010870012599620583 0 0.030429710346587393 4.1214172476734503e-05 0 0.030159281298418928 -0.00010870012599620583 0 0.030429710346587393 4.1214172476734503e-05 0 0.030284722557465997 5.9807949897792177e-05 0 0.030455637933821732 -0.00013449626528498716 0 0.030269845144641112 -0.00015562778933607386 0 0.030429710346587393 4.1214172476734503e-05 0 0.030429710346587393 4.1214172476734503e-05 0 0.030599848533817378 0.00025516632166359488 0 0.030431850970345394 0.00023689649550535986 0 0.030429710346587393 4.1214172476734503e-05 0 0.030599848533817378 0.00025516632166359488 0 0.030714361228809925 0.00015489331628623659 0 0.030429710346587393 4.1214172476734503e-05 0 0.030284722557465997 5.9807949897792177e-05 0 0.030431850970345394 0.00023689649550535986 0 0.030323240680836874 0.00024794924571757597 0 0.030284722557465997 5.9807949897792177e-05 0 0.030431850970345394 0.00023689649550535986 0 0.030157146322746846 4.5279764167849947e-05 0 0.030323240680836874 0.00024794924571757597 0 0.030284722557465997 5.9807949897792177e-05 0 0.030157146322746846 4.5279764167849947e-05 0 0.030159281298418928 -0.00010870012599620583 0 0.030284722557465997 5.9807949897792177e-05 0 0.030756115544299266 -8.5761680198800179e-05 0 0.031068646876101755 0.0001925149931755315 0 0.031089949083276436 -0.00011028403342895092 0 0.030756115544299266 -8.5761680198800179e-05 0 0.030714361228809925 0.00015489331628623659 0 0.031068646876101755 0.0001925149931755315 0 0.030756115544299266 -8.5761680198800179e-05 0 0.030455637933821732 -0.00013449626528498716 0 0.030714361228809925 0.00015489331628623659 0 0.030455637933821732 -0.00013449626528498716 0 0.030429710346587393 4.1214172476734503e-05 0 0.030714361228809925 0.00015489331628623659 0 0.031040721290731342 0.00047049986308486907 0 0.03077837308701048 0.00039727139306425946 0 0.030714361228809925 0.00015489331628623659 0 0.03077837308701048 0.00039727139306425946 0 0.030599848533817378 0.00025516632166359488 0 0.030714361228809925 0.00015489331628623659 0 0.031040721290731342 0.00047049986308486907 0 0.030714361228809925 0.00015489331628623659 0 0.031068646876101755 0.0001925149931755315 0 0.031435510996054385 0.00051504769367434402 0 0.031068646876101755 0.0001925149931755315 0 0.031437074152784461 0.00013354903620457282 0 0.031040721290731342 0.00047049986308486907 0 0.031435510996054385 0.00051504769367434402 0 0.031068646876101755 0.0001925149931755315 0 0.031068646876101755 0.0001925149931755315 0 0.031437074152784461 0.00013354903620457282 0 0.031089949083276436 -0.00011028403342895092 0 0.031437074152784461 0.00013354903620457282 0 0.031938039825009333 1.6935652933481194e-05 0 0.031467370517150706 -0.00019339368573962888 0 0.031435510996054385 0.00051504769367434402 0 0.031437074152784461 0.00013354903620457282 0 0.031783293140485488 0.00036339266784684226 0 0.031783293140485488 0.00036339266784684226 0 0.03236613264459446 0.00049890962729904058 0 0.031938039825009333 1.6935652933481194e-05 0 0.032717655504042334 -3.100023143443837e-06 0 0.03236613264459446 0.00049890962729904058 0 0.031938039825009333 1.6935652933481194e-05 0 0.031437074152784461 0.00013354903620457282 0 0.031783293140485488 0.00036339266784684226 0 0.031938039825009333 1.6935652933481194e-05 0 0.031938039825009333 1.6935652933481194e-05 0 0.031863599180549332 -0.00038300780332694044 0 0.031467370517150706 -0.00019339368573962888 0 0.032717655504042334 -3.100023143443837e-06 0 0.031938039825009333 1.6935652933481194e-05 0 0.032311158041153462 -0.00028368030257546725 0 0.031938039825009333 1.6935652933481194e-05 0 0.032311158041153462 -0.00028368030257546725 0 0.031863599180549332 -0.00038300780332694044 0 0.032796773463603809 -0.00031195305505395983 0 0.032311158041153462 -0.00028368030257546725 0 0.032288285181827088 -0.00060227895741013417 0 0.032311158041153462 -0.00028368030257546725 0 0.032288285181827088 -0.00060227895741013417 0 0.031863599180549332 -0.00038300780332694044 0 0.031765363505120513 -0.00070662233107184351 0 0.031863599180549332 -0.00038300780332694044 0 0.031460485104643665 -0.0005231769329202611 0 0.031863599180549332 -0.00038300780332694044 0 0.031460485104643665 -0.0005231769329202611 0 0.031467370517150706 -0.00019339368573962888 0 0.031765363505120513 -0.00070662233107184351 0 0.032288285181827088 -0.00060227895741013417 0 0.031863599180549332 -0.00038300780332694044 0 0.031460485104643665 -0.0005231769329202611 0 0.031100758382988269 -0.00039153803893137367 0 0.031467370517150706 -0.00019339368573962888 0 0.031115299299211783 -0.00066559500157178984 0 0.031460485104643665 -0.0005231769329202611 0 0.031100758382988269 -0.00039153803893137367 0 0.031115299299211783 -0.00066559500157178984 0 0.030784549110657172 -0.00056267995895852756 0 0.031100758382988269 -0.00039153803893137367 0 0.030784549110657172 -0.00056267995895852756 0 0.030780774123959714 -0.00032982120116134382 0 0.031100758382988269 -0.00039153803893137367 0 0.030780774123959714 -0.00032982120116134382 0 0.031100758382988269 -0.00039153803893137367 0 0.031089949083276436 -0.00011028403342895092 0 0.031100758382988269 -0.00039153803893137367 0 0.031089949083276436 -0.00011028403342895092 0 0.031467370517150706 -0.00019339368573962888 0 0.031437074152784461 0.00013354903620457282 0 0.031089949083276436 -0.00011028403342895092 0 0.031467370517150706 -0.00019339368573962888 0 0.031427897666581786 1.5464655927881526e-06 0 0.030306717094827688 7.4916290461881502e-05 0 0.030399254684492682 -1.1479956363064509e-06 0 0.031433143249433387 1.1445733767633149e-07 0 0.031839684046435682 0.00012540533910053455 0 0.030306717094827688 7.4916290461881502e-05 0 0.03022475202872282 0.00016941907412704836 0 0.030399254684492682 -1.1479956363064509e-06 0 0.030306717094827688 7.4916290461881502e-05 0 0.030202750008482545 0.00028645961451123923 0 0.03022475202872282 0.00016941907412704836 0 0.033360330734301412 0.00032716394953666381 0 0.03396362365831123 -7.9268236127774899e-05 0 0.033709928600365667 -4.2737865535456506e-05 0 0.031438973377788927 1.2916738192467958e-06 0 0.033360330734301412 0.00032716394953666381 0 0.03396362365831123 -7.9268236127774899e-05 0 0.034996947942269846 -7.7061614061151541e-07 0 0.03396362365831123 -7.9268236127774899e-05 0 0.034999822839109219 1.970627549654006e-08 0 0.031438973377788927 1.2916738192467958e-06 0 0.034996947942269846 -7.7061614061151541e-07 0 0.03396362365831123 -7.9268236127774899e-05 0 0.03396362365831123 -7.9268236127774899e-05 0 0.03353834777868242 0.00017250167860254024 0 0.033709928600365667 -4.2737865535456506e-05 0 0.034020164105645338 -3.0414100694745508e-05 0 0.03413427215270802 7.8468005647084059e-05 0 0.03396362365831123 -7.9268236127774899e-05 0 0.034712177060239109 8.428486230158648e-05 0 0.034999822839109219 1.970627549654006e-08 0 0.03353834777868242 0.00017250167860254024 0 0.033463557951370328 8.4695230288715697e-05 0 0.033709928600365667 -4.2737865535456506e-05 0 0.03413427215270802 7.8468005647084059e-05 0 0.034370401854475888 3.5578230810398379e-05 0 0.034712177060239109 8.428486230158648e-05 0 0.034999822839109219 1.970627549654006e-08 0 0.034999903732911661 1.9200261934726888e-05 0 0.03353834777868242 0.00017250167860254024 0 0.033537853010601172 0.00013873396679140484 0 0.033728232926285934 -3.1438737858616762e-05 0 0.03353834777868242 0.00017250167860254024 0 0.033537853010601172 0.00013873396679140484 0 0.033463557951370328 8.4695230288715697e-05 0 0.033537853010601172 0.00013873396679140484 0 0.033463557951370328 8.4695230288715697e-05 0 0.033356373757963957 7.2086849384174405e-05 0 0.033277156765252308 -4.7029428127554214e-05 0 0.033662885275208061 -0.00010017899172827805 0 0.032479818338749092 -0.00040859621347372557 0 0.033356373757963957 7.2086849384174405e-05 0 0.033277156765252308 -4.7029428127554214e-05 0 0.033088495278121306 -9.5616108262837199e-05 0 0.033277156765252308 -4.7029428127554214e-05 0 0.032479818338749092 -0.00040859621347372557 0 0.033088495278121306 -9.5616108262837199e-05 0 0.033463557951370328 8.4695230288715697e-05 0 0.033356373757963957 7.2086849384174405e-05 0 0.033277156765252308 -4.7029428127554214e-05 0 0.033463557951370328 8.4695230288715697e-05 0 0.033277156765252308 -4.7029428127554214e-05 0 0.033709928600365667 -4.2737865535456506e-05 0 0.033360330734301412 0.00032716394953666381 0 0.033709928600365667 -4.2737865535456506e-05 0 0.033662885275208061 -0.00010017899172827805 0 0.033277156765252308 -4.7029428127554214e-05 0 0.033709928600365667 -4.2737865535456506e-05 0 0.033662885275208061 -0.00010017899172827805 0 0.030306717094827688 7.4916290461881502e-05 0 0.030537738313602156 -0.00027384338609419358 0 0.030202750008482545 0.00028645961451123923 0 0.031839684046435682 0.00012540533910053455 0 0.032097945554687708 -0.00016376710867588507 0 0.030537738313602156 -0.00027384338609419358 0 0.031427301149636384 0.00031510855840404287 0 0.030202750008482545 0.00028645961451123923 0 0.032097945554687708 -0.00016376710867588507 0 0.032427527067921721 -0.00035832392643848871 0 0.030537738313602156 -0.00027384338609419358 0 0.031427301149636384 0.00031510855840404287 0 0.032479818338749092 -0.00040859621347372557 0 0.033567414031892263 8.254292243646144e-05 0 0.032694644285833248 0.00045627810695386152 0 0.034311766256999554 0.00048916733173978342 0 0.034234398721798683 0.00050732387813852669 0 0.03428360316699277 0.00052112444963293113 0 0.031427301149636384 0.00031510855840404287 0 0.032479818338749092 -0.00040859621347372557 0 0.032393053732248954 0.00081050613428768775 0 0.032479818338749092 -0.00040859621347372557 0 0.03270456490459403 -0.00039302548045277747 0 0.032393053732248954 0.00081050613428768775 0 0.034311766256999554 0.00048916733173978342 0 0.034303662180209638 0.00047512748039789388 0 0.034234398721798683 0.00050732387813852669 0 0.034311766256999554 0.00048916733173978342 0 0.034351679820284413 0.00047819317888950214 0 0.034370838010590821 0.00038697993355528616 0 0.034311766256999554 0.00048916733173978342 0 0.034351679820284413 0.00047819317888950214 0 0.034303662180209638 0.00047512748039789388 0 0.034351679820284413 0.00047819317888950214 0 0.034303662180209638 0.00047512748039789388 0 0.034441918875469019 0.00041643982839024643 0 0.034303662180209638 0.00047512748039789388 0 0.034291007355433598 0.00041494256381400011 0 0.034441918875469019 0.00041643982839024643 0 0.033567414031892263 8.254292243646144e-05 0 0.033768887294836299 0.00011584489262481853 0 0.034291007355433598 0.00041494256381400011 0 0.034234398721798683 0.00050732387813852669 0 0.033871148843391263 0.00025043512819133463 0 0.03270456490459403 -0.00039302548045277747 0 0.033088495278121306 -9.5616108262837199e-05 0 0.033871148843391263 0.00025043512819133463 0 0.034303662180209638 0.00047512748039789388 0 0.034291007355433598 0.00041494256381400011 0 0.034234398721798683 0.00050732387813852669 0 0.032479818338749092 -0.00040859621347372557 0 0.03270456490459403 -0.00039302548045277747 0 0.033088495278121306 -9.5616108262837199e-05 0 0.034999822839109219 1.970627549654006e-08 0 0.034999903732911661 1.9200261934726888e-05 0 0.035000099980797859 1.2997977380951256e-08 0 0.033537853010601172 0.00013873396679140484 0 0.033356373757963957 7.2086849384174405e-05 0 0.033871148843391263 0.00025043512819133463 0 0.033356373757963957 7.2086849384174405e-05 0 0.033088495278121306 -9.5616108262837199e-05 0 0.033871148843391263 0.00025043512819133463 0 0.033537853010601172 0.00013873396679140484 0 0.033871148843391263 0.00025043512819133463 0 0.033728232926285934 -3.1438737858616762e-05 0 0.033871148843391263 0.00025043512819133463 0 0.033728232926285934 -3.1438737858616762e-05 0 0.034997815235279083 -7.7377897039989585e-07 0 0.034370401854475888 3.5578230810398379e-05 0 0.03499969024532542 -8.6790674822100759e-09 0 0.034997815235279083 -7.7377897039989585e-07 0 0.034502857541648412 0.00025037770196372774 0 0.034707449304951503 0.0001752267781048074 0 0.033871148843391263 0.00025043512819133463 0 0.034997815235279083 -7.7377897039989585e-07 0 0.034502857541648412 0.00025037770196372774 0 0.034291007355433598 0.00041494256381400011 0 0.033871148843391263 0.00025043512819133463 0 0.034502857541648412 0.00025037770196372774 0 0.034291007355433598 0.00041494256381400011 0 0.034502857541648412 0.00025037770196372774 0 0.034441918875469019 0.00041643982839024643 0 0.034502857541648412 0.00025037770196372774 0 0.034707449304951503 0.0001752267781048074 0 0.034441918875469019 0.00041643982839024643 0 0.034707449304951503 0.0001752267781048074 0 0.034522319351660835 0.00030537614519928364 0 0.034441918875469019 0.00041643982839024643 0 0.034997815235279083 -7.7377897039989585e-07 0 0.034707449304951503 0.0001752267781048074 0 0.034999931894237876 4.0192804490733158e-07 0 0.034707449304951503 0.0001752267781048074 0 0.034764997993108164 0.00013906202530127013 0 0.034999931894237876 4.0192804490733158e-07 0 0.034999404582104925 5.5362562634107139e-08 0 0.034764997993108164 0.00013906202530127013 0 0.034999931894237876 4.0192804490733158e-07 0 0.034536355319552306 0.00024713490315876163 0 0.034522319351660835 0.00030537614519928364 0 0.034323565628684098 0.00038899502276964869 0 0.034707449304951503 0.0001752267781048074 0 0.034764997993108164 0.00013906202530127013 0 0.034522319351660835 0.00030537614519928364 0 0.034536355319552306 0.00024713490315876163 0 0.034764997993108164 0.00013906202530127013 0 0.034522319351660835 0.00030537614519928364 0 0.034323565628684098 0.00038899502276964869 0 0.034281922952414813 0.00046614015109391459 0 0.034053861322450175 0.00050774399545200593 0 0.034522319351660835 0.00030537614519928364 0 0.034323565628684098 0.00038899502276964869 0 0.034281922952414813 0.00046614015109391459 0 0.034522319351660835 0.00030537614519928364 0 0.034281922952414813 0.00046614015109391459 0 0.034441918875469019 0.00041643982839024643 0 0.034281922952414813 0.00046614015109391459 0 0.034441918875469019 0.00041643982839024643 0 0.034321891180075378 0.00049023827947779815 0 0.034351679820284413 0.00047819317888950214 0 0.034441918875469019 0.00041643982839024643 0 0.034321891180075378 0.00049023827947779815 0 0.034351679820284413 0.00047819317888950214 0 0.034321891180075378 0.00049023827947779815 0 0.034370838010590821 0.00038697993355528616 0 0.034321891180075378 0.00049023827947779815 0 0.034141400376610662 0.00053272021970672166 0 0.034370838010590821 0.00038697993355528616 0 0.03365001248460741 0.0006405575633506497 0 0.034053861322450175 0.00050774399545200593 0 0.034141400376610662 0.00053272021970672166 0 0.03365001248460741 0.0006405575633506497 0 0.034141400376610662 0.00053272021970672166 0 0.034370838010590821 0.00038697993355528616 0 0.033495190488852709 0.00064801032077343079 0 0.034416294853323821 0.00054741430920164007 0 0.034281922952414813 0.00046614015109391459 0 0.034053861322450175 0.00050774399545200593 0 0.034141400376610662 0.00053272021970672166 0 0.034281922952414813 0.00046614015109391459 0 0.034321891180075378 0.00049023827947779815 0 0.034141400376610662 0.00053272021970672166 0 0.03365001248460741 0.0006405575633506497 0 0.03343787444917317 0.00066291096193571474 0 0.033631288465643873 0.00072562377974954586 0 0.033128763418762579 0.00064141633000543684 0 0.03343787444917317 0.00066291096193571474 0 0.033202462564602943 0.00023391630126132391 0 0.03353005524064348 0.00080855109954302087 0 0.033128763418762579 0.00064141633000543684 0 0.03343787444917317 0.00066291096193571474 0 0.033631288465643873 0.00072562377974954586 0 0.033643754318146722 0.00012834189213409674 0 0.034114604780934595 0.00025460469375419029 0 0.03343787444917317 0.00066291096193571474 0 0.033631288465643873 0.00072562377974954586 0 0.033643754318146722 0.00012834189213409674 0 0.03343787444917317 0.00066291096193571474 0 0.033643754318146722 0.00012834189213409674 0 0.033202462564602943 0.00023391630126132391 0 0.033643754318146722 0.00012834189213409674 0 0.033202462564602943 0.00023391630126132391 0 0.033113983354721661 -0.00037136655739358125 0 0.033128763418762579 0.00064141633000543684 0 0.032629248884934195 2.9353009565705299e-05 0 0.033202462564602943 0.00023391630126132391 0 0.032629248884934195 2.9353009565705299e-05 0 0.033202462564602943 0.00023391630126132391 0 0.033113983354721661 -0.00037136655739358125 0 0.033113983354721661 -0.00037136655739358125 0 0.032851817113456916 -0.0013859129539278924 0 0.033868803511414546 -0.00083112811188593789 0 0.029942727354235133 -0.0015831304059845744 0 0.030660278633335834 -0.0013670635956831273 0 0.027088300454992442 -0.0017297575875770774 0 0.027059819308222266 -0.0016998603371260422 0 0.027081254700660896 -0.0017057354500666635 0 0.027146772418681107 -0.0017833843486717187 0 0.027088300454992442 -0.0017297575875770774 0 0.027081254700660896 -0.0017057354500666635 0 0.033643754318146722 0.00012834189213409674 0 0.033868803511414546 -0.00083112811188593789 0 0.034169128222735448 -0.00017869031976725191 0 0.033643754318146722 0.00012834189213409674 0 0.033113983354721661 -0.00037136655739358125 0 0.033868803511414546 -0.00083112811188593789 0 0.033868803511414546 -0.00083112811188593789 0 0.034592293760609037 -0.00053962530747102538 0 0.034169128222735448 -0.00017869031976725191 0 0.030660278633335834 -0.0013670635956831273 0 0.029866009687700687 -0.00033305851779413657 0 0.027088300454992442 -0.0017297575875770774 0 0.027063941255455751 -0.0017067132419260108 0 0.027059819308222266 -0.0016998603371260422 0 0.027088300454992442 -0.0017297575875770774 0 0.027063941255455751 -0.0017067132419260108 0 0.027076647430321413 -0.0017054654639905491 0 0.029866009687700687 -0.00033305851779413657 0 0.027636027473436027 -0.0012007932824946916 0 0.028719474497758267 -0.00038435392132320868 0 0.028771729591825813 -0.00034246275591879178 0 0.028662466715517084 -0.00042411106965029862 0 0.028771729591825813 -0.00034246275591879178 0 0.028767127781334532 -0.00026376799861410095 0 0.028662466715517084 -0.00042411106965029862 0 0.027063941255455751 -0.0017067132419260108 0 0.027076647430321413 -0.0017054654639905491 0 0.027032131679998767 -0.0016888065713587619 0 0.028801623428200168 -0.00024615089826287109 0 0.028882413208086929 0.00020915224272208551 0 0.0289857118889962 -0.00020536090590502726 0 0.029866009687700687 -0.00033305851779413657 0 0.031743792982223573 0.00015962020420660827 0 0.029866009687700687 -0.00033305851779413657 0 0.028915237718965345 -0.00037732824086376639 0 0.028771729591825813 -0.00034246275591879178 0 0.028767127781334532 -0.00026376799861410095 0 0.0289857118889962 -0.00020536090590502726 0 0.034592293760609037 -0.00053962530747102538 0 0.034592895332834883 1.8752427949290723e-05 0 0.034169128222735448 -0.00017869031976725191 0 0.031743792982223573 0.00015962020420660827 0 0.032694644285833248 0.00045627810695386152 0 0.028882413208086929 0.00020915224272208551 0 0.028951443735172926 0.000966627081997133 0 0.029432050121382631 0.00012045662466864372 0 0.028882413208086929 0.00020915224272208551 0 0.029432050121382631 0.00012045662466864372 0 0.0289857118889962 -0.00020536090590502726 0 0.034592895332834883 1.8752427949290723e-05 0 0.034114604780934595 0.00025460469375419029 0 0.034584187624651916 0.00058632451393896088 0 0.033643754318146722 0.00012834189213409674 0 0.034169128222735448 -0.00017869031976725191 0 0.034114604780934595 0.00025460469375419029 0 0.034592895332834883 1.8752427949290723e-05 0 0.034169128222735448 -0.00017869031976725191 0 0.034114604780934595 0.00025460469375419029 0 0.033631288465643873 0.00072562377974954586 0 0.034114604780934595 0.00025460469375419029 0 0.034584187624651916 0.00058632451393896088 0 0.034311766256999554 0.00048916733173978342 0 0.034370838010590821 0.00038697993355528616 0 0.03428360316699277 0.00052112444963293113 0 0.034416294853323821 0.00054741430920164007 0 0.032694644285833248 0.00045627810695386152 0 0.032694644285833248 0.00045627810695386152 0 0.029551720705680681 0.00090918285685487636 0 0.031427301149636384 0.00031510855840404287 0 0.032393053732248954 0.00081050613428768775 0 0.03028560414944248 0.00070092968143539562 0 0.028951443735172926 0.000966627081997133 0 0.03028560414944248 0.00070092968143539562 0 0.029432050121382631 0.00012045662466864372 0 0.031427301149636384 0.00031510855840404287 0 0.03028560414944248 0.00070092968143539562 0 0.030202750008482545 0.00028645961451123923 0 0.03028560414944248 0.00070092968143539562 0 0.030202750008482545 0.00028645961451123923 0 0.030021653366229039 0.00029146939620918459 0 0.03028560414944248 0.00070092968143539562 0 0.029652520124543551 9.7986004528372882e-05 0 0.030021653366229039 0.00029146939620918459 0 0.03028560414944248 0.00070092968143539562 0 0.029652520124543551 9.7986004528372882e-05 0 0.029432050121382631 0.00012045662466864372 0 0.029432050121382631 0.00012045662466864372 0 0.029227180286321441 -0.00013685249548458158 0 0.0289857118889962 -0.00020536090590502726 0 0.029652520124543551 9.7986004528372882e-05 0 0.029432050121382631 0.00012045662466864372 0 0.029227180286321441 -0.00013685249548458158 0 0.029227180286321441 -0.00013685249548458158 0 0.0289857118889962 -0.00020536090590502726 0 0.028729186238508498 -0.00036792751117643765 0 0.028771729591825813 -0.00034246275591879178 0 0.0289857118889962 -0.00020536090590502726 0 0.028729186238508498 -0.00036792751117643765 0 0.028719474497758267 -0.00038435392132320868 0 0.028771729591825813 -0.00034246275591879178 0 0.028729186238508498 -0.00036792751117643765 0 0.028729186238508498 -0.00036792751117643765 0 0.029486903128239934 -0.00023254912055089099 0 0.027894341744864923 -0.00034756244607098347 0 0.028335458012660679 -0.0002983773004372467 0 0.028007974749063781 -0.00029543693217533106 0 0.029227180286321441 -0.00013685249548458158 0 0.028729186238508498 -0.00036792751117643765 0 0.029486903128239934 -0.00023254912055089099 0 0.029652520124543551 9.7986004528372882e-05 0 0.029227180286321441 -0.00013685249548458158 0 0.029486903128239934 -0.00023254912055089099 0 0.029652520124543551 9.7986004528372882e-05 0 0.029486903128239934 -0.00023254912055089099 0 0.030021653366229039 0.00029146939620918459 0 0.027127460995303238 -0.00050310970767354591 0 0.027469495492497033 -0.00021825094668055233 0 0.027975529884588186 8.4187290662062031e-05 0 0.028335458012660679 -0.0002983773004372467 0 0.029096760309169103 1.3062528579037068e-05 0 0.027127460995303238 -0.00050310970767354591 0 0.026599914328468997 -9.1218017854557415e-07 0 0.026200206982326706 -0.00020336211448445312 0 0.027127460995303238 -0.00050310970767354591 0 0.026599914328468997 -9.1218017854557415e-07 0 0.027469495492497033 -0.00021825094668055233 0 0.026599914328468997 -9.1218017854557415e-07 0 0.027469495492497033 -0.00021825094668055233 0 0.028496882774945401 -3.2870656567622432e-07 0 0.027469495492497033 -0.00021825094668055233 0 0.028496882774945401 -3.2870656567622432e-07 0 0.027975529884588186 8.4187290662062031e-05 0 0.028496882774945401 -3.2870656567622432e-07 0 0.027975529884588186 8.4187290662062031e-05 0 0.030393387065618165 8.677377409152107e-07 0 0.030185412887605539 0.00016131881091381844 0 0.030021653366229039 0.00029146939620918459 0 0.03022475202872282 0.00016941907412704836 0 0.029486903128239934 -0.00023254912055089099 0 0.030185412887605539 0.00016131881091381844 0 0.030021653366229039 0.00029146939620918459 0 0.030202750008482545 0.00028645961451123923 0 0.030021653366229039 0.00029146939620918459 0 0.03022475202872282 0.00016941907412704836 0 0.029096760309169103 1.3062528579037068e-05 0 0.030394226601253464 -1.1099878530253483e-07 0 0.030185412887605539 0.00016131881091381844 0 0.03022475202872282 0.00016941907412704836 0 0.030399254684492682 -1.1479956363064509e-06 0 0.022788875966995768 -2.991473342418146e-06 0 0.022753704414865749 -7.3715684583721005e-05 0 0.021639418760174379 3.1130377436763781e-06 0 0.022753704414865749 -7.3715684583721005e-05 0 0.023839830010274864 -0.000296633921354406 0 0.021639418760174379 3.1130377436763781e-06 0 0.022788875966995768 -2.991473342418146e-06 0 0.022753704414865749 -7.3715684583721005e-05 0 0.023839830010274864 -0.000296633921354406 0 0.024544447508835783 0.00033242049073517943 0 0.025465141311735918 0.00027592340105898802 0 0.02641316686983337 0.00052638112482525834 0 0.026904133854224917 0.00049908383951056425 0 0.026938969424835323 0.00072452220600231602 0 0.026904133854224917 0.00049908383951056425 0 0.026938969424835323 0.00072452220600231602 0 0.027287312660631072 0.0005105971394462176 0 0.026904133854224917 0.00049908383951056425 0 0.026967312259078304 0.00023867132987015862 0 0.027287312660631072 0.0005105971394462176 0 0.02641316686983337 0.00052638112482525834 0 0.026904133854224917 0.00049908383951056425 0 0.026967312259078304 0.00023867132987015862 0 0.024544447508835783 0.00033242049073517943 0 0.026626194901705643 0.0003409231410435046 0 0.022796323634448081 2.2749917734669281e-06 0 0.026170297716643923 0.00066577385394193283 0 0.024449222360840669 0.00016375348115539861 0 0.022796323634448081 2.2749917734669281e-06 0 0.024449222360840669 0.00016375348115539861 0 0.024702727749211662 -4.246681385333412e-07 0 0.024449222360840669 0.00016375348115539861 0 0.024702727749211662 -4.246681385333412e-07 0 0.026200206982326706 -0.00020336211448445312 0 0.026599914328468997 -9.1218017854557415e-07 0 0.024702727749211662 -4.246681385333412e-07 0 0.026200206982326706 -0.00020336211448445312 0 0.027127460995303238 -0.00050310970767354591 0 0.026200206982326706 -0.00020336211448445312 0 0.027894341744864923 -0.00034756244607098347 0 0.026170297716643923 0.00066577385394193283 0 0.024449222360840669 0.00016375348115539861 0 0.026200206982326706 -0.00020336211448445312 0 0.026170297716643923 0.00066577385394193283 0 0.026200206982326706 -0.00020336211448445312 0 0.027048492718379478 4.9343626242031043e-05 0 0.026626194901705643 0.0003409231410435046 0 0.027734145733870043 8.1207772591986748e-05 0 0.026967312259078304 0.00023867132987015862 0 0.027836084025111694 5.4788753027414131e-05 0 0.027472409722791823 0.00028460856880244617 0 0.026170297716643923 0.00066577385394193283 0 0.027048492718379478 4.9343626242031043e-05 0 0.027836084025111694 5.4788753027414131e-05 0 0.026200206982326706 -0.00020336211448445312 0 0.027048492718379478 4.9343626242031043e-05 0 0.027894341744864923 -0.00034756244607098347 0 0.027048492718379478 4.9343626242031043e-05 0 0.027894341744864923 -0.00034756244607098347 0 0.027836084025111694 5.4788753027414131e-05 0 0.028729186238508498 -0.00036792751117643765 0 0.027894341744864923 -0.00034756244607098347 0 0.028107570486670928 -0.00013788542204832654 0 0.02865085586709901 -0.00039867765609640627 0 0.028412962766087204 -0.00030276999450044395 0 0.028719474497758267 -0.00038435392132320868 0 0.028729186238508498 -0.00036792751117643765 0 0.02868030360600685 -0.00043203730271944264 0 0.027894341744864923 -0.00034756244607098347 0 0.028107570486670928 -0.00013788542204832654 0 0.027836084025111694 5.4788753027414131e-05 0 0.02868030360600685 -0.00043203730271944264 0 0.028591778968511648 -0.00048178343113811024 0 0.028580415237729358 -0.00047752821743487128 0 0.028412962766087204 -0.00030276999450044395 0 0.028140922453733147 -0.00010914623521034056 0 0.028107570486670928 -0.00013788542204832654 0 0.027836084025111694 5.4788753027414131e-05 0 0.027729389230897277 0.0003167917938431734 0 0.027836084025111694 5.4788753027414131e-05 0 0.027729389230897277 0.0003167917938431734 0 0.027472409722791823 0.00028460856880244617 0 0.026967312259078304 0.00023867132987015862 0 0.027472409722791823 0.00028460856880244617 0 0.027287312660631072 0.0005105971394462176 0 0.027729389230897277 0.0003167917938431734 0 0.027472409722791823 0.00028460856880244617 0 0.027287312660631072 0.0005105971394462176 0 0.026938969424835323 0.00072452220600231602 0 0.027287312660631072 0.0005105971394462176 0 0.027236295313053535 0.00069074437139673593 0 0.028140922453733147 -0.00010914623521034056 0 0.028360772720488661 9.7219506310238085e-05 0 0.027236295313053535 0.00069074437139673593 0 0.027532066022065257 0.00058481203094537082 0 0.027122802644683336 0.0009976650676325376 0 0.027729389230897277 0.0003167917938431734 0 0.027287312660631072 0.0005105971394462176 0 0.027532066022065257 0.00058481203094537082 0 0.028591778968511648 -0.00048178343113811024 0 0.028510189748099189 -0.00050139174949431547 0 0.02854581608715534 -0.00049315061219733941 0 0.027287312660631072 0.0005105971394462176 0 0.027236295313053535 0.00069074437139673593 0 0.027532066022065257 0.00058481203094537082 0 0.028510189748099189 -0.00050139174949431547 0 0.028505986736034598 -0.00050394794415935327 0 0.02854581608715534 -0.00049315061219733941 0 0.028510189748099189 -0.00050139174949431547 0 0.028505986736034598 -0.00050394794415935327 0 0.02847604634569072 -0.00050646337468292452 0 0.026979619302620831 -0.001600170648064971 0 0.026958644070175345 -0.0015999820436097718 0 0.026962561308200489 -0.001594524183985078 0 0.026965352313726834 -0.0015961456186922788 0 0.026979619302620831 -0.001600170648064971 0 0.026989654893147048 -0.0016127333220061764 0 0.026965352313726834 -0.0015961456186922788 0 0.026979619302620831 -0.001600170648064971 0 0.026962561308200489 -0.001594524183985078 0 0.026979619302620831 -0.001600170648064971 0 0.026989654893147048 -0.0016127333220061764 0 0.02700389341390394 -0.0016081166764739677 0 0.026989654893147048 -0.0016127333220061764 0 0.027011835023510435 -0.0016320669738870189 0 0.026991564960107572 -0.0016316684716361361 0 0.026989654893147048 -0.0016127333220061764 0 0.027011835023510435 -0.0016320669738870189 0 0.02700389341390394 -0.0016081166764739677 0 0.028505986736034598 -0.00050394794415935327 0 0.028580415237729358 -0.00047752821743487128 0 0.02854581608715534 -0.00049315061219733941 0 0.026965352313726834 -0.0015961456186922788 0 0.026989654893147048 -0.0016127333220061764 0 0.026991564960107572 -0.0016316684716361361 0 0.028134365663978152 -0.0010526515865027931 0 0.027766376502756877 -0.0010269054219344436 0 0.028591778968511648 -0.00048178343113811024 0 0.028580415237729358 -0.00047752821743487128 0 0.02854581608715534 -0.00049315061219733941 0 0.026991564960107572 -0.0016316684716361361 0 0.027032131679998767 -0.0016888065713587619 0 0.027034666201190813 -0.0016663276348741485 0 0.027766376502756877 -0.0010269054219344436 0 0.027636027473436027 -0.0012007932824946916 0 0.02868030360600685 -0.00043203730271944264 0 0.028580415237729358 -0.00047752821743487128 0 0.028662466715517084 -0.00042411106965029862 0 0.028719474497758267 -0.00038435392132320868 0 0.02868030360600685 -0.00043203730271944264 0 0.028662466715517084 -0.00042411106965029862 0 0.027063941255455751 -0.0017067132419260108 0 0.027032131679998767 -0.0016888065713587619 0 0.027059819308222266 -0.0016998603371260422 0 0.027032131679998767 -0.0016888065713587619 0 0.027059819308222266 -0.0016998603371260422 0 0.027034666201190813 -0.0016663276348741485 0 0.027011835023510435 -0.0016320669738870189 0 0.027034666201190813 -0.0016663276348741485 0 0.027054754672876054 -0.0016400185491977689 0 0.027011835023510435 -0.0016320669738870189 0 0.026991564960107572 -0.0016316684716361361 0 0.027034666201190813 -0.0016663276348741485 0 0.027034666201190813 -0.0016663276348741485 0 0.027054754672876054 -0.0016400185491977689 0 0.027081254700660896 -0.0017057354500666635 0 0.027059819308222266 -0.0016998603371260422 0 0.027034666201190813 -0.0016663276348741485 0 0.027081254700660896 -0.0017057354500666635 0 0.027146772418681107 -0.0017833843486717187 0 0.027081254700660896 -0.0017057354500666635 0 0.027151559224496139 -0.0016683462565667442 0 0.027054754672876054 -0.0016400185491977689 0 0.027099496042544857 -0.0016134344793555372 0 0.027151559224496139 -0.0016683462565667442 0 0.027054754672876054 -0.0016400185491977689 0 0.027081254700660896 -0.0017057354500666635 0 0.027151559224496139 -0.0016683462565667442 0 0.027054754672876054 -0.0016400185491977689 0 0.027099496042544857 -0.0016134344793555372 0 0.027030062138438869 -0.0015966517503741868 0 0.027011835023510435 -0.0016320669738870189 0 0.027054754672876054 -0.0016400185491977689 0 0.02700389341390394 -0.0016081166764739677 0 0.027054754672876054 -0.0016400185491977689 0 0.02700389341390394 -0.0016081166764739677 0 0.027030062138438869 -0.0015966517503741868 0 0.02700389341390394 -0.0016081166764739677 0 0.027030062138438869 -0.0015966517503741868 0 0.026958644070175345 -0.0015999820436097718 0 0.026979619302620831 -0.001600170648064971 0 0.02700389341390394 -0.0016081166764739677 0 0.026958644070175345 -0.0015999820436097718 0 0.027030062138438869 -0.0015966517503741868 0 0.027013908593513398 -0.0015822548463561579 0 0.026958644070175345 -0.0015999820436097718 0 0.027099496042544857 -0.0016134344793555372 0 0.027030062138438869 -0.0015966517503741868 0 0.0270753203420575 -0.0015553691709699221 0 0.027030062138438869 -0.0015966517503741868 0 0.027013908593513398 -0.0015822548463561579 0 0.0270753203420575 -0.0015553691709699221 0 0.027013908593513398 -0.0015822548463561579 0 0.026964075504272739 -0.0015684388263487313 0 0.026913495220895936 -0.0016746699098303852 0 0.027013908593513398 -0.0015822548463561579 0 0.026958644070175345 -0.0015999820436097718 0 0.026964075504272739 -0.0015684388263487313 0 0.027904610573459252 -0.0016432416480864802 0 0.023766460258025746 -0.0022144857193188401 0 0.026958644070175345 -0.0015999820436097718 0 0.026805457995041918 -0.0014765308690259181 0 0.026964075504272739 -0.0015684388263487313 0 0.026958644070175345 -0.0015999820436097718 0 0.026805457995041918 -0.0014765308690259181 0 0.026639584952054391 -0.0014904666001069092 0 0.017567082691354863 -0.0034015722135778558 0 0.019829110814637209 -0.0035621730898526237 0 0.011325557335777277 -0.0051395005610779271 0 0.011583415484129568 -0.0047617238466257953 0 0.012140291143071164 -0.0054670715623359708 0 0.011325557335777277 -0.0051395005610779271 0 0.011153781038237501 -0.0051254451453264334 0 0.012140291143071164 -0.0054670715623359708 0 0.01520890360371702 -0.0036788983103921867 0 0.017567082691354863 -0.0034015722135778558 0 0.011197153668527452 -0.0048207956724163536 0 0.01116830590973142 -0.0044414251795470124 0 0.010746118508569893 -0.004666004717436922 0 0.011148248918050076 -0.005132769622403925 0 0.011197153668527452 -0.0048207956724163536 0 0.010746118508569893 -0.004666004717436922 0 0.011325557335777277 -0.0051395005610779271 0 0.011148248918050076 -0.005132769622403925 0 0.011197153668527452 -0.0048207956724163536 0 0.011197153668527452 -0.0048207956724163536 0 0.011583415484129568 -0.0047617238466257953 0 0.01116830590973142 -0.0044414251795470124 0 0.011325557335777277 -0.0051395005610779271 0 0.011197153668527452 -0.0048207956724163536 0 0.011583415484129568 -0.0047617238466257953 0 0.011583415484129568 -0.0047617238466257953 0 0.012140291143071164 -0.0054670715623359708 0 0.012015788490474182 -0.0044114054921112885 0 0.012140291143071164 -0.0054670715623359708 0 0.012015788490474182 -0.0044114054921112885 0 0.012945730594906521 -0.0048829037858814971 0 0.011583415484129568 -0.0047617238466257953 0 0.012015788490474182 -0.0044114054921112885 0 0.011459226496650217 -0.0041117352442207175 0 0.012015788490474182 -0.0044114054921112885 0 0.011710723101176337 -0.0036026693696276741 0 0.011459226496650217 -0.0041117352442207175 0 0.012015788490474182 -0.0044114054921112885 0 0.011710723101176337 -0.0036026693696276741 0 0.012400362428917507 -0.0037754996938430545 0 0.011710723101176337 -0.0036026693696276741 0 0.012400362428917507 -0.0037754996938430545 0 0.011891458962527288 -0.0027813619722722445 0 0.011710723101176337 -0.0036026693696276741 0 0.011308204142771019 -0.0029553195787462736 0 0.011891458962527288 -0.0027813619722722445 0 0.011308204142771019 -0.0029553195787462736 0 0.010614940506104653 -0.0033081940205792896 0 0.010893639452478239 -0.0023525897474529186 0 0.011308204142771019 -0.0029553195787462736 0 0.011178032677180337 -0.0036075826947702901 0 0.010614940506104653 -0.0033081940205792896 0 0.011710723101176337 -0.0036026693696276741 0 0.011308204142771019 -0.0029553195787462736 0 0.011178032677180337 -0.0036075826947702901 0 0.011710723101176337 -0.0036026693696276741 0 0.011178032677180337 -0.0036075826947702901 0 0.011459226496650217 -0.0041117352442207175 0 0.011178032677180337 -0.0036075826947702901 0 0.010940244752478128 -0.0040332385285034101 0 0.010614940506104653 -0.0033081940205792896 0 0.010940244752478128 -0.0040332385285034101 0 0.011459226496650217 -0.0041117352442207175 0 0.01116830590973142 -0.0044414251795470124 0 0.011178032677180337 -0.0036075826947702901 0 0.010940244752478128 -0.0040332385285034101 0 0.011459226496650217 -0.0041117352442207175 0 0.011583415484129568 -0.0047617238466257953 0 0.011459226496650217 -0.0041117352442207175 0 0.01116830590973142 -0.0044414251795470124 0 0.010940244752478128 -0.0040332385285034101 0 0.01116830590973142 -0.0044414251795470124 0 0.010746118508569893 -0.004666004717436922 0 0.010940244752478128 -0.0040332385285034101 0 0.010454478904936627 -0.0040771820493936406 0 0.010746118508569893 -0.004666004717436922 0 0.010201003831960343 -0.0044178498309904073 0 0.010454478904936627 -0.0040771820493936406 0 0.010746118508569893 -0.004666004717436922 0 0.010117669893555295 -0.0037588481442489587 0 0.010454478904936627 -0.0040771820493936406 0 0.010614940506104653 -0.0033081940205792896 0 0.010201003831960343 -0.0044178498309904073 0 0.010117669893555295 -0.0037588481442489587 0 0.010454478904936627 -0.0040771820493936406 0 0.010940244752478128 -0.0040332385285034101 0 0.010454478904936627 -0.0040771820493936406 0 0.010614940506104653 -0.0033081940205792896 0 0.010614940506104653 -0.0033081940205792896 0 0.0097211142096795908 -0.0031970877040130461 0 0.010348337528159599 -0.0024979368991347654 0 0.010117669893555295 -0.0037588481442489587 0 0.010614940506104653 -0.0033081940205792896 0 0.0097211142096795908 -0.0031970877040130461 0 0.010922333371818319 -0.00040851687795154755 0 0.010892075583298737 -0.00044354358435928407 0 0.010853037861958223 -0.00036342750111721515 0 0.010922333371818319 -0.00040851687795154755 0 0.010892075583298737 -0.00044354358435928407 0 0.010933426569237041 -0.00050914055259134263 0 0.010055520393189677 -0.0019396882385355741 0 0.014473979999628937 -0.0018511242080826796 0 0.010933426569237041 -0.00050914055259134263 0 0.01091361342069223 -0.00052615834984953193 0 0.010999066948530884 -0.00058980011267218736 0 0.010922333371818319 -0.00040851687795154755 0 0.010933426569237041 -0.00050914055259134263 0 0.010999066948530884 -0.00058980011267218736 0 0.010117669893555295 -0.0037588481442489587 0 0.0097211142096795908 -0.0031970877040130461 0 0.0097194451477270166 -0.0043955865550476302 0 0.010892075583298737 -0.00044354358435928407 0 0.010933426569237041 -0.00050914055259134263 0 0.010907812876395497 -0.00051989814120160084 0 0.013836149850288101 -0.00099831990291097917 0 0.015118825092544362 -0.00052190349191277787 0 0.010201003831960343 -0.0044178498309904073 0 0.010117669893555295 -0.0037588481442489587 0 0.0097194451477270166 -0.0043955865550476302 0 0.019909818096667288 -0.00064670427909372416 0 0.019628320776885304 -0.00038813947081684256 0 0.019909147384897453 -0.00037428879089952097 0 0.015118825092544362 -0.00052190349191277787 0 0.014473979999628937 -0.0018511242080826796 0 0.019628320776885304 -0.00038813947081684256 0 0.019909147384897453 -0.00037428879089952097 0 0.019631270975691745 -9.9069101455449886e-05 0 0.019477426614189122 -0.00070145776920373852 0 0.020114274669003021 -0.00031948325845812742 0 0.019909147384897453 -0.00037428879089952097 0 0.019631270975691745 -9.9069101455449886e-05 0 0.020173301480576146 -0.00023357270743663134 0 0.020023783216237493 -6.0175912359266599e-05 0 0.019849691392415644 -0.0001343888089951829 0 0.020173301480576146 -0.00023357270743663134 0 0.020023783216237493 -6.0175912359266599e-05 0 0.019850615403374919 4.0915013692853157e-05 0 0.019849691392415644 -0.0001343888089951829 0 0.020023783216237493 -6.0175912359266599e-05 0 0.019850615403374919 4.0915013692853157e-05 0 0.020235486632936801 9.3604532769726441e-05 0 0.024088834039008251 -0.0010703658539413391 0 0.024301764270488756 0.00058108453337161233 0 0.028439510971229098 -0.00051244905110877509 0 0.02847604634569072 -0.00050646337468292452 0 0.028447778794997935 -0.00050725471604076244 0 0.024088834039008251 -0.0010703658539413391 0 0.023766460258025746 -0.0022144857193188401 0 0.026929740856066989 -0.0015820322916095927 0 0.026944783528376422 -0.0015864619324682404 0 0.02695033851856345 -0.0015900842429426201 0 0.01629652020424362 -0.00154447745735425 0 0.016300496829312484 -0.0020299081960767026 0 0.016935895193532603 -0.002164624127260865 0 0.019477426614189122 -0.00070145776920373852 0 0.016870618547726295 -0.0019457630573235629 0 0.021140541639579829 -0.001444365811962845 0 0.021133339645535321 -0.0013235730086757832 0 0.021295593982425358 -0.0013637538703766161 0 0.014473979999628937 -0.0018511242080826796 0 0.016870618547726295 -0.0019457630573235629 0 0.010201003831960343 -0.0044178498309904073 0 0.0097194451477270166 -0.0043955865550476302 0 0.010240868583511347 -0.0048968241908716624 0 0.024088834039008251 -0.0010703658539413391 0 0.019477426614189122 -0.00070145776920373852 0 0.014473979999628937 -0.0018511242080826796 0 0.019477426614189122 -0.00070145776920373852 0 0.011148248918050076 -0.005132769622403925 0 0.010240868583511347 -0.0048968241908716624 0 0.010746118508569893 -0.004666004717436922 0 0.010201003831960343 -0.0044178498309904073 0 0.010240868583511347 -0.0048968241908716624 0 0.010746118508569893 -0.004666004717436922 0 0.017567082691354863 -0.0034015722135778558 0 0.016870618547726295 -0.0019457630573235629 0 0.018565789508197431 -0.0028321145099323799 0 0.019663625907197443 -0.0030216613068628395 0 0.019391491768196718 -0.0027656473752971319 0 0.017567082691354863 -0.0034015722135778558 0 0.023766460258025746 -0.0022144857193188401 0 0.021140541639579829 -0.001444365811962845 0 0.021295593982425358 -0.0013637538703766161 0 0.021376925982185456 -0.0014428699811364811 0 0.016870618547726295 -0.0019457630573235629 0 0.023766460258025746 -0.0022144857193188401 0 0.026944783528376422 -0.0015864619324682404 0 0.026962561308200489 -0.001594524183985078 0 0.02695033851856345 -0.0015900842429426201 0 0.026958644070175345 -0.0015999820436097718 0 0.026944783528376422 -0.0015864619324682404 0 0.026962561308200489 -0.001594524183985078 0 0.028134365663978152 -0.0010526515865027931 0 0.024088834039008251 -0.0010703658539413391 0 0.026965352313726834 -0.0015961456186922788 0 0.026929740856066989 -0.0015820322916095927 0 0.02695033851856345 -0.0015900842429426201 0 0.028505986736034598 -0.00050394794415935327 0 0.028439510971229098 -0.00051244905110877509 0 0.02847604634569072 -0.00050646337468292452 0 0.026965352313726834 -0.0015961456186922788 0 0.026962561308200489 -0.001594524183985078 0 0.02695033851856345 -0.0015900842429426201 0 0.027532066022065257 0.00058481203094537082 0 0.027122802644683336 0.0009976650676325376 0 0.027724401276761422 0.0018948475694560375 0 0.028510189748099189 -0.00050139174949431547 0 0.02847604634569072 -0.00050646337468292452 0 0.028447778794997935 -0.00050725471604076244 0 0.027122802644683336 0.0009976650676325376 0 0.026110094789274708 0.0021760744717338404 0 0.027724401276761422 0.0018948475694560375 0 0.028360772720488661 9.7219506310238085e-05 0 0.024301764270488756 0.00058108453337161233 0 0.026938969424835323 0.00072452220600231602 0 0.027236295313053535 0.00069074437139673593 0 0.027122802644683336 0.0009976650676325376 0 0.025465141311735918 0.00027592340105898802 0 0.027017366745318638 0.00093842980971122055 0 0.023839830010274864 -0.000296633921354406 0 0.027122802644683336 0.0009976650676325376 0 0.026110094789274708 0.0021760744717338404 0 0.021458557485157986 0.00069734647904256099 0 0.021450001221554472 0.0005170900995622907 0 0.021765911368496222 0.00071953143016204306 0 0.024060511732928974 0.0013863455034368477 0 0.021113002236840483 0.00078030221201422288 0 0.019465522702215184 0.00038508411074536113 0 0.021113002236840483 0.00078030221201422288 0 0.021458557485157986 0.00069734647904256099 0 0.021450001221554472 0.0005170900995622907 0 0.021133776635657291 0.00068158428717405174 0 0.020235486632936801 9.3604532769726441e-05 0 0.020173301480576146 -0.00023357270743663134 0 0.020168667595222345 -0.00047698702955010049 0 0.024301764270488756 0.00058108453337161233 0 0.018319744669655361 0.00010570599450097454 0 0.021450001221554472 0.0005170900995622907 0 0.021133776635657291 0.00068158428717405174 0 0.021105102025280646 0.00031055154657606669 0 0.024060511732928974 0.0013863455034368477 0 0.024301764270488756 0.00058108453337161233 0 0.020023783216237493 -6.0175912359266599e-05 0 0.020235486632936801 9.3604532769726441e-05 0 0.020173301480576146 -0.00023357270743663134 0 0.019909147384897453 -0.00037428879089952097 0 0.020173301480576146 -0.00023357270743663134 0 0.020168667595222345 -0.00047698702955010049 0 0.019465522702215184 0.00038508411074536113 0 0.018319744669655361 0.00010570599450097454 0 0.019909818096667288 -0.00064670427909372416 0 0.019909147384897453 -0.00037428879089952097 0 0.020168667595222345 -0.00047698702955010049 0 0.017337144196783384 2.5405060248162573e-05 0 0.017393716305020304 -7.0858402412498267e-05 0 0.01749561408637431 -8.3860998706227879e-05 0 0.018319744669655361 0.00010570599450097454 0 0.014005843348303773 0.0011053856604997354 0 0.016138513181292554 1.3426075693272608e-05 0 0.015780987766503187 -0.0002024720797819633 0 0.015777763919603231 0.00036451841314794411 0 0.010892075583298737 -0.00044354358435928407 0 0.010907812876395497 -0.00051989814120160084 0 0.010848541327936858 -0.00044725049895092528 0 0.015118825092544362 -0.00052190349191277787 0 0.018319744669655361 0.00010570599450097454 0 0.015118825092544362 -0.00052190349191277787 0 0.014005843348303773 0.0011053856604997354 0 0.014005843348303773 0.0011053856604997354 0 0.010654707093190038 0.00085535259662838199 0 0.010892075583298737 -0.00044354358435928407 0 0.010848541327936858 -0.00044725049895092528 0 0.010853037861958223 -0.00036342750111721515 0 0.014005843348303773 0.0011053856604997354 0 0.015164407021144855 0.0014703144281590622 0 0.017393716305020304 -7.0858402412498267e-05 0 0.01749561408637431 -8.3860998706227879e-05 0 0.01734348665076416 3.2807978429524788e-06 0 0.01749561408637431 -8.3860998706227879e-05 0 0.017248552773724394 -0.00014128669495939273 0 0.01734348665076416 3.2807978429524788e-06 0 0.017517744522199549 0.00026779894687281624 0 0.01749561408637431 -8.3860998706227879e-05 0 0.017973428429203388 -6.3613160834448897e-05 0 0.017517744522199549 0.00026779894687281624 0 0.017337144196783384 2.5405060248162573e-05 0 0.01749561408637431 -8.3860998706227879e-05 0 0.01749561408637431 -8.3860998706227879e-05 0 0.017973428429203388 -6.3613160834448897e-05 0 0.017248552773724394 -0.00014128669495939273 0 0.017248552773724394 -0.00014128669495939273 0 0.018894541571645627 -1.0546185746686159e-06 0 0.017075276734269867 4.2788329175413108e-07 0 0.017973428429203388 -6.3613160834448897e-05 0 0.017248552773724394 -0.00014128669495939273 0 0.018894541571645627 -1.0546185746686159e-06 0 0.017973428429203388 -6.3613160834448897e-05 0 0.018894541571645627 -1.0546185746686159e-06 0 0.019048448236224244 4.2333783790958436e-05 0 0.020709970689260591 -7.9203412279795904e-08 0 0.021113002236840483 0.00078030221201422288 0 0.019048448236224244 4.2333783790958436e-05 0 0.020709565719742959 2.4448748504050132e-06 0 0.018143542203733522 0.00073884025097919245 0 0.018894541571645627 -1.0546185746686159e-06 0 0.019048448236224244 4.2333783790958436e-05 0 0.020709565719742959 2.4448748504050132e-06 0 0.017973428429203388 -6.3613160834448897e-05 0 0.019048448236224244 4.2333783790958436e-05 0 0.018143542203733522 0.00073884025097919245 0 0.017517744522199549 0.00026779894687281624 0 0.017973428429203388 -6.3613160834448897e-05 0 0.018143542203733522 0.00073884025097919245 0 0.023839830010274864 -0.000296633921354406 0 0.023944240936512318 0.001970601374064569 0 0.021639418760174379 3.1130377436763781e-06 0 0.023839830010274864 -0.000296633921354406 0 0.026110094789274708 0.0021760744717338404 0 0.023944240936512318 0.001970601374064569 0 0.020717850582755281 5.3496041660747772e-08 0 0.020663663554300788 1.1765497653019855e-05 0 0.021629426262299575 -4.4099556514640048e-08 0 0.021113002236840483 0.00078030221201422288 0 0.021636248820819649 1.0194162416465073e-06 0 0.026440061843998615 -0.0010672002279818974 0 0.026507776882344167 -0.001315342422591437 0 0.02666340783923269 -0.0013259564159141359 0 0.026507776882344167 -0.001315342422591437 0 0.026772757060423792 -0.001535590559557461 0 0.025647809107276723 -0.0012820502519907987 0 0.026440061843998615 -0.0010672002279818974 0 0.026507776882344167 -0.001315342422591437 0 0.025647809107276723 -0.0012820502519907987 0 0.026440061843998615 -0.0010672002279818974 0 0.025647809107276723 -0.0012820502519907987 0 0.026444227225295044 -0.00068549749207128679 0 0.026440061843998615 -0.0010672002279818974 0 0.026789003067221186 -0.00063748236478923764 0 0.026444227225295044 -0.00068549749207128679 0 0.026401789201523623 -4.4805996974911199e-05 0 0.026789003067221186 -0.00063748236478923764 0 0.026444227225295044 -0.00068549749207128679 0 0.027521776235727425 -0.0006428719151737876 0 0.026789003067221186 -0.00063748236478923764 0 0.026928324371272259 -0.0009597024267233332 0 0.026440061843998615 -0.0010672002279818974 0 0.026789003067221186 -0.00063748236478923764 0 0.026928324371272259 -0.0009597024267233332 0 0.026440061843998615 -0.0010672002279818974 0 0.026928324371272259 -0.0009597024267233332 0 0.02666340783923269 -0.0013259564159141359 0 0.026928324371272259 -0.0009597024267233332 0 0.026938273151196207 -0.0012959392405897663 0 0.02666340783923269 -0.0013259564159141359 0 0.028393274296348067 -0.0012141910008915233 0 0.026928324371272259 -0.0009597024267233332 0 0.026938273151196207 -0.0012959392405897663 0 0.027521776235727425 -0.0006428719151737876 0 0.028393274296348067 -0.0012141910008915233 0 0.026928324371272259 -0.0009597024267233332 0 0.028393274296348067 -0.0012141910008915233 0 0.029609451379022989 -0.00090010084797693013 0 0.030140137399091934 -0.0012638256613541827 0 0.028393274296348067 -0.0012141910008915233 0 0.026938273151196207 -0.0012959392405897663 0 0.027071739490587981 -0.0016933002355726844 0 0.028488633962666945 -0.0012568277566418972 0 0.028601304138546613 -0.0013966230804434796 0 0.026938273151196207 -0.0012959392405897663 0 0.027071739490587981 -0.0016933002355726844 0 0.026804061559213416 -0.0014278779974122304 0 0.027071739490587981 -0.0016933002355726844 0 0.026846922659568163 -0.001468178403891106 0 0.026804061559213416 -0.0014278779974122304 0 0.026784271475450701 -0.0013371472579986356 0 0.027071739490587981 -0.0016933002355726844 0 0.026846922659568163 -0.001468178403891106 0 0.026846922659568163 -0.001468178403891106 0 0.026903470550780774 -0.0014386784825485596 0 0.026804061559213416 -0.0014278779974122304 0 0.026784271475450701 -0.0013371472579986356 0 0.026846922659568163 -0.001468178403891106 0 0.026903470550780774 -0.0014386784825485596 0 0.026903470550780774 -0.0014386784825485596 0 0.026804061559213416 -0.0014278779974122304 0 0.026876066261741594 -0.0014502270152005681 0 0.026938273151196207 -0.0012959392405897663 0 0.026804061559213416 -0.0014278779974122304 0 0.02666340783923269 -0.0013259564159141359 0 0.026804061559213416 -0.0014278779974122304 0 0.02666340783923269 -0.0013259564159141359 0 0.026876066261741594 -0.0014502270152005681 0 0.026507776882344167 -0.001315342422591437 0 0.027029009710359111 -0.0015088015442037913 0 0.027010885308798409 -0.0014435464516318721 0 0.026507776882344167 -0.001315342422591437 0 0.02666340783923269 -0.0013259564159141359 0 0.027029009710359111 -0.0015088015442037913 0 0.02666340783923269 -0.0013259564159141359 0 0.027029009710359111 -0.0015088015442037913 0 0.026876066261741594 -0.0014502270152005681 0 0.027029009710359111 -0.0015088015442037913 0 0.026876066261741594 -0.0014502270152005681 0 0.027208347713124904 -0.0014657752601744236 0 0.027043904196273456 -0.0012712348467200086 0 0.026903470550780774 -0.0014386784825485596 0 0.027208347713124904 -0.0014657752601744236 0 0.026903470550780774 -0.0014386784825485596 0 0.026876066261741594 -0.0014502270152005681 0 0.027208347713124904 -0.0014657752601744236 0 0.027029009710359111 -0.0015088015442037913 0 0.027208347713124904 -0.0014657752601744236 0 0.027917827826862005 -0.00183382164920643 0 0.027029009710359111 -0.0015088015442037913 0 0.027917827826862005 -0.00183382164920643 0 0.027450205902798244 -0.001551529795309748 0 0.027680990796729456 -0.0012639249315297301 0 0.027208347713124904 -0.0014657752601744236 0 0.027917827826862005 -0.00183382164920643 0 0.027917827826862005 -0.00183382164920643 0 0.027450205902798244 -0.001551529795309748 0 0.027292288257676382 -0.0016203429080982282 0 0.027284532608513819 -0.0018572126272238905 0 0.027917827826862005 -0.00183382164920643 0 0.027292288257676382 -0.0016203429080982282 0 0.029119837483349422 -0.0018659636493331235 0 0.028053284816772994 -0.0018802657669924787 0 0.027450205902798244 -0.001551529795309748 0 0.027292288257676382 -0.0016203429080982282 0 0.027289369626255871 -0.0015382388198514781 0 0.027029009710359111 -0.0015088015442037913 0 0.027450205902798244 -0.001551529795309748 0 0.027010885308798409 -0.0014435464516318721 0 0.027284532608513819 -0.0018572126272238905 0 0.027146772418681107 -0.0017833843486717187 0 0.027151559224496139 -0.0016683462565667442 0 0.027284532608513819 -0.0018572126272238905 0 0.027292288257676382 -0.0016203429080982282 0 0.027151559224496139 -0.0016683462565667442 0 0.027292288257676382 -0.0016203429080982282 0 0.027218348356236547 -0.0015924211298476462 0 0.027289369626255871 -0.0015382388198514781 0 0.027292288257676382 -0.0016203429080982282 0 0.027151559224496139 -0.0016683462565667442 0 0.027218348356236547 -0.0015924211298476462 0 0.027099496042544857 -0.0016134344793555372 0 0.027151559224496139 -0.0016683462565667442 0 0.027218348356236547 -0.0015924211298476462 0 0.027099496042544857 -0.0016134344793555372 0 0.027218348356236547 -0.0015924211298476462 0 0.0270753203420575 -0.0015553691709699221 0 0.027218348356236547 -0.0015924211298476462 0 0.027289369626255871 -0.0015382388198514781 0 0.027273687432469926 -0.0015718177803655878 0 0.027218348356236547 -0.0015924211298476462 0 0.027273687432469926 -0.0015718177803655878 0 0.027274848709904712 -0.0016192555127549542 0 0.027274848709904712 -0.0016192555127549542 0 0.0270753203420575 -0.0015553691709699221 0 0.027393701825953992 -0.0017296801208779332 0 0.027273687432469926 -0.0015718177803655878 0 0.027274848709904712 -0.0016192555127549542 0 0.027311005089637855 -0.0016633311570979049 0 0.027274848709904712 -0.0016192555127549542 0 0.027311005089637855 -0.0016633311570979049 0 0.027393701825953992 -0.0017296801208779332 0 0.027218348356236547 -0.0015924211298476462 0 0.027274848709904712 -0.0016192555127549542 0 0.0270753203420575 -0.0015553691709699221 0 0.027450205902798244 -0.001551529795309748 0 0.027010885308798409 -0.0014435464516318721 0 0.027131172702164533 -0.0014850990596559596 0 0.026507776882344167 -0.001315342422591437 0 0.027010885308798409 -0.0014435464516318721 0 0.027131172702164533 -0.0014850990596559596 0 0.026507776882344167 -0.001315342422591437 0 0.027131172702164533 -0.0014850990596559596 0 0.026772757060423792 -0.001535590559557461 0 0.027450205902798244 -0.001551529795309748 0 0.027289369626255871 -0.0015382388198514781 0 0.027131172702164533 -0.0014850990596559596 0 0.027289369626255871 -0.0015382388198514781 0 0.027273687432469926 -0.0015718177803655878 0 0.027131172702164533 -0.0014850990596559596 0 0.027273687432469926 -0.0015718177803655878 0 0.027131172702164533 -0.0014850990596559596 0 0.027151493468189441 -0.0015693786785047463 0 0.027131172702164533 -0.0014850990596559596 0 0.027151493468189441 -0.0015693786785047463 0 0.026772757060423792 -0.001535590559557461 0 0.027273687432469926 -0.0015718177803655878 0 0.027151493468189441 -0.0015693786785047463 0 0.027311005089637855 -0.0016633311570979049 0 0.027151493468189441 -0.0015693786785047463 0 0.027311005089637855 -0.0016633311570979049 0 0.027190590304367282 -0.0017665093136981749 0 0.027311005089637855 -0.0016633311570979049 0 0.02735761766596637 -0.0017569316738231858 0 0.027393701825953992 -0.0017296801208779332 0 0.027311005089637855 -0.0016633311570979049 0 0.027190590304367282 -0.0017665093136981749 0 0.02735761766596637 -0.0017569316738231858 0 0.027151493468189441 -0.0015693786785047463 0 0.027190590304367282 -0.0017665093136981749 0 0.026772757060423792 -0.001535590559557461 0 0.027190590304367282 -0.0017665093136981749 0 0.026772757060423792 -0.001535590559557461 0 0.026747548649249709 -0.0021223047674205817 0 0.026772757060423792 -0.001535590559557461 0 0.026747548649249709 -0.0021223047674205817 0 0.025647809107276723 -0.0012820502519907987 0 0.026747548649249709 -0.0021223047674205817 0 0.026558876462745556 -0.0034210933073218737 0 0.024550403851482352 -0.0031726314835167097 0 0.026747548649249709 -0.0021223047674205817 0 0.027439686760054514 -0.0020172527487053019 0 0.026558876462745556 -0.0034210933073218737 0 0.027190590304367282 -0.0017665093136981749 0 0.026747548649249709 -0.0021223047674205817 0 0.027515707354869089 -0.0019265972601961621 0 0.02192885142096181 -0.0043175354443001522 0 0.023098188565895052 -0.00481568502385968 0 0.026747548649249709 -0.0021223047674205817 0 0.027515707354869089 -0.0019265972601961621 0 0.027439686760054514 -0.0020172527487053019 0 0.027190590304367282 -0.0017665093136981749 0 0.02735761766596637 -0.0017569316738231858 0 0.027515707354869089 -0.0019265972601961621 0 0.02735761766596637 -0.0017569316738231858 0 0.027515707354869089 -0.0019265972601961621 0 0.027393701825953992 -0.0017296801208779332 0 0.024179465578719934 -0.0025004733205873822 0 0.02192885142096181 -0.0043175354443001522 0 0.02131418607590398 -0.0045008522284064358 0 0.021472642693116037 -0.0041804780316184878 0 0.021745879402408994 -0.0042891979106980758 0 0.024179465578719934 -0.0025004733205873822 0 0.020586533515161574 -0.0050297117944934086 0 0.020586533515161574 -0.0050297117944934086 0 0.02192885142096181 -0.0043175354443001522 0 0.01799587472139174 -0.0070255667624177813 0 0.019512116583715978 -0.006307805535935615 0 0.018705473742037796 -0.0051552168079228378 0 0.020586533515161574 -0.0050297117944934086 0 0.016040707043731155 -0.0054966917917612483 0 0.017871694381071879 -0.0069755418403606457 0 0.01799587472139174 -0.0070255667624177813 0 0.018705473742037796 -0.0051552168079228378 0 0.014210360499511937 -0.0060404763189885113 0 0.013857377176976625 -0.0050933897949941116 0 0.014911161132289699 -0.0048913085889879465 0 0.027013908593513398 -0.0015822548463561579 0 0.0270753203420575 -0.0015553691709699221 0 0.026913495220895936 -0.0016746699098303852 0 0.019829110814637209 -0.0035621730898526237 0 0.019933967608494713 -0.0036483662739228654 0 0.02665771547323173 -0.0016246096904150393 0 0.026636267459448654 -0.0016587017387979211 0 0.026913495220895936 -0.0016746699098303852 0 0.0270753203420575 -0.0015553691709699221 0 0.02742161739248504 -0.0017257842375108536 0 0.027393701825953992 -0.0017296801208779332 0 0.014210360499511937 -0.0060404763189885113 0 0.013190638012767146 -0.0058043759261667159 0 0.013563331142680473 -0.0054674979398493485 0 0.0270753203420575 -0.0015553691709699221 0 0.02665771547323173 -0.0016246096904150393 0 0.026913495220895936 -0.0016746699098303852 0 0.028275257201852005 -0.0011418312455667389 0 0.024179465578719934 -0.0025004733205873822 0 0.020586533515161574 -0.0050297117944934086 0 0.019933967608494713 -0.0036483662739228654 0 0.024179465578719934 -0.0025004733205873822 0 0.025115654427383515 -0.0017071867854459148 0 0.013563331142680473 -0.0054674979398493485 0 0.013857377176976625 -0.0050933897949941116 0 0.012945730594906521 -0.0048829037858814971 0 0.014210360499511937 -0.0060404763189885113 0 0.013563331142680473 -0.0054674979398493485 0 0.013857377176976625 -0.0050933897949941116 0 0.012140291143071164 -0.0054670715623359708 0 0.013190638012767146 -0.0058043759261667159 0 0.012945730594906521 -0.0048829037858814971 0 0.013190638012767146 -0.0058043759261667159 0 0.013563331142680473 -0.0054674979398493485 0 0.012945730594906521 -0.0048829037858814971 0 0.012015788490474182 -0.0044114054921112885 0 0.012945730594906521 -0.0048829037858814971 0 0.012400362428917507 -0.0037754996938430545 0 0.012945730594906521 -0.0048829037858814971 0 0.013283978656368101 -0.0039991895845311581 0 0.012400362428917507 -0.0037754996938430545 0 0.013857377176976625 -0.0050933897949941116 0 0.014055022005622789 -0.0043747949909428733 0 0.013283978656368101 -0.0039991895845311581 0 0.013857377176976625 -0.0050933897949941116 0 0.012945730594906521 -0.0048829037858814971 0 0.013283978656368101 -0.0039991895845311581 0 0.013283978656368101 -0.0039991895845311581 0 0.014156834251619024 -0.0035236268812653048 0 0.012708609507029435 -0.002997933932629572 0 0.014055022005622789 -0.0043747949909428733 0 0.013283978656368101 -0.0039991895845311581 0 0.014156834251619024 -0.0035236268812653048 0 0.013283978656368101 -0.0039991895845311581 0 0.012400362428917507 -0.0037754996938430545 0 0.012708609507029435 -0.002997933932629572 0 0.012400362428917507 -0.0037754996938430545 0 0.012708609507029435 -0.002997933932629572 0 0.011891458962527288 -0.0027813619722722445 0 0.018705473742037796 -0.0051552168079228378 0 0.019177181814534729 -0.0035057697896097337 0 0.02000198316830264 -0.0048911300998026163 0 0.019512116583715978 -0.006307805535935615 0 0.018705473742037796 -0.0051552168079228378 0 0.02000198316830264 -0.0048911300998026163 0 0.014055022005622789 -0.0043747949909428733 0 0.014911161132289699 -0.0048913085889879465 0 0.014156834251619024 -0.0035236268812653048 0 0.013857377176976625 -0.0050933897949941116 0 0.014055022005622789 -0.0043747949909428733 0 0.014911161132289699 -0.0048913085889879465 0 0.014911161132289699 -0.0048913085889879465 0 0.014156834251619024 -0.0035236268812653048 0 0.016160160507526958 -0.0037866137149250179 0 0.016040707043731155 -0.0054966917917612483 0 0.017843861550694794 -0.0034036557185351266 0 0.019177181814534729 -0.0035057697896097337 0 0.020986923288431405 -0.004081131958790658 0 0.020868394882328768 -0.0045716564745282478 0 0.019177181814534729 -0.0035057697896097337 0 0.02000198316830264 -0.0048911300998026163 0 0.020868394882328768 -0.0045716564745282478 0 0.020986923288431405 -0.004081131958790658 0 0.02199312602236116 -0.0046736333411924813 0 0.020946708276496095 -0.002801078863700535 0 0.020986923288431405 -0.004081131958790658 0 0.021701336106412328 -0.0047960291832487298 0 0.02199312602236116 -0.0046736333411924813 0 0.021701336106412328 -0.0047960291832487298 0 0.021899097441738839 -0.0044986582205603911 0 0.02199312602236116 -0.0046736333411924813 0 0.021701336106412328 -0.0047960291832487298 0 0.021988735678527362 -0.0050235487690187776 0 0.021899097441738839 -0.0044986582205603911 0 0.020986923288431405 -0.004081131958790658 0 0.021701336106412328 -0.0047960291832487298 0 0.020868394882328768 -0.0045716564745282478 0 0.021701336106412328 -0.0047960291832487298 0 0.021988735678527362 -0.0050235487690187776 0 0.020868394882328768 -0.0045716564745282478 0 0.021988735678527362 -0.0050235487690187776 0 0.02000198316830264 -0.0048911300998026163 0 0.020868394882328768 -0.0045716564745282478 0 0.023098188565895052 -0.00481568502385968 0 0.022052807817311369 -0.0050513849560067095 0 0.019512116583715978 -0.006307805535935615 0 0.021988735678527362 -0.0050235487690187776 0 0.02000198316830264 -0.0048911300998026163 0 0.026558876462745556 -0.0034210933073218737 0 0.021988735678527362 -0.0050235487690187776 0 0.024550403851482352 -0.0031726314835167097 0 0.021988735678527362 -0.0050235487690187776 0 0.024550403851482352 -0.0031726314835167097 0 0.021899097441738839 -0.0044986582205603911 0 0.024110934603463311 -0.002681919324568053 0 0.025409576153514791 -0.0014019299365641376 0 0.024550403851482352 -0.0031726314835167097 0 0.021899097441738839 -0.0044986582205603911 0 0.025647809107276723 -0.0012820502519907987 0 0.026139634082975871 -0.00077598418618444077 0 0.025647809107276723 -0.0012820502519907987 0 0.02621966765514528 -0.00075148233335257226 0 0.025647809107276723 -0.0012820502519907987 0 0.026444227225295044 -0.00068549749207128679 0 0.02621966765514528 -0.00075148233335257226 0 0.026747548649249709 -0.0021223047674205817 0 0.024550403851482352 -0.0031726314835167097 0 0.025647809107276723 -0.0012820502519907987 0 0.026401789201523623 -4.4805996974911199e-05 0 0.025903631983178566 -0.00065126417650022321 0 0.026444227225295044 -0.00068549749207128679 0 0.025903631983178566 -0.00065126417650022321 0 0.026444227225295044 -0.00068549749207128679 0 0.025968319706317081 -0.00081007899340708532 0 0.026444227225295044 -0.00068549749207128679 0 0.02621966765514528 -0.00075148233335257226 0 0.025968319706317081 -0.00081007899340708532 0 0.02621966765514528 -0.00075148233335257226 0 0.025931675372639466 -0.00098429213487465235 0 0.025968319706317081 -0.00081007899340708532 0 0.026139634082975871 -0.00077598418618444077 0 0.02621966765514528 -0.00075148233335257226 0 0.025931675372639466 -0.00098429213487465235 0 0.025903631983178566 -0.00065126417650022321 0 0.025968319706317081 -0.00081007899340708532 0 0.025535016208612239 -0.0012038878143352475 0 0.025931675372639466 -0.00098429213487465235 0 0.025968319706317081 -0.00081007899340708532 0 0.025535016208612239 -0.0012038878143352475 0 0.02520860386585896 -0.001352443060801745 0 0.025535016208612239 -0.0012038878143352475 0 0.024803719439899865 -0.0018558973512985697 0 0.024110934603463311 -0.002681919324568053 0 0.023834291097413141 -0.0030321013508166606 0 0.025931675372639466 -0.00098429213487465235 0 0.025535016208612239 -0.0012038878143352475 0 0.02573681827677737 -0.0015978086721772262 0 0.026139634082975871 -0.00077598418618444077 0 0.025931675372639466 -0.00098429213487465235 0 0.02573681827677737 -0.0015978086721772262 0 0.023834291097413141 -0.0030321013508166606 0 0.023828679891519145 -0.0023114707193670667 0 0.02573681827677737 -0.0015978086721772262 0 0.024803719439899865 -0.0018558973512985697 0 0.023712222515656887 -0.0023133073345952947 0 0.025535016208612239 -0.0012038878143352475 0 0.02573681827677737 -0.0015978086721772262 0 0.024803719439899865 -0.0018558973512985697 0 0.023712222515656887 -0.0023133073345952947 0 0.024490011382656253 -0.00199561783814256 0 0.024108768053904352 -0.0015006768279980296 0 0.024803719439899865 -0.0018558973512985697 0 0.023712222515656887 -0.0023133073345952947 0 0.024490011382656253 -0.00199561783814256 0 0.02199312602236116 -0.0046736333411924813 0 0.023712222515656887 -0.0023133073345952947 0 0.020946708276496095 -0.002801078863700535 0 0.023712222515656887 -0.0023133073345952947 0 0.021762075100424383 -0.00080843863406655748 0 0.020946708276496095 -0.002801078863700535 0 0.023712222515656887 -0.0023133073345952947 0 0.021762075100424383 -0.00080843863406655748 0 0.024108768053904352 -0.0015006768279980296 0 0.023668418112431193 -0.00031246778217157558 0 0.021762075100424383 -0.00080843863406655748 0 0.024108768053904352 -0.0015006768279980296 0 0.023668418112431193 -0.00031246778217157558 0 0.021762075100424383 -0.00080843863406655748 0 0.0226378903463921 0.0011482211428106056 0 0.021762075100424383 -0.00080843863406655748 0 0.020990934578829442 0.00091708405765065701 0 0.0226378903463921 0.0011482211428106056 0 0.020990934578829442 0.00091708405765065701 0 0.0226378903463921 0.0011482211428106056 0 0.020353757971147135 0.0029456575615851971 0 0.023668418112431193 -0.00031246778217157558 0 0.0226378903463921 0.0011482211428106056 0 0.02381797011366097 0.00057984632621819478 0 0.0226378903463921 0.0011482211428106056 0 0.023954239083984231 0.001416951040397836 0 0.02365642130868725 0.00215763177936012 0 0.0226378903463921 0.0011482211428106056 0 0.023954239083984231 0.001416951040397836 0 0.02381797011366097 0.00057984632621819478 0 0.019052831799957516 0.00052892341798171038 0 0.015162919798492974 0.00045802654362586909 0 0.016902648048860363 0.0028072436833221381 0 0.020990934578829442 0.00091708405765065701 0 0.019052831799957516 0.00052892341798171038 0 0.020353757971147135 0.0029456575615851971 0 0.021762075100424383 -0.00080843863406655748 0 0.019052831799957516 0.00052892341798171038 0 0.018488949807796314 -0.0017936163403419218 0 0.021762075100424383 -0.00080843863406655748 0 0.020990934578829442 0.00091708405765065701 0 0.019052831799957516 0.00052892341798171038 0 0.019052831799957516 0.00052892341798171038 0 0.018488949807796314 -0.0017936163403419218 0 0.015162919798492974 0.00045802654362586909 0 0.019177181814534729 -0.0035057697896097337 0 0.020986923288431405 -0.004081131958790658 0 0.020946708276496095 -0.002801078863700535 0 0.019177181814534729 -0.0035057697896097337 0 0.018488949807796314 -0.0017936163403419218 0 0.020946708276496095 -0.002801078863700535 0 0.021762075100424383 -0.00080843863406655748 0 0.018488949807796314 -0.0017936163403419218 0 0.020946708276496095 -0.002801078863700535 0 0.017843861550694794 -0.0034036557185351266 0 0.01846330776198998 -0.0018432911293682396 0 0.018488949807796314 -0.0017936163403419218 0 0.014395321570184881 -0.0023956380637784828 0 0.014314037305534691 -0.00091933445977542829 0 0.016160160507526958 -0.0037866137149250179 0 0.018488949807796314 -0.0017936163403419218 0 0.014395321570184881 -0.0023956380637784828 0 0.014156834251619024 -0.0035236268812653048 0 0.016160160507526958 -0.0037866137149250179 0 0.014395321570184881 -0.0023956380637784828 0 0.014156834251619024 -0.0035236268812653048 0 0.014395321570184881 -0.0023956380637784828 0 0.013093970046942877 -0.002301468884601528 0 0.014395321570184881 -0.0023956380637784828 0 0.012631672419047462 -0.0011359965501358967 0 0.014314037305534691 -0.00091933445977542829 0 0.012708609507029435 -0.002997933932629572 0 0.013093970046942877 -0.002301468884601528 0 0.012039687851128996 -0.0017272598388716324 0 0.012708609507029435 -0.002997933932629572 0 0.012039687851128996 -0.0017272598388716324 0 0.011891458962527288 -0.0027813619722722445 0 0.014156834251619024 -0.0035236268812653048 0 0.012708609507029435 -0.002997933932629572 0 0.013093970046942877 -0.002301468884601528 0 0.014395321570184881 -0.0023956380637784828 0 0.013093970046942877 -0.002301468884601528 0 0.012631672419047462 -0.0011359965501358967 0 0.013093970046942877 -0.002301468884601528 0 0.012039687851128996 -0.0017272598388716324 0 0.012631672419047462 -0.0011359965501358967 0 0.012039687851128996 -0.0017272598388716324 0 0.012631672419047462 -0.0011359965501358967 0 0.011748793584208536 -0.0005598886770321025 0 0.012631672419047462 -0.0011359965501358967 0 0.012204083066893853 -6.9813570078695869e-05 0 0.014314037305534691 -0.00091933445977542829 0 0.012631672419047462 -0.0011359965501358967 0 0.012204083066893853 -6.9813570078695869e-05 0 0.011748793584208536 -0.0005598886770321025 0 0.012204083066893853 -6.9813570078695869e-05 0 0.011748793584208536 -0.0005598886770321025 0 0.01158726744268946 -0.00019821792028378206 0 0.018488949807796314 -0.0017936163403419218 0 0.014314037305534691 -0.00091933445977542829 0 0.015162919798492974 0.00045802654362586909 0 0.012204083066893853 -6.9813570078695869e-05 0 0.014314037305534691 -0.00091933445977542829 0 0.015162919798492974 0.00045802654362586909 0 0.012204083066893853 -6.9813570078695869e-05 0 0.015162919798492974 0.00045802654362586909 0 0.01248086723929784 0.0013398103223965121 0 0.01248086723929784 0.0013398103223965121 0 0.010887392224213173 0.00060847675387874409 0 0.010157733275401868 0.0015319174284593663 0 0.01256458476457408 0.0015009306917834542 0 0.01356519619534732 0.0020870602444038101 0 0.015162919798492974 0.00045802654362586909 0 0.01248086723929784 0.0013398103223965121 0 0.016902648048860363 0.0028072436833221381 0 0.01248086723929784 0.0013398103223965121 0 0.011212774475948423 0.00057202366268696331 0 0.0115047279557967 0.00079623966477113031 0 0.011212774475948423 0.00057202366268696331 0 0.010887392224213173 0.00060847675387874409 0 0.010568837948461208 0.00020597187625317478 0 0.01248086723929784 0.0013398103223965121 0 0.011212774475948423 0.00057202366268696331 0 0.010887392224213173 0.00060847675387874409 0 0.010887392224213173 0.00060847675387874409 0 0.010250314800757767 0.0001540069715040469 0 0.010138792022779756 0.00051350525742123107 0 0.010887392224213173 0.00060847675387874409 0 0.010157733275401868 0.0015319174284593663 0 0.010138792022779756 0.00051350525742123107 0 0.012204083066893853 -6.9813570078695869e-05 0 0.01248086723929784 0.0013398103223965121 0 0.0115047279557967 0.00079623966477113031 0 0.012076523485527083 -9.8972250743458251e-05 0 0.011236727079405859 0.00014751829218669925 0 0.012204083066893853 -6.9813570078695869e-05 0 0.010857577099893961 0.00050284854190029695 0 0.0115047279557967 0.00079623966477113031 0 0.011212774475948423 0.00057202366268696331 0 0.0115047279557967 0.00079623966477113031 0 0.010571209064589306 0.0002826507086144106 0 0.010857577099893961 0.00050284854190029695 0 0.0115047279557967 0.00079623966477113031 0 0.010571209064589306 0.0002826507086144106 0 0.010857577099893961 0.00050284854190029695 0 0.010571209064589306 0.0002826507086144106 0 0.010099471993934917 8.137212675471254e-05 0 0.011236727079405859 0.00014751829218669925 0 0.010506226809692048 -2.4575525476338828e-05 0 0.010571209064589306 0.0002826507086144106 0 0.010084712023632543 6.9723463775164649e-06 0 0.0098281339237183667 -3.3336507144177992e-05 0 0.010571209064589306 0.0002826507086144106 0 0.0098281339237183667 -3.3336507144177992e-05 0 0.010099471993934917 8.137212675471254e-05 0 0.011212774475948423 0.00057202366268696331 0 0.010571209064589306 0.0002826507086144106 0 0.010620088997910301 0.00021408875981823267 0 0.010571209064589306 0.0002826507086144106 0 0.010193999659952012 -1.56466913468791e-05 0 0.010620088997910301 0.00021408875981823267 0 0.010571209064589306 0.0002826507086144106 0 0.010193999659952012 -1.56466913468791e-05 0 0.010084712023632543 6.9723463775164649e-06 0 0.010193999659952012 -1.56466913468791e-05 0 0.0099129841782937163 -0.00016921171770266973 0 0.0097036727274834814 -0.00016168986662359885 0 0.010193999659952012 -1.56466913468791e-05 0 0.010084712023632543 6.9723463775164649e-06 0 0.0097036727274834814 -0.00016168986662359885 0 0.010084712023632543 6.9723463775164649e-06 0 0.0098281339237183667 -3.3336507144177992e-05 0 0.0097036727274834814 -0.00016168986662359885 0 0.010887392224213173 0.00060847675387874409 0 0.010250314800757767 0.0001540069715040469 0 0.010568837948461208 0.00020597187625317478 0 0.010250314800757767 0.0001540069715040469 0 0.010568837948461208 0.00020597187625317478 0 0.010147433759308006 -6.544210763580225e-05 0 0.011212774475948423 0.00057202366268696331 0 0.010568837948461208 0.00020597187625317478 0 0.010620088997910301 0.00021408875981823267 0 0.010568837948461208 0.00020597187625317478 0 0.010620088997910301 0.00021408875981823267 0 0.010234574241290048 -3.1623222350932587e-05 0 0.010568837948461208 0.00020597187625317478 0 0.010234574241290048 -3.1623222350932587e-05 0 0.010147433759308006 -6.544210763580225e-05 0 0.010193999659952012 -1.56466913468791e-05 0 0.010620088997910301 0.00021408875981823267 0 0.010234574241290048 -3.1623222350932587e-05 0 0.010193999659952012 -1.56466913468791e-05 0 0.010234574241290048 -3.1623222350932587e-05 0 0.0099129841782937163 -0.00016921171770266973 0 0.010234574241290048 -3.1623222350932587e-05 0 0.010012316112034745 -0.00016027107287845967 0 0.010147433759308006 -6.544210763580225e-05 0 0.010234574241290048 -3.1623222350932587e-05 0 0.010012316112034745 -0.00016027107287845967 0 0.0099129841782937163 -0.00016921171770266973 0 0.010012316112034745 -0.00016027107287845967 0 0.010147433759308006 -6.544210763580225e-05 0 0.0099162624160833764 -0.00022518648112412646 0 0.010250314800757767 0.0001540069715040469 0 0.010147433759308006 -6.544210763580225e-05 0 0.0099614144746065954 -9.855572309462066e-05 0 0.010147433759308006 -6.544210763580225e-05 0 0.0099614144746065954 -9.855572309462066e-05 0 0.0099162624160833764 -0.00022518648112412646 0 0.0098261051176102183 -0.00021569492504074929 0 0.0099614144746065954 -9.855572309462066e-05 0 0.0099162624160833764 -0.00022518648112412646 0 0.0098261051176102183 -0.00021569492504074929 0 0.0097507473325634132 -0.00012582653819983151 0 0.0096674221789684774 -0.00026535013194741716 0 0.0098261051176102183 -0.00021569492504074929 0 0.0097507473325634132 -0.00012582653819983151 0 0.0099614144746065954 -9.855572309462066e-05 0 0.0097507473325634132 -0.00012582653819983151 0 0.0099614144746065954 -9.855572309462066e-05 0 0.0098635439869769349 9.2588053911789938e-05 0 0.0098635439869769349 9.2588053911789938e-05 0 0.0094515537629932256 -5.0567140538982914e-06 0 0.0096102394464036341 0.00066329121288885898 0 0.010250314800757767 0.0001540069715040469 0 0.0099614144746065954 -9.855572309462066e-05 0 0.0098635439869769349 9.2588053911789938e-05 0 0.0097507473325634132 -0.00012582653819983151 0 0.0098635439869769349 9.2588053911789938e-05 0 0.0094515537629932256 -5.0567140538982914e-06 0 0.0098635439869769349 9.2588053911789938e-05 0 0.010138792022779756 0.00051350525742123107 0 0.0096102394464036341 0.00066329121288885898 0 0.010250314800757767 0.0001540069715040469 0 0.0098635439869769349 9.2588053911789938e-05 0 0.010138792022779756 0.00051350525742123107 0 0.0094515537629932256 -5.0567140538982914e-06 0 0.0096102394464036341 0.00066329121288885898 0 0.0090358833992192529 0.0005953002310003265 0 0.0094515537629932256 -5.0567140538982914e-06 0 0.0087682707327042704 0.00029874331991295298 0 0.0090358833992192529 0.0005953002310003265 0 0.0094515537629932256 -5.0567140538982914e-06 0 0.0089519693616065144 -5.1107280605663533e-05 0 0.009279331632933558 -0.0004280663164695924 0 0.0094515537629932256 -5.0567140538982914e-06 0 0.0089519693616065144 -5.1107280605663533e-05 0 0.0087682707327042704 0.00029874331991295298 0 0.0089519693616065144 -5.1107280605663533e-05 0 0.0092062540620394921 -0.00071848254332972127 0 0.0084765930348457107 4.2879501880931929e-05 0 0.0089519693616065144 -5.1107280605663533e-05 0 0.009279331632933558 -0.0004280663164695924 0 0.0092062540620394921 -0.00071848254332972127 0 0.0095229625420023452 -0.00020937424257323262 0 0.0085381222604248228 -0.00021373587438096108 0 0.0080680061892311403 -0.0001386513809267253 0 0.0088550420197576977 -0.00030651456520806321 0 0.0094515537629932256 -5.0567140538982914e-06 0 0.009279331632933558 -0.0004280663164695924 0 0.0095110971603219949 -0.00094958092696636022 0 0.0097507473325634132 -0.00012582653819983151 0 0.0094515537629932256 -5.0567140538982914e-06 0 0.0096674221789684774 -0.00026535013194741716 0 0.009279331632933558 -0.0004280663164695924 0 0.0095110971603219949 -0.00094958092696636022 0 0.0092062540620394921 -0.00071848254332972127 0 0.0077755260214953251 -0.00013101918187852506 0 0.0079777776085284274 -0.00027770104587103629 0 0.0077664982147043664 -2.6519003548020969e-05 0 0.0085381222604248228 -0.00021373587438096108 0 0.0080680061892311403 -0.0001386513809267253 0 0.0060497353238973773 0.00081062805930851955 0 0.0060757728443606683 0.0010369502105167755 0 0.0058314555555216653 0.0010613398668583571 0 0.0080680061892311403 -0.0001386513809267253 0 0.0072479291878749562 0.00031918865707173142 0 0.0060497353238973773 0.00081062805930851955 0 0.0063067595144549599 0.00090085004777111825 0 0.0060757728443606683 0.0010369502105167755 0 0.0060497353238973773 0.00081062805930851955 0 0.0063067595144549599 0.00090085004777111825 0 0.0065876411578726776 0.00067479070608346945 0 0.0063067595144549599 0.00090085004777111825 0 0.0065429014482891691 0.00088824929756040603 0 0.0063117726282740701 0.0011022610775114857 0 0.0090965480636010336 -0.00071698658558334708 0 0.0084765930348457107 4.2879501880931929e-05 0 0.0083196997525843506 -0.00016925985811483947 0 0.0060497353238973773 0.00081062805930851955 0 0.0065876411578726776 0.00067479070608346945 0 0.0067039335721436142 0.0004453323425799362 0 0.0080680061892311403 -0.0001386513809267253 0 0.007407504768326083 0.00022916529162330439 0 0.0063067595144549599 0.00090085004777111825 0 0.0065429014482891691 0.00088824929756040603 0 0.0065876411578726776 0.00067479070608346945 0 0.0065429014482891691 0.00088824929756040603 0 0.0065876411578726776 0.00067479070608346945 0 0.0068653021315979446 0.00072404413461640035 0 0.0065429014482891691 0.00088824929756040603 0 0.0068653021315979446 0.00072404413461640035 0 0.0068632202279457887 0.0010342621210364363 0 0.006802708900347316 0.00058426617965972845 0 0.0065876411578726776 0.00067479070608346945 0 0.0068653021315979446 0.00072404413461640035 0 0.006802708900347316 0.00058426617965972845 0 0.0065876411578726776 0.00067479070608346945 0 0.0067039335721436142 0.0004453323425799362 0 0.0068653021315979446 0.00072404413461640035 0 0.0072416436054047592 0.00071088273623051701 0 0.0068632202279457887 0.0010342621210364363 0 0.0068653021315979446 0.00072404413461640035 0 0.0072416436054047592 0.00071088273623051701 0 0.0070340358956532687 0.00050644437426766102 0 0.006802708900347316 0.00058426617965972845 0 0.0068653021315979446 0.00072404413461640035 0 0.0070340358956532687 0.00050644437426766102 0 0.007329869375208603 0.00043197362676073158 0 0.007407504768326083 0.00022916529162330439 0 0.0067342113638296855 0.00022341765950854598 0 0.0070450067997133367 0.00032634416902687882 0 0.0079194881104465709 0.00028150939480963073 0 0.0073213785437083326 0.00049773980801327312 0 0.0083196997525843506 -0.00016925985811483947 0 0.0070340358956532687 0.00050644437426766102 0 0.0073213785437083326 0.00049773980801327312 0 0.0067039335721436142 0.0004453323425799362 0 0.0071101675838680812 -6.6863752368982762e-05 0 0.0071442756467508094 0.00042451473263009789 0 0.0070437807931018961 0.00048580916039846889 0 0.0070340358956532687 0.00050644437426766102 0 0.0072223340559088335 0.00037077739826265146 0 0.0073213785437083326 0.00049773980801327312 0 0.0067342113638296855 0.00022341765950854598 0 0.0071874148699938526 0.00046614953531546758 0 0.0072416436054047592 0.00071088273623051701 0 0.0070340358956532687 0.00050644437426766102 0 0.0072223340559088335 0.00037077739826265146 0 0.0079194881104465709 0.00028150939480963073 0 0.0073213785437083326 0.00049773980801327312 0 0.0077862789436870944 0.00068714513802571066 0 0.0079194881104465709 0.00028150939480963073 0 0.008085846631371638 0.00052387152152580851 0 0.0077862789436870944 0.00068714513802571066 0 0.0072223340559088335 0.00037077739826265146 0 0.0073213785437083326 0.00049773980801327312 0 0.0073290476658392483 0.00094228788436151673 0 0.0071442756467508094 0.00042451473263009789 0 0.0073290476658392483 0.00094228788436151673 0 0.0070437807931018961 0.00048580916039846889 0 0.0089519693616065144 -5.1107280605663533e-05 0 0.0084765930348457107 4.2879501880931929e-05 0 0.0087682707327042704 0.00029874331991295298 0 0.006802708900347316 0.00058426617965972845 0 0.0070340358956532687 0.00050644437426766102 0 0.0067039335721436142 0.0004453323425799362 0 0.0079194881104465709 0.00028150939480963073 0 0.0083196997525843506 -0.00016925985811483947 0 0.0082564152271173089 0.00013138652405428523 0 0.0084765930348457107 4.2879501880931929e-05 0 0.0083196997525843506 -0.00016925985811483947 0 0.0082564152271173089 0.00013138652405428523 0 0.008085846631371638 0.00052387152152580851 0 0.0083023006671407093 0.0003686933282801315 0 0.0083336220406542393 0.00075544181277035452 0 0.0084765930348457107 4.2879501880931929e-05 0 0.0082564152271173089 0.00013138652405428523 0 0.0083023006671407093 0.0003686933282801315 0 0.0079194881104465709 0.00028150939480963073 0 0.0082564152271173089 0.00013138652405428523 0 0.0083023006671407093 0.0003686933282801315 0 0.0079194881104465709 0.00028150939480963073 0 0.008085846631371638 0.00052387152152580851 0 0.0083023006671407093 0.0003686933282801315 0 0.0083023006671407093 0.0003686933282801315 0 0.0087682707327042704 0.00029874331991295298 0 0.0083336220406542393 0.00075544181277035452 0 0.0084765930348457107 4.2879501880931929e-05 0 0.0083023006671407093 0.0003686933282801315 0 0.0087682707327042704 0.00029874331991295298 0 0.0083336220406542393 0.00075544181277035452 0 0.0080233406241126612 0.0010899019136088738 0 0.0090017924895325774 0.0015329363188375919 0 0.0083336220406542393 0.00075544181277035452 0 0.0090017924895325774 0.0015329363188375919 0 0.0090358833992192529 0.0005953002310003265 0 0.0087682707327042704 0.00029874331991295298 0 0.0083336220406542393 0.00075544181277035452 0 0.0090358833992192529 0.0005953002310003265 0 0.008085846631371638 0.00052387152152580851 0 0.0083336220406542393 0.00075544181277035452 0 0.0077862789436870944 0.00068714513802571066 0 0.0083336220406542393 0.00075544181277035452 0 0.0080233406241126612 0.0010899019136088738 0 0.0077862789436870944 0.00068714513802571066 0 0.0073213785437083326 0.00049773980801327312 0 0.0077862789436870944 0.00068714513802571066 0 0.0073290476658392483 0.00094228788436151673 0 0.0071874148699938526 0.00046614953531546758 0 0.0072789021254277952 0.00085653359970475735 0 0.0073290476658392483 0.00094228788436151673 0 0.0070052879044272846 0.00071473107043354964 0 0.0070437807931018961 0.00048580916039846889 0 0.0080233406241126612 0.0010899019136088738 0 0.0077862789436870944 0.00068714513802571066 0 0.0073290476658392483 0.00094228788436151673 0 0.0080233406241126612 0.0010899019136088738 0 0.0073290476658392483 0.00094228788436151673 0 0.0076317163506813123 0.0015025572700546729 0 0.0226378903463921 0.0011482211428106056 0 0.022848239501679822 0.00276952141355131 0 0.02365642130868725 0.00215763177936012 0 0.0080233406241126612 0.0010899019136088738 0 0.0076317163506813123 0.0015025572700546729 0 0.0090017924895325774 0.0015329363188375919 0 0.0226378903463921 0.0011482211428106056 0 0.022848239501679822 0.00276952141355131 0 0.020353757971147135 0.0029456575615851971 0 0.015701423979553788 0.0022952188650881243 0 0.01453497767375786 0.0022122438674568178 0 0.0090017924895325774 0.0015329363188375919 0 0.010157733275401868 0.0015319174284593663 0 0.0096102394464036341 0.00066329121288885898 0 0.019052831799957516 0.00052892341798171038 0 0.020353757971147135 0.0029456575615851971 0 0.016902648048860363 0.0028072436833221381 0 0.01453497767375786 0.0022122438674568178 0 0.01356519619534732 0.0020870602444038101 0 0.010157733275401868 0.0015319174284593663 0 0.010138792022779756 0.00051350525742123107 0 0.0096102394464036341 0.00066329121288885898 0 0.0090017924895325774 0.0015329363188375919 0 0.0096102394464036341 0.00066329121288885898 0 0.0090358833992192529 0.0005953002310003265 0 0.013438449084382588 -5.102026957289855e-07 0 0.012925616454607752 -0.00019351002933763232 0 0.01367393396784935 -0.00015165098076664048 0 0.012925616454607752 -0.00019351002933763232 0 0.01367393396784935 -0.00015165098076664048 0 0.012149813030600705 -0.00040290703929735387 0 0.01367393396784935 -0.00015165098076664048 0 0.015303646834020204 0.00052754001957856485 0 0.012647577260305926 0.00041589401066367864 0 0.01367393396784935 -0.00015165098076664048 0 0.015257920811465498 4.7181308896394511e-07 0 0.015303646834020204 0.00052754001957856485 0 0.013438449084382588 -5.102026957289855e-07 0 0.01367393396784935 -0.00015165098076664048 0 0.015257920811465498 4.7181308896394511e-07 0 0.015257920811465498 4.7181308896394511e-07 0 0.017075276734269867 4.2788329175413108e-07 0 0.015303646834020204 0.00052754001957856485 0 0.017248552773724394 -0.00014128669495939273 0 0.017075276734269867 4.2788329175413108e-07 0 0.015303646834020204 0.00052754001957856485 0 0.015408266916592452 0.00053834909548925282 0 0.015164407021144855 0.0014703144281590622 0 0.017248552773724394 -0.00014128669495939273 0 0.015303646834020204 0.00052754001957856485 0 0.01734348665076416 3.2807978429524788e-06 0 0.015303646834020204 0.00052754001957856485 0 0.012647577260305926 0.00041589401066367864 0 0.012939683466843755 0.0013609210923501453 0 0.012647577260305926 0.00041589401066367864 0 0.012939683466843755 0.0013609210923501453 0 0.011318433615303498 0.0016696249835397741 0 0.015303646834020204 0.00052754001957856485 0 0.012939683466843755 0.0013609210923501453 0 0.013015382640053384 0.0027541779949413472 0 0.012939683466843755 0.0013609210923501453 0 0.013015382640053384 0.0027541779949413472 0 0.011318433615303498 0.0016696249835397741 0 0.010848541327936858 -0.00044725049895092528 0 0.010809985623843716 -0.00030640024625821957 0 0.010853037861958223 -0.00036342750111721515 0 0.011400318527095223 0.0042659948480061136 0 0.013015382640053384 0.0027541779949413472 0 0.011318433615303498 0.0016696249835397741 0 0.012647577260305926 0.00041589401066367864 0 0.011318433615303498 0.0016696249835397741 0 0.011096332701528272 -0.00040994027438543318 0 0.010654707093190038 0.00085535259662838199 0 0.011203616250334532 -0.0004693580398778634 0 0.010809985623843716 -0.00030640024625821957 0 0.011096332701528272 -0.00040994027438543318 0 0.010820604590311181 -0.00039487504208643827 0 0.01367393396784935 -0.00015165098076664048 0 0.012647577260305926 0.00041589401066367864 0 0.012194440198862415 -0.00026636840808062805 0 0.012647577260305926 0.00041589401066367864 0 0.011096332701528272 -0.00040994027438543318 0 0.012194440198862415 -0.00026636840808062805 0 0.012194440198862415 -0.00026636840808062805 0 0.011326544069971706 -0.00047435957151090559 0 0.012149813030600705 -0.00040290703929735387 0 0.01367393396784935 -0.00015165098076664048 0 0.012194440198862415 -0.00026636840808062805 0 0.012149813030600705 -0.00040290703929735387 0 0.011096332701528272 -0.00040994027438543318 0 0.012194440198862415 -0.00026636840808062805 0 0.011326544069971706 -0.00047435957151090559 0 0.011096332701528272 -0.00040994027438543318 0 0.011326544069971706 -0.00047435957151090559 0 0.010706520080072536 -0.00054387247105041042 0 0.011326544069971706 -0.00047435957151090559 0 0.010706520080072536 -0.00054387247105041042 0 0.010822709486305196 -0.00051389593691175738 0 0.010706520080072536 -0.00054387247105041042 0 0.010628357022566618 -0.00047361648311718894 0 0.010822709486305196 -0.00051389593691175738 0 0.010726927841366515 -0.0007199359546140639 0 0.010906995835495484 -0.00060696804286185463 0 0.010628357022566618 -0.00047361648311718894 0 0.010706520080072536 -0.00054387247105041042 0 0.010726927841366515 -0.0007199359546140639 0 0.010628357022566618 -0.00047361648311718894 0 0.010726927841366515 -0.0007199359546140639 0 0.010558216833278691 -0.00062532991322559474 0 0.010595779870927731 -0.001161652121657327 0 0.010726927841366515 -0.0007199359546140639 0 0.010595779870927731 -0.001161652121657327 0 0.010885369627634192 -0.0013280926983885116 0 0.010706520080072536 -0.00054387247105041042 0 0.010726927841366515 -0.0007199359546140639 0 0.010558216833278691 -0.00062532991322559474 0 0.011096332701528272 -0.00040994027438543318 0 0.010558216833278691 -0.00062532991322559474 0 0.010820604590311181 -0.00039487504208643827 0 0.011096332701528272 -0.00040994027438543318 0 0.010706520080072536 -0.00054387247105041042 0 0.010558216833278691 -0.00062532991322559474 0 0.010558216833278691 -0.00062532991322559474 0 0.010820604590311181 -0.00039487504208643827 0 0.010810556072040955 -0.00027178540539370957 0 0.010499526114902964 -0.00073180395580115291 0 0.010388488253954688 -0.0011045798062473565 0 0.010558216833278691 -0.00062532991322559474 0 0.0098762637517444615 -0.0019173515082829724 0 0.010595779870927731 -0.001161652121657327 0 0.010809985623843716 -0.00030640024625821957 0 0.010820604590311181 -0.00039487504208643827 0 0.010810556072040955 -0.00027178540539370957 0 0.010055520393189677 -0.0019396882385355741 0 0.010388488253954688 -0.0011045798062473565 0 0.010809985623843716 -0.00030640024625821957 0 0.010810556072040955 -0.00027178540539370957 0 0.010853037861958223 -0.00036342750111721515 0 0.0097211142096795908 -0.0031970877040130461 0 0.0098762637517444615 -0.0019173515082829724 0 0.010348337528159599 -0.0024979368991347654 0 0.010922333371818319 -0.00040851687795154755 0 0.010810556072040955 -0.00027178540539370957 0 0.010853037861958223 -0.00036342750111721515 0 0.010614940506104653 -0.0033081940205792896 0 0.010348337528159599 -0.0024979368991347654 0 0.010893639452478239 -0.0023525897474529186 0 0.0098762637517444615 -0.0019173515082829724 0 0.010348337528159599 -0.0024979368991347654 0 0.010564925762282238 -0.00177218593212993 0 0.010348337528159599 -0.0024979368991347654 0 0.010564925762282238 -0.00177218593212993 0 0.010893639452478239 -0.0023525897474529186 0 0.010564925762282238 -0.00177218593212993 0 0.010885369627634192 -0.0013280926983885116 0 0.010893639452478239 -0.0023525897474529186 0 0.0098762637517444615 -0.0019173515082829724 0 0.010564925762282238 -0.00177218593212993 0 0.010595779870927731 -0.001161652121657327 0 0.010564925762282238 -0.00177218593212993 0 0.010595779870927731 -0.001161652121657327 0 0.010885369627634192 -0.0013280926983885116 0 0.010885369627634192 -0.0013280926983885116 0 0.011382848254357477 -0.0019499032854485721 0 0.010893639452478239 -0.0023525897474529186 0 0.010885369627634192 -0.0013280926983885116 0 0.011382848254357477 -0.0019499032854485721 0 0.011238875472604461 -0.00087561571627276663 0 0.011308204142771019 -0.0029553195787462736 0 0.011382848254357477 -0.0019499032854485721 0 0.010893639452478239 -0.0023525897474529186 0 0.011308204142771019 -0.0029553195787462736 0 0.011382848254357477 -0.0019499032854485721 0 0.011891458962527288 -0.0027813619722722445 0 0.012039687851128996 -0.0017272598388716324 0 0.011382848254357477 -0.0019499032854485721 0 0.011891458962527288 -0.0027813619722722445 0 0.012039687851128996 -0.0017272598388716324 0 0.011382848254357477 -0.0019499032854485721 0 0.011238875472604461 -0.00087561571627276663 0 0.012039687851128996 -0.0017272598388716324 0 0.011748793584208536 -0.0005598886770321025 0 0.011238875472604461 -0.00087561571627276663 0 0.010726927841366515 -0.0007199359546140639 0 0.010885369627634192 -0.0013280926983885116 0 0.011238875472604461 -0.00087561571627276663 0 0.011238875472604461 -0.00087561571627276663 0 0.010906995835495484 -0.00060696804286185463 0 0.011064435841561089 -0.00040994854228438394 0 0.010726927841366515 -0.0007199359546140639 0 0.011238875472604461 -0.00087561571627276663 0 0.010906995835495484 -0.00060696804286185463 0 0.011748793584208536 -0.0005598886770321025 0 0.011238875472604461 -0.00087561571627276663 0 0.011064435841561089 -0.00040994854228438394 0 0.011748793584208536 -0.0005598886770321025 0 0.01158726744268946 -0.00019821792028378206 0 0.011064435841561089 -0.00040994854228438394 0 0.01158726744268946 -0.00019821792028378206 0 0.011064435841561089 -0.00040994854228438394 0 0.010929748533388375 -0.00017104059864990584 0 0.010906995835495484 -0.00060696804286185463 0 0.011064435841561089 -0.00040994854228438394 0 0.010628357022566618 -0.00047361648311718894 0 0.011064435841561089 -0.00040994854228438394 0 0.01061706543819887 -0.00032786374837862086 0 0.010628357022566618 -0.00047361648311718894 0 0.011064435841561089 -0.00040994854228438394 0 0.01061706543819887 -0.00032786374837862086 0 0.010929748533388375 -0.00017104059864990584 0 0.0098281339237183667 -3.3336507144177992e-05 0 0.010099471993934917 8.137212675471254e-05 0 0.0094101213641170998 -0.0001389288357977791 0 0.0098281339237183667 -3.3336507144177992e-05 0 0.0094101213641170998 -0.0001389288357977791 0 0.0090716691217051885 -0.00028978838483079692 0 0.01061706543819887 -0.00032786374837862086 0 0.010240045631419538 -0.00023175909256619467 0 0.010271244041112945 -0.00040597405449292469 0 0.01061706543819887 -0.00032786374837862086 0 0.010929748533388375 -0.00017104059864990584 0 0.010240045631419538 -0.00023175909256619467 0 0.010506226809692048 -2.4575525476338828e-05 0 0.0098136177747865927 -0.00020538391622463716 0 0.010240045631419538 -0.00023175909256619467 0 0.010271244041112945 -0.00040597405449292469 0 0.0097315231798291869 -0.00035906798583754059 0 0.0098136177747865927 -0.00020538391622463716 0 0.0091994773684492704 -0.00029781923612797563 0 0.010240045631419538 -0.00023175909256619467 0 0.0097315231798291869 -0.00035906798583754059 0 0.0090608290494081593 -0.0003361344371786393 0 0.0097315231798291869 -0.00035906798583754059 0 0.01020392630617707 -0.00044594326960213865 0 0.0097426382801313847 -0.00047824791203669975 0 0.0097315231798291869 -0.00035906798583754059 0 0.0097426382801313847 -0.00047824791203669975 0 0.0090324906728128599 -0.00040699781607491487 0 0.010271244041112945 -0.00040597405449292469 0 0.0097315231798291869 -0.00035906798583754059 0 0.01020392630617707 -0.00044594326960213865 0 0.010271244041112945 -0.00040597405449292469 0 0.01020392630617707 -0.00044594326960213865 0 0.010541091836690199 -0.00046444539800293038 0 0.01020392630617707 -0.00044594326960213865 0 0.010541091836690199 -0.00046444539800293038 0 0.010706568014995249 -0.00046650100551038834 0 0.01061706543819887 -0.00032786374837862086 0 0.010271244041112945 -0.00040597405449292469 0 0.010628357022566618 -0.00047361648311718894 0 0.010271244041112945 -0.00040597405449292469 0 0.010541091836690199 -0.00046444539800293038 0 0.010628357022566618 -0.00047361648311718894 0 0.010541091836690199 -0.00046444539800293038 0 0.010822709486305196 -0.00051389593691175738 0 0.010706568014995249 -0.00046650100551038834 0 0.010541091836690199 -0.00046444539800293038 0 0.010628357022566618 -0.00047361648311718894 0 0.010822709486305196 -0.00051389593691175738 0 0.010822709486305196 -0.00051389593691175738 0 0.011278046127101969 -0.00047595638321195293 0 0.010706568014995249 -0.00046650100551038834 0 0.011326544069971706 -0.00047435957151090559 0 0.010822709486305196 -0.00051389593691175738 0 0.011278046127101969 -0.00047595638321195293 0 0.011326544069971706 -0.00047435957151090559 0 0.011278046127101969 -0.00047595638321195293 0 0.012149813030600705 -0.00040290703929735387 0 0.011278046127101969 -0.00047595638321195293 0 0.012149813030600705 -0.00040290703929735387 0 0.011371268362406652 -0.00040235549691497636 0 0.011371268362406652 -0.00040235549691497636 0 0.010706568014995249 -0.00046650100551038834 0 0.010566943631903533 -0.00046681707099160627 0 0.011278046127101969 -0.00047595638321195293 0 0.011371268362406652 -0.00040235549691497636 0 0.010706568014995249 -0.00046650100551038834 0 0.01020392630617707 -0.00044594326960213865 0 0.010706568014995249 -0.00046650100551038834 0 0.010566943631903533 -0.00046681707099160627 0 0.01020392630617707 -0.00044594326960213865 0 0.0097426382801313847 -0.00047824791203669975 0 0.010566943631903533 -0.00046681707099160627 0 0.0097426382801313847 -0.00047824791203669975 0 0.010421464954848794 -0.00066641919732883157 0 0.010566943631903533 -0.00046681707099160627 0 0.011371268362406652 -0.00040235549691497636 0 0.010566943631903533 -0.00046681707099160627 0 0.01151457265996453 -0.00040922116174506692 0 0.0086387113398713449 -0.00024462395092502125 0 0.0093792373076467574 8.7284518491424003e-05 0 0.008813437175754479 -0.00023603378065485884 0 0.010421464954848794 -0.00066641919732883157 0 0.010566943631903533 -0.00046681707099160627 0 0.01151457265996453 -0.00040922116174506692 0 0.0095666028624535986 -0.00039153692000889101 0 0.01042329495641086 -0.00023294740393567408 0 0.0093792373076467574 8.7284518491424003e-05 0 0.0097020984147429042 -6.2145776148144335e-07 0 0.008813437175754479 -0.00023603378065485884 0 0.0093792373076467574 8.7284518491424003e-05 0 0.0097020984147429042 -6.2145776148144335e-07 0 0.011619536539339528 1.0432422935365785e-06 0 0.01151457265996453 -0.00040922116174506692 0 0.011623941747183626 -9.6018917702140341e-07 0 0.012159766285210734 -0.00026674851934084873 0 0.01042329495641086 -0.00023294740393567408 0 0.011620549898760912 -2.1411795138778737e-07 0 0.011371268362406652 -0.00040235549691497636 0 0.01151457265996453 -0.00040922116174506692 0 0.012159766285210734 -0.00026674851934084873 0 0.012149813030600705 -0.00040290703929735387 0 0.011371268362406652 -0.00040235549691497636 0 0.012159766285210734 -0.00026674851934084873 0 0.012925616454607752 -0.00019351002933763232 0 0.012149813030600705 -0.00040290703929735387 0 0.012159766285210734 -0.00026674851934084873 0 0.013438449084382588 -5.102026957289855e-07 0 0.011623941747183626 -9.6018917702140341e-07 0 0.012159766285210734 -0.00026674851934084873 0 0.013438449084382588 -5.102026957289855e-07 0 0.012925616454607752 -0.00019351002933763232 0 0.012159766285210734 -0.00026674851934084873 0 0.0047365799112770593 -1.218899657477092e-07 0 0.0040285509224164424 0.00010872636516479107 0 0.0033027913771421806 -5.3889697776638274e-05 0 0.0047365799112770593 -1.218899657477092e-07 0 0.0040285509224164424 0.00010872636516479107 0 0.0051783198737055018 6.5366062319087862e-05 0 0.0026225259657127798 0.00040649915237634055 0 0.0025734338458165674 0.00075486612084939709 0 0.002918748915937199 0.00058905467874449517 0 0.0026225259657127798 0.00040649915237634055 0 0.0025734338458165674 0.00075486612084939709 0 0.0024088438975187823 0.00032091595426781842 0 0.0083893873676856353 -0.00038181527690156426 0 0.0083986812505665986 -0.00014353252785978825 0 0.0084108835530367285 -2.5623584343593998e-05 0 0.0025734338458165674 0.00075486612084939709 0 0.002918748915937199 0.00058905467874449517 0 0.0032733765403286318 0.0012986615040849591 0 0.0083893873676856353 -0.00038181527690156426 0 0.0083986812505665986 -0.00014353252785978825 0 0.0082650683267951417 -0.00025927657584652467 0 0.0054980297698545262 0.00029322366421936946 0 0.0058303048739584739 0.00035531128108916272 0 0.0047365799112770593 -1.218899657477092e-07 0 0.0051783198737055018 6.5366062319087862e-05 0 0.0068166034418588465 1.0787550323874183e-06 0 0.0051783198737055018 6.5366062319087862e-05 0 0.0055533827565572994 0.00018178822248237169 0 0.0068166034418588465 1.0787550323874183e-06 0 0.0040285509224164424 0.00010872636516479107 0 0.0051783198737055018 6.5366062319087862e-05 0 0.0055533827565572994 0.00018178822248237169 0 0.0033290771605892803 0.00025498555258318055 0 0.0058303048739584739 0.00035531128108916272 0 0.0058303048739584739 0.00035531128108916272 0 0.0068177060992428758 2.2487520638220365e-07 0 0.0062983291174950251 1.4192359818195805e-06 0 0.0068203654422344271 4.3174257739722764e-09 0 0.0077828333656921773 -9.6835996733722891e-10 0 0.0084108835530367285 -2.5623584343593998e-05 0 0.0084409434888636642 -7.5061668260067432e-05 0 0.0077878901879581191 -4.6119739546680086e-07 0 0.0058303048739584739 0.00035531128108916272 0 0.0077849737851319331 -3.0771473552363965e-07 0 0.0084409434888636642 -7.5061668260067432e-05 0 0.0077878901879581191 -4.6119739546680086e-07 0 0.008813437175754479 -0.00023603378065485884 0 0.0097020984147429042 -6.2145776148144335e-07 0 0.0077878901879581191 -4.6119739546680086e-07 0 0.008813437175754479 -0.00023603378065485884 0 0.0084409434888636642 -7.5061668260067432e-05 0 0.008813437175754479 -0.00023603378065485884 0 0.0085647603454574624 -0.00024562988095386306 0 0.0086387113398713449 -0.00024462395092502125 0 0.008813437175754479 -0.00023603378065485884 0 0.0085647603454574624 -0.00024562988095386306 0 0.0083986812505665986 -0.00014353252785978825 0 0.0084108835530367285 -2.5623584343593998e-05 0 0.0084409434888636642 -7.5061668260067432e-05 0 0.0083986812505665986 -0.00014353252785978825 0 0.0084409434888636642 -7.5061668260067432e-05 0 0.0085647603454574624 -0.00024562988095386306 0 0.0083986812505665986 -0.00014353252785978825 0 0.0085647603454574624 -0.00024562988095386306 0 0.0082925337895408541 -0.00022119932661952363 0 0.0085647603454574624 -0.00024562988095386306 0 0.0088851782366677224 -0.00043270832622908218 0 0.0082925337895408541 -0.00022119932661952363 0 0.0086387113398713449 -0.00024462395092502125 0 0.0085647603454574624 -0.00024562988095386306 0 0.0088851782366677224 -0.00043270832622908218 0 0.0095666028624535986 -0.00039153692000889101 0 0.0090298951360566499 -0.00041565261485498 0 0.0097426382801313847 -0.00047824791203669975 0 0.010421464954848794 -0.00066641919732883157 0 0.0088851782366677224 -0.00043270832622908218 0 0.0097426382801313847 -0.00047824791203669975 0 0.0088851782366677224 -0.00043270832622908218 0 0.0090324906728128599 -0.00040699781607491487 0 0.0088851782366677224 -0.00043270832622908218 0 0.008271827926848066 -0.00036557898299645878 0 0.0082925337895408541 -0.00022119932661952363 0 0.0088851782366677224 -0.00043270832622908218 0 0.008271827926848066 -0.00036557898299645878 0 0.0090324906728128599 -0.00040699781607491487 0 0.008271827926848066 -0.00036557898299645878 0 0.0077439998578608393 -0.00038449832143065948 0 0.0082925337895408541 -0.00022119932661952363 0 0.008271827926848066 -0.00036557898299645878 0 0.0077439998578608393 -0.00038449832143065948 0 0.0075263329621686687 -0.00048848443124059008 0 0.0083986812505665986 -0.00014353252785978825 0 0.0082925337895408541 -0.00022119932661952363 0 0.0082650683267951417 -0.00025927657584652467 0 0.0083893873676856353 -0.00038181527690156426 0 0.0082650683267951417 -0.00025927657584652467 0 0.0079947871750030101 -0.0004041862511908683 0 0.0082925337895408541 -0.00022119932661952363 0 0.0082650683267951417 -0.00025927657584652467 0 0.0079947871750030101 -0.0004041862511908683 0 0.0077439998578608393 -0.00038449832143065948 0 0.0082925337895408541 -0.00022119932661952363 0 0.0079947871750030101 -0.0004041862511908683 0 0.0083893873676856353 -0.00038181527690156426 0 0.0079947871750030101 -0.0004041862511908683 0 0.0076731999326500938 -0.00090180857487798043 0 0.0025734338458165674 0.00075486612084939709 0 0.0020578646503817705 0.00025396751879741412 0 0.0024088438975187823 0.00032091595426781842 0 0.0077439998578608393 -0.00038449832143065948 0 0.0079947871750030101 -0.0004041862511908683 0 0.0075832234861997099 -0.00066980414836535665 0 0.0054980297698545262 0.00029322366421936946 0 0.004949772655992027 -0.00087373432890624949 0 0.0079947871750030101 -0.0004041862511908683 0 0.0075832234861997099 -0.00066980414836535665 0 0.0076731999326500938 -0.00090180857487798043 0 0.0058529858472455148 -0.0010565642532908638 0 0.004949772655992027 -0.00087373432890624949 0 0.0075832234861997099 -0.00066980414836535665 0 0.0071325493657943845 -0.00057910871711907154 0 0.0063721854323165825 -0.00084193840512128101 0 0.0075832234861997099 -0.00066980414836535665 0 0.0063721854323165825 -0.00084193840512128101 0 0.0075405208981062033 -0.0010374114875086806 0 0.0071325493657943845 -0.00057910871711907154 0 0.0068774909734261964 -0.00067033345095739388 0 0.0063721854323165825 -0.00084193840512128101 0 0.0077439998578608393 -0.00038449832143065948 0 0.0071325493657943845 -0.00057910871711907154 0 0.0075263329621686687 -0.00048848443124059008 0 0.0071325493657943845 -0.00057910871711907154 0 0.0068774909734261964 -0.00067033345095739388 0 0.0075263329621686687 -0.00048848443124059008 0 0.0077439998578608393 -0.00038449832143065948 0 0.0075832234861997099 -0.00066980414836535665 0 0.0071325493657943845 -0.00057910871711907154 0 0.0068774909734261964 -0.00067033345095739388 0 0.0074374956235853705 -0.00057880810877101974 0 0.0075263329621686687 -0.00048848443124059008 0 0.0068774909734261964 -0.00067033345095739388 0 0.0074374956235853705 -0.00057880810877101974 0 0.0063284135719692781 -0.00077473341824381263 0 0.0068774909734261964 -0.00067033345095739388 0 0.0063284135719692781 -0.00077473341824381263 0 0.0063721854323165825 -0.00084193840512128101 0 0.0074374956235853705 -0.00057880810877101974 0 0.007444620627213747 -0.00056624417098815228 0 0.0063284135719692781 -0.00077473341824381263 0 0.0074374956235853705 -0.00057880810877101974 0 0.0082984001167755329 -0.00047736307064955372 0 0.007444620627213747 -0.00056624417098815228 0 0.0074374956235853705 -0.00057880810877101974 0 0.0082699465851233979 -0.00043864364242117795 0 0.0082984001167755329 -0.00047736307064955372 0 0.0074374956235853705 -0.00057880810877101974 0 0.0075263329621686687 -0.00048848443124059008 0 0.0082699465851233979 -0.00043864364242117795 0 0.008271827926848066 -0.00036557898299645878 0 0.0075263329621686687 -0.00048848443124059008 0 0.0082699465851233979 -0.00043864364242117795 0 0.008271827926848066 -0.00036557898299645878 0 0.0082699465851233979 -0.00043864364242117795 0 0.0090324906728128599 -0.00040699781607491487 0 0.0082699465851233979 -0.00043864364242117795 0 0.0090324906728128599 -0.00040699781607491487 0 0.0090608290494081593 -0.0003361344371786393 0 0.0097315231798291869 -0.00035906798583754059 0 0.0090324906728128599 -0.00040699781607491487 0 0.0090608290494081593 -0.0003361344371786393 0 0.0082699465851233979 -0.00043864364242117795 0 0.0090608290494081593 -0.0003361344371786393 0 0.0082984001167755329 -0.00047736307064955372 0 0.0090608290494081593 -0.0003361344371786393 0 0.0082984001167755329 -0.00047736307064955372 0 0.0090716691217051885 -0.00028978838483079692 0 0.0094101213641170998 -0.0001389288357977791 0 0.0090608290494081593 -0.0003361344371786393 0 0.0090716691217051885 -0.00028978838483079692 0 0.0090716691217051885 -0.00028978838483079692 0 0.0084630425022146193 -0.00042520781270584819 0 0.0091505067819328094 -0.00031885148452560002 0 0.0082984001167755329 -0.00047736307064955372 0 0.0090716691217051885 -0.00028978838483079692 0 0.0084630425022146193 -0.00042520781270584819 0 0.0082984001167755329 -0.00047736307064955372 0 0.0084630425022146193 -0.00042520781270584819 0 0.007444620627213747 -0.00056624417098815228 0 0.0084630425022146193 -0.00042520781270584819 0 0.007444620627213747 -0.00056624417098815228 0 0.0077112696997970387 -0.00032404923912821395 0 0.007444620627213747 -0.00056624417098815228 0 0.0077112696997970387 -0.00032404923912821395 0 0.0064597011545878711 -0.00045548046741108447 0 0.0077112696997970387 -0.00032404923912821395 0 0.0069044805918518255 -0.00017152452671527875 0 0.0064597011545878711 -0.00045548046741108447 0 0.0069044805918518255 -0.00017152452671527875 0 0.0059244425342760724 0.00013758929686130328 0 0.0064597011545878711 -0.00045548046741108447 0 0.0069044805918518255 -0.00017152452671527875 0 0.0059244425342760724 0.00013758929686130328 0 0.0077282626505000345 0.00032321067337901682 0 0.0077112696997970387 -0.00032404923912821395 0 0.0069044805918518255 -0.00017152452671527875 0 0.0077282626505000345 0.00032321067337901682 0 0.0037833178390508644 0.0027939687526807072 0 0.0034768831076200809 0.0032184800984335136 0 0.0062871242887591631 0.0010404558691629543 0 0.0059244425342760724 0.00013758929686130328 0 0.0077282626505000345 0.00032321067337901682 0 0.0013121282282494825 0.0047648773738449834 0 -0.00085382320212369796 0.0061657063713413647 0 -0.00031430262905418794 0.0045278499595533799 0 -0.000772924221931527 0.0032730355186258906 0 0.00069855162653581937 0.0034107407939646776 0 -0.00031430262905418794 0.0045278499595533799 0 0.00069855162653581937 0.0034107407939646776 0 0.0013121282282494825 0.0047648773738449834 0 -0.00031430262905418794 0.0045278499595533799 0 0.0035732044561920945 0.0020834693750796012 0 0.0062871242887591631 0.0010404558691629543 0 0.0044994444198519007 0.0012541634341830404 0 0.0062871242887591631 0.0010404558691629543 0 0.0044994444198519007 0.0012541634341830404 0 0.0048560522380827996 0.00075993126995003112 0 0.0037027744749743852 0.0021466631178482156 0 0.0037833178390508644 0.0027939687526807072 0 0.0062871242887591631 0.0010404558691629543 0 0.0059244425342760724 0.00013758929686130328 0 0.0048560522380827996 0.00075993126995003112 0 0.0059244425342760724 0.00013758929686130328 0 0.0048560522380827996 0.00075993126995003112 0 0.0038303249263021196 0.00055403428709338098 0 0.0059244425342760724 0.00013758929686130328 0 0.0038303249263021196 0.00055403428709338098 0 0.0051985189492422422 -0.00038977665676760974 0 0.0048560522380827996 0.00075993126995003112 0 0.003369702042261574 0.0011403693459888147 0 0.0038303249263021196 0.00055403428709338098 0 0.0044994444198519007 0.0012541634341830404 0 0.0048560522380827996 0.00075993126995003112 0 0.003369702042261574 0.0011403693459888147 0 0.0023827821700205137 0.0011404718277844407 0 0.0038303249263021196 0.00055403428709338098 0 0.0020804750369774927 0.0008290171177331052 0 0.003369702042261574 0.0011403693459888147 0 0.0023827821700205137 0.0011404718277844407 0 0.0038303249263021196 0.00055403428709338098 0 0.0038303249263021196 0.00055403428709338098 0 0.0051985189492422422 -0.00038977665676760974 0 0.0032598692574996291 0.00013545989203960762 0 0.0038303249263021196 0.00055403428709338098 0 0.0032598692574996291 0.00013545989203960762 0 0.0020804750369774927 0.0008290171177331052 0 0.0051985189492422422 -0.00038977665676760974 0 0.0050804526929056288 -0.0011193213386234153 0 0.0032598692574996291 0.00013545989203960762 0 0.0059244425342760724 0.00013758929686130328 0 0.0051985189492422422 -0.00038977665676760974 0 0.0064597011545878711 -0.00045548046741108447 0 0.007444620627213747 -0.00056624417098815228 0 0.0064597011545878711 -0.00045548046741108447 0 0.0063284135719692781 -0.00077473341824381263 0 0.0051985189492422422 -0.00038977665676760974 0 0.0064597011545878711 -0.00045548046741108447 0 0.0063284135719692781 -0.00077473341824381263 0 0.0063284135719692781 -0.00077473341824381263 0 0.0050804526929056288 -0.0011193213386234153 0 0.0063721854323165825 -0.00084193840512128101 0 0.0051985189492422422 -0.00038977665676760974 0 0.0063284135719692781 -0.00077473341824381263 0 0.0050804526929056288 -0.0011193213386234153 0 0.0050804526929056288 -0.0011193213386234153 0 0.003154227699639303 -0.0027982543084648934 0 0.0022217469167935952 -0.00038497827754423441 0 0.0052498426547012986 -0.0013810608823080983 0 0.004949772655992027 -0.00087373432890624949 0 0.0050804526929056288 -0.0011193213386234153 0 0.0063721854323165825 -0.00084193840512128101 0 0.0075405208981062033 -0.0010374114875086806 0 0.004949772655992027 -0.00087373432890624949 0 0.0018439871213326111 -0.00033270106642745986 0 0.0020578646503817705 0.00025396751879741412 0 0.0022612752609010478 7.0124283594445692e-05 0 0.0020434131873406009 -0.00022659137088108162 0 0.0020578646503817705 0.00025396751879741412 0 0.0024088438975187823 0.00032091595426781842 0 0.0022612752609010478 7.0124283594445692e-05 0 0.0022612752609010478 7.0124283594445692e-05 0 0.0020434131873406009 -0.00022659137088108162 0 0.0025833081330898316 -3.1202048745018822e-05 0 0.0050804526929056288 -0.0011193213386234153 0 0.0022217469167935952 -0.00038497827754423441 0 0.0032598692574996291 0.00013545989203960762 0 0.0032598692574996291 0.00013545989203960762 0 0.0020804750369774927 0.0008290171177331052 0 0.0011519528128085238 0.00060293813190566274 0 0.00092085112364781961 0.00092041162253456502 0 0.0020804750369774927 0.0008290171177331052 0 0.0011519528128085238 0.00060293813190566274 0 0.0022217469167935952 -0.00038497827754423441 0 0.0032598692574996291 0.00013545989203960762 0 0.0011519528128085238 0.00060293813190566274 0 0.0018439871213326111 -0.00033270106642745986 0 0.0012465287840954281 0.00019795330413281871 0 0.0020434131873406009 -0.00022659137088108162 0 0.0013298139994347437 -0.00016028359100366107 0 0.002054883141371134 -0.00021395104505951345 0 0.0013298139994347437 -0.00016028359100366107 0 0.00057436850359009574 -5.1960191873944075e-07 0 0.002054883141371134 -0.00021395104505951345 0 5.2784959907777134e-05 -6.7055886597371759e-05 0 0.0013298139994347437 -0.00016028359100366107 0 0.00057436850359009574 -5.1960191873944075e-07 0 3.8908830352354496e-05 0.00031500908562413869 0 0.0012465287840954281 0.00019795330413281871 0 0.00057436850359009574 -5.1960191873944075e-07 0 0.0026554161192662369 -3.5172337248716373e-07 0 0.002054883141371134 -0.00021395104505951345 0 0.0026554161192662369 -3.5172337248716373e-07 0 0.002054883141371134 -0.00021395104505951345 0 0.0033027913771421806 -5.3889697776638274e-05 0 0.002054883141371134 -0.00021395104505951345 0 0.0025833081330898316 -3.1202048745018822e-05 0 0.0033027913771421806 -5.3889697776638274e-05 0 0.0020434131873406009 -0.00022659137088108162 0 0.002054883141371134 -0.00021395104505951345 0 0.0025833081330898316 -3.1202048745018822e-05 0 0.0033290771605892803 0.00025498555258318055 0 0.0027527480172591131 -9.2448916395607123e-05 0 0.0026225259657127798 0.00040649915237634055 0 0.002918748915937199 0.00058905467874449517 0 0.0025833081330898316 -3.1202048745018822e-05 0 0.0040285509224164424 0.00010872636516479107 0 0.0025833081330898316 -3.1202048745018822e-05 0 0.0033027913771421806 -5.3889697776638274e-05 0 0.0026225259657127798 0.00040649915237634055 0 0.0024088438975187823 0.00032091595426781842 0 0.0025833081330898316 -3.1202048745018822e-05 0 0.0024088438975187823 0.00032091595426781842 0 0.0022612752609010478 7.0124283594445692e-05 0 0.0025833081330898316 -3.1202048745018822e-05 0 0.0047365799112770593 -1.218899657477092e-07 0 0.0026554161192662369 -3.5172337248716373e-07 0 0.0033027913771421806 -5.3889697776638274e-05 0 0.0056871945018225735 0.0021735730345295691 0 0.0062709391057176687 0.0023174466617149623 0 0.0061980358348137869 0.0017355541908877761 0 -0.00022622867444745912 0.0050548231707523289 0 0.0014190702321512821 0.0043740735064173525 0 -0.0045885053973111177 0.0059577940903689786 0 -0.0043122143652376665 0.0065164068857830578 0 -0.0040587093253301306 0.0061010417113413276 0 -0.0046067450905476039 0.0079865932191154447 0 -0.0043234003492696269 0.0073181343552974716 0 -0.0040393982726444023 0.0075147511407358553 0 0.0049411175302304274 0.003425312731275314 0 0.0041894446986478978 0.0022555993372015046 0 0.0026521163614874489 0.0027075266151381128 0 -0.0046067450905476039 0.0079865932191154447 0 -0.0037321068371088157 0.0082036016188662061 0 -0.0040393982726444023 0.0075147511407358553 0 -0.00022622867444745912 0.0050548231707523289 0 0.0033766617402290985 0.0028034602678840403 0 -0.0046067450905476039 0.0079865932191154447 0 -0.0043234003492696269 0.0073181343552974716 0 -0.0046302101926005129 0.006818104021424784 0 -0.00022622867444745912 0.0050548231707523289 0 -0.0057255906962967174 0.0076995989509291837 0 -0.0043234003492696269 0.0073181343552974716 0 -0.0040393982726444023 0.0075147511407358553 0 -0.0040505984816251702 0.0069972915788414853 0 -0.0043234003492696269 0.0073181343552974716 0 -0.0040505984816251702 0.0069972915788414853 0 -0.0046302101926005129 0.006818104021424784 0 -0.0043122143652376665 0.0065164068857830578 0 -0.0044868366658606497 0.0067242243375547107 0 -0.0046302101926005129 0.006818104021424784 0 -0.0045885053973111177 0.0059577940903689786 0 -0.0043122143652376665 0.0065164068857830578 0 -0.0046302101926005129 0.006818104021424784 0 -0.003931868787045891 0.006530938300768902 0 -0.0034935742068266749 0.0062263760973129368 0 -0.0040587093253301306 0.0061010417113413276 0 -0.0043122143652376665 0.0065164068857830578 0 -0.003931868787045891 0.006530938300768902 0 -0.0040587093253301306 0.0061010417113413276 0 -0.003931868787045891 0.006530938300768902 0 -0.0034935742068266749 0.0062263760973129368 0 -0.0036126992491615855 0.0068954641693389791 0 -0.00089899855301826532 -0.00044903128826114452 0 -0.001004924866560318 0.00015570820603248784 0 -0.0005577252703962551 -0.00036053781596285492 0 0.0010215789276390927 0.0013819502792717761 0 -0.0047435431612916096 0.0051410035848053533 0 0.0010215789276390927 0.0013819502792717761 0 -0.0011683158753583885 -0.00028987923650185688 0 -0.00072302210856502224 -0.00043687464759245976 0 -0.00063414845262677207 -0.00078702880024182251 0 -0.000549592070437165 -0.00064753638988502313 0 0.0067274219329964231 0.0024060951572025383 0 0.0065994065907712908 0.0021308310516559843 0 0.0068073401972961198 0.0019145923999596627 0 -0.00072302210856502224 -0.00043687464759245976 0 -0.0005577252703962551 -0.00036053781596285492 0 -0.000549592070437165 -0.00064753638988502313 0 0.0010215789276390927 0.0013819502792717761 0 0.004937174220182727 0.0010884830001245472 0 0.0010215789276390927 0.0013819502792717761 0 0.0014190702321512821 0.0043740735064173525 0 0.0062709391057176687 0.0023174466617149623 0 0.006546954529219419 0.001908706507802872 0 0.0061980358348137869 0.0017355541908877761 0 0.0067274219329964231 0.0024060951572025383 0 0.0062709391057176687 0.0023174466617149623 0 0.0065994065907712908 0.0021308310516559843 0 0.0062709391057176687 0.0023174466617149623 0 0.0065994065907712908 0.0021308310516559843 0 0.006546954529219419 0.001908706507802872 0 0.0063651729362471359 0.0013603867565538546 0 0.006670933546183074 0.0014747065359548414 0 0.0061980358348137869 0.0017355541908877761 0 0.006546954529219419 0.001908706507802872 0 0.006670933546183074 0.0014747065359548414 0 0.0061980358348137869 0.0017355541908877761 0 0.0055891875427889525 0.000624023764133683 0 0.0056451739042460555 0.0003886821324929063 0 0.0056748853509931097 0.00061915237293502063 0 0.0070361952381141398 0.0018948452863739693 0 0.0071483668974672366 0.0012816208716665868 0 0.006670933546183074 0.0014747065359548414 0 0.004937174220182727 0.0010884830001245472 0 0.0064170156838135725 0.00088159454615868835 0 0.0063659230866047892 -0.00013563244020712824 0 0.003064167049239432 -0.00026257279570144043 0 -0.00063414845262677207 -0.00078702880024182251 0 -0.000549592070437165 -0.00064753638988502313 0 -0.00053394392016391614 -0.00078999154255137316 0 0.004937174220182727 0.0010884830001245472 0 0.003064167049239432 -0.00026257279570144043 0 0.0070845465454310282 0.0017404558261318 0 0.004937174220182727 0.0010884830001245472 0 0.0065994065907712908 0.0021308310516559843 0 0.006546954529219419 0.001908706507802872 0 0.0068073401972961198 0.0019145923999596627 0 0.006546954529219419 0.001908706507802872 0 0.0070361952381141398 0.0018948452863739693 0 0.006670933546183074 0.0014747065359548414 0 0.0057173092695227187 0.0001601624529000407 0 0.0056884456877653788 0.00038658928496676796 0 0.0056451739042460555 0.0003886821324929063 0 0.0056884456877653788 0.00038658928496676796 0 0.0056451739042460555 0.0003886821324929063 0 0.0056748853509931097 0.00061915237293502063 0 0.0067342113638296855 0.00022341765950854598 0 0.0063659230866047892 -0.00013563244020712824 0 0.0072416436054047592 0.00071088273623051701 0 0.0071483668974672366 0.0012816208716665868 0 0.0068632202279457887 0.0010342621210364363 0 0.0067342113638296855 0.00022341765950854598 0 0.0064170156838135725 0.00088159454615868835 0 0.0071483668974672366 0.0012816208716665868 0 0.0068632202279457887 0.0010342621210364363 0 0.006670933546183074 0.0014747065359548414 0 0.0063651729362471359 0.0013603867565538546 0 0.006670933546183074 0.0014747065359548414 0 0.006551775755899371 0.0011721174032598056 0 0.0065429014482891691 0.00088824929756040603 0 0.0068632202279457887 0.0010342621210364363 0 0.006551775755899371 0.0011721174032598056 0 0.0068632202279457887 0.0010342621210364363 0 0.006670933546183074 0.0014747065359548414 0 0.006551775755899371 0.0011721174032598056 0 0.0063651729362471359 0.0013603867565538546 0 0.006551775755899371 0.0011721174032598056 0 0.0063117726282740701 0.0011022610775114857 0 0.0065429014482891691 0.00088824929756040603 0 0.006551775755899371 0.0011721174032598056 0 0.0063117726282740701 0.0011022610775114857 0 0.0072479291878749562 0.00031918865707173142 0 0.0055072413098057934 0.001138020260477955 0 0.0063117726282740701 0.0011022610775114857 0 0.0060757728443606683 0.0010369502105167755 0 0.006046882653499782 0.0013458167304875271 0 0.0063067595144549599 0.00090085004777111825 0 0.0063117726282740701 0.0011022610775114857 0 0.0060757728443606683 0.0010369502105167755 0 0.0058314555555216653 0.0010613398668583571 0 0.006046882653499782 0.0013458167304875271 0 0.0057596195203612468 0.0016352392897469425 0 0.0060757728443606683 0.0010369502105167755 0 0.0058314555555216653 0.0010613398668583571 0 0.006046882653499782 0.0013458167304875271 0 0.0085381222604248228 -0.00021373587438096108 0 0.0072479291878749562 0.00031918865707173142 0 0.0063651729362471359 0.0013603867565538546 0 0.0063117726282740701 0.0011022610775114857 0 0.006046882653499782 0.0013458167304875271 0 0.0063651729362471359 0.0013603867565538546 0 0.006046882653499782 0.0013458167304875271 0 0.0061980358348137869 0.0017355541908877761 0 0.006046882653499782 0.0013458167304875271 0 0.0061980358348137869 0.0017355541908877761 0 0.0057596195203612468 0.0016352392897469425 0 0.0056871945018225735 0.0021735730345295691 0 0.0061980358348137869 0.0017355541908877761 0 0.0057596195203612468 0.0016352392897469425 0 -0.00022622867444745912 0.0050548231707523289 0 0.0055072413098057934 0.001138020260477955 0 0.0049411175302304274 0.003425312731275314 0 0.0051415691044113627 0.0015093556477289241 0 0.0041894446986478978 0.0022555993372015046 0 0.0041894446986478978 0.0022555993372015046 0 0.0039800323804995196 0.00114905887862026 0 0.0026521163614874489 0.0027075266151381128 0 0.0051415691044113627 0.0015093556477289241 0 0.0041894446986478978 0.0022555993372015046 0 0.0039800323804995196 0.00114905887862026 0 0.0095781028171882613 -0.00020366288311772228 0 0.0095719902825751428 -5.8610100147911993e-05 0 0.0097397351413712197 -0.00022106641543557479 0 0.005334332769157615 -0.00041663982200582908 0 0.0051415691044113627 0.0015093556477289241 0 0.0039800323804995196 0.00114905887862026 0 0.0072479291878749562 0.00031918865707173142 0 0.0071840765585734255 3.2189466799325112e-05 0 0.0093037004473564885 5.3860750648469323e-05 0 0.0095781028171882613 -0.00020366288311772228 0 0.0095719902825751428 -5.8610100147911993e-05 0 0.0098261051176102183 -0.00021569492504074929 0 0.0096674221789684774 -0.00026535013194741716 0 0.0098486670725644199 -0.00026812302265550903 0 0.0085381222604248228 -0.00021373587438096108 0 0.0097591810444635739 -0.0002503029965997071 0 0.0092963339532503401 0.00011713414118912844 0 0.0093037004473564885 5.3860750648469323e-05 0 0.0095719902825751428 -5.8610100147911993e-05 0 0.0098261051176102183 -0.00021569492504074929 0 0.0098486670725644199 -0.00026812302265550903 0 0.0099162624160833764 -0.00022518648112412646 0 0.0099162624160833764 -0.00022518648112412646 0 0.0098267475008035534 -0.0002215935375384687 0 0.0097397351413712197 -0.00022106641543557479 0 0.0098486670725644199 -0.00026812302265550903 0 0.0099162624160833764 -0.00022518648112412646 0 0.0097397351413712197 -0.00022106641543557479 0 0.0097591810444635739 -0.0002503029965997071 0 0.0097155108513414124 -0.00019366690207193478 0 0.0098267475008035534 -0.0002215935375384687 0 0.0096743098349197434 -0.00023961413712140771 0 0.0097397351413712197 -0.00022106641543557479 0 0.010012316112034745 -0.00016027107287845967 0 0.0099162624160833764 -0.00022518648112412646 0 0.0098267475008035534 -0.0002215935375384687 0 0.010012316112034745 -0.00016027107287845967 0 0.0099129841782937163 -0.00016921171770266973 0 0.0098267475008035534 -0.0002215935375384687 0 0.0099129841782937163 -0.00016921171770266973 0 0.0098267475008035534 -0.0002215935375384687 0 0.0096524436941931475 -0.00024679619999911034 0 0.0098267475008035534 -0.0002215935375384687 0 0.0096743098349197434 -0.00023961413712140771 0 0.0096524436941931475 -0.00024679619999911034 0 0.0096743098349197434 -0.00023961413712140771 0 0.0096524436941931475 -0.00024679619999911034 0 0.0095089592419669022 -0.00025242579337995496 0 0.0096524436941931475 -0.00024679619999911034 0 0.0095089592419669022 -0.00025242579337995496 0 0.0092882921236774312 -0.00028069913482646469 0 0.0096743098349197434 -0.00023961413712140771 0 0.0095089592419669022 -0.00025242579337995496 0 0.0096092802370608861 -0.00022756424383398643 0 0.0096092802370608861 -0.00022756424383398643 0 0.0096597181158036213 -0.00023954315001050014 0 0.0097397351413712197 -0.00022106641543557479 0 0.007986153732109048 0.0024095450392690862 0 0.0033766617402290985 0.0028034602678840403 0 0.0071840765585734255 3.2189466799325112e-05 0 0.0033766617402290985 0.0028034602678840403 0 0.0095781028171882613 -0.00020366288311772228 0 0.0096597181158036213 -0.00023954315001050014 0 0.0097397351413712197 -0.00022106641543557479 0 0.0096743098349197434 -0.00023961413712140771 0 0.0096092802370608861 -0.00022756424383398643 0 0.0097397351413712197 -0.00022106641543557479 0 0.0098281339237183667 -3.3336507144177992e-05 0 0.0090716691217051885 -0.00028978838483079692 0 0.0097036727274834814 -0.00016168986662359885 0 0.0090716691217051885 -0.00028978838483079692 0 0.0097036727274834814 -0.00016168986662359885 0 0.0091505067819328094 -0.00031885148452560002 0 0.0097036727274834814 -0.00016168986662359885 0 0.0095300218302719914 -0.00025207028817876743 0 0.0091505067819328094 -0.00031885148452560002 0 0.0099129841782937163 -0.00016921171770266973 0 0.0097036727274834814 -0.00016168986662359885 0 0.0095300218302719914 -0.00025207028817876743 0 0.0099129841782937163 -0.00016921171770266973 0 0.0096524436941931475 -0.00024679619999911034 0 0.0095300218302719914 -0.00025207028817876743 0 0.0095300218302719914 -0.00025207028817876743 0 0.0092882921236774312 -0.00028069913482646469 0 0.0091505067819328094 -0.00031885148452560002 0 0.0096524436941931475 -0.00024679619999911034 0 0.0095300218302719914 -0.00025207028817876743 0 0.0092882921236774312 -0.00028069913482646469 0 0.0084630425022146193 -0.00042520781270584819 0 0.0091505067819328094 -0.00031885148452560002 0 0.0087602757071293461 -0.00028886674081994308 0 0.0092882921236774312 -0.00028069913482646469 0 0.0087602757071293461 -0.00028886674081994308 0 0.0092565026772472771 -0.00010931784057192673 0 0.0092882921236774312 -0.00028069913482646469 0 0.0091505067819328094 -0.00031885148452560002 0 0.0087602757071293461 -0.00028886674081994308 0 0.0087602757071293461 -0.00028886674081994308 0 0.0092565026772472771 -0.00010931784057192673 0 0.0086142820170004245 3.3076813875496748e-05 0 0.0029805253810782548 0.00391821829475523 0 0.0032700067611984851 0.0034016709667321465 0 0.0084630425022146193 -0.00042520781270584819 0 0.0077112696997970387 -0.00032404923912821395 0 0.0087602757071293461 -0.00028886674081994308 0 0.0033766617402290985 0.0028034602678840403 0 0.0029805253810782548 0.00391821829475523 0 0.0096092802370608861 -0.00022756424383398643 0 0.0096586888625491436 -0.00019494668791922472 0 0.0092565026772472771 -0.00010931784057192673 0 -0.0037321068371088157 0.0082036016188662061 0 -0.0030739087861637151 0.0074940716584451297 0 -0.0036538990430006481 0.0074343228858443633 0 -0.0037321068371088157 0.0082036016188662061 0 -0.0036538990430006481 0.0074343228858443633 0 -0.0040393982726444023 0.0075147511407358553 0 0.0095089592419669022 -0.00025242579337995496 0 0.0096092802370608861 -0.00022756424383398643 0 0.0092565026772472771 -0.00010931784057192673 0 0.0095089592419669022 -0.00025242579337995496 0 0.0092882921236774312 -0.00028069913482646469 0 0.0092565026772472771 -0.00010931784057192673 0 -0.0030739087861637151 0.0074940716584451297 0 -0.0036538990430006481 0.0074343228858443633 0 -0.0033988422075477646 0.0069641783561455129 0 -0.0036538990430006481 0.0074343228858443633 0 -0.0040505984816251702 0.0069972915788414853 0 -0.0033988422075477646 0.0069641783561455129 0 -0.0036538990430006481 0.0074343228858443633 0 -0.0040393982726444023 0.0075147511407358553 0 -0.0040505984816251702 0.0069972915788414853 0 -0.0040505984816251702 0.0069972915788414853 0 -0.0039141465691714897 0.0065498291329983485 0 -0.0044023923366119299 0.0066977672333425244 0 -0.0039141465691714897 0.0065498291329983485 0 -0.0033988422075477646 0.0069641783561455129 0 -0.0033713684691320171 0.0063392235733920185 0 -0.0040505984816251702 0.0069972915788414853 0 -0.0039141465691714897 0.0065498291329983485 0 -0.0033988422075477646 0.0069641783561455129 0 -0.0030739087861637151 0.0074940716584451297 0 -0.0033988422075477646 0.0069641783561455129 0 -0.0022001082385411739 0.0069278154561175443 0 -0.0033988422075477646 0.0069641783561455129 0 -0.0033713684691320171 0.0063392235733920185 0 -0.0022001082385411739 0.0069278154561175443 0 -0.0033713684691320171 0.0063392235733920185 0 -0.0029496642415601454 0.0059096317943013194 0 -0.0022001082385411739 0.0069278154561175443 0 -0.0033713684691320171 0.0063392235733920185 0 -0.0029496642415601454 0.0059096317943013194 0 -0.0035785636948930935 0.0056721176582260448 0 -0.0033713684691320171 0.0063392235733920185 0 -0.0040773232794619942 0.0059718969126128464 0 -0.0035785636948930935 0.0056721176582260448 0 -0.0039141465691714897 0.0065498291329983485 0 -0.0040773232794619942 0.0059718969126128464 0 -0.0045004715844070937 0.0062926693489003911 0 -0.0039141465691714897 0.0065498291329983485 0 -0.0033713684691320171 0.0063392235733920185 0 -0.0040773232794619942 0.0059718969126128464 0 0.0077112696997970387 -0.00032404923912821395 0 0.0086142820170004245 3.3076813875496748e-05 0 0.0077282626505000345 0.00032321067337901682 0 0.0077112696997970387 -0.00032404923912821395 0 0.0087602757071293461 -0.00028886674081994308 0 0.0086142820170004245 3.3076813875496748e-05 0 -0.0029496642415601454 0.0059096317943013194 0 -0.0022001082385411739 0.0069278154561175443 0 -0.0022994272901440305 0.0055050690014012979 0 0.0032700067611984851 0.0034016709667321465 0 0.0034768831076200809 0.0032184800984335136 0 -0.0022001082385411739 0.0069278154561175443 0 -0.00085382320212369796 0.0061657063713413647 0 -0.0022994272901440305 0.0055050690014012979 0 -0.00085382320212369796 0.0061657063713413647 0 -0.0022994272901440305 0.0055050690014012979 0 -0.0016749162283698959 0.0046704689381141832 0 -0.00085382320212369796 0.0061657063713413647 0 -0.0016749162283698959 0.0046704689381141832 0 -0.00031430262905418794 0.0045278499595533799 0 -0.0027934136707188349 0.0039053016665943521 0 -0.0022994272901440305 0.0055050690014012979 0 -0.003351013925975871 0.0049844664437540308 0 -0.0027934136707188349 0.0039053016665943521 0 -0.0022994272901440305 0.0055050690014012979 0 -0.0016749162283698959 0.0046704689381141832 0 -0.0027934136707188349 0.0039053016665943521 0 -0.000772924221931527 0.0032730355186258906 0 -0.0016749162283698959 0.0046704689381141832 0 -0.000772924221931527 0.0032730355186258906 0 -0.0016749162283698959 0.0046704689381141832 0 -0.00031430262905418794 0.0045278499595533799 0 -0.0040773232794619942 0.0059718969126128464 0 -0.0035785636948930935 0.0056721176582260448 0 -0.0043089052167441686 0.0051234898418004654 0 -0.0035785636948930935 0.0056721176582260448 0 -0.003351013925975871 0.0049844664437540308 0 -0.0043089052167441686 0.0051234898418004654 0 -0.0029496642415601454 0.0059096317943013194 0 -0.0022994272901440305 0.0055050690014012979 0 -0.003351013925975871 0.0049844664437540308 0 -0.0029496642415601454 0.0059096317943013194 0 -0.0035785636948930935 0.0056721176582260448 0 -0.003351013925975871 0.0049844664437540308 0 -0.0034182069711483284 0.0039444695894343884 0 -0.0027934136707188349 0.0039053016665943521 0 -0.003351013925975871 0.0049844664437540308 0 -0.0034182069711483284 0.0039444695894343884 0 -0.003351013925975871 0.0049844664437540308 0 -0.0038704242016739778 0.0045760322204407931 0 -0.003351013925975871 0.0049844664437540308 0 -0.0038704242016739778 0.0045760322204407931 0 -0.0043089052167441686 0.0051234898418004654 0 -0.0043431801357356001 0.004160750722532457 0 -0.0038704242016739778 0.0045760322204407931 0 -0.0043089052167441686 0.0051234898418004654 0 -0.0043431801357356001 0.004160750722532457 0 -0.0043089052167441686 0.0051234898418004654 0 -0.0049029612668882849 0.0046772809165976622 0 -0.0043089052167441686 0.0051234898418004654 0 -0.0049029612668882849 0.0046772809165976622 0 -0.0051232968280199116 0.0052754511968092516 0 -0.0049029612668882849 0.0046772809165976622 0 -0.0055087691277521311 0.0046952563436445131 0 -0.0051232968280199116 0.0052754511968092516 0 -0.0055087691277521311 0.0046952563436445131 0 -0.0051232968280199116 0.0052754511968092516 0 -0.0058452770091519096 0.0051151531748013651 0 -0.0051232968280199116 0.0052754511968092516 0 -0.0046748739817230036 0.0057477560160458718 0 -0.0052946524188462627 0.0059586560526646015 0 -0.0051232968280199116 0.0052754511968092516 0 -0.0052946524188462627 0.0059586560526646015 0 -0.0058452770091519096 0.0051151531748013651 0 -0.0043089052167441686 0.0051234898418004654 0 -0.0051232968280199116 0.0052754511968092516 0 -0.0046748739817230036 0.0057477560160458718 0 -0.0040773232794619942 0.0059718969126128464 0 -0.0043089052167441686 0.0051234898418004654 0 -0.0046748739817230036 0.0057477560160458718 0 -0.0046748739817230036 0.0057477560160458718 0 -0.0045004715844070937 0.0062926693489003911 0 -0.0052946524188462627 0.0059586560526646015 0 -0.0040773232794619942 0.0059718969126128464 0 -0.0046748739817230036 0.0057477560160458718 0 -0.0045004715844070937 0.0062926693489003911 0 -0.0045004715844070937 0.0062926693489003911 0 -0.0052946524188462627 0.0059586560526646015 0 -0.0047190033436569634 0.00672323471600528 0 -0.0046945241747827181 0.0067476630745145283 0 -0.0049305432450624694 0.0067944413606794369 0 -0.0047190033436569634 0.00672323471600528 0 -0.0044868366658606497 0.0067242243375547107 0 -0.0041561886571273056 0.0069180344929527923 0 -0.0052946524188462627 0.0059586560526646015 0 -0.0047190033436569634 0.00672323471600528 0 -0.0056168833731084552 0.0066979810823938821 0 -0.0043122143652376665 0.0065164068857830578 0 -0.0044868366658606497 0.0067242243375547107 0 -0.0041561886571273056 0.0069180344929527923 0 -0.0047190033436569634 0.00672323471600528 0 -0.0044868366658606497 0.0067242243375547107 0 -0.0046302101926005129 0.006818104021424784 0 -0.0047190033436569634 0.00672323471600528 0 -0.0046302101926005129 0.006818104021424784 0 -0.0044023923366119299 0.0066977672333425244 0 -0.0040505984816251702 0.0069972915788414853 0 -0.0046302101926005129 0.006818104021424784 0 -0.0044023923366119299 0.0066977672333425244 0 -0.0039141465691714897 0.0065498291329983485 0 -0.0045004715844070937 0.0062926693489003911 0 -0.0044023923366119299 0.0066977672333425244 0 -0.0045004715844070937 0.0062926693489003911 0 -0.0047190033436569634 0.00672323471600528 0 -0.0044023923366119299 0.0066977672333425244 0 -0.0047435431612916096 0.0051410035848053533 0 -0.0033275547324273761 0.002882200538896186 0 -0.0062825983241846196 0.0059718953721649487 0 -0.0065746288125697059 0.005719900422369098 0 -0.006756886165307379 0.0060103566981738674 0 -0.0047435431612916096 0.0051410035848053533 0 -0.0049305432450624694 0.0067944413606794369 0 -0.003931868787045891 0.006530938300768902 0 -0.0036126992491615855 0.0068954641693389791 0 -0.0041561886571273056 0.0069180344929527923 0 -0.0043122143652376665 0.0065164068857830578 0 -0.003931868787045891 0.006530938300768902 0 -0.0041561886571273056 0.0069180344929527923 0 -0.0064046523865298926 0.0067145222992140256 0 -0.0056168833731084552 0.0066979810823938821 0 -0.0062155830647102053 0.0054998807624884721 0 -0.0052946524188462627 0.0059586560526646015 0 -0.0056168833731084552 0.0066979810823938821 0 -0.0062155830647102053 0.0054998807624884721 0 -0.0062155830647102053 0.0054998807624884721 0 -0.0068092277020534867 0.0053328781926317622 0 -0.0065746288125697059 0.005719900422369098 0 -0.0062825983241846196 0.0059718953721649487 0 -0.0062155830647102053 0.0054998807624884721 0 -0.0065746288125697059 0.005719900422369098 0 -0.0047435431612916096 0.0051410035848053533 0 -0.0066063668801838952 0.006086536266847237 0 -0.0062155830647102053 0.0054998807624884721 0 -0.0065611341844292077 0.0049371177729883847 0 -0.0068092277020534867 0.0053328781926317622 0 -0.0062155830647102053 0.0054998807624884721 0 -0.0058452770091519096 0.0051151531748013651 0 -0.0062334334733820931 0.0047743610651562341 0 -0.0052946524188462627 0.0059586560526646015 0 -0.0062155830647102053 0.0054998807624884721 0 -0.0058452770091519096 0.0051151531748013651 0 -0.006021936707290244 0.0046011230799013871 0 -0.0058452770091519096 0.0051151531748013651 0 -0.0062334334733820931 0.0047743610651562341 0 -0.006021936707290244 0.0046011230799013871 0 -0.0055087691277521311 0.0046952563436445131 0 -0.0058452770091519096 0.0051151531748013651 0 -0.0064577461811026029 0.004484965020022184 0 -0.0065611341844292077 0.0049371177729883847 0 -0.0062334334733820931 0.0047743610651562341 0 -0.0062155830647102053 0.0054998807624884721 0 -0.0065611341844292077 0.0049371177729883847 0 -0.0062334334733820931 0.0047743610651562341 0 -0.0064577461811026029 0.004484965020022184 0 -0.0067764723987691951 0.0045447566233489311 0 -0.0065611341844292077 0.0049371177729883847 0 -0.0067764723987691951 0.0045447566233489311 0 -0.0065611341844292077 0.0049371177729883847 0 -0.0069001691251269507 0.004916951142066678 0 -0.0067764723987691951 0.0045447566233489311 0 -0.0071529839504370345 0.0044840663527365883 0 -0.0069001691251269507 0.004916951142066678 0 -0.0071529839504370345 0.0044840663527365883 0 -0.0069001691251269507 0.004916951142066678 0 -0.0072676912035120507 0.0050183364103493925 0 -0.0071529839504370345 0.0044840663527365883 0 -0.0072676912035120507 0.0050183364103493925 0 -0.0074734381288869113 0.0046892980367627237 0 -0.0069001691251269507 0.004916951142066678 0 -0.0072676912035120507 0.0050183364103493925 0 -0.0068092277020534867 0.0053328781926317622 0 -0.0072676912035120507 0.0050183364103493925 0 -0.0068092277020534867 0.0053328781926317622 0 -0.0073344576973106207 0.0054946396196267691 0 -0.0065611341844292077 0.0049371177729883847 0 -0.0069001691251269507 0.004916951142066678 0 -0.0068092277020534867 0.0053328781926317622 0 -0.0077379021348173939 0.0043105549419554141 0 -0.0079017607137348168 0.0049226004843369578 0 -0.0083746275678784256 0.0045522805967115219 0 -0.0079017607137348168 0.0049226004843369578 0 -0.0083935507169896686 0.0050446824467436637 0 -0.0083746275678784256 0.0045522805967115219 0 -0.0077379021348173939 0.0043105549419554141 0 -0.0079017607137348168 0.0049226004843369578 0 -0.0074734381288869113 0.0046892980367627237 0 -0.0079017607137348168 0.0049226004843369578 0 -0.0074734381288869113 0.0046892980367627237 0 -0.0075729489289446559 0.0051475844619996765 0 -0.0072676912035120507 0.0050183364103493925 0 -0.0074734381288869113 0.0046892980367627237 0 -0.0075729489289446559 0.0051475844619996765 0 -0.0071529839504370345 0.0044840663527365883 0 -0.0077379021348173939 0.0043105549419554141 0 -0.0074734381288869113 0.0046892980367627237 0 -0.0072676912035120507 0.0050183364103493925 0 -0.0075729489289446559 0.0051475844619996765 0 -0.0073344576973106207 0.0054946396196267691 0 -0.0079017607137348168 0.0049226004843369578 0 -0.0075729489289446559 0.0051475844619996765 0 -0.0077771549916813756 0.0054180450296361995 0 -0.0075729489289446559 0.0051475844619996765 0 -0.0077771549916813756 0.0054180450296361995 0 -0.0073344576973106207 0.0054946396196267691 0 -0.0079017607137348168 0.0049226004843369578 0 -0.0081263200763264237 0.005300091804026805 0 -0.0083935507169896686 0.0050446824467436637 0 -0.0079017607137348168 0.0049226004843369578 0 -0.0081263200763264237 0.005300091804026805 0 -0.0077771549916813756 0.0054180450296361995 0 -0.0024810499854370969 0.0013671288104443364 0 -0.0043735737908211511 0.0034176298844141775 0 -0.0081263200763264237 0.005300091804026805 0 -0.008015274594601789 0.0056273948770144359 0 -0.0085514175978966683 0.00547720550072495 0 -0.008015274594601789 0.0056273948770144359 0 -0.007668940611225525 0.0057556634028329643 0 -0.0079085546681349535 0.0060886339416339856 0 -0.008015274594601789 0.0056273948770144359 0 -0.0079085546681349535 0.0060886339416339856 0 -0.0085514175978966683 0.00547720550072495 0 -0.0081263200763264237 0.005300091804026805 0 -0.008015274594601789 0.0056273948770144359 0 -0.0077771549916813756 0.0054180450296361995 0 -0.008015274594601789 0.0056273948770144359 0 -0.007668940611225525 0.0057556634028329643 0 -0.0077771549916813756 0.0054180450296361995 0 -0.007668940611225525 0.0057556634028329643 0 -0.0073344576973106207 0.0054946396196267691 0 -0.0073163552694249017 0.0060505040081672212 0 -0.007668940611225525 0.0057556634028329643 0 -0.0077771549916813756 0.0054180450296361995 0 -0.0073344576973106207 0.0054946396196267691 0 0.00038208990508231807 -0.00013611666445457988 0 -1.6331440187704812e-05 -2.9003365185780744e-05 0 0.00010580649624335294 -0.00026868624574976252 0 -0.0024810499854370969 0.0013671288104443364 0 -0.0039823706977528016 0.0031382420773780973 0 0.00038208990508231807 -0.00013611666445457988 0 0.00040887106009509372 -0.00010313946496842668 0 -1.6331440187704812e-05 -2.9003365185780744e-05 0 -0.007668940611225525 0.0057556634028329643 0 -0.0079085546681349535 0.0060886339416339856 0 -0.0073163552694249017 0.0060505040081672212 0 -0.0024810499854370969 0.0013671288104443364 0 0.0009425383829447854 -0.0001498754516314866 0 0.00041033631629698678 -0.00010541833963973458 0 0.00055315442943124939 -0.00029600578930887196 0 0.00074277341382468325 -0.00015699020252285699 0 0.00038208990508231807 -0.00013611666445457988 0 0.00041033631629698678 -0.00010541833963973458 0 0.00055315442943124939 -0.00029600578930887196 0 -0.0022762248532256476 0.0013661541070906094 0 -0.0024810499854370969 0.0013671288104443364 0 -0.0065746288125697059 0.005719900422369098 0 -0.0069737992925366114 0.0057037367682360278 0 -0.006756886165307379 0.0060103566981738674 0 -0.0068092277020534867 0.0053328781926317622 0 -0.0065746288125697059 0.005719900422369098 0 -0.0069737992925366114 0.0057037367682360278 0 -0.0069737992925366114 0.0057037367682360278 0 -0.0073344576973106207 0.0054946396196267691 0 -0.0073163552694249017 0.0060505040081672212 0 -0.0068092277020534867 0.0053328781926317622 0 -0.0069737992925366114 0.0057037367682360278 0 -0.0073344576973106207 0.0054946396196267691 0 -1.6331440187704812e-05 -2.9003365185780744e-05 0 -0.00045125362052754101 6.0665526480497778e-05 0 -0.00021722752794958922 -0.00032696989477772759 0 -0.0039823706977528016 0.0031382420773780973 0 -0.0033275547324273761 0.002882200538896186 0 -0.0069737992925366114 0.0057037367682360278 0 -0.0073163552694249017 0.0060505040081672212 0 -0.006756886165307379 0.0060103566981738674 0 -0.001004924866560318 0.00015570820603248784 0 -0.00045125362052754101 6.0665526480497778e-05 0 -0.0005577252703962551 -0.00036053781596285492 0 -0.0005577252703962551 -0.00036053781596285492 0 -0.00040494721230447832 -0.0004912534475551418 0 -0.00021722752794958922 -0.00032696989477772759 0 -0.00045125362052754101 6.0665526480497778e-05 0 -0.0005577252703962551 -0.00036053781596285492 0 -0.00021722752794958922 -0.00032696989477772759 0 -0.00040494721230447832 -0.0004912534475551418 0 -0.00027536267437012688 -0.0006100069090043378 0 -0.00021722752794958922 -0.00032696989477772759 0 -0.0005577252703962551 -0.00036053781596285492 0 -0.00040494721230447832 -0.0004912534475551418 0 -0.000549592070437165 -0.00064753638988502313 0 -0.00027536267437012688 -0.0006100069090043378 0 -0.00054694365993735914 -0.00084175545606517512 0 -2.3278902555116202e-05 -0.00091128245248361657 0 -0.00040494721230447832 -0.0004912534475551418 0 -0.000549592070437165 -0.00064753638988502313 0 -0.00027536267437012688 -0.0006100069090043378 0 -0.000549592070437165 -0.00064753638988502313 0 -0.00027536267437012688 -0.0006100069090043378 0 -0.00054694365993735914 -0.00084175545606517512 0 0.00093755628301827015 -0.00083800310414418582 0 0.003064167049239432 -0.00026257279570144043 0 -0.00027536267437012688 -0.0006100069090043378 0 6.6245044781391011e-05 -0.00051382689420339221 0 -2.3278902555116202e-05 -0.00091128245248361657 0 -0.00027536267437012688 -0.0006100069090043378 0 -0.00021722752794958922 -0.00032696989477772759 0 6.6245044781391011e-05 -0.00051382689420339221 0 -0.00021722752794958922 -0.00032696989477772759 0 0.00010580649624335294 -0.00026868624574976252 0 6.6245044781391011e-05 -0.00051382689420339221 0 -1.6331440187704812e-05 -2.9003365185780744e-05 0 -0.00021722752794958922 -0.00032696989477772759 0 0.00010580649624335294 -0.00026868624574976252 0 0.00038208990508231807 -0.00013611666445457988 0 0.00010580649624335294 -0.00026868624574976252 0 0.00035872014214577853 -0.00040642627023570777 0 0.00010580649624335294 -0.00026868624574976252 0 6.6245044781391011e-05 -0.00051382689420339221 0 0.00035872014214577853 -0.00040642627023570777 0 0.00038208990508231807 -0.00013611666445457988 0 0.00055315442943124939 -0.00029600578930887196 0 0.00035872014214577853 -0.00040642627023570777 0 0.00055315442943124939 -0.00029600578930887196 0 0.00035872014214577853 -0.00040642627023570777 0 0.00060052370578067321 -0.00056097078216417408 0 0.00060052370578067321 -0.00056097078216417408 0 0.00037874263803903995 -0.00069336503921284525 0 0.00076065974069740945 -0.00077373919838675447 0 0.00037874263803903995 -0.00069336503921284525 0 0.00052321741207483387 -0.00099174257180864481 0 0.00076065974069740945 -0.00077373919838675447 0 0.00035872014214577853 -0.00040642627023570777 0 0.00060052370578067321 -0.00056097078216417408 0 0.00037874263803903995 -0.00069336503921284525 0 6.6245044781391011e-05 -0.00051382689420339221 0 0.00037874263803903995 -0.00069336503921284525 0 -2.3278902555116202e-05 -0.00091128245248361657 0 6.6245044781391011e-05 -0.00051382689420339221 0 0.00035872014214577853 -0.00040642627023570777 0 0.00037874263803903995 -0.00069336503921284525 0 0.00037874263803903995 -0.00069336503921284525 0 0.00052321741207483387 -0.00099174257180864481 0 -2.3278902555116202e-05 -0.00091128245248361657 0 0.0049512734177693321 -0.0012100304609254022 0 0.0055043688144666494 -0.00067330812283903469 0 0.0059604118992643059 -0.0012175957880105367 0 0.0026238296065822257 -0.001111655995740917 0 0.0030179819830103006 -0.0011632896220037472 0 0.0049512734177693321 -0.0012100304609254022 0 0.0049213437074717183 -0.00026376432551314003 0 0.0043677826960393778 -0.00071415277382957118 0 0.0049512734177693321 -0.0012100304609254022 0 0.0049213437074717183 -0.00026376432551314003 0 0.0055043688144666494 -0.00067330812283903469 0 0.0049213437074717183 -0.00026376432551314003 0 0.0055043688144666494 -0.00067330812283903469 0 0.0056018743795706412 -0.00012923736301097838 0 0.0055043688144666494 -0.00067330812283903469 0 0.006044689914984005 -0.00049978846600146922 0 0.0056018743795706412 -0.00012923736301097838 0 0.0055043688144666494 -0.00067330812283903469 0 0.006044689914984005 -0.00049978846600146922 0 0.0059604118992643059 -0.0012175957880105367 0 0.006044689914984005 -0.00049978846600146922 0 0.0064746302736131125 -0.00076685501936686465 0 0.0059604118992643059 -0.0012175957880105367 0 0.006044689914984005 -0.00049978846600146922 0 0.0064746302736131125 -0.00076685501936686465 0 0.006537038232415875 -0.00025476926165073977 0 0.0069372571632495567 -0.00063444156904663969 0 0.0064746302736131125 -0.00076685501936686465 0 0.006537038232415875 -0.00025476926165073977 0 0.003064167049239432 -0.00026257279570144043 0 0.0030179819830103006 -0.0011632896220037472 0 0.0064746302736131125 -0.00076685501936686465 0 0.0068745064768904497 -0.0012306198860411086 0 0.0059604118992643059 -0.0012175957880105367 0 0.0069372571632495567 -0.00063444156904663969 0 0.0064746302736131125 -0.00076685501936686465 0 0.0068745064768904497 -0.0012306198860411086 0 0.0033648290515139356 -0.00053823982755848358 0 0.003575840654152165 -0.00055554956366168657 0 0.0030875474153110338 -0.00070006094897780776 0 0.0030286209580924523 -0.00054714773025535358 0 0.0033648290515139356 -0.00053823982755848358 0 0.0029476657457079328 -0.00040577108860672106 0 0.0033648290515139356 -0.00053823982755848358 0 0.0029476657457079328 -0.00040577108860672106 0 0.0033651689080809112 -0.00025239766265058118 0 0.0033648290515139356 -0.00053823982755848358 0 0.0033651689080809112 -0.00025239766265058118 0 0.0038717443636346062 -0.00033337614550261698 0 0.0030286209580924523 -0.00054714773025535358 0 0.0029476657457079328 -0.00040577108860672106 0 0.0025841926183401333 -0.000562425778490487 0 0.0029476657457079328 -0.00040577108860672106 0 0.0025841926183401333 -0.000562425778490487 0 0.0025888388418352768 -0.00040504259402334683 0 0.0029476657457079328 -0.00040577108860672106 0 0.0028122124156372596 -0.00025279277972190418 0 0.0025888388418352768 -0.00040504259402334683 0 0.0029476657457079328 -0.00040577108860672106 0 0.0028122124156372596 -0.00025279277972190418 0 0.0031110756510742345 -0.00010465076224793703 0 0.0029476657457079328 -0.00040577108860672106 0 0.0031110756510742345 -0.00010465076224793703 0 0.0033651689080809112 -0.00025239766265058118 0 0.0028122124156372596 -0.00025279277972190418 0 0.0031110756510742345 -0.00010465076224793703 0 0.0028915980637955105 1.4220921721644883e-05 0 0.0031110756510742345 -0.00010465076224793703 0 0.0033651689080809112 -0.00025239766265058118 0 0.0034471598208717525 1.6923338606611646e-05 0 0.0033651689080809112 -0.00025239766265058118 0 0.0037700394770536203 -4.5212276993173929e-05 0 0.0038717443636346062 -0.00033337614550261698 0 0.0033651689080809112 -0.00025239766265058118 0 0.0037700394770536203 -4.5212276993173929e-05 0 0.0034471598208717525 1.6923338606611646e-05 0 0.0038717443636346062 -0.00033337614550261698 0 0.0042756365745991219 -0.00010366011593576535 0 0.0044757520282954098 -0.00044489722734202664 0 0.0037700394770536203 -4.5212276993173929e-05 0 0.0038717443636346062 -0.00033337614550261698 0 0.0042756365745991219 -0.00010366011593576535 0 0.0049213437074717183 -0.00026376432551314003 0 0.0042756365745991219 -0.00010366011593576535 0 0.0044757520282954098 -0.00044489722734202664 0 0.0048257470381923157 -0.00030673169551367413 0 0.0045346890151788753 -0.00048865619939497315 0 0.0049512734177693321 -0.0012100304609254022 0 0.0043677826960393778 -0.00071415277382957118 0 0.0038262879926154506 -0.0011808901040526087 0 0.0026238296065822257 -0.001111655995740917 0 0.0029460054177434815 -0.00093046960013953319 0 0.00052321741207483387 -0.00099174257180864481 0 0.0010895292292071228 -0.0010785033983475541 0 0.00076065974069740945 -0.00077373919838675447 0 0.0045346890151788753 -0.00048865619939497315 0 0.0029460054177434815 -0.00093046960013953319 0 0.0038717443636346062 -0.00033337614550261698 0 0.0044757520282954098 -0.00044489722734202664 0 0.003989640468692969 -0.00071535603842960054 0 0.0033648290515139356 -0.00053823982755848358 0 0.0038717443636346062 -0.00033337614550261698 0 0.003989640468692969 -0.00071535603842960054 0 0.003661884629341583 -0.00063030462143159308 0 0.0029460054177434815 -0.00093046960013953319 0 0.0029460054177434815 -0.00093046960013953319 0 0.0022102843934463708 -0.00073941150822514051 0 0.0010895292292071228 -0.0010785033983475541 0 0.0010514342111615509 -0.00065357115810394935 0 0.0015096050842860662 -0.0008235705697683327 0 0.00060052370578067321 -0.00056097078216417408 0 0.00076065974069740945 -0.00077373919838675447 0 0.00078856072531574507 -0.00043209251900292529 0 0.0010514342111615509 -0.00065357115810394935 0 0.00076065974069740945 -0.00077373919838675447 0 0.00078856072531574507 -0.00043209251900292529 0 0.0010895292292071228 -0.0010785033983475541 0 0.0010514342111615509 -0.00065357115810394935 0 0.00076065974069740945 -0.00077373919838675447 0 0.00055315442943124939 -0.00029600578930887196 0 0.00060052370578067321 -0.00056097078216417408 0 0.00078856072531574507 -0.00043209251900292529 0 0.00055315442943124939 -0.00029600578930887196 0 0.00078856072531574507 -0.00043209251900292529 0 0.00074277341382468325 -0.00015699020252285699 0 0.0010514342111615509 -0.00065357115810394935 0 0.0013235996744359033 -0.00048265429732584928 0 0.0010236030974874254 -0.00016927124921123522 0 0.0010514342111615509 -0.00065357115810394935 0 0.0013235996744359033 -0.00048265429732584928 0 0.0015096050842860662 -0.0008235705697683327 0 0.0010514342111615509 -0.00065357115810394935 0 0.00078856072531574507 -0.00043209251900292529 0 0.0010236030974874254 -0.00016927124921123522 0 0.0013235996744359033 -0.00048265429732584928 0 0.0017329083006778127 -0.00042861312032459165 0 0.0015096050842860662 -0.0008235705697683327 0 0.0013235996744359033 -0.00048265429732584928 0 0.0017329083006778127 -0.00042861312032459165 0 0.0013123657099890717 -5.3839601684596004e-05 0 0.0030286209580924523 -0.00054714773025535358 0 0.0033648290515139356 -0.00053823982755848358 0 0.0030875474153110338 -0.00070006094897780776 0 0.0030875474153110338 -0.00070006094897780776 0 0.0025841926183401333 -0.000562425778490487 0 0.0021495226375716635 -0.00054595785293184019 0 0.0030286209580924523 -0.00054714773025535358 0 0.0030875474153110338 -0.00070006094897780776 0 0.0025841926183401333 -0.000562425778490487 0 0.0022102843934463708 -0.00073941150822514051 0 0.0022600047907994436 -0.00053809456898374903 0 0.0017329083006778127 -0.00042861312032459165 0 0.0015096050842860662 -0.0008235705697683327 0 0.0021495226375716635 -0.00054595785293184019 0 0.0025841926183401333 -0.000562425778490487 0 0.0021495226375716635 -0.00054595785293184019 0 0.0022994756466544254 -0.00053723090288772723 0 0.0021495226375716635 -0.00054595785293184019 0 0.0018058946369643423 -0.00022289761660195149 0 0.0020004411959917475 -0.00025905319167485543 0 0.0018058946369643423 -0.00022289761660195149 0 0.0017890763431075423 -3.3044752796761543e-05 0 0.0020004411959917475 -0.00025905319167485543 0 0.0017329083006778127 -0.00042861312032459165 0 0.0021495226375716635 -0.00054595785293184019 0 0.0018058946369643423 -0.00022289761660195149 0 0.0017329083006778127 -0.00042861312032459165 0 0.0013123657099890717 -5.3839601684596004e-05 0 0.0015135812702458961 0.0005861795551867974 0 0.0016400321176352275 -0.00034262284605372713 0 0.0016815267377024343 0.00024531232627681988 0 0.0017329083006778127 -0.00042861312032459165 0 0.0018058946369643423 -0.00022289761660195149 0 0.001379792319210928 3.0852067378739932e-05 0 0.0018058946369643423 -0.00022289761660195149 0 0.001379792319210928 3.0852067378739932e-05 0 0.0017890763431075423 -3.3044752796761543e-05 0 0.001379792319210928 3.0852067378739932e-05 0 0.0017890763431075423 -3.3044752796761543e-05 0 0.0016633302468105808 0.00044729522075345518 0 0.0009425383829447854 -0.0001498754516314866 0 0.00082095842468104694 -0.00016263434474415162 0 -0.00044518864849256716 -0.00010806239417881286 0 0.0002727271915579229 -0.00015417110206726343 0 0.00038126387606612753 0.00081088253813203738 0 0.00078856072531574507 -0.00043209251900292529 0 0.00074277341382468325 -0.00015699020252285699 0 0.0010236030974874254 -0.00016927124921123522 0 0.0002727271915579229 -0.00015417110206726343 0 0.0010236030974874254 -0.00016927124921123522 0 0.00094427200580216952 0.0003658216611991755 0 0.0013235996744359033 -0.00048265429732584928 0 0.0013123657099890717 -5.3839601684596004e-05 0 0.0010236030974874254 -0.00016927124921123522 0 0.0013123657099890717 -5.3839601684596004e-05 0 0.0010236030974874254 -0.00016927124921123522 0 0.00094427200580216952 0.0003658216611991755 0 0.0013123657099890717 -5.3839601684596004e-05 0 0.0015135812702458961 0.0005861795551867974 0 0.00094427200580216952 0.0003658216611991755 0 0.0015135812702458961 0.0005861795551867974 0 0.00099532306675951198 0.00088046102151605958 0 0.00094427200580216952 0.0003658216611991755 0 0.00099532306675951198 0.00088046102151605958 0 0.00094427200580216952 0.0003658216611991755 0 0.00038126387606612753 0.00081088253813203738 0 0.0002727271915579229 -0.00015417110206726343 0 0.00094427200580216952 0.0003658216611991755 0 0.00038126387606612753 0.00081088253813203738 0 -0.0085514175978966683 0.00547720550072495 0 -0.0083935507169896686 0.0050446824467436637 0 -0.0087052805472046055 0.0049858415035335703 0 -0.0085514175978966683 0.00547720550072495 0 -0.0087052805472046055 0.0049858415035335703 0 -0.0090168282149909445 0.0050181224657911486 0 -0.0081263200763264237 0.005300091804026805 0 -0.0085514175978966683 0.00547720550072495 0 -0.0083935507169896686 0.0050446824467436637 0 -0.0043735737908211511 0.0034176298844141775 0 -0.0035363292359115628 0.0027951040104324631 0 0.0015135812702458961 0.0005861795551867974 0 0.00099532306675951198 0.00088046102151605958 0 0.0011511558276381762 0.0016994207026492076 0 0.00099532306675951198 0.00088046102151605958 0 0.00089073209816886733 0.0013916022583983063 0 0.0011511558276381762 0.0016994207026492076 0 0.00099532306675951198 0.00088046102151605958 0 0.00038126387606612753 0.00081088253813203738 0 0.00089073209816886733 0.0013916022583983063 0 -0.0035481028864923947 0.0027326547005217263 0 -0.0038031977416067096 0.0024382558771571384 0 -0.003735017871292115 0.0022053994016885043 0 -0.0035363292359115628 0.0027951040104324631 0 -0.0051135215009419617 0.0028893363188998316 0 -0.0035363292359115628 0.0027951040104324631 0 -0.00045462104956498438 0.0012055311891326736 0 -0.00045462104956498438 0.0012055311891326736 0 -0.0051135215009419617 0.0028893363188998316 0 0.0010438673350983531 0.00055390031298667842 0 0.0010134791906837731 0.00065959949187366601 0 0.0012336841026976957 0.00073510556072978574 0 -0.0088533344821040798 0.0043611307882817875 0 -0.0092158896036269693 0.0045689696279612281 0 -0.0087815275477436724 0.004680465566274346 0 -0.0090168282149909445 0.0050181224657911486 0 -0.0092158896036269693 0.0045689696279612281 0 -0.0087815275477436724 0.004680465566274346 0 -0.0087052805472046055 0.0049858415035335703 0 -0.0090168282149909445 0.0050181224657911486 0 -0.0087815275477436724 0.004680465566274346 0 -0.0083935507169896686 0.0050446824467436637 0 -0.0087052805472046055 0.0049858415035335703 0 -0.0087815275477436724 0.004680465566274346 0 -0.0088533344821040798 0.0043611307882817875 0 -0.0087815275477436724 0.004680465566274346 0 -0.0083746275678784256 0.0045522805967115219 0 -0.0083935507169896686 0.0050446824467436637 0 -0.0087815275477436724 0.004680465566274346 0 -0.0083746275678784256 0.0045522805967115219 0 0.0017600255636591807 -6.3677011320155823e-06 0 0.0016406105570614552 0.00035108940886807537 0 0.001379792319210928 3.0852067378739932e-05 0 0.0016633302468105808 0.00044729522075345518 0 0.00138461188508194 0.00053333491745428453 0 0.001379792319210928 3.0852067378739932e-05 0 0.0011039124205266663 0.00053560443991368693 0 0.00138461188508194 0.00053333491745428453 0 0.0016815267377024343 0.00024531232627681988 0 -0.00045462104956498438 0.0012055311891326736 0 0.001533500191400083 0.00090141712781612276 0 0.00138461188508194 0.00053333491745428453 0 0.0012336841026976957 0.00073510556072978574 0 -0.00045462104956498438 0.0012055311891326736 0 0.0011608793285385339 0.00093678884251387695 0 0.0011039124205266663 0.00053560443991368693 0 0.00138461188508194 0.00053333491745428453 0 0.0012336841026976957 0.00073510556072978574 0 0.0015119088885439164 0.00073901595360062054 0 0.0016406105570614552 0.00035108940886807537 0 0.001533500191400083 0.00090141712781612276 0 0.0016633302468105808 0.00044729522075345518 0 0.00138461188508194 0.00053333491745428453 0 0.0017668961354196887 0.00049142563729762871 0 0.0014886805815536393 0.00057710814970802441 0 0.0016058893328272145 0.00026240016663537556 0 0.0017668961354196887 0.00049142563729762871 0 0.0016058893328272145 0.00026240016663537556 0 0.0017679333338053204 0.00027804746751474942 0 0.0016058893328272145 0.00026240016663537556 0 0.0017679333338053204 0.00027804746751474942 0 0.001868262455261172 9.5182938124533498e-06 0 0.0017679333338053204 0.00027804746751474942 0 0.0020497080824306911 7.9497223515420119e-06 0 0.001868262455261172 9.5182938124533498e-06 0 0.0014831641946861875 0.00068082712642440985 0 0.0017138016672611136 0.0003255400355844059 0 0.0016207956738171518 0.00085343125065612225 0 0.0011597904403429279 0.00086439825741522081 0 0.0017679333338053204 0.00027804746751474942 0 0.0016207956738171518 0.00085343125065612225 0 0.0020484073314233834 0.0007058653415141148 0 0.0020096881350147454 0.000343120702563515 0 0.0016207956738171518 0.00085343125065612225 0 0.0017679333338053204 0.00027804746751474942 0 0.0020096881350147454 0.000343120702563515 0 0.0020484073314233834 0.0007058653415141148 0 0.0023104256313493787 0.00024290438936778997 0 0.0020096881350147454 0.000343120702563515 0 0.0020484073314233834 0.0007058653415141148 0 0.0023104256313493787 0.00024290438936778997 0 0.0025229284540472362 0.00049359337569496566 0 0.0017679333338053204 0.00027804746751474942 0 0.0020096881350147454 0.000343120702563515 0 0.0020497080824306911 7.9497223515420119e-06 0 0.0023104256313493787 0.00024290438936778997 0 0.0020096881350147454 0.000343120702563515 0 0.0020497080824306911 7.9497223515420119e-06 0 0.0023104256313493787 0.00024290438936778997 0 0.0020497080824306911 7.9497223515420119e-06 0 0.0022775577670957363 -0.00034315355802826077 0 0.0023104256313493787 0.00024290438936778997 0 0.0022775577670957363 -0.00034315355802826077 0 0.0026996104358708488 -1.2633623201382034e-05 0 0.0022775577670957363 -0.00034315355802826077 0 0.0026996104358708488 -1.2633623201382034e-05 0 0.0026417496036562249 -0.00053638681988498816 0 0.0022775577670957363 -0.00034315355802826077 0 0.0020821852742882309 -0.00028532610440519095 0 0.0022046017078216325 -0.00044283904475013664 0 0.0020497080824306911 7.9497223515420119e-06 0 0.0022775577670957363 -0.00034315355802826077 0 0.0020821852742882309 -0.00028532610440519095 0 0.0020821852742882309 -0.00028532610440519095 0 0.0020004411959917475 -0.00025905319167485543 0 0.001868262455261172 9.5182938124533498e-06 0 0.0020821852742882309 -0.00028532610440519095 0 0.0020004411959917475 -0.00025905319167485543 0 0.0021589976860528037 -0.00044802105738157573 0 0.0017890763431075423 -3.3044752796761543e-05 0 0.0020004411959917475 -0.00025905319167485543 0 0.001868262455261172 9.5182938124533498e-06 0 0.0017890763431075423 -3.3044752796761543e-05 0 0.0016058893328272145 0.00026240016663537556 0 0.001868262455261172 9.5182938124533498e-06 0 0.0020497080824306911 7.9497223515420119e-06 0 0.0020821852742882309 -0.00028532610440519095 0 0.001868262455261172 9.5182938124533498e-06 0 0.0043412477489410024 0.00056504034553534908 0 0.0044578576259435183 0.0017311556108341127 0 0.0038094398844116242 0.0010683029480594904 0 0.0062979305716453294 0.0023609132904236999 0 0.0059562825209005903 0.0018954870456827295 0 0.006032506345024188 0.0028713016373240747 0 0.0066763208445892184 0.0016836618423727704 0 0.0062979305716453294 0.0023609132904236999 0 0.0059562825209005903 0.0018954870456827295 0 0.0052737369970121753 0.0013812059925896185 0 0.0041812959864216829 0.0016692210871469462 0 0.0062979305716453294 0.0023609132904236999 0 0.0061118895588406739 0.0029543768874944806 0 0.006032506345024188 0.0028713016373240747 0 0.0032372982725051092 0.0008619325052519884 0 0.0032275277459680543 0.00078831246632803716 0 0.0029952008027492598 0.000840874215108923 0 0.0039203160765828781 0.0013447055468810058 0 0.0039093831799368785 0.0013552586085795136 0 0.0039078968653435981 0.001332074496864927 0 0.003756694331741113 0.0012485939412985926 0 0.0041812959864216829 0.0016692210871469462 0 0.0030463914666816003 0.001055728260118783 0 0.00306695517078158 0.001008265539781919 0 0.0030448510006303802 0.0010300223731482486 0 0.003885259483315993 0.0012998108990067629 0 0.003756694331741113 0.0012485939412985926 0 0.003885259483315993 0.0012998108990067629 0 0.0041812959864216829 0.0016692210871469462 0 0.0041812959864216829 0.0016692210871469462 0 0.0033430983056833476 0.00070224143241304487 0 0.0032275277459680543 0.00078831246632803716 0 0.0029952008027492598 0.000840874215108923 0 0.0030223415532193449 0.00053290270968438269 0 0.0029952008027492598 0.000840874215108923 0 0.0028847846916709367 0.00070477114275929341 0 0.0030223415532193449 0.00053290270968438269 0 0.0027243407388571764 0.00091709990280791881 0 0.0029952008027492598 0.000840874215108923 0 0.0028847846916709367 0.00070477114275929341 0 0.0043412477489410024 0.00056504034553534908 0 0.0038094398844116242 0.0010683029480594904 0 0.003795292471047805 0.0004914656665681226 0 0.0038094398844116242 0.0010683029480594904 0 0.0030982209454434675 0.00031377049276552446 0 0.003795292471047805 0.0004914656665681226 0 0.0033430983056833476 0.00070224143241304487 0 0.0031292180663215307 0.00039067553402757807 0 0.0027986273198150613 0.00058169951121533555 0 0.0025229284540472362 0.00049359337569496566 0 0.0030982209454434675 0.00031377049276552446 0 0.0030223415532193449 0.00053290270968438269 0 0.0027986273198150613 0.00058169951121533555 0 0.0030982209454434675 0.00031377049276552446 0 0.0027243407388571764 0.00091709990280791881 0 0.0024177284627108875 0.00083237446120960337 0 0.0027986273198150613 0.00058169951121533555 0 0.0027243407388571764 0.00091709990280791881 0 0.0028847846916709367 0.00070477114275929341 0 0.0027986273198150613 0.00058169951121533555 0 0.0028847846916709367 0.00070477114275929341 0 0.0030223415532193449 0.00053290270968438269 0 0.0027986273198150613 0.00058169951121533555 0 0.0024177284627108875 0.00083237446120960337 0 0.0020484073314233834 0.0007058653415141148 0 0.0025229284540472362 0.00049359337569496566 0 0.0024177284627108875 0.00083237446120960337 0 0.0027986273198150613 0.00058169951121533555 0 0.0025229284540472362 0.00049359337569496566 0 0.0023104256313493787 0.00024290438936778997 0 0.0025229284540472362 0.00049359337569496566 0 0.0026996104358708488 -1.2633623201382034e-05 0 0.0025229284540472362 0.00049359337569496566 0 0.0026996104358708488 -1.2633623201382034e-05 0 0.0030982209454434675 0.00031377049276552446 0 0.0026996104358708488 -1.2633623201382034e-05 0 0.0030777596404993252 -0.00047363610008359591 0 0.0026417496036562249 -0.00053638681988498816 0 0.0026996104358708488 -1.2633623201382034e-05 0 0.0030777596404993252 -0.00047363610008359591 0 0.0034310265295099006 -0.00022486445257990792 0 0.0034310265295099006 -0.00022486445257990792 0 0.0039075532537233273 -0.00038269031726305739 0 0.0035351413800451836 -0.00065930843102420694 0 0.0030777596404993252 -0.00047363610008359591 0 0.0034310265295099006 -0.00022486445257990792 0 0.0035351413800451836 -0.00065930843102420694 0 0.0026996104358708488 -1.2633623201382034e-05 0 0.0034310265295099006 -0.00022486445257990792 0 0.0030982209454434675 0.00031377049276552446 0 0.0034310265295099006 -0.00022486445257990792 0 0.0030982209454434675 0.00031377049276552446 0 0.0038786029445390001 4.5553072527745835e-05 0 0.0043412477489410024 0.00056504034553534908 0 0.0038786029445390001 4.5553072527745835e-05 0 0.0042695019173125213 -0.00044424111210552739 0 0.0030982209454434675 0.00031377049276552446 0 0.003795292471047805 0.0004914656665681226 0 0.0038786029445390001 4.5553072527745835e-05 0 0.0043412477489410024 0.00056504034553534908 0 0.003795292471047805 0.0004914656665681226 0 0.0038786029445390001 4.5553072527745835e-05 0 0.0034310265295099006 -0.00022486445257990792 0 0.0038786029445390001 4.5553072527745835e-05 0 0.0039075532537233273 -0.00038269031726305739 0 0.0039075532537233273 -0.00038269031726305739 0 0.0043101207072539956 -0.00063964122705978833 0 0.0035351413800451836 -0.00065930843102420694 0 0.0039075532537233273 -0.00038269031726305739 0 0.0042695019173125213 -0.00044424111210552739 0 0.0043101207072539956 -0.00063964122705978833 0 0.0038786029445390001 4.5553072527745835e-05 0 0.0039075532537233273 -0.00038269031726305739 0 0.0042695019173125213 -0.00044424111210552739 0 0.0058520571125638757 0.00089662110147641398 0 0.0063850061334269348 0.00079430933303231959 0 0.0061753010446773064 0.0003470058689132384 0 0.0058520571125638757 0.00089662110147641398 0 0.0063850061334269348 0.00079430933303231959 0 0.0062850973089623226 0.0013071992653111628 0 0.0059562825209005903 0.0018954870456827295 0 0.0058520571125638757 0.00089662110147641398 0 0.0062850973089623226 0.0013071992653111628 0 0.0066763208445892184 0.0016836618423727704 0 0.0059562825209005903 0.0018954870456827295 0 0.0062850973089623226 0.0013071992653111628 0 0.0052737369970121753 0.0013812059925896185 0 0.0050635798306856803 0.0001887919462985308 0 0.0066544476004496977 -0.00081798520265818442 0 0.0063167513391155523 -0.00017027249175564888 0 0.0060719668842265278 -0.00078500187226006963 0 0.0063167513391155523 -0.00017027249175564888 0 0.0056808655307511689 -0.00012660545794169524 0 0.0060719668842265278 -0.00078500187226006963 0 0.0050635798306856803 0.0001887919462985308 0 0.0052074793120598928 -0.00054303872795754984 0 0.0058520571125638757 0.00089662110147641398 0 0.0061753010446773064 0.0003470058689132384 0 0.0056808655307511689 -0.00012660545794169524 0 0.0066646479803537557 0.00029635300291242878 0 0.0063167513391155523 -0.00017027249175564888 0 0.0061753010446773064 0.0003470058689132384 0 0.0066646479803537557 0.00029635300291242878 0 0.0063850061334269348 0.00079430933303231959 0 0.0061753010446773064 0.0003470058689132384 0 0.0063167513391155523 -0.00017027249175564888 0 0.0061753010446773064 0.0003470058689132384 0 0.0056808655307511689 -0.00012660545794169524 0 0.0043101207072539956 -0.00063964122705978833 0 0.0033352447717257365 -0.0013232632620911 0 0.0035351413800451836 -0.00065930843102420694 0 0.0043101207072539956 -0.00063964122705978833 0 0.0045769550238261049 -0.00078639263717127062 0 0.0047319960449989738 -0.00086504534414833759 0 0.0042695019173125213 -0.00044424111210552739 0 0.0043101207072539956 -0.00063964122705978833 0 0.0047319960449989738 -0.00086504534414833759 0 0.0043101207072539956 -0.00063964122705978833 0 0.0045769550238261049 -0.00078639263717127062 0 0.004843586546859127 -0.00094066546811620794 0 0.0043744495052800165 -0.00079367179772330421 0 0.0038956776008586443 -0.00063639822722722124 0 0.0045769550238261049 -0.00078639263717127062 0 0.0048050852338910547 -0.00099545527634380972 0 0.00462368760226535 -0.00091311170717523729 0 0.0047521579887746922 -0.00074492998311528511 0 0.0038956776008586443 -0.00063639822722722124 0 0.0047319960449989738 -0.00086504534414833759 0 0.0048050852338910547 -0.00099545527634380972 0 0.0053541727989815761 -0.0013528270859723148 0 0.0045769550238261049 -0.00078639263717127062 0 0.0047319960449989738 -0.00086504534414833759 0 0.0048050852338910547 -0.00099545527634380972 0 0.0048050852338910547 -0.00099545527634380972 0 0.00462368760226535 -0.00091311170717523729 0 0.0045943924241380833 -0.0013084995628025676 0 0.0033352447717257365 -0.0013232632620911 0 0.0030246536055117857 -0.00087310289056087467 0 0.0029008585656625069 -0.0012276868605706488 0 0.0033352447717257365 -0.0013232632620911 0 0.0035351413800451836 -0.00065930843102420694 0 0.0030246536055117857 -0.00087310289056087467 0 0.0030777596404993252 -0.00047363610008359591 0 0.0035351413800451836 -0.00065930843102420694 0 0.0030246536055117857 -0.00087310289056087467 0 0.0030777596404993252 -0.00047363610008359591 0 0.0030246536055117857 -0.00087310289056087467 0 0.0026417496036562249 -0.00053638681988498816 0 0.0030246536055117857 -0.00087310289056087467 0 0.0026417496036562249 -0.00053638681988498816 0 0.0027589070936331786 -0.00099014392255841787 0 0.0038956776008586443 -0.00063639822722722124 0 0.0035718698082012426 -0.00042376484646504175 0 0.0027589070936331786 -0.00099014392255841787 0 0.0029008585656625069 -0.0012276868605706488 0 0.0025803217910533474 -0.0012869672667450683 0 0.0033352447717257365 -0.0013232632620911 0 0.0029008585656625069 -0.0012276868605706488 0 0.0027573361559510593 -0.001520341272773164 0 0.0030246536055117857 -0.00087310289056087467 0 0.0027589070936331786 -0.00099014392255841787 0 0.0029008585656625069 -0.0012276868605706488 0 0.0029008585656625069 -0.0012276868605706488 0 0.0027573361559510593 -0.001520341272773164 0 0.0025803217910533474 -0.0012869672667450683 0 0.0038956776008586443 -0.00063639822722722124 0 0.0080600734882112918 -0.001459775313403382 0 0.0042441982428703126 0.00048185124571848966 0 0.0043711126836292252 0.00060929802547494548 0 0.0043682292791946981 0.00065974261436842023 0 0.0043711126836292252 0.00060929802547494548 0 0.0043682292791946981 0.00065974261436842023 0 0.0043602438805069301 0.00064054769569254284 0 0.0080600734882112918 -0.001459775313403382 0 0.0061227235236277064 -0.00025109001616640923 0 0.015219023125154423 -0.0056274475353755614 0 0.015277470075659777 -0.0045927835139793561 0 0.013968301115350031 -0.0049283574655177532 0 0.0041639473878188338 -0.0013950773995388508 0 0.0047305819607353552 -0.0018907847299905213 0 0.0045943924241380833 -0.0013084995628025676 0 0.0080600734882112918 -0.001459775313403382 0 0.0098027266325632703 -0.0037938176193191443 0 0.0047305819607353552 -0.0018907847299905213 0 0.0045943924241380833 -0.0013084995628025676 0 0.0053541727989815761 -0.0013528270859723148 0 0.00462368760226535 -0.00091311170717523729 0 0.0041639473878188338 -0.0013950773995388508 0 0.0045943924241380833 -0.0013084995628025676 0 0.0048050852338910547 -0.00099545527634380972 0 0.0045943924241380833 -0.0013084995628025676 0 0.0053541727989815761 -0.0013528270859723148 0 0.0052074793120598928 -0.00054303872795754984 0 0.005311242195383507 -0.0013443355681980885 0 0.0047305819607353552 -0.0018907847299905213 0 0.0054027618493933966 -0.0019371309974955701 0 0.0056839208301998553 -0.0025879182860699089 0 0.0047305819607353552 -0.0018907847299905213 0 0.0053541727989815761 -0.0013528270859723148 0 0.0054027618493933966 -0.0019371309974955701 0 0.0054027618493933966 -0.0019371309974955701 0 0.0058737065989174974 -0.0019370128730646368 0 0.0056839208301998553 -0.0025879182860699089 0 0.0053541727989815761 -0.0013528270859723148 0 0.0054027618493933966 -0.0019371309974955701 0 0.0058737065989174974 -0.0019370128730646368 0 0.0053541727989815761 -0.0013528270859723148 0 0.0058737065989174974 -0.0019370128730646368 0 0.0063361881625449371 -0.0015461021396793756 0 0.0066736409568453883 -0.0022534562357750128 0 0.0058737065989174974 -0.0019370128730646368 0 0.0063361881625449371 -0.0015461021396793756 0 0.0056808655307511689 -0.00012660545794169524 0 0.0053541727989815761 -0.0013528270859723148 0 0.0060719668842265278 -0.00078500187226006963 0 0.0053541727989815761 -0.0013528270859723148 0 0.0063361881625449371 -0.0015461021396793756 0 0.0060719668842265278 -0.00078500187226006963 0 0.0066544476004496977 -0.00081798520265818442 0 0.0063361881625449371 -0.0015461021396793756 0 0.0060719668842265278 -0.00078500187226006963 0 0.0022585413841690744 -0.00047254842067575816 0 0.0023766169365044428 -0.00049629708886048075 0 0.0023706114312879957 -0.00035086158731351369 0 0.0022585413841690744 -0.00047254842067575816 0 0.0023766169365044428 -0.00049629708886048075 0 0.0022309293455898328 -0.00049097468619630305 0 0.0025841926183401333 -0.000562425778490487 0 0.0023766169365044428 -0.00049629708886048075 0 0.0025888388418352768 -0.00040504259402334683 0 0.0025841926183401333 -0.000562425778490487 0 0.0023766169365044428 -0.00049629708886048075 0 0.0022994756466544254 -0.00053723090288772723 0 0.0023766169365044428 -0.00049629708886048075 0 0.0022994756466544254 -0.00053723090288772723 0 0.0022309293455898328 -0.00049097468619630305 0 0.0022994756466544254 -0.00053723090288772723 0 0.0021589976860528037 -0.00044802105738157573 0 0.0022309293455898328 -0.00049097468619630305 0 0.0020821852742882309 -0.00028532610440519095 0 0.0021589976860528037 -0.00044802105738157573 0 0.0022309293455898328 -0.00049097468619630305 0 0.0021495226375716635 -0.00054595785293184019 0 0.0022994756466544254 -0.00053723090288772723 0 0.0021589976860528037 -0.00044802105738157573 0 0.0021495226375716635 -0.00054595785293184019 0 0.0020004411959917475 -0.00025905319167485543 0 0.0021589976860528037 -0.00044802105738157573 0 0.0022585413841690744 -0.00047254842067575816 0 0.0022046017078216325 -0.00044283904475013664 0 0.0022309293455898328 -0.00049097468619630305 0 0.0020821852742882309 -0.00028532610440519095 0 0.0022046017078216325 -0.00044283904475013664 0 0.0022309293455898328 -0.00049097468619630305 0 0.002267813214109566 -0.00039344617747726377 0 0.0022072395795615322 -0.00068220575010791834 0 0.0022775577670957363 -0.00034315355802826077 0 0.0022046017078216325 -0.00044283904475013664 0 0.0022316150562670888 -0.0004735074997260262 0 0.0026417496036562249 -0.00053638681988498816 0 0.0027589070936331786 -0.00099014392255841787 0 0.0021347135679795565 -0.0010251756797968875 0 0.0022775577670957363 -0.00034315355802826077 0 0.0026417496036562249 -0.00053638681988498816 0 0.0021347135679795565 -0.0010251756797968875 0 0.0027589070936331786 -0.00099014392255841787 0 0.0025803217910533474 -0.0012869672667450683 0 0.0021347135679795565 -0.0010251756797968875 0 0.0025803217910533474 -0.0012869672667450683 0 0.0021347135679795565 -0.0010251756797968875 0 0.0023384452804269518 -0.0014130254823103527 0 0.0022585413841690744 -0.00047254842067575816 0 0.0022316150562670888 -0.0004735074997260262 0 0.0021844028788177042 -0.00039171741712215223 0 0.0022072395795615322 -0.00068220575010791834 0 0.0020031632752251171 -0.0011655113079458526 0 0.0022585413841690744 -0.00047254842067575816 0 0.0022046017078216325 -0.00044283904475013664 0 0.0022316150562670888 -0.0004735074997260262 0 0.0021347135679795565 -0.0010251756797968875 0 0.002080039962168807 -0.0015392268477302934 0 0.0023384452804269518 -0.0014130254823103527 0 0.002080039962168807 -0.0015392268477302934 0 0.0023384452804269518 -0.0014130254823103527 0 0.0023100205566789003 -0.0017124105562770172 0 0.0043708067405352526 0.00064203968991729567 0 0.0043602438805069301 0.00064054769569254284 0 0.0043096548672621471 0.00070067008559025756 0 0.0024949153863522899 -0.0014886215893001665 0 0.0023384452804269518 -0.0014130254823103527 0 0.0023100205566789003 -0.0017124105562770172 0 0.0035718698082012426 -0.00042376484646504175 0 0.0032656638829866528 -0.00057776403918159171 0 0.0027573361559510593 -0.001520341272773164 0 0.0024949153863522899 -0.0014886215893001665 0 0.0023100205566789003 -0.0017124105562770172 0 0.0043711126836292252 0.00060929802547494548 0 0.0043602438805069301 0.00064054769569254284 0 0.0043096548672621471 0.00070067008559025756 0 0.0025803217910533474 -0.0012869672667450683 0 0.0024949153863522899 -0.0014886215893001665 0 0.0023384452804269518 -0.0014130254823103527 0 0.0027573361559510593 -0.001520341272773164 0 0.0025803217910533474 -0.0012869672667450683 0 0.0024949153863522899 -0.0014886215893001665 0 0.0043708067405352526 0.00064203968991729567 0 0.0043096548672621471 0.00070067008559025756 0 0.0043075650261800947 0.00068253516289287937 0 0.0080600734882112918 -0.001459775313403382 0 0.010601576782856397 -0.0019232300972361095 0 0.015219023125154423 -0.0056274475353755614 0 0.015277470075659777 -0.0045927835139793561 0 0.016249581861512135 -0.0044354093337544108 0 0.0032656638829866528 -0.00057776403918159171 0 0.0031497625241296259 -6.3303093266528967e-05 0 0.0020031632752251171 -0.0011655113079458526 0 0.0031497625241296259 -6.3303093266528967e-05 0 0.002080039962168807 -0.0015392268477302934 0 0.0023100205566789003 -0.0017124105562770172 0 0.0020060860557272434 -0.0018800905972549849 0 0.0043096548672621471 0.00070067008559025756 0 0.0041500524427341891 0.000734979020605537 0 0.0043075650261800947 0.00068253516289287937 0 0.0022271219876279398 -3.4118474990553767e-05 0 0.0023706114312879957 -0.00035086158731351369 0 0.002616478614958383 -0.00015619070209162774 0 0.0021844028788177042 -0.00039171741712215223 0 0.0022271219876279398 -3.4118474990553767e-05 0 0.0023706114312879957 -0.00035086158731351369 0 0.0022585413841690744 -0.00047254842067575816 0 0.0021844028788177042 -0.00039171741712215223 0 0.0023706114312879957 -0.00035086158731351369 0 0.0028122124156372596 -0.00025279277972190418 0 0.0025888388418352768 -0.00040504259402334683 0 0.002616478614958383 -0.00015619070209162774 0 0.0023766169365044428 -0.00049629708886048075 0 0.0023706114312879957 -0.00035086158731351369 0 0.0025888388418352768 -0.00040504259402334683 0 0.0023706114312879957 -0.00035086158731351369 0 0.0025888388418352768 -0.00040504259402334683 0 0.002616478614958383 -0.00015619070209162774 0 0.0028122124156372596 -0.00025279277972190418 0 0.002616478614958383 -0.00015619070209162774 0 0.0028915980637955105 1.4220921721644883e-05 0 0.002616478614958383 -0.00015619070209162774 0 0.0028915980637955105 1.4220921721644883e-05 0 0.0026291542005886012 0.00027486359694088201 0 0.0028915980637955105 1.4220921721644883e-05 0 0.0026291542005886012 0.00027486359694088201 0 0.0033106264087857298 0.00021129583294882075 0 0.0037446832187698516 0.00084119441049829017 0 0.0037252265487232464 0.00063873774528711946 0 0.003419100193887028 0.00060394999111221671 0 0.0032371339611924599 0.00061934224722906084 0 0.0033631114842320089 0.00058678309212804034 0 0.0037252265487232464 0.00063873774528711946 0 0.0037608793873151656 0.00051020435128265422 0 0.003419100193887028 0.00060394999111221671 0 0.0037446832187698516 0.00084119441049829017 0 0.0037252265487232464 0.00063873774528711946 0 0.0039892660308386918 0.00067783298405662466 0 0.0037252265487232464 0.00063873774528711946 0 0.0039892660308386918 0.00067783298405662466 0 0.0037608793873151656 0.00051020435128265422 0 0.0039892660308386918 0.00067783298405662466 0 0.0041128378159345736 0.00064087715381148968 0 0.0037608793873151656 0.00051020435128265422 0 0.01001624719212219 -0.0015726825475010386 0 0.013613547580229495 -0.001019545209377566 0 0.0041500524427341891 0.000734979020605537 0 0.0039892660308386918 0.00067783298405662466 0 0.0041128378159345736 0.00064087715381148968 0 0.0031497625241296259 -6.3303093266528967e-05 0 0.0042219484353317425 0.0010970994432955104 0 0.0031497625241296259 -6.3303093266528967e-05 0 0.0032371339611924599 0.00061934224722906084 0 0.004085905388812241 0.0010476994754183837 0 0.0037446832187698516 0.00084119441049829017 0 0.0039892660308386918 0.00067783298405662466 0 0.0022271219876279398 -3.4118474990553767e-05 0 0.002616478614958383 -0.00015619070209162774 0 0.0026291542005886012 0.00027486359694088201 0 0.016249581861512135 -0.0044354093337544108 0 0.016235506615717672 -0.0036102238411844629 0 0.016993126099255015 -0.0034711560799698341 0 0.010601576782856397 -0.0019232300972361095 0 0.01001624719212219 -0.0015726825475010386 0 0.0041500524427341891 0.000734979020605537 0 0.0043075650261800947 0.00068253516289287937 0 0.0041128378159345736 0.00064087715381148968 0 0.015766947436394285 -0.004103392745104394 0 0.016235506615717672 -0.0036102238411844629 0 0.015464915207922829 -0.0036079324074497036 0 0.015277470075659777 -0.0045927835139793561 0 0.015766947436394285 -0.004103392745104394 0 0.016249581861512135 -0.0044354093337544108 0 0.015766947436394285 -0.004103392745104394 0 0.016249581861512135 -0.0044354093337544108 0 0.016235506615717672 -0.0036102238411844629 0 0.016235506615717672 -0.0036102238411844629 0 0.016137049048427391 -0.0030160152633275737 0 0.015464915207922829 -0.0036079324074497036 0 0.016235506615717672 -0.0036102238411844629 0 0.016681554291746753 -0.0031151667933576118 0 0.016137049048427391 -0.0030160152633275737 0 0.016993126099255015 -0.0034711560799698341 0 0.016681554291746753 -0.0031151667933576118 0 0.017048207271677482 -0.0028627731693730623 0 0.016235506615717672 -0.0036102238411844629 0 0.016993126099255015 -0.0034711560799698341 0 0.016681554291746753 -0.0031151667933576118 0 0.016681554291746753 -0.0031151667933576118 0 0.016137049048427391 -0.0030160152633275737 0 0.016680400754665432 -0.0024676430614252245 0 0.016681554291746753 -0.0031151667933576118 0 0.016680400754665432 -0.0024676430614252245 0 0.017048207271677482 -0.0028627731693730623 0 0.016680400754665432 -0.0024676430614252245 0 0.017261743026865801 -0.0024619976554685077 0 0.017048207271677482 -0.0028627731693730623 0 0.016137049048427391 -0.0030160152633275737 0 0.016047354088677742 -0.0024501049042698992 0 0.016680400754665432 -0.0024676430614252245 0 0.016137049048427391 -0.0030160152633275737 0 0.016047354088677742 -0.0024501049042698992 0 0.015520397178756173 -0.0028690988283141886 0 0.016047354088677742 -0.0024501049042698992 0 0.016266132847447799 -0.0019983256665390536 0 0.016680400754665432 -0.0024676430614252245 0 0.016047354088677742 -0.0024501049042698992 0 0.016266132847447799 -0.0019983256665390536 0 0.015551199460029235 -0.0020501867336651367 0 0.016266132847447799 -0.0019983256665390536 0 0.016680400754665432 -0.0024676430614252245 0 0.016799943262486211 -0.0018413832531373787 0 0.016680400754665432 -0.0024676430614252245 0 0.017216719398170523 -0.0020713565993245534 0 0.016799943262486211 -0.0018413832531373787 0 0.016680400754665432 -0.0024676430614252245 0 0.017216719398170523 -0.0020713565993245534 0 0.017261743026865801 -0.0024619976554685077 0 0.017216719398170523 -0.0020713565993245534 0 0.017261743026865801 -0.0024619976554685077 0 0.017651327287272853 -0.0022065644189323309 0 0.017261743026865801 -0.0024619976554685077 0 0.017651327287272853 -0.0022065644189323309 0 0.017720922771763806 -0.0027271391207985577 0 0.017216719398170523 -0.0020713565993245534 0 0.017651327287272853 -0.0022065644189323309 0 0.017766174799728428 -0.0017988183670050611 0 0.017651327287272853 -0.0022065644189323309 0 0.017720922771763806 -0.0027271391207985577 0 0.018299363316414276 -0.0020075561261854919 0 0.013613547580229495 -0.001019545209377566 0 0.01881859243636198 0.00020399997431158403 0 0.017651327287272853 -0.0022065644189323309 0 0.017766174799728428 -0.0017988183670050611 0 0.018299363316414276 -0.0020075561261854919 0 0.013613547580229495 -0.001019545209377566 0 0.010155485755308252 0.0016729336595313453 0 0.017261743026865801 -0.0024619976554685077 0 0.017720922771763806 -0.0027271391207985577 0 0.017048207271677482 -0.0028627731693730623 0 0.016993126099255015 -0.0034711560799698341 0 0.017559564057704223 -0.002732637816198218 0 0.017048207271677482 -0.0028627731693730623 0 0.013613547580229495 -0.001019545209377566 0 0.018287468710420245 -0.0025954731940304268 0 0.010957494981119739 -0.0030834752511688457 0 0.012493549042247245 -0.0040484553672403495 0 0.012511505387863281 -0.0031883328387110593 0 0.012254092829435742 -0.0034661805698305305 0 0.012905552294553552 -0.003055802314905957 0 0.013500440884944067 -0.0036325504636944878 0 0.010282035631014048 -0.0031320062811556891 0 0.013266696501964629 -0.0034252942726280019 0 0.012905552294553552 -0.003055802314905957 0 0.013500440884944067 -0.0036325504636944878 0 0.013781267021224734 -0.0028499110463220518 0 0.006859254376346712 -0.0032135723850184434 0 0.0066736409568453883 -0.0022534562357750128 0 0.0056839208301998553 -0.0025879182860699089 0 0.010282035631014048 -0.0031320062811556891 0 0.0087536414214461102 -0.0031695440286075788 0 0.0066736409568453883 -0.0022534562357750128 0 0.0058737065989174974 -0.0019370128730646368 0 0.0056839208301998553 -0.0025879182860699089 0 0.012493549042247245 -0.0040484553672403495 0 0.012511505387863281 -0.0031883328387110593 0 0.014009018195314478 -0.0033426021846998475 0 0.013968301115350031 -0.0049283574655177532 0 0.012493549042247245 -0.0040484553672403495 0 0.014009018195314478 -0.0033426021846998475 0 0.0098027266325632703 -0.0037938176193191443 0 0.0087536414214461102 -0.0031695440286075788 0 0.013266696501964629 -0.0034252942726280019 0 0.014291204127644621 -0.0034990693335578342 0 0.013500440884944067 -0.0036325504636944878 0 0.014688617851879207 -0.0036519245502959941 0 0.013781267021224734 -0.0028499110463220518 0 0.013968301115350031 -0.0049283574655177532 0 0.014009018195314478 -0.0033426021846998475 0 0.014695782521282161 -0.0041240301106052939 0 0.015277470075659777 -0.0045927835139793561 0 0.013968301115350031 -0.0049283574655177532 0 0.014695782521282161 -0.0041240301106052939 0 0.014009018195314478 -0.0033426021846998475 0 0.014695782521282161 -0.0041240301106052939 0 0.015464915207922829 -0.0036079324074497036 0 0.015277470075659777 -0.0045927835139793561 0 0.014695782521282161 -0.0041240301106052939 0 0.015464915207922829 -0.0036079324074497036 0 0.015277470075659777 -0.0045927835139793561 0 0.015766947436394285 -0.004103392745104394 0 0.015464915207922829 -0.0036079324074497036 0 0.016137049048427391 -0.0030160152633275737 0 0.015464915207922829 -0.0036079324074497036 0 0.015520397178756173 -0.0028690988283141886 0 0.014291204127644621 -0.0034990693335578342 0 0.015377532262764976 -0.0035925415424701455 0 0.014688617851879207 -0.0036519245502959941 0 0.015464915207922829 -0.0036079324074497036 0 0.015520397178756173 -0.0028690988283141886 0 0.015520397178756173 -0.0028690988283141886 0 0.015551199460029235 -0.0020501867336651367 0 0.014751713027505782 -0.002473509467014108 0 0.016047354088677742 -0.0024501049042698992 0 0.015520397178756173 -0.0028690988283141886 0 0.015551199460029235 -0.0020501867336651367 0 0.015551199460029235 -0.0020501867336651367 0 0.014751713027505782 -0.002473509467014108 0 0.014964164464499684 -0.0018423830645036676 0 0.014688617851879207 -0.0036519245502959941 0 0.015520397178756173 -0.0028690988283141886 0 0.014751713027505782 -0.002473509467014108 0 0.014688617851879207 -0.0036519245502959941 0 0.014751713027505782 -0.002473509467014108 0 0.013781267021224734 -0.0028499110463220518 0 0.014751713027505782 -0.002473509467014108 0 0.013781267021224734 -0.0028499110463220518 0 0.013224804495687538 -0.0019289864188137683 0 0.014751713027505782 -0.002473509467014108 0 0.013224804495687538 -0.0019289864188137683 0 0.013603589359035714 -0.00097852581360903849 0 0.014771410964011709 -0.0024536876538667793 0 0.013901765552088947 -0.0013318796908774353 0 0.014751713027505782 -0.002473509467014108 0 0.014414426783269148 -0.0017361701149910555 0 0.014964164464499684 -0.0018423830645036676 0 0.012342739167244262 -0.0011243908990677975 0 0.012175301436065161 -0.0017972093959542218 0 0.013224804495687538 -0.0019289864188137683 0 0.012175301436065161 -0.0017972093959542218 0 0.013224804495687538 -0.0019289864188137683 0 0.012771768370749571 -0.0024152268266391533 0 0.012342739167244262 -0.0011243908990677975 0 0.013224804495687538 -0.0019289864188137683 0 0.013603589359035714 -0.00097852581360903849 0 0.012905552294553552 -0.003055802314905957 0 0.013781267021224734 -0.0028499110463220518 0 0.012771768370749571 -0.0024152268266391533 0 0.013781267021224734 -0.0028499110463220518 0 0.013224804495687538 -0.0019289864188137683 0 0.012771768370749571 -0.0024152268266391533 0 0.012331200038818458 -0.002900332239050367 0 0.012905552294553552 -0.003055802314905957 0 0.012771768370749571 -0.0024152268266391533 0 0.013781852471602544 -0.00029502837746997511 0 0.013901765552088947 -0.0013318796908774353 0 0.013818624462399206 -0.00090684725076806984 0 0.014414426783269148 -0.0017361701149910555 0 0.014353973663124475 -0.0011175815666638847 0 0.013818624462399206 -0.00090684725076806984 0 0.014353973663124475 -0.0011175815666638847 0 0.013825242607456196 -0.00084782037079602149 0 0.014495699547394554 -0.0011328218752709857 0 0.014514862013988248 -0.00077785814303703911 0 0.014105770839815613 -0.00091091769279579731 0 0.014647058714512235 -0.00067679344881488399 0 0.013781852471602544 -0.00029502837746997511 0 0.014137779666972466 -0.00056926893965516471 0 0.014125764270243913 -0.00055360743889669873 0 0.014125260017202922 -0.00056291623734909155 0 0.013781852471602544 -0.00029502837746997511 0 0.014216031922532847 -0.00051288420784650435 0 0.014425624155921921 -0.0011299350296650348 0 0.014216031922532847 -0.00051288420784650435 0 0.012342739167244262 -0.0011243908990677975 0 0.012534885911684369 0.00045916194971204612 0 0.013603589359035714 -0.00097852581360903849 0 0.014414426783269148 -0.0017361701149910555 0 0.014353973663124475 -0.0011175815666638847 0 0.014879518934826514 -0.0013953139770635191 0 0.014414426783269148 -0.0017361701149910555 0 0.014879518934826514 -0.0013953139770635191 0 0.014964164464499684 -0.0018423830645036676 0 0.014425624155921921 -0.0011299350296650348 0 0.014836184742845347 -0.0013594116735025541 0 0.014495699547394554 -0.0011328218752709857 0 0.014919137545585236 -0.0009745640162952538 0 0.014879518934826514 -0.0013953139770635191 0 0.014495699547394554 -0.0011328218752709857 0 0.014919137545585236 -0.0009745640162952538 0 0.014514862013988248 -0.00077785814303703911 0 0.014919137545585236 -0.0009745640162952538 0 0.015291735353829286 -0.0011822713533839848 0 0.015239106799140239 -0.0008859934377240577 0 0.015291735353829286 -0.0011822713533839848 0 0.015448593023134316 -0.0009893292948081776 0 0.015239106799140239 -0.0008859934377240577 0 0.015291735353829286 -0.0011822713533839848 0 0.014879518934826514 -0.0013953139770635191 0 0.015309052944019165 -0.0015491350605347496 0 0.014919137545585236 -0.0009745640162952538 0 0.015291735353829286 -0.0011822713533839848 0 0.014879518934826514 -0.0013953139770635191 0 0.014879518934826514 -0.0013953139770635191 0 0.014964164464499684 -0.0018423830645036676 0 0.015309052944019165 -0.0015491350605347496 0 0.015551199460029235 -0.0020501867336651367 0 0.014964164464499684 -0.0018423830645036676 0 0.015309052944019165 -0.0015491350605347496 0 0.015551199460029235 -0.0020501867336651367 0 0.015309052944019165 -0.0015491350605347496 0 0.015774170515280992 -0.0015349170038545777 0 0.015551199460029235 -0.0020501867336651367 0 0.015774170515280992 -0.0015349170038545777 0 0.016113754740136984 -0.001692356397070054 0 0.015309052944019165 -0.0015491350605347496 0 0.015774170515280992 -0.0015349170038545777 0 0.015570409514375242 -0.0013078728876647987 0 0.015774170515280992 -0.0015349170038545777 0 0.015876968723657559 -0.0011917585424311536 0 0.016210194285650039 -0.0013239356893259347 0 0.015774170515280992 -0.0015349170038545777 0 0.015570409514375242 -0.0013078728876647987 0 0.015876968723657559 -0.0011917585424311536 0 0.015291735353829286 -0.0011822713533839848 0 0.015309052944019165 -0.0015491350605347496 0 0.015570409514375242 -0.0013078728876647987 0 0.015291735353829286 -0.0011822713533839848 0 0.015570409514375242 -0.0013078728876647987 0 0.015617611971914519 -0.0010744822698194744 0 0.015570409514375242 -0.0013078728876647987 0 0.015617611971914519 -0.0010744822698194744 0 0.015876968723657559 -0.0011917585424311536 0 0.015291735353829286 -0.0011822713533839848 0 0.015617611971914519 -0.0010744822698194744 0 0.015448593023134316 -0.0009893292948081776 0 0.015617611971914519 -0.0010744822698194744 0 0.015448593023134316 -0.0009893292948081776 0 0.015653811904532119 -0.00081356838124108674 0 0.015617611971914519 -0.0010744822698194744 0 0.015818183949116323 -0.00097133154088397333 0 0.015653811904532119 -0.00081356838124108674 0 0.015818183949116323 -0.00097133154088397333 0 0.015876968723657559 -0.0011917585424311536 0 0.016273525686451292 -0.00094841925675348787 0 0.015617611971914519 -0.0010744822698194744 0 0.015818183949116323 -0.00097133154088397333 0 0.015876968723657559 -0.0011917585424311536 0 0.01811566357652215 -0.00046487669043679728 0 0.018152181381081052 -0.00061828573161087192 0 0.018010167017915548 -0.0005394550098135986 0 0.016637799221265896 -0.00079202427148559464 0 0.016100689208947961 -0.00079380786724110044 0 0.015818183949116323 -0.00097133154088397333 0 0.015767390401131658 -0.00073193671604311356 0 0.016273525686451292 -0.00094841925675348787 0 0.015818183949116323 -0.00097133154088397333 0 0.015767390401131658 -0.00073193671604311356 0 0.015653811904532119 -0.00081356838124108674 0 0.016637799221265896 -0.00079202427148559464 0 0.016441976345808802 -0.00087324200575618664 0 0.015448593023134316 -0.0009893292948081776 0 0.015653811904532119 -0.00081356838124108674 0 0.015239106799140239 -0.0008859934377240577 0 0.01830400851864749 -0.00070282957629542325 0 0.018152181381081052 -0.00061828573161087192 0 0.018302850607873341 -0.00052440530113516686 0 0.01811566357652215 -0.00046487669043679728 0 0.018152181381081052 -0.00061828573161087192 0 0.018302850607873341 -0.00052440530113516686 0 0.016637799221265896 -0.00079202427148559464 0 0.016551262981772532 -0.00042714080096825858 0 0.015732007690135927 -0.00075989899238459069 0 0.015653811904532119 -0.00081356838124108674 0 0.014861435820567818 -0.00055502059951451457 0 0.015653811904532119 -0.00081356838124108674 0 0.015239106799140239 -0.0008859934377240577 0 0.014861435820567818 -0.00055502059951451457 0 0.014919137545585236 -0.0009745640162952538 0 0.015239106799140239 -0.0008859934377240577 0 0.014861435820567818 -0.00055502059951451457 0 0.014514862013988248 -0.00077785814303703911 0 0.014861435820567818 -0.00055502059951451457 0 0.014183319521077611 -0.000357069913097297 0 0.014919137545585236 -0.0009745640162952538 0 0.014514862013988248 -0.00077785814303703911 0 0.014861435820567818 -0.00055502059951451457 0 0.018433336186815884 -0.00067480958703447762 0 0.018302850607873341 -0.00052440530113516686 0 0.01850115904540002 -0.00059265496282444145 0 0.01830400851864749 -0.00070282957629542325 0 0.018433336186815884 -0.00067480958703447762 0 0.018302850607873341 -0.00052440530113516686 0 0.016551262981772532 -0.00042714080096825858 0 0.016704726774817123 -0.0011051407090046754 0 0.016704726774817123 -0.0011051407090046754 0 0.014216031922532847 -0.00051288420784650435 0 0.016158676595582039 -0.00030880582852305951 0 0.01586242740707761 -0.0016826978712588215 0 0.016007734750584156 -0.00023392316772696616 0 0.014514862013988248 -0.00077785814303703911 0 0.014183319521077611 -0.000357069913097297 0 0.014105770839815613 -0.00091091769279579731 0 0.014647058714512235 -0.00067679344881488399 0 0.014216031922532847 -0.00051288420784650435 0 0.017422910787977426 -0.0013980539819862094 0 0.017811335225031043 -0.001160471756832785 0 0.017801162484230325 -0.0014651549663723207 0 0.017422910787977426 -0.0013980539819862094 0 0.017332949233971467 -0.0010808261433803844 0 0.017811335225031043 -0.001160471756832785 0 0.017422910787977426 -0.0013980539819862094 0 0.017332949233971467 -0.0010808261433803844 0 0.017161308384022592 -0.0012780479092600549 0 0.018255773372320011 -0.0012119785307098845 0 0.017801162484230325 -0.0014651549663723207 0 0.018196700463761137 -0.0015430457972091232 0 0.017811335225031043 -0.001160471756832785 0 0.018255773372320011 -0.0012119785307098845 0 0.017801162484230325 -0.0014651549663723207 0 0.018196700463761137 -0.0015430457972091232 0 0.017766174799728428 -0.0017988183670050611 0 0.018299363316414276 -0.0020075561261854919 0 0.017801162484230325 -0.0014651549663723207 0 0.018196700463761137 -0.0015430457972091232 0 0.017766174799728428 -0.0017988183670050611 0 0.017216719398170523 -0.0020713565993245534 0 0.017766174799728428 -0.0017988183670050611 0 0.01733185524262975 -0.0016696673925835634 0 0.017801162484230325 -0.0014651549663723207 0 0.017766174799728428 -0.0017988183670050611 0 0.01733185524262975 -0.0016696673925835634 0 0.017422910787977426 -0.0013980539819862094 0 0.017801162484230325 -0.0014651549663723207 0 0.01733185524262975 -0.0016696673925835634 0 0.017422910787977426 -0.0013980539819862094 0 0.01733185524262975 -0.0016696673925835634 0 0.016950011701946585 -0.0014701597934384087 0 0.017216719398170523 -0.0020713565993245534 0 0.01733185524262975 -0.0016696673925835634 0 0.016799943262486211 -0.0018413832531373787 0 0.016799943262486211 -0.0018413832531373787 0 0.016497816253156935 -0.0015657778353595385 0 0.016950011701946585 -0.0014701597934384087 0 0.01733185524262975 -0.0016696673925835634 0 0.016799943262486211 -0.0018413832531373787 0 0.016950011701946585 -0.0014701597934384087 0 0.016266132847447799 -0.0019983256665390536 0 0.015551199460029235 -0.0020501867336651367 0 0.016113754740136984 -0.001692356397070054 0 0.016266132847447799 -0.0019983256665390536 0 0.016497816253156935 -0.0015657778353595385 0 0.016113754740136984 -0.001692356397070054 0 0.016266132847447799 -0.0019983256665390536 0 0.016799943262486211 -0.0018413832531373787 0 0.016497816253156935 -0.0015657778353595385 0 0.015774170515280992 -0.0015349170038545777 0 0.016113754740136984 -0.001692356397070054 0 0.016210194285650039 -0.0013239356893259347 0 0.016497816253156935 -0.0015657778353595385 0 0.016113754740136984 -0.001692356397070054 0 0.016210194285650039 -0.0013239356893259347 0 0.016497816253156935 -0.0015657778353595385 0 0.016210194285650039 -0.0013239356893259347 0 0.016600770947348478 -0.0012105433741507331 0 0.016600770947348478 -0.0012105433741507331 0 0.016273525686451292 -0.00094841925675348787 0 0.016664947389412665 -0.00092027820096743081 0 0.015876968723657559 -0.0011917585424311536 0 0.016210194285650039 -0.0013239356893259347 0 0.016273525686451292 -0.00094841925675348787 0 0.016210194285650039 -0.0013239356893259347 0 0.016600770947348478 -0.0012105433741507331 0 0.016273525686451292 -0.00094841925675348787 0 0.016950011701946585 -0.0014701597934384087 0 0.017161308384022592 -0.0012780479092600549 0 0.01695080383628126 -0.0011273967251834633 0 0.017422910787977426 -0.0013980539819862094 0 0.016950011701946585 -0.0014701597934384087 0 0.017161308384022592 -0.0012780479092600549 0 0.016600770947348478 -0.0012105433741507331 0 0.016950011701946585 -0.0014701597934384087 0 0.01695080383628126 -0.0011273967251834633 0 0.016497816253156935 -0.0015657778353595385 0 0.016600770947348478 -0.0012105433741507331 0 0.016950011701946585 -0.0014701597934384087 0 0.016600770947348478 -0.0012105433741507331 0 0.01695080383628126 -0.0011273967251834633 0 0.016664947389412665 -0.00092027820096743081 0 0.017332949233971467 -0.0010808261433803844 0 0.017161308384022592 -0.0012780479092600549 0 0.01695080383628126 -0.0011273967251834633 0 0.017332949233971467 -0.0010808261433803844 0 0.017013118639403479 -0.00094074343102038113 0 0.01716425373334568 -0.00077882377557467392 0 0.017332949233971467 -0.0010808261433803844 0 0.01695080383628126 -0.0011273967251834633 0 0.017013118639403479 -0.00094074343102038113 0 0.017013118639403479 -0.00094074343102038113 0 0.016853035774657681 -0.00080659474156542983 0 0.01716425373334568 -0.00077882377557467392 0 0.01695080383628126 -0.0011273967251834633 0 0.017013118639403479 -0.00094074343102038113 0 0.016664947389412665 -0.00092027820096743081 0 0.017013118639403479 -0.00094074343102038113 0 0.016853035774657681 -0.00080659474156542983 0 0.016664947389412665 -0.00092027820096743081 0 0.016853035774657681 -0.00080659474156542983 0 0.01716425373334568 -0.00077882377557467392 0 0.016674971045869767 -0.00062371765435627194 0 0.016637799221265896 -0.00079202427148559464 0 0.018508466729225573 -0.00038572680812554427 0 0.015978974636993264 -0.00085742001658142949 0 0.016434808768308499 -0.00078976403608188182 0 0.016555502353014426 -0.00055803852359004357 0 0.015978974636993264 -0.00085742001658142949 0 0.016273525686451292 -0.00094841925675348787 0 0.016434808768308499 -0.00078976403608188182 0 0.016273525686451292 -0.00094841925675348787 0 0.016434808768308499 -0.00078976403608188182 0 0.016664947389412665 -0.00092027820096743081 0 0.016434808768308499 -0.00078976403608188182 0 0.016664947389412665 -0.00092027820096743081 0 0.01665462331414563 -0.00078673308631482168 0 0.016853035774657681 -0.00080659474156542983 0 0.016664947389412665 -0.00092027820096743081 0 0.01665462331414563 -0.00078673308631482168 0 0.016434808768308499 -0.00078976403608188182 0 0.016674971045869767 -0.00062371765435627194 0 0.016555502353014426 -0.00055803852359004357 0 0.016853035774657681 -0.00080659474156542983 0 0.01665462331414563 -0.00078673308631482168 0 0.016674971045869767 -0.00062371765435627194 0 0.018048648209115375 -0.00024836571341090876 0 0.018508466729225573 -0.00038572680812554427 0 0.016434808768308499 -0.00078976403608188182 0 0.01665462331414563 -0.00078673308631482168 0 0.016674971045869767 -0.00062371765435627194 0 0.020965957871124794 0.00018447415168787692 0 0.021066808117292026 0.00024469805996149449 0 0.020939723374922118 0.00030264664742502294 0 0.019815720600618463 -0.00022300398482049362 0 0.018508466729225573 -0.00038572680812554427 0 0.016674971045869767 -0.00062371765435627194 0 0.016588758500746217 -0.00057124087747749007 0 0.017405959900488165 -0.00032489524766340369 0 0.020965957871124794 0.00018447415168787692 0 0.020939723374922118 0.00030264664742502294 0 0.020827654930031733 0.0002266134556641334 0 0.018508466729225573 -0.00038572680812554427 0 0.019228167971170218 7.1090961038541701e-05 0 0.01716425373334568 -0.00077882377557467392 0 0.016674971045869767 -0.00062371765435627194 0 0.017405959900488165 -0.00032489524766340369 0 0.01716425373334568 -0.00077882377557467392 0 0.017405959900488165 -0.00032489524766340369 0 0.017692760107663696 -0.00084358812634783393 0 0.017405959900488165 -0.00032489524766340369 0 0.017692760107663696 -0.00084358812634783393 0 0.018070063837511453 -0.00064664831199069813 0 0.017332949233971467 -0.0010808261433803844 0 0.017811335225031043 -0.001160471756832785 0 0.017692760107663696 -0.00084358812634783393 0 0.017332949233971467 -0.0010808261433803844 0 0.01716425373334568 -0.00077882377557467392 0 0.017692760107663696 -0.00084358812634783393 0 0.017811335225031043 -0.001160471756832785 0 0.018255773372320011 -0.0012119785307098845 0 0.018244973795244129 -0.00096274080933503423 0 0.017811335225031043 -0.001160471756832785 0 0.017692760107663696 -0.00084358812634783393 0 0.018244973795244129 -0.00096274080933503423 0 0.017692760107663696 -0.00084358812634783393 0 0.018244973795244129 -0.00096274080933503423 0 0.018070063837511453 -0.00064664831199069813 0 0.018271888158687886 0.00012170276613405453 0 0.018070063837511453 -0.00064664831199069813 0 0.018769953318694705 -0.00088859288355491294 0 0.018244973795244129 -0.00096274080933503423 0 0.018070063837511453 -0.00064664831199069813 0 0.018769953318694705 -0.00088859288355491294 0 0.018769953318694705 -0.00088859288355491294 0 0.01864227442936536 -0.00098795211400756972 0 0.018588285017100283 -0.00094870022267206993 0 0.019206061786718371 -0.0015272414506237631 0 0.018769953318694705 -0.00088859288355491294 0 0.01864227442936536 -0.00098795211400756972 0 0.019206061786718371 -0.0015272414506237631 0 0.01864227442936536 -0.00098795211400756972 0 0.017837027485122472 -0.0014243784378996677 0 0.01864227442936536 -0.00098795211400756972 0 0.018588285017100283 -0.00094870022267206993 0 0.018510014188014342 -0.00076166357135617016 0 0.018244973795244129 -0.00096274080933503423 0 0.018769953318694705 -0.00088859288355491294 0 0.018588285017100283 -0.00094870022267206993 0 0.018255773372320011 -0.0012119785307098845 0 0.018244973795244129 -0.00096274080933503423 0 0.018588285017100283 -0.00094870022267206993 0 0.018255773372320011 -0.0012119785307098845 0 0.018588285017100283 -0.00094870022267206993 0 0.018633507536788243 -0.0012966330487283564 0 0.018255773372320011 -0.0012119785307098845 0 0.018196700463761137 -0.0015430457972091232 0 0.018633507536788243 -0.0012966330487283564 0 0.018588285017100283 -0.00094870022267206993 0 0.018633507536788243 -0.0012966330487283564 0 0.018510014188014342 -0.00076166357135617016 0 0.018143502131986781 -0.00013749553991462864 0 0.018038694751297362 -0.00024216819281691604 0 0.017957390944425 0.0012580781941793589 0 0.017370051275450764 0.0010702501505738397 0 0.017664399302071709 0.00035375330688129669 0 0.017957390944425 0.0012580781941793589 0 0.017882241125709117 0.0017121327500567228 0 0.017636407156459796 0.0017461572343614395 0 0.017957390944425 0.0012580781941793589 0 0.017370051275450764 0.0010702501505738397 0 0.017636407156459796 0.0017461572343614395 0 0.018196700463761137 -0.0015430457972091232 0 0.018633507536788243 -0.0012966330487283564 0 0.018299363316414276 -0.0020075561261854919 0 0.018143502131986781 -0.00013749553991462864 0 0.01881859243636198 0.00020399997431158403 0 0.017957390944425 0.0012580781941793589 0 0.017882241125709117 0.0017121327500567228 0 0.018015898547721725 0.0017836330481500601 0 0.016629864584409491 0.0012243010985347905 0 0.016514338835196155 0.00179592761427871 0 0.015879183075600614 0.0015707917192321784 0 0.016629864584409491 0.0012243010985347905 0 0.016514338835196155 0.00179592761427871 0 0.017132439664082594 0.0016374611150021178 0 0.017132439664082594 0.0016374611150021178 0 0.017370051275450764 0.0010702501505738397 0 0.017636407156459796 0.0017461572343614395 0 0.016629864584409491 0.0012243010985347905 0 0.017132439664082594 0.0016374611150021178 0 0.017370051275450764 0.0010702501505738397 0 0.017370051275450764 0.0010702501505738397 0 0.016692956241273895 0.00026253287647168581 0 0.017664399302071709 0.00035375330688129669 0 0.016629864584409491 0.0012243010985347905 0 0.017370051275450764 0.0010702501505738397 0 0.016692956241273895 0.00026253287647168581 0 0.016629864584409491 0.0012243010985347905 0 0.016692956241273895 0.00026253287647168581 0 0.015856389880713126 0.00078535960502796112 0 0.016692956241273895 0.00026253287647168581 0 0.017664399302071709 0.00035375330688129669 0 0.017300410308465391 -0.00087071230093588401 0 0.016692956241273895 0.00026253287647168581 0 0.017300410308465391 -0.00087071230093588401 0 0.015885349277933225 -0.00062452987112308184 0 0.018038694751297362 -0.00024216819281691604 0 0.017313236462093897 -0.000900839196391546 0 0.01864227442936536 -0.00098795211400756972 0 0.018510014188014342 -0.00076166357135617016 0 0.01820336190061226 -0.00095696614517093469 0 0.018510014188014342 -0.00076166357135617016 0 0.01820336190061226 -0.00095696614517093469 0 0.017300410308465391 -0.00087071230093588401 0 0.01864227442936536 -0.00098795211400756972 0 0.01820336190061226 -0.00095696614517093469 0 0.017837027485122472 -0.0014243784378996677 0 0.01820336190061226 -0.00095696614517093469 0 0.017837027485122472 -0.0014243784378996677 0 0.017300410308465391 -0.00087071230093588401 0 0.019738010544342412 -0.0021258395654048657 0 0.019170032165012091 -0.0022263934650730587 0 0.017837027485122472 -0.0014243784378996677 0 0.017300410308465391 -0.00087071230093588401 0 0.015885349277933225 -0.00062452987112308184 0 0.022501132285480237 -0.0025905150725864133 0 0.021525925827939905 -0.0029281003796173604 0 0.023256009917181294 -0.0036500580169652919 0 0.023393429177463648 -0.0024314817966087109 0 0.022501132285480237 -0.0025905150725864133 0 0.023256009917181294 -0.0036500580169652919 0 0.023393429177463648 -0.0024314817966087109 0 0.02452544073606918 -0.0032603066697689076 0 0.023256009917181294 -0.0036500580169652919 0 0.024324704629890476 -0.0017673713204680113 0 0.024995084643207207 -0.0029406976993175574 0 0.024995084643207207 -0.0029406976993175574 0 0.0215044008720633 -0.0010877266444370131 0 0.015259311433747319 0.0002256573703224888 0 0.015885349277933225 -0.00062452987112308184 0 0.014170949846114148 0.00019279413222895726 0 0.019170032165012091 -0.0022263934650730587 0 0.0215044008720633 -0.0010877266444370131 0 0.02452544073606918 -0.0032603066697689076 0 0.023256009917181294 -0.0036500580169652919 0 0.024768010625309637 -0.0043907093745981039 0 0.015259311433747319 0.0002256573703224888 0 0.015924048594808501 0.00016768007304228315 0 0.015885349277933225 -0.00062452987112308184 0 0.016692956241273895 0.00026253287647168581 0 0.015924048594808501 0.00016768007304228315 0 0.015885349277933225 -0.00062452987112308184 0 0.024769386855072038 -0.0019490090090662317 0 0.024490011382656253 -0.00199561783814256 0 0.024850081330619771 -0.0016761437006570334 0 0.024769386855072038 -0.0019490090090662317 0 0.024907207496268052 -0.0018809574826194064 0 0.024850081330619771 -0.0016761437006570334 0 0.024907207496268052 -0.0018809574826194064 0 0.025324534562680596 -0.0010910745407989976 0 0.024850081330619771 -0.0016761437006570334 0 0.025324534562680596 -0.0010910745407989976 0 0.024850081330619771 -0.0016761437006570334 0 0.025272868216238822 -0.00098536301471128813 0 0.024850081330619771 -0.0016761437006570334 0 0.024671827759470726 -0.0011350541968731687 0 0.025272868216238822 -0.00098536301471128813 0 0.024850081330619771 -0.0016761437006570334 0 0.024108768053904352 -0.0015006768279980296 0 0.024671827759470726 -0.0011350541968731687 0 0.024490011382656253 -0.00199561783814256 0 0.024850081330619771 -0.0016761437006570334 0 0.024108768053904352 -0.0015006768279980296 0 0.023668418112431193 -0.00031246778217157558 0 0.024108768053904352 -0.0015006768279980296 0 0.024671827759470726 -0.0011350541968731687 0 0.023668418112431193 -0.00031246778217157558 0 0.024671827759470726 -0.0011350541968731687 0 0.024624801695745786 -0.00019775026812702295 0 0.023668418112431193 -0.00031246778217157558 0 0.024624801695745786 -0.00019775026812702295 0 0.02381797011366097 0.00057984632621819478 0 0.024671827759470726 -0.0011350541968731687 0 0.024624801695745786 -0.00019775026812702295 0 0.024917821624032457 -0.00069779114310883719 0 0.0215044008720633 -0.0010877266444370131 0 0.019989488690223635 0.0015964383075320722 0 0.014170949846114148 0.00019279413222895726 0 0.013853691006042919 0.0020734660402385533 0 0.014375512332435078 0.00083985969409764555 0 0.025485650403544283 -0.0011067048345123974 0 0.025237937831393553 -4.7269750193746169e-07 0 0.025378947955484468 0.00080712206737246987 0 0.024624801695745786 -0.00019775026812702295 0 0.025237937831393553 -4.7269750193746169e-07 0 0.024944724144668487 0.00032705003231622073 0 0.024624801695745786 -0.00019775026812702295 0 0.025237937831393553 -4.7269750193746169e-07 0 0.024917821624032457 -0.00069779114310883719 0 0.024671827759470726 -0.0011350541968731687 0 0.024917821624032457 -0.00069779114310883719 0 0.025272868216238822 -0.00098536301471128813 0 0.025237937831393553 -4.7269750193746169e-07 0 0.024917821624032457 -0.00069779114310883719 0 0.025224925272972761 -0.00063925756095520769 0 0.024917821624032457 -0.00069779114310883719 0 0.025224925272972761 -0.00063925756095520769 0 0.025272868216238822 -0.00098536301471128813 0 0.025485650403544283 -0.0011067048345123974 0 0.025237937831393553 -4.7269750193746169e-07 0 0.025224925272972761 -0.00063925756095520769 0 0.025485650403544283 -0.0011067048345123974 0 0.025224925272972761 -0.00063925756095520769 0 0.025272868216238822 -0.00098536301471128813 0 0.0215044008720633 -0.0010877266444370131 0 0.022515325502213898 -0.0014348677961937221 0 0.013853691006042919 0.0020734660402385533 0 0.014375512332435078 0.00083985969409764555 0 0.014351091370914589 0.0013029089211773976 0 0.014280491638614862 0.0016857212960224193 0 0.013853691006042919 0.0020734660402385533 0 0.014351091370914589 0.0013029089211773976 0 0.014280491638614862 0.0016857212960224193 0 0.014097955532036738 0.0018642851688667249 0 0.013853691006042919 0.0020734660402385533 0 0.014097955532036738 0.0018642851688667249 0 0.013819351045071216 0.0019124753293985942 0 0.013853691006042919 0.0020734660402385533 0 0.014097955532036738 0.0018642851688667249 0 0.013819351045071216 0.0019124753293985942 0 0.014509545727479691 0.0017592832458827444 0 0.025378947955484468 0.00080712206737246987 0 0.024544512257238534 0.00073885971999881753 0 0.024634584592852029 0.0015910907463432843 0 0.025378947955484468 0.00080712206737246987 0 0.024944724144668487 0.00032705003231622073 0 0.024544512257238534 0.00073885971999881753 0 0.025237937831393553 -4.7269750193746169e-07 0 0.025378947955484468 0.00080712206737246987 0 0.024944724144668487 0.00032705003231622073 0 0.024624801695745786 -0.00019775026812702295 0 0.024544512257238534 0.00073885971999881753 0 0.02381797011366097 0.00057984632621819478 0 0.024624801695745786 -0.00019775026812702295 0 0.024944724144668487 0.00032705003231622073 0 0.024544512257238534 0.00073885971999881753 0 0.024544512257238534 0.00073885971999881753 0 0.023954239083984231 0.001416951040397836 0 0.024634584592852029 0.0015910907463432843 0 0.024544512257238534 0.00073885971999881753 0 0.023954239083984231 0.001416951040397836 0 0.02381797011366097 0.00057984632621819478 0 0.015856389880713126 0.00078535960502796112 0 0.015164391925444526 0.00078399181827276784 0 0.015182969217110867 0.0012942144041146574 0 0.016692956241273895 0.00026253287647168581 0 0.015924048594808501 0.00016768007304228315 0 0.015856389880713126 0.00078535960502796112 0 0.015259311433747319 0.0002256573703224888 0 0.015924048594808501 0.00016768007304228315 0 0.015856389880713126 0.00078535960502796112 0 0.015259311433747319 0.0002256573703224888 0 0.015856389880713126 0.00078535960502796112 0 0.015164391925444526 0.00078399181827276784 0 0.015259311433747319 0.0002256573703224888 0 0.014170949846114148 0.00019279413222895726 0 0.01465290767480391 0.00045773916145974328 0 0.015259311433747319 0.0002256573703224888 0 0.01465290767480391 0.00045773916145974328 0 0.014800104636041731 0.00059802409598153756 0 0.015259311433747319 0.0002256573703224888 0 0.014800104636041731 0.00059802409598153756 0 0.015164391925444526 0.00078399181827276784 0 0.014170949846114148 0.00019279413222895726 0 0.01465290767480391 0.00045773916145974328 0 0.014375512332435078 0.00083985969409764555 0 0.01465290767480391 0.00045773916145974328 0 0.014800104636041731 0.00059802409598153756 0 0.014375512332435078 0.00083985969409764555 0 0.014375512332435078 0.00083985969409764555 0 0.014709985462070222 0.0010007726864590678 0 0.014351091370914589 0.0013029089211773976 0 0.014800104636041731 0.00059802409598153756 0 0.014375512332435078 0.00083985969409764555 0 0.014709985462070222 0.0010007726864590678 0 0.014709985462070222 0.0010007726864590678 0 0.014351091370914589 0.0013029089211773976 0 0.014668623441529388 0.0013828651332249064 0 0.014709985462070222 0.0010007726864590678 0 0.015182969217110867 0.0012942144041146574 0 0.014668623441529388 0.0013828651332249064 0 0.014709985462070222 0.0010007726864590678 0 0.015164391925444526 0.00078399181827276784 0 0.015182969217110867 0.0012942144041146574 0 0.014800104636041731 0.00059802409598153756 0 0.014709985462070222 0.0010007726864590678 0 0.015164391925444526 0.00078399181827276784 0 0.015182969217110867 0.0012942144041146574 0 0.014509545727479691 0.0017592832458827444 0 0.015314391688226422 0.0017357187483499662 0 0.013819351045071216 0.0019124753293985942 0 0.014509545727479691 0.0017592832458827444 0 0.015665719290154832 0.0023364263238244416 0 0.015182969217110867 0.0012942144041146574 0 0.014668623441529388 0.0013828651332249064 0 0.014509545727479691 0.0017592832458827444 0 0.014509545727479691 0.0017592832458827444 0 0.015314391688226422 0.0017357187483499662 0 0.015665719290154832 0.0023364263238244416 0 0.014280491638614862 0.0016857212960224193 0 0.014351091370914589 0.0013029089211773976 0 0.014668623441529388 0.0013828651332249064 0 0.014280491638614862 0.0016857212960224193 0 0.014668623441529388 0.0013828651332249064 0 0.014509545727479691 0.0017592832458827444 0 0.014280491638614862 0.0016857212960224193 0 0.014097955532036738 0.0018642851688667249 0 0.014509545727479691 0.0017592832458827444 0 0.015314391688226422 0.0017357187483499662 0 0.015879183075600614 0.0015707917192321784 0 0.015665719290154832 0.0023364263238244416 0 0.015182969217110867 0.0012942144041146574 0 0.015314391688226422 0.0017357187483499662 0 0.015879183075600614 0.0015707917192321784 0 0.015856389880713126 0.00078535960502796112 0 0.015182969217110867 0.0012942144041146574 0 0.015879183075600614 0.0015707917192321784 0 0.016629864584409491 0.0012243010985347905 0 0.015856389880713126 0.00078535960502796112 0 0.015879183075600614 0.0015707917192321784 0 0.016514338835196155 0.00179592761427871 0 0.015879183075600614 0.0015707917192321784 0 0.015665719290154832 0.0023364263238244416 0 0.009597981584149505 0.0021793570036081887 0 0.011907178215812154 0.0004042794084701002 0 0.0083590329856960827 0.00026879221394913761 0 0.013819351045071216 0.0019124753293985942 0 0.009597981584149505 0.0021793570036081887 0 0.011907178215812154 0.0004042794084701002 0 0.013733226838904969 0.0019951890676369781 0 0.012555334155449082 0.0021949122009568525 0 0.0056380050741197058 0.0012002499069256242 0 0.0055008164254500011 0.00072509646797987539 0 0.006058667700045769 0.0009016120182515577 0 0.0055008164254500011 0.00072509646797987539 0 0.006058667700045769 0.0009016120182515577 0 0.0059691030151276274 0.00056775372178217726 0 0.0056380050741197058 0.0012002499069256242 0 0.0055008164254500011 0.00072509646797987539 0 0.0049070830574472124 0.0010107598494354887 0 0.0055008164254500011 0.00072509646797987539 0 0.0049070830574472124 0.0010107598494354887 0 0.0049949452553537015 0.00066059871879603374 0 0.0081060905083041694 0.00080658896171554564 0 0.0067845884241378657 0.00068609984865731371 0 0.0049070830574472124 0.0010107598494354887 0 0.0049949452553537015 0.00066059871879603374 0 0.0047603104772576807 0.00078036580292082595 0 0.022848239501679822 0.00276952141355131 0 0.02365642130868725 0.00215763177936012 0 0.024924118991137396 0.0027410683221694575 0 0.015701423979553788 0.0022952188650881243 0 0.013547149911085733 0.00086648637165372502 0 0.02365642130868725 0.00215763177936012 0 0.024273884416853655 0.0020113696452166751 0 0.024924118991137396 0.0027410683221694575 0 0.023954239083984231 0.001416951040397836 0 0.02365642130868725 0.00215763177936012 0 0.024273884416853655 0.0020113696452166751 0 0.023954239083984231 0.001416951040397836 0 0.024273884416853655 0.0020113696452166751 0 0.024634584592852029 0.0015910907463432843 0 0.024273884416853655 0.0020113696452166751 0 0.024634584592852029 0.0015910907463432843 0 0.024924118991137396 0.0027410683221694575 0 0.013819351045071216 0.0019124753293985942 0 0.013853691006042919 0.0020734660402385533 0 0.014249511711290365 0.00096145567535575282 0 0.025378947955484468 0.00080712206737246987 0 0.024634584592852029 0.0015910907463432843 0 0.024924118991137396 0.0027410683221694575 0 0.0081060905083041694 0.00080658896171554564 0 0.013547149911085733 0.00086648637165372502 0 0.019989488690223635 0.0015964383075320722 0 0.013547149911085733 0.00086648637165372502 0 0.013819351045071216 0.0019124753293985942 0 0.011907178215812154 0.0004042794084701002 0 0.014249511711290365 0.00096145567535575282 0 0.0056380050741197058 0.0012002499069256242 0 0.0064452289807031566 0.0013032952318517365 0 0.006058667700045769 0.0009016120182515577 0 0.006058667700045769 0.0009016120182515577 0 0.0062927028293197395 0.00066395644038368389 0 0.0059691030151276274 0.00056775372178217726 0 0.006058667700045769 0.0009016120182515577 0 0.0065249620235163933 0.00091615066218801472 0 0.0062927028293197395 0.00066395644038368389 0 0.013547149911085733 0.00086648637165372502 0 0.0085925322424097242 0.0018684171562643624 0 0.0064452289807031566 0.0013032952318517365 0 0.006058667700045769 0.0009016120182515577 0 0.0065249620235163933 0.00091615066218801472 0 0.0073290476658392483 0.00094228788436151673 0 0.0076317163506813123 0.0015025572700546729 0 0.0064219198150280632 0.0013796887871745595 0 0.0073290476658392483 0.00094228788436151673 0 0.0064219198150280632 0.0013796887871745595 0 0.0068467169883109939 0.00084547695790163806 0 0.0064219198150280632 0.0013796887871745595 0 0.0065249620235163933 0.00091615066218801472 0 0.0068467169883109939 0.00084547695790163806 0 0.0065249620235163933 0.00091615066218801472 0 0.0068467169883109939 0.00084547695790163806 0 0.0068084412761823332 0.00059721946662578539 0 0.0073290476658392483 0.00094228788436151673 0 0.0068467169883109939 0.00084547695790163806 0 0.0070052879044272846 0.00071473107043354964 0 0.0068467169883109939 0.00084547695790163806 0 0.0070052879044272846 0.00071473107043354964 0 0.0068084412761823332 0.00059721946662578539 0 0.0070150213349024363 -4.8112657171220223e-05 0 0.0067917539635076601 0.00019103016552845273 0 0.0070437807931018961 0.00048580916039846889 0 0.0067917539635076601 0.00019103016552845273 0 0.0065514286296582186 0.00045857972229744497 0 0.0061879436743256652 0.00015293641168505652 0 0.0067917539635076601 0.00019103016552845273 0 0.0070437807931018961 0.00048580916039846889 0 0.0067998923866757731 0.00043287543128325541 0 0.0070052879044272846 0.00071473107043354964 0 0.0070437807931018961 0.00048580916039846889 0 0.0068084412761823332 0.00059721946662578539 0 0.0070437807931018961 0.00048580916039846889 0 0.0068084412761823332 0.00059721946662578539 0 0.0067998923866757731 0.00043287543128325541 0 0.0065249620235163933 0.00091615066218801472 0 0.0068084412761823332 0.00059721946662578539 0 0.0065514286296582186 0.00045857972229744497 0 0.0068084412761823332 0.00059721946662578539 0 0.0067998923866757731 0.00043287543128325541 0 0.0065514286296582186 0.00045857972229744497 0 0.0067917539635076601 0.00019103016552845273 0 0.0067998923866757731 0.00043287543128325541 0 0.0065514286296582186 0.00045857972229744497 0 0.0065514286296582186 0.00045857972229744497 0 0.0062927028293197395 0.00066395644038368389 0 0.0061879436743256652 0.00015293641168505652 0 0.0062927028293197395 0.00066395644038368389 0 0.0059691030151276274 0.00056775372178217726 0 0.0061879436743256652 0.00015293641168505652 0 0.0065249620235163933 0.00091615066218801472 0 0.0065514286296582186 0.00045857972229744497 0 0.0062927028293197395 0.00066395644038368389 0 0.0059691030151276274 0.00056775372178217726 0 0.0061879436743256652 0.00015293641168505652 0 0.0057627810030970051 0.00025109116131196433 0 0.006044689914984005 -0.00049978846600146922 0 0.0061879436743256652 0.00015293641168505652 0 0.006537038232415875 -0.00025476926165073977 0 0.006044689914984005 -0.00049978846600146922 0 0.0061879436743256652 0.00015293641168505652 0 0.0056018743795706412 -0.00012923736301097838 0 0.0067917539635076601 0.00019103016552845273 0 0.0061879436743256652 0.00015293641168505652 0 0.006537038232415875 -0.00025476926165073977 0 0.0070150213349024363 -4.8112657171220223e-05 0 0.0069372571632495567 -0.00063444156904663969 0 0.006537038232415875 -0.00025476926165073977 0 0.0070150213349024363 -4.8112657171220223e-05 0 0.0067917539635076601 0.00019103016552845273 0 0.006537038232415875 -0.00025476926165073977 0 0.005307266785104927 0.0004246248106972588 0 0.0049333534681170075 0.00038466238098149638 0 0.0050930607861217701 9.5202126100010073e-05 0 0.005307266785104927 0.0004246248106972588 0 0.0049333534681170075 0.00038466238098149638 0 0.0049949452553537015 0.00066059871879603374 0 0.0049333534681170075 0.00038466238098149638 0 0.0049949452553537015 0.00066059871879603374 0 0.0046596454973336287 0.00054094806881972604 0 0.0055008164254500011 0.00072509646797987539 0 0.005307266785104927 0.0004246248106972588 0 0.0049949452553537015 0.00066059871879603374 0 0.0055008164254500011 0.00072509646797987539 0 0.005307266785104927 0.0004246248106972588 0 0.0057627810030970051 0.00025109116131196433 0 0.0055008164254500011 0.00072509646797987539 0 0.0059691030151276274 0.00056775372178217726 0 0.0057627810030970051 0.00025109116131196433 0 0.005307266785104927 0.0004246248106972588 0 0.0057627810030970051 0.00025109116131196433 0 0.0056018743795706412 -0.00012923736301097838 0 0.005307266785104927 0.0004246248106972588 0 0.0056018743795706412 -0.00012923736301097838 0 0.0050930607861217701 9.5202126100010073e-05 0 0.0061879436743256652 0.00015293641168505652 0 0.0057627810030970051 0.00025109116131196433 0 0.0056018743795706412 -0.00012923736301097838 0 0.0049213437074717183 -0.00026376432551314003 0 0.0056018743795706412 -0.00012923736301097838 0 0.0050930607861217701 9.5202126100010073e-05 0 0.0049333534681170075 0.00038466238098149638 0 0.0050930607861217701 9.5202126100010073e-05 0 0.0046676147003680392 0.00017042974741506389 0 0.0049213437074717183 -0.00026376432551314003 0 0.0050930607861217701 9.5202126100010073e-05 0 0.0046676147003680392 0.00017042974741506389 0 0.0049213437074717183 -0.00026376432551314003 0 0.0042756365745991219 -0.00010366011593576535 0 0.0046676147003680392 0.00017042974741506389 0 0.0042756365745991219 -0.00010366011593576535 0 0.0046676147003680392 0.00017042974741506389 0 0.0041976897674244869 0.00027663030963067265 0 0.0049333534681170075 0.00038466238098149638 0 0.0046676147003680392 0.00017042974741506389 0 0.0046596454973336287 0.00054094806881972604 0 0.0046676147003680392 0.00017042974741506389 0 0.0046596454973336287 0.00054094806881972604 0 0.0041976897674244869 0.00027663030963067265 0 0.0046596454973336287 0.00054094806881972604 0 0.004347217126742884 0.00057617257700702616 0 0.0046110678959725756 0.00068991440440756182 0 0.0041976897674244869 0.00027663030963067265 0 0.0036947868553468635 0.00027187413592138089 0 0.0039189142081420686 0.00051965767963999693 0 0.004347217126742884 0.00057617257700702616 0 0.0039189142081420686 0.00051965767963999693 0 0.0042607986008876518 0.00069405587015592242 0 0.0046596454973336287 0.00054094806881972604 0 0.004347217126742884 0.00057617257700702616 0 0.0041976897674244869 0.00027663030963067265 0 0.004347217126742884 0.00057617257700702616 0 0.0041976897674244869 0.00027663030963067265 0 0.0039189142081420686 0.00051965767963999693 0 0.0037700394770536203 -4.5212276993173929e-05 0 0.0041976897674244869 0.00027663030963067265 0 0.0036947868553468635 0.00027187413592138089 0 0.0037700394770536203 -4.5212276993173929e-05 0 0.0042756365745991219 -0.00010366011593576535 0 0.0041976897674244869 0.00027663030963067265 0 0.0037700394770536203 -4.5212276993173929e-05 0 0.0034471598208717525 1.6923338606611646e-05 0 0.0036947868553468635 0.00027187413592138089 0 0.0034471598208717525 1.6923338606611646e-05 0 0.0036947868553468635 0.00027187413592138089 0 0.0033106264087857298 0.00021129583294882075 0 0.0026291542005886012 0.00027486359694088201 0 0.0033106264087857298 0.00021129583294882075 0 0.003419100193887028 0.00060394999111221671 0 0.0036947868553468635 0.00027187413592138089 0 0.0033106264087857298 0.00021129583294882075 0 0.003419100193887028 0.00060394999111221671 0 0.0031110756510742345 -0.00010465076224793703 0 0.0028915980637955105 1.4220921721644883e-05 0 0.0033106264087857298 0.00021129583294882075 0 0.0031110756510742345 -0.00010465076224793703 0 0.0034471598208717525 1.6923338606611646e-05 0 0.0033106264087857298 0.00021129583294882075 0 0.003419100193887028 0.00060394999111221671 0 0.0039189142081420686 0.00051965767963999693 0 0.0038296344874452432 0.00071867968435299979 0 0.0036947868553468635 0.00027187413592138089 0 0.003419100193887028 0.00060394999111221671 0 0.0039189142081420686 0.00051965767963999693 0 0.0038296344874452432 0.00071867968435299979 0 0.0035693930385907453 0.00082131877405068057 0 0.004565193866582635 0.0015900942724082624 0 0.0039189142081420686 0.00051965767963999693 0 0.0038296344874452432 0.00071867968435299979 0 0.0042607986008876518 0.00069405587015592242 0 0.003419100193887028 0.00060394999111221671 0 0.0038296344874452432 0.00071867968435299979 0 0.0035693930385907453 0.00082131877405068057 0 0.0037608793873151656 0.00051020435128265422 0 0.003419100193887028 0.00060394999111221671 0 0.0035693930385907453 0.00082131877405068057 0 0.017990073295790034 0.0018307718942571381 0 0.017890799427354671 0.0019405213424621133 0 0.018015898547721725 0.0017836330481500601 0 0.017890799427354671 0.0019405213424621133 0 0.017882241125709117 0.0017121327500567228 0 0.018015898547721725 0.0017836330481500601 0 0.010155485755308252 0.0016729336595313453 0 0.011010023912638608 0.0018275893709705619 0 0.017890799427354671 0.0019405213424621133 0 0.017636407156459796 0.0017461572343614395 0 0.01713867103781672 0.0021670738906428284 0 0.017890799427354671 0.0019405213424621133 0 0.017882241125709117 0.0017121327500567228 0 0.017636407156459796 0.0017461572343614395 0 0.017132439664082594 0.0016374611150021178 0 0.017636407156459796 0.0017461572343614395 0 0.01713867103781672 0.0021670738906428284 0 0.009597981584149505 0.0021793570036081887 0 0.0083590329856960827 0.00026879221394913761 0 0.004565193866582635 0.0015900942724082624 0 0.016514338835196155 0.00179592761427871 0 0.017132439664082594 0.0016374611150021178 0 0.01713867103781672 0.0021670738906428284 0 0.012555334155449082 0.0021949122009568525 0 0.011010023912638608 0.0018275893709705619 0 0.016514338835196155 0.00179592761427871 0 0.015665719290154832 0.0023364263238244416 0 0.01713867103781672 0.0021670738906428284 0 0.0067845884241378657 0.00068609984865731371 0 0.004839035460101288 0.00069999060989469708 0 0.0083590329856960827 0.00026879221394913761 0 0.004565193866582635 0.0015900942724082624 0 0.0046622000702628086 0.00075880670559408609 0 0.0049070830574472124 0.0010107598494354887 0 0.0047603104772576807 0.00078036580292082595 0 0.0046622000702628086 0.00075880670559408609 0 0.0049949452553537015 0.00066059871879603374 0 0.0046596454973336287 0.00054094806881972604 0 0.0047603104772576807 0.00078036580292082595 0 0.0047603104772576807 0.00078036580292082595 0 0.0046110678959725756 0.00068991440440756182 0 0.0046622000702628086 0.00075880670559408609 0 0.0046596454973336287 0.00054094806881972604 0 0.0047603104772576807 0.00078036580292082595 0 0.0046110678959725756 0.00068991440440756182 0 0.004347217126742884 0.00057617257700702616 0 0.0042607986008876518 0.00069405587015592242 0 0.0046622000702628086 0.00075880670559408609 0 0.004347217126742884 0.00057617257700702616 0 0.0046110678959725756 0.00068991440440756182 0 0.0046622000702628086 0.00075880670559408609 0 0.0038296344874452432 0.00071867968435299979 0 0.004565193866582635 0.0015900942724082624 0 0.0042607986008876518 0.00069405587015592242 0 0.004565193866582635 0.0015900942724082624 0 0.0042607986008876518 0.00069405587015592242 0 0.0046622000702628086 0.00075880670559408609 0 
</DataArray>
</PointData>
<CellData Scalars="region_id,cross_section_updated," Vectors="" Tensors="stress,">
<DataArray type="Float64" Name="region_id" format="ascii">
6 5 5 5 5 5 5 5 5 6 5 5 5 6 5 5 5 5 5 5 5 5 5 5 5 5 5 5 5 6 5 5 6 5 5 5 6 5 5 5 6 5 5 5 5 5 5 5 5 6 5 5 5 5 5 5 6 5 5 5 5 5 5 5 5 5 6 5 5 6 5 5 5 6 5 6 5 6 6 5 5 5 5 5 5 5 5 5 6 5 6 5 5 6 5 5 5 5 5 5 5 5 5 5 5 5 5 5 5 6 5 5 5 5 6 5 5 6 6 5 5 6 5 5 5 6 6 6 5 6 5 5 5 5 5 5 5 5 5 6 6 5 5 5 5 5 5 6 5 5 5 5 5 6 6 5 5 6 5 5 6 6 5 6 6 5 5 5 5 5 5 5 5 5 5 5 5 6 5 5 6 5 5 5 5 5 5 5 5 5 5 5 5 5 5 5 5 5 5 5 5 6 5 5 5 5 5 5 5 5 5 5 5 5 5 5 5 6 5 5 6 5 5 5 5 6 6 5 5 5 5 5 5 5 5 5 5 5 5 5 5 5 6 5 5 5 6 5 5 5 5 5 5 5 5 6 6 5 5 5 5 5 5 5 5 5 6 5 5 5 5 5 6 5 6 5 5 5 5 5 6 6 5 5 5 6 5 6 5 5 5 6 5 6 5 5 6 5 5 5 6 5 5 5 5 5 6 6 5 5 6 5 6 6 5 5 6 5 6 5 5 5 5 6 5 6 5 5 6 6 6 5 6 5 6 6 5 5 5 5 5 5 5 5 5 6 5 5 5 5 5 5 5 5 5 5 5 5 5 5 5 5 5 5 5 5 5 5 5 5 6 5 6 5 5 5 5 5 6 5 6 5 5 6 5 5 5 5 6 5 6 5 5 5 5 5 5 5 5 5 5 5 5 5 6 5 5 6 5 5 5 5 5 5 5 5 5 5 5 5 5 5 5 5 5 6 5 5 5 5 5 5 5 5 5 5 6 5 5 5 6 6 5 5 5 5 5 5 5 5 5 5 5 5 5 5 5 5 5 5 5 5 5 5 5 6 5 5 6 5 5 6 5 6 5 5 5 6 5 6 6 5 5 5 5 5 5 5 5 5 5 6 5 5 5 5 5 5 5 5 5 5 5 5 5 5 5 5 5 5 5 5 5 5 5 5 5 5 5 5 5 5 5 5 6 5 5 5 5 6 5 5 5 5 5 5 5 6 5 5 5 5 5 5 5 5 5 6 5 6 6 5 5 6 5 6 5 5 5 5 5 5 5 5 6 5 5 5 5 5 6 5 5 5 5 5 5 6 5 5 5 5 5 5 5 5 6 5 6 5 5 5 5 5 6 5 6 5 5 5 5 5 5 6 5 5 5 5 5 5 5 5 5 5 6 6 5 5 5 5 6 5 5 5 5 5 5 5 5 5 5 5 5 6 5 5 6 5 5 5 5 5 5 5 5 5 5 6 6 5 5 5 5 5 5 5 5 5 5 6 5 6 5 5 5 5 5 5 5 5 5 5 5 5 5 5 5 5 5 5 5 5 5 5 5 5 5 5 5 5 5 5 5 5 5 5 5 5 5 5 5 6 5 5 5 6 5 6 5 6 5 5 6 5 6 5 6 5 5 6 5 5 5 5 5 5 5 5 6 5 5 6 5 5 5 5 6 5 5 5 5 5 5 5 5 5 5 6 5 6 5 6 5 6 5 6 5 5 5 6 5 6 5 5 5 5 5 5 5 5 5 5 5 5 6 5 5 6 6 5 5 5 6 5 5 6 5 5 6 5 5 5 6 5 5 5 5 5 6 5 5 6 6 5 5 5 6 6 6 5 5 6 5 5 6 5 5 5 5 5 5 6 5 5 6 5 5 6 5 5 5 5 5 5 5 5 6 5 5 5 5 5 6 6 6 5 5 5 5 5 5 5 5 5 5 5 6 5 5 5 5 6 5 5 5 5 5 5 5 6 5 5 5 6 5 6 5 6 5 6 5 5 5 5 5 5 5 5 5 5 6 5 5 5 5 5 5 5 5 6 5 5 6 5 5 5 5 6 5 5 5 5 5 5 6 5 6 5 5 5 5 5 5 6 6 5 5 5 5 6 5 6 5 5 5 6 5 5 5 5 5 5 5 6 6 5 5 6 5 6 6 6 5 5 5 5 5 5 5 6 5 5 5 5 5 5 5 5 5 5 5 5 5 6 5 5 5 5 5 5 5 5 5 5 6 5 5 6 5 5 5 5 5 6 5 5 5 5 5 5 5 5 6 5 6 5 5 6 5 5 6 5 5 5 5 6 5 5 5 5 5 6 5 5 5 5 5 5 5 5 5 6 5 5 6 6 5 5 5 5 6 5 6 5 5 6 6 5 6 5 6 5 5 5 5 5 6 5 5 5 6 5 5 5 6 5 5 5 5 5 5 5 5 5 5 6 5 5 5 5 5 5 5 5 5 5 5 5 5 5 5 5 5 5 6 5 5 6 5 5 5 5 6 5 5 5 5 5 5 5 5 5 5 5 5 5 5 5 5 5 5 5 5 5 5 5 5 5 5 5 5 5 5 5 5 5 5 5 5 5 5 5 5 5 5 5 5 5 5 5 5 5 5 5 5 5 5 5 5 5 5 6 5 5 5 5 5 5 5 5 5 5 5 5 5 5 5 5 5 5 5 6 5 5 5 5 6 5 5 5 5 5 5 5 5 5 5 5 5 5 5 5 5 5 5 6 5 5 5 5 6 5 5 5 5 5 6 6 5 5 5 5 5 5 5 5 5 5 5 5 5 5 5 5 5 5 6 5 5 5 6 5 6 5 5 5 5 5 5 5 5 5 6 5 5 5 5 6 6 5 5 5 5 5 5 5 5 5 5 5 5 5 5 5 5 5 5 5 6 5 5 5 5 5 5 5 5 5 5 5 5 5 6 5 5 5 5 5 5 5 5 5 5 5 5 5 5 5 5 5 5 5 5 5 5 6 5 5 5 5 5 5 5 6 5 5 5 6 5 5 5 5 5 5 5 5 5 5 5 5 5 5 5 5 5 5 5 5 5 5 5 5 6 5 6 5 5 5 5 6 5 6 5 5 5 5 5 5 5 6 5 5 5 5 6 5 5 5 5 5 5 5 5 5 5 5 6 5 5 5 5 5 5 6 5 6 5 5 5 5 5 6 5 5 6 5 5 6 5 5 5 5 5 5 5 5 5 5 5 5 5 5 5 5 5 5 5 5 5 5 5 5 5 5 5 6 5 5 5 6 5 6 5 5 6 6 5 5 5 6 5 5 5 5 6 5 6 5 5 6 5 5 5 5 5 6 5 5 5 5 5 6 5 5 5 5 5 5 5 5 5 5 5 5 5 5 5 5 5 5 5 5 5 5 5 5 5 5 5 5 5 5 5 5 5 5 5 5 5 5 5 5 5 5 5 6 6 5 5 5 5 5 5 5 5 5 5 5 5 5 5 5 5 5 5 5 5 5 5 5 5 5 5 5 5 6 5 5 5 5 6 5 5 5 5 6 5 5 5 5 5 5 5 6 5 6 5 5 5 5 5 6 5 5 5 5 5 5 5 5 5 5 6 5 5 5 5 5 5 5 5 5 5 5 5 5 5 5 5 5 5 5 5 5 5 5 5 5 6 5 5 5 5 6 5 6 5 5 6 5 6 5 5 5 5 5 5 6 5 5 5 6 5 5 5 5 5 5 5 5 5 5 5 5 5 5 5 5 5 6 5 6 5 5 5 5 5 6 5 6 5 5 5 5 5 5 5 5 6 5 5 5 5 5 5 5 5 5 5 5 5 5 5 5 5 5 5 5 5 5 5 5 6 5 6 5 5 5 5 5 5 5 5 5 5 5 5 6 5 5 5 5 5 5 5 5 5 5 5 5 5 5 5 5 5 5 5 5 5 5 5 5 5 5 5 6 5 5 5 6 5 6 6 5 5 5 5 5 6 5 5 5 5 5 5 5 5 5 5 5 5 5 5 5 5 5 5 5 5 5 5 5 5 6 5 5 6 5 5 5 5 5 5 5 5 6 6 5 5 5 5 5 5 5 5 5 5 6 5 5 6 6 5 6 5 5 5 5 5 6 5 6 6 6 5 5 5 5 5 5 6 5 5 5 5 5 5 5 5 5 6 5 6 5 5 6 5 5 5 5 5 5 5 5 5 5 5 5 5 5 5 5 5 5 5 5 5 5 5 5 5 5 6 6 5 5 5 5 5 5 5 5 5 5 5 5 5 5 5 5 5 5 5 5 5 5 5 5 5 5 5 5 5 5 5 5 5 5 5 5 5 5 5 5 5 5 5 5 5 5 5 5 5 5 5 5 5 5 5 5 6 5 5 5 5 5 5 5 5 5 6 6 5 5 5 6 5 5 5 5 5 5 5 5 5 5 5 5 5 5 5 5 5 5 5 5 5 5 5 5 5 5 5 5 5 5 6 5 5 5 5 5 5 5 6 5 5 5 5 5 5 5 6 5 5 6 5 5 5 5 5 5 5 5 5 6 5 5 6 6 5 5 5 6 5 5 5 5 5 5 5 5 5 5 5 6 5 5 5 5 6 5 6 5 5 6 5 5 6 6 5 5 5 5 5 5 5 5 5 5 6 6 5 5 5 5 5 5 6 5 5 5 5 5 5 6 5 6 5 5 5 5 5 6 6 5 5 5 5 5 5 5 5 5 5 5 5 5 5 5 5 5 5 5 6 6 5 5 6 5 5 5 5 5 5 5 5 5 5 5 6 5 5 5 5 5 5 5 5 5 5 5 5 5 5 5 5 5 5 5 5 5 5 5 5 5 5 5 5 6 5 5 5 5 6 6 5 5 5 5 5 5 5 6 5 6 5 5 5 5 5 5 5 5 5 5 5 5 5 5 5 5 5 5 5 5 6 6 5 6 5 5 5 5 5 6 5 5 5 5 5 5 5 5 5 5 5 5 5 5 5 5 5 6 5 5 5 5 5 5 5 5 5 5 5 6 5 5 5 5 5 5 5 5 5 5 6 5 5 5 5 5 5 5 5 5 6 5 5 5 5 6 5 5 5 6 5 5 5 5 6 5 5 5 5 5 5 5 5 5 6 5 5 5 5 6 5 5 5 5 5 5 5 5 6 5 6 6 5 6 6 5 5 5 6 5 5 5 6 5 6 5 5 5 5 5 6 5 5 5 6 5 5 5 5 5 5 6 6 5 5 5 5 5 5 5 5 5 5 5 6 5 6 6 5 5 5 5 5 6 6 5 5 6 5 5 5 5 6 5 5 5 5 5 6 5 5 5 5 6 6 5 5 6 5 6 6 5 5 5 5 5 5 5 5 5 5 5 5 5 5 5 5 5 5 5 5 5 6 5 5 6 5 6 5 5 5 6 5 5 5 5 5 5 6 6 5 5 5 5 5 5 6 5 5 6 5 5 5 5 5 5 6 5 5 5 6 5 5 5 5 5 5 6 5 5 5 5 5 5 5 5 5 5 5 5 5 6 5 6 5 5 5 5 5 5 5 5 5 6 5 5 5 6 5 5 5 5 5 5 5 5 5 5 6 5 5 5 5 5 5 5 5 5 5 5 5 5 5 5 5 5 5 5 5 5 5 5 5 5 6 5 5 5 6 5 5 6 5 5 5 5 5 6 5 5 5 6 5 5 5 5 5 5 5 6 5 5 5 5 5 5 5 5 5 5 5 5 5 5 5 5 5 6 5 6 5 5 5 5 5 5 5 5 5 6 5 6 5 6 5 6 6 5 5 5 5 6 5 5 5 5 6 5 5 5 5 5 6 5 6 5 5 6 5 5 5 5 5 5 5 5 5 5 5 5 5 5 5 5 5 6 5 5 5 5 5 5 6 5 5 5 5 5 6 5 5 5 5 5 5 5 6 5 5 6 5 5 5 5 5 5 6 5 5 5 6 5 5 5 5 5 5 5 5 5 5 5 5 5 5 5 5 5 6 5 5 5 5 5 6 6 5 5 5 5 5 6 5 6 5 6 5 6 6 5 5 5 6 6 5 5 5 5 5 5 5 5 5 5 5 5 5 5 5 5 5 5 5 5 5 5 5 5 5 5 5 5 5 5 5 5 5 5 5 5 5 5 6 5 5 5 5 5 5 5 6 5 6 5 5 5 5 5 5 6 5 5 5 6 5 5 5 6 6 5 6 5 5 5 5 5 5 6 5 5 6 5 5 5 5 5 5 5 5 5 5 5 5 6 6 6 5 5 5 6 5 5 5 5 5 5 5 5 5 5 5 5 5 5 5 5 5 5 5 5 5 5 6 5 5 5 5 6 5 5 5 5 5 5 5 6 5 5 5 5 5 6 5 5 5 5 5 6 5 5 5 5 5 5 5 5 5 6 5 5 5 5 6 5 5 5 5 5 5 5 5 5 5 6 5 5 6 5 5 5 5 5 5 5 5 5 5 5 5 5 5 5 5 5 5 5 5 6 5 5 5 5 6 5 5 5 5 5 5 5 5 6 5 5 5 5 5 6 5 5 6 5 5 5 5 5 5 5 5 5 5 5 5 6 5 5 5 5 5 5 5 5 5 5 5 5 5 5 5 5 5 5 5 5 5 5 5 5 5 5 5 5 6 5 5 5 5 5 5 5 5 5 5 5 5 5 5 6 5 5 5 5 5 5 5 5 5 5 5 5 5 5 5 5 5 5 5 6 5 5 5 5 5 5 5 6 5 5 5 5 5 5 5 5 5 5 5 5 5 5 5 5 5 5 5 5 5 5 5 5 6 5 5 5 5 5 6 5 5 5 5 5 5 5 5 5 5 6 5 5 6 5 6 5 5 5 5 5 5 5 6 5 6 5 6 5 5 5 5 5 5 5 5 5 5 5 5 5 5 5 5 5 5 5 5 5 5 5 5 5 5 5 5 5 5 5 5 5 5 5 5 6 5 5 5 5 5 5 5 5 5 5 5 5 5 5 5 5 5 5 5 5 5 5 5 5 5 5 5 5 5 5 5 6 5 5 5 5 5 5 6 6 5 5 5 5 5 5 5 5 5 5 5 5 5 6 5 5 5 5 5 5 5 5 5 5 6 6 5 6 5 5 5 6 5 6 6 5 6 5 5 5 5 5 5 5 6 6 5 5 5 5 6 5 5 5 5 6 5 6 5 6 6 5 6 5 5 5 5 5 6 5 6 6 6 6 5 5 5 5 5 6 5 5 6 6 5 5 5 6 5 5 6 5 5 5 5 6 5 5 6 5 5 6 5 5 5 5 5 5 5 5 5 5 5 5 5 5 6 5 6 5 5 5 5 5 6 5 5 6 5 5 5 5 5 6 5 5 5 5 5 5 5 5 5 5 6 5 5 5 5 5 5 5 5 5 5 5 6 5 5 5 5 5 5 6 5 5 5 5 5 5 5 5 5 5 5 5 5 5 6 5 5 5 6 5 5 5 5 5 5 5 6 5 6 5 5 5 5 5 5 5 5 5 5 5 5 5 5 5 5 5 5 5 5 5 5 5 5 5 5 5 5 5 5 5 5 5 5 5 5 6 5 6 5 5 6 5 6 5 5 5 5 5 5 6 5 5 6 6 5 5 5 5 5 5 6 5 5 5 5 5 5 5 6 5 5 5 5 5 5 5 5 5 5 5 5 5 5 5 5 5 5 5 6 5 5 5 6 5 6 5 6 5 5 5 5 6 5 5 5 5 5 5 6 5 5 5 5 5 5 6 5 5 6 5 5 5 5 5 5 6 5 5 5 5 5 5 5 5 5 6 5 6 5 5 5 5 5 6 6 5 5 5 6 6 5 5 5 5 5 5 6 5 5 6 6 5 5 6 5 5 6 5 5 5 5 6 5 5 5 5 5 5 6 5 5 5 5 5 5 5 5 5 5 6 5 5 5 6 6 5 5 5 5 5 5 5 5 5 6 5 5 5 5 5 5 5 5 5 5 5 6 6 5 5 5 5 6 5 5 5 5 6 5 5 5 5 6 5 5 5 6 5 5 5 5 6 5 5 5 5 5 6 5 5 5 5 6 5 5 5 5 5 5 5 5 5 5 5 5 5 5 5 5 5 5 5 5 5 5 5 5 5 5 5 5 5 5 5 5 6 5 5 5 5 6 5 5 5 5 5 5 6 5 5 5 6 5 6 5 5 5 5 5 5 5 5 5 5 5 5 5 5 5 5 5 5 5 5 5 5 5 6 5 6 5 5 5 6 5 5 5 5 5 5 5 5 5 5 5 5 5 6 5 5 6 5 5 6 6 5 6 5 5 5 5 5 5 5 5 5 5 5 5 5 5 5 5 5 6 5 5 5 5 5 6 5 5 5 5 5 5 5 6 5 5 5 5 5 5 5 6 5 5 5 5 5 5 5 5 5 5 5 5 5 5 5 6 5 5 5 6 5 5 5 5 5 5 5 5 5 5 5 6 5 5 5 5 5 5 6 5 5 6 5 6 5 5 5 6 5 5 5 5 5 5 5 5 5 5 5 6 5 5 5 5 5 6 5 5 5 6 5 5 5 6 5 5 5 5 5 6 5 6 5 5 5 5 5 5 5 5 6 5 6 5 5 6 5 6 5 6 5 5 5 5 5 5 5 5 5 5 6 5 6 5 5 5 5 6 5 5 5 6 6 5 5 5 6 5 6 6 5 5 6 6 5 6 6 5 5 6 6 5 5 6 5 5 6 5 6 5 5 6 5 5 6 5 6 5 5 5 6 5 6 5 5 6 6 5 5 5 6 6 5 6 5 5 5 5 5 5 5 5 6 5 5 6 6 5 6 5 6 6 5 5 5 6 5 5 6 5 5 5 5 5 5 6 6 5 5 5 5 5 5 5 6 6 5 5 5 5 6 5 5 5 6 5 5 6 5 5 5 5 5 6 5 5 6 5 5 5 6 6 5 5 6 5 5 5 6 5 5 5 6 6 5 5 6 5 5 5 5 6 6 5 5 6 6 5 6 6 5 5 5 5 5 5 6 5 5 5 5 5 5 5 5 5 5 6 6 5 5 5 5 5 5 5 6 5 5 5 5 5 5 5 5 5 6 5 5 6 5 5 6 5 5 5 5 5 5 5 5 5 5 5 5 5 5 5 5 5 5 6 6 5 5 5 5 6 5 5 6 5 5 5 5 5 5 5 5 5 6 5 5 6 5 5 5 5 5 5 5 5 5 5 5 6 5 6 5 5 5 5 5 5 5 5 5 5 6 5 5 5 5 5 5 5 5 5 5 5 5 5 5 5 5 5 5 5 5 5 5 5 5 5 5 5 5 5 5 5 5 5 5 5 5 5 5 5 6 5 5 5 5 5 5 5 5 5 6 5 5 6 5 5 5 5 5 5 5 5 5 5 5 5 5 5 5 5 6 5 6 5 5 6 5 5 5 6 6 5 6 6 5 6 5 5 6 5 5 6 5 5 5 5 5 5 5 5 5 5 5 5 5 5 5 5 5 5 5 5 5 6 5 5 5 5 5 5 5 5 5 5 5 5 5 5 5 5 5 5 5 6 5 5 5 5 5 6 5 5 5 5 5 5 5 5 5 5 5 5 5 5 5 5 5 5 5 5 5 5 5 5 6 5 5 5 5 5 5 6 5 5 5 5 5 5 5 5 5 5 5 5 5 5 5 6 5 5 5 6 6 5 5 5 6 5 5 5 5 5 5 5 5 6 5 5 5 5 6 5 5 5 5 5 5 5 5 5 5 5 5 5 6 5 5 5 5 5 5 5 5 5 5 5 5 5 5 5 5 5 5 5 5 5 5 5 5 5 5 5 6 5 5 5 5 5 5 5 5 5 5 5 5 5 5 5 6 6 5 5 5 6 5 5 5 5 5 5 5 5 5 5 5 5 5 5 5 5 5 5 5 5 5 5 5 5 5 5 5 5 5 5 6 5 5 5 5 5 5 5 5 5 5 5 5 5 5 5 5 5 5 5 5 5 5 5 5 5 6 5 5 5 5 5 5 5 6 5 5 5 6 5 5 6 5 5 5 5 5 5 5 5 6 6 5 5 5 5 5 6 5 5 5 5 5 5 5 5 5 5 5 5 5 5 5 5 5 5 5 6 5 6 5 6 5 5 5 6 5 6 5 5 5 5 5 5 5 5 5 5 5 5 6 5 5 5 5 6 5 5 6 5 6 5 5 6 5 5 5 6 5 5 5 5 5 5 5 5 5 6 5 5 5 5 6 5 5 5 5 6 5 5 5 5 5 5 6 5 6 5 6 5 5 5 6 5 5 5 5 5 5 6 6 5 5 5 5 5 6 5 5 5 5 5 5 5 5 5 5 5 5 5 5 5 5 5 5 5 6 5 5 5 5 5 5 5 5 5 6 5 6 5 6 5 5 5 5 5 5 5 5 5 5 5 5 6 5 5 6 5 5 5 5 5 5 5 5 5 6 5 6 5 5 5 5 5 5 6 5 5 5 5 5 5 5 5 5 5 5 5 5 5 5 5 5 5 5 5 5 5 5 5 5 5 5 5 5 5 5 5 5 5 5 5 5 5 5 5 5 6 5 5 6 5 6 5 5 5 6 6 5 5 6 5 5 5 5 5 5 5 5 5 5 5 5 6 5 5 5 5 5 5 5 5 5 5 5 5 6 5 5 5 5 5 5 5 5 5 5 5 5 5 5 5 6 5 5 5 5 5 6 5 5 5 5 5 5 5 5 5 6 5 5 5 5 6 5 5 5 5 5 5 5 5 5 5 5 6 5 6 5 6 5 5 5 6 5 5 5 5 5 5 5 5 5 5 5 5 5 5 5 5 5 5 5 5 6 5 5 5 5 5 5 5 5 5 5 5 5 5 5 5 5 5 5 6 5 5 5 5 5 6 5 5 5 5 5 5 5 5 6 5 5 6 5 5 5 5 5 5 5 6 5 5 5 5 5 5 5 5 5 6 5 5 5 5 5 5 5 5 5 5 5 5 5 5 5 5 5 5 5 5 5 5 5 5 6 5 6 5 5 6 5 5 5 5 5 5 5 5 6 5 5 5 5 5 5 6 5 5 5 5 5 5 5 5 5 5 5 5 6 5 5 5 5 5 5 5 5 5 5 5 5 5 5 6 5 5 5 6 5 5 5 5 6 5 5 5 5 5 5 5 5 5 5 5 5 5 5 5 5 5 5 5 5 5 5 5 5 5 5 6 5 5 6 5 5 5 5 5 5 5 5 5 6 5 5 6 5 5 6 5 5 5 5 5 5 5 5 5 5 5 5 5 5 5 5 5 5 5 5 5 5 5 5 5 5 5 5 5 5 5 5 5 5 5 5 5 5 5 5 5 5 5 5 5 5 5 5 5 5 5 5 5 5 5 5 5 5 5 5 5 5 5 6 5 5 5 5 5 5 6 5 5 5 5 5 5 5 5 5 5 5 6 6 5 5 6 5 6 5 5 6 5 5 6 5 5 5 5 5 5 5 5 6 5 5 5 5 5 5 5 5 5 6 5 5 5 5 6 5 5 5 5 5 5 5 5 5 5 5 5 5 5 5 6 5 5 5 5 6 5 6 5 5 5 6 5 5 6 5 5 5 5 5 5 5 5 5 5 5 6 5 5 6 5 5 5 6 5 5 6 6 5 5 6 5 5 5 5 5 5 5 5 6 5 5 5 5 6 5 6 5 6 5 5 5 5 6 5 5 5 6 5 5 5 5 5 5 5 5 5 5 5 5 5 5 5 5 5 5 6 5 5 5 5 5 5 5 5 5 5 5 5 5 5 5 5 5 5 5 5 5 5 5 5 5 5 5 5 5 5 5 5 5 5 5 5 5 5 5 5 6 5 5 5 5 5 6 5 5 5 5 5 5 5 5 5 5 5 5 5 6 5 5 6 5 5 5 6 5 6 5 5 5 5 6 5 5 5 5 5 5 5 5 5 6 5 5 6 6 5 6 5 5 5 5 5 5 5 5 5 5 5 5 5 5 5 5 5 5 5 5 5 5 5 6 5 5 5 6 5 5 5 5 5 5 5 6 5 5 5 5 5 5 5 5 5 5 5 5 5 5 5 5 5 5 5 5 5 5 5 6 5 5 5 5 5 6 5 6 6 5 5 5 6 5 5 6 5 5 5 5 5 5 5 5 5 5 5 6 5 5 5 6 5 6 5 5 5 5 5 6 5 6 5 6 5 5 5 5 5 5 5 5 6 6 6 5 5 6 5 5 5 5 5 5 5 5 5 5 5 5 5 5 5 5 5 5 5 5 5 5 5 5 5 5 5 5 5 5 5 5 5 5 5 5 5 6 5 5 5 5 5 5 5 6 5 5 6 5 5 5 5 5 5 5 5 5 5 5 5 5 5 5 5 5 5 5 5 5 5 5 6 5 5 5 5 5 5 5 5 5 5 6 5 5 5 5 6 5 5 5 5 6 5 6 6 5 5 5 5 6 5 5 6 5 5 6 6 5 5 5 5 5 5 5 6 5 5 5 5 5 5 5 5 5 5 5 5 5 6 5 5 5 5 5 5 5 6 6 5 6 5 6 5 5 5 6 5 5 5 5 5 6 5 5 6 5 5 5 5 5 5 5 6 5 5 5 5 5 5 5 5 6 5 5 5 6 5 5 5 5 5 6 6 5 5 6 5 5 5 5 5 5 5 5 5 5 5 5 5 5 6 5 5 6 5 6 5 5 5 5 6 5 5 5 5 5 6 5 5 6 6 5 5 5 5 6 5 5 5 5 5 5 5 5 6 5 6 5 5 5 5 5 5 5 5 6 5 5 5 5 6 5 5 5 5 5 5 5 5 5 5 5 5 5 5 5 5 5 5 5 5 5 5 5 5 5 5 5 5 5 5 5 5 5 6 5 5 5 5 5 5 5 6 5 5 5 5 5 5 5 5 5 5 5 5 6 5 5 5 5 6 5 5 5 5 5 5 5 5 5 5 5 5 5 6 5 5 6 5 5 5 5 6 5 5 5 5 5 5 5 5 5 5 5 6 5 6 5 5 6 5 5 5 5 6 5 5 5 5 5 5 5 5 5 5 5 5 5 5 5 5 5 5 5 5 5 5 5 5 5 5 5 5 6 5 5 5 5 6 5 5 5 5 5 5 5 5 5 6 5 5 5 6 5 5 5 5 5 5 6 5 6 5 6 5 5 5 5 5 5 5 5 5 5 5 5 5 5 5 5 5 5 5 5 5 5 5 5 5 5 5 5 5 5 5 5 5 5 5 6 5 6 5 5 5 5 5 5 5 5 6 5 5 5 5 5 5 5 5 5 5 5 5 6 5 5 5 5 5 5 5 5 5 5 5 5 5 6 5 5 6 5 5 5 5 6 5 5 5 5 6 5 5 5 5 5 6 6 5 6 5 5 6 5 5 5 5 6 5 6 5 5 5 5 5 5 5 5 6 5 5 5 5 6 5 5 5 5 5 5 5 5 5 5 5 5 5 5 5 5 5 5 5 5 5 5 6 5 5 5 5 5 5 5 5 5 5 5 5 5 5 5 5 5 5 5 5 5 6 5 5 5 5 5 5 5 6 5 6 5 5 5 5 5 5 5 5 5 5 5 5 5 5 5 5 5 5 5 5 5 5 5 5 5 5 6 5 5 5 5 5 6 5 6 5 5 5 5 6 6 6 5 6 5 5 5 6 5 5 5 5 6 5 6 5 5 5 5 6 5 5 5 6 6 6 5 6 5 6 5 5 6 5 5 5 5 5 5 5 5 5 5 6 5 6 5 6 5 5 5 5 6 5 5 5 5 6 5 5 5 5 5 5 5 5 5 5 6 5 6 5 5 6 5 5 6 5 5 5 5 5 6 5 5 5 5 5 5 5 5 5 5 5 5 6 5 5 5 6 5 5 5 5 5 6 5 5 5 5 5 5 5 5 5 5 5 5 5 5 5 5 5 5 5 5 5 6 5 5 5 5 6 5 5 5 6 5 6 5 5 6 5 6 5 5 5 5 5 5 6 5 5 5 5 6 5 6 5 5 5 5 5 5 5 6 5 5 5 5 5 5 5 6 5 5 5 5 5 5 5 5 5 5 5 5 5 5 5 5 5 6 5 5 5 6 5 5 5 5 5 5 5 5 5 5 5 5 5 5 6 5 5 5 5 5 5 5 5 5 5 5 5 5 5 5 5 5 5 5 5 5 5 5 5 5 5 5 6 5 6 5 5 5 6 5 5 5 6 5 5 6 6 5 5 5 5 5 5 5 5 6 5 5 6 5 5 5 5 6 5 6 5 5 5 6 5 5 5 5 5 5 5 5 5 5 6 5 5 6 5 5 6 5 5 5 5 5 5 5 6 5 5 6 6 5 5 5 6 5 5 5 5 5 5 6 5 5 5 5 6 5 5 5 6 5 5 5 5 6 5 5 6 5 5 5 5 5 5 5 5 5 5 5 6 5 5 5 5 6 5 6 5 6 5 6 5 5 5 5 5 5 5 5 5 5 5 6 6 5 5 5 5 5 5 6 5 5 6 5 5 5 5 5 5 6 5 5 5 6 5 6 5 5 5 6 5 5 5 5 5 5 6 5 5 5 5 5 5 6 5 6 5 5 5 6 5 5 5 5 6 5 5 5 5 5 5 5 6 5 6 5 6 5 5 5 6 6 5 5 6 5 5 5 5 5 6 5 6 6 6 6 5 5 5 5 5 6 6 5 5 6 5 5 5 6 5 5 5 5 5 5 5 5 5 6 5 5 5 6 5 5 5 5 5 5 5 6 5 6 5 5 5 5 6 5 6 5 5 5 5 6 5 5 5 5 5 5 5 5 5 6 5 5 5 5 5 5 5 5 5 5 5 5 5 5 5 5 5 5 5 5 5 6 5 5 5 5 6 5 5 5 5 5 6 5 6 5 5 5 5 5 5 5 5 5 5 5 6 5 6 5 6 6 5 6 5 6 5 5 5 6 5 5 5 6 5 5 5 5 6 5 6 5 5 5 5 5 5 5 5 6 5 5 5 5 5 5 5 5 6 5 5 5 5 5 5 5 5 5 6 5 5 6 5 5 5 6 5 5 5 5 5 5 5 5 5 5 5 5 6 5 5 5 5 6 5 5 5 5 5 5 6 5 5 5 5 6 5 6 5 5 5 5 5 5 5 6 5 5 5 6 6 5 5 5 5 6 5 6 5 5 6 5 5 5 5 5 5 5 5 5 5 5 5 5 5 5 5 5 5 5 5 5 5 5 5 5 5 5 5 5 5 5 5 5 5 5 6 5 5 5 6 5 5 5 5 5 5 5 5 5 5 5 5 5 6 5 6 5 5 5 5 5 5 5 5 5 5 5 5 5 6 5 5 6 5 5 5 5 5 6 5 5 5 5 5 5 5 5 5 5 5 5 5 5 5 5 5 5 5 6 6 5 5 6 5 5 6 5 5 5 5 5 5 5 6 5 5 5 5 6 5 5 5 5 5 5 5 5 5 5 5 5 5 5 6 5 5 6 5 5 5 5 5 5 5 6 6 5 5 5 5 5 5 5 5 5 5 5 5 5 5 5 5 6 5 5 5 5 6 5 5 6 5 5 6 5 5 5 5 5 5 5 5 5 5 5 5 6 5 5 5 5 6 5 5 5 5 5 5 5 5 5 6 6 6 5 5 5 6 5 5 6 6 5 6 5 5 5 6 5 5 5 5 5 5 5 5 5 5 5 5 5 5 5 5 5 5 5 5 5 5 5 5 5 5 5 5 5 5 5 5 5 5 5 5 5 5 5 5 5 5 5 5 5 5 5 5 6 5 6 5 5 5 5 5 5 5 5 5 6 5 5 5 5 5 5 6 5 5 5 5 5 6 5 5 5 5 5 5 5 5 5 5 5 5 5 5 5 6 5 5 5 5 5 5 5 6 5 5 5 5 5 6 6 5 5 5 5 6 5 5 5 5 5 5 5 5 5 5 5 5 5 5 5 5 5 5 5 5 5 6 5 5 5 5 5 5 6 5 5 5 6 5 5 5 5 5 5 5 5 5 5 5 5 5 5 5 5 5 5 6 5 6 5 5 5 5 5 6 6 5 5 5 6 5 5 5 5 5 5 6 5 5 5 5 5 6 5 6 5 5 6 5 5 5 5 6 5 5 5 5 6 5 5 5 5 6 5 5 5 5 5 5 5 5 5 5 5 5 5 6 5 5 5 5 5 5 5 5 5 5 5 5 5 5 5 5 6 5 5 5 5 6 5 5 5 5 6 5 5 5 5 5 5 5 5 5 5 6 5 5 5 5 6 5 5 5 5 5 5 5 5 5 5 5 5 5 5 5 6 5 5 5 6 5 5 5 5 5 5 5 5 5 5 5 5 5 5 6 5 5 5 5 5 5 5 5 5 5 5 6 5 5 6 5 5 5 5 5 5 6 6 5 5 5 5 6 5 6 5 5 5 6 5 5 6 5 5 5 5 5 5 5 5 5 5 5 5 5 5 5 5 6 5 5 5 5 5 5 5 5 6 6 5 5 5 6 6 5 6 5 6 5 5 5 5 6 5 5 5 5 5 5 5 5 5 5 5 5 5 6 5 6 5 5 5 5 5 5 5 5 6 6 5 5 6 6 6 5 5 5 5 5 5 6 5 5 6 5 5 6 6 6 6 5 5 5 5 5 5 5 5 5 5 5 5 5 6 5 5 6 5 6 5 5 5 5 5 5 5 6 6 5 5 6 5 5 6 5 5 5 5 6 6 6 6 5 5 5 5 5 5 5 5 5 5 5 5 5 5 6 5 5 6 5 5 5 5 6 5 5 5 6 5 5 6 5 5 6 5 5 6 6 5 6 5 5 5 5 5 5 6 5 5 5 5 6 5 5 5 5 5 6 5 5 6 5 6 6 5 5 5 6 5 5 5 5 5 6 5 5 5 6 5 5 5 6 5 5 5 5 5 5 5 6 5 5 5 5 5 6 5 5 5 5 5 5 5 6 5 6 6 5 5 6 5 5 5 5 5 5 6 5 5 5 5 5 5 6 5 5 5 5 5 5 6 5 6 5 6 5 5 6 5 5 5 5 6 6 6 6 5 5 5 5 5 5 5 5 6 5 5 5 6 5 6 5 5 5 5 5 5 5 5 5 5 5 5 5 5 5 5 6 5 6 5 5 5 5 5 5 5 5 6 5 5 5 5 5 6 5 5 6 5 5 5 5 5 5 6 6 5 5 6 5 5 5 5 5 5 5 5 5 5 5 6 6 5 5 5 5 6 5 5 5 5 5 5 5 5 6 5 5 5 5 6 5 5 5 5 5 5 6 5 6 5 6 5 5 5 5 5 5 5 5 5 5 5 5 5 5 5 5 5 5 6 5 5 5 5 5 5 5 5 5 5 5 5 5 5 5 5 5 6 6 5 5 5 5 5 5 5 5 5 5 5 5 5 5 5 5 5 5 5 5 5 5 5 5 5 5 5 5 5 5 5 5 5 5 5 5 5 5 5 5 5 5 5 5 5 6 5 6 5 5 5 5 5 5 5 6 5 5 5 6 5 6 6 6 5 6 6 5 5 6 6 6 5 5 5 5 5 6 5 6 6 5 5 5 5 5 5 5 6 5 5 6 5 5 6 6 5 5 5 5 5 5 6 5 5 6 6 5 5 6 5 5 5 6 5 5 5 5 6 5 5 5 6 5 5 6 5 5 5 5 5 5 5 5 5 5 5 5 5 5 5 5 5 5 5 6 6 5 5 5 6 5 5 5 5 6 5 5 5 5 5 6 6 5 5 5 5 5 5 5 5 5 6 5 5 5 5 5 5 5 5 5 5 5 5 5 5 5 5 5 5 5 5 5 5 5 5 5 5 5 6 5 6 6 5 5 5 5 5 5 5 5 5 5 5 5 5 5 5 5 5 5 5 5 5 5 5 5 5 5 5 6 5 5 6 5 5 6 5 5 6 5 6 5 5 5 5 5 5 5 6 5 5 5 5 5 5 5 5 5 5 5 5 6 5 6 5 6 5 5 5 5 5 6 5 5 5 5 6 5 5 6 5 5 5 5 5 5 5 5 6 5 5 5 5 5 5 6 5 5 5 5 6 5 5 5 6 5 5 5 5 5 5 5 5 5 5 5 5 5 5 5 5 5 5 6 5 6 5 5 5 6 5 5 5 5 5 5 5 5 5 5 5 5 5 5 5 5 5 5 5 6 5 5 5 6 5 5 5 6 5 5 5 5 5 5 5 5 5 5 5 5 5 5 5 6 5 5 5 5 6 5 5 6 5 5 5 5 5 5 6 5 6 5 6 6 6 5 5 5 6 6 5 5 5 5 5 5 5 6 5 5 5 6 5 6 5 5 5 5 5 5 5 5 5 6 5 5 5 5 5 5 5 5 6 5 5 5 5 6 5 5 5 5 5 5 5 5 5 5 5 5 5 5 5 5 5 5 5 5 5 6 6 5 5 5 5 5 5 5 5 6 5 5 5 5 5 5 5 5 5 5 6 5 5 5 5 5 5 6 5 5 5 5 5 6 5 6 5 5 6 6 5 5 5 5 5 5 5 5 5 5 5 5 5 5 5 5 5 5 5 5 5 5 5 5 5 5 5 5 5 5 5 5 5 5 5 5 5 5 5 5 5 5 5 5 5 5 5 5 6 6 5 5 6 5 5 5 5 5 6 6 5 5 6 6 5 5 5 5 5 5 5 5 5 5 6 5 5 5 5 5 5 5 5 5 5 5 5 5 5 5 6 5 5 5 5 5 5 5 5 5 5 5 5 5 6 5 6 6 6 5 5 5 5 5 5 5 5 6 6 5 5 5 5 6 5 5 5 5 5 5 5 5 6 5 5 5 5 5 5 5 5 5 5 5 5 5 5 5 5 5 6 5 5 5 5 5 5 6 5 5 6 5 5 5 5 5 5 5 5 5 5 5 5 5 5 5 5 5 5 6 5 5 5 6 5 5 6 5 6 6 5 5 6 5 5 5 6 5 5 6 5 6 6 5 5 5 5 6 5 5 5 5 5 5 6 5 6 5 5 5 6 5 5 5 5 6 5 6 6 5 5 5 5 5 6 5 6 5 6 5 6 6 5 5 5 5 5 5 5 6 5 6 5 5 6 5 5 6 5 5 5 5 5 5 5 5 5 5 5 5 5 5 5 5 5 5 5 5 5 5 5 5 5 5 5 5 5 5 5 6 5 5 5 5 5 5 5 5 5 5 5 5 5 5 5 5 5 5 5 5 5 5 5 6 5 5 5 5 5 6 6 5 5 5 5 5 5 5 5 5 5 5 5 5 5 5 5 5 5 5 5 5 6 5 5 5 5 5 5 5 5 5 5 5 5 5 6 5 6 5 5 5 6 5 5 5 5 5 5 5 5 6 5 6 5 5 5 5 5 6 5 5 5 5 5 5 5 5 5 5 5 6 5 5 5 5 5 5 5 5 5 5 5 6 5 5 5 5 5 5 5 5 6 5 5 5 5 5 5 5 5 5 5 5 5 5 5 5 5 5 5 5 5 5 5 5 5 5 5 6 5 5 6 5 5 5 5 5 5 5 5 5 5 5 5 5 5 5 5 5 5 5 5 5 5 5 5 5 5 5 5 6 5 6 5 6 5 5 5 5 5 6 5 5 5 5 6 5 5 5 6 5 5 5 5 5 5 5 5 5 5 5 5 5 5 5 5 5 5 6 6 6 5 5 5 5 5 5 5 5 5 5 5 5 5 6 5 5 5 5 5 5 5 5 5 5 5 5 6 5 5 6 5 5 5 5 5 5 5 5 5 5 5 5 5 5 5 5 5 5 5 5 5 6 6 5 5 5 5 5 5 5 5 5 5 5 5 5 5 6 5 5 6 5 5 5 5 6 5 5 5 5 5 5 6 5 5 5 5 5 5 5 5 5 5 5 5 5 5 5 5 5 5 6 5 5 5 5 5 6 5 5 5 5 5 5 5 5 5 5 5 5 5 5 5 5 5 5 5 5 5 5 5 5 5 5 5 5 6 5 6 5 5 5 5 6 6 5 5 5 5 5 5 5 5 5 5 5 5 5 5 5 5 5 5 5 5 5 5 5 5 5 5 5 5 5 5 5 5 5 5 5 6 5 5 5 5 6 5 5 5 5 5 5 5 5 5 5 5 6 5 5 5 5 5 5 5 5 5 5 5 5 5 5 5 5 5 6 6 5 6 5 5 5 5 5 5 5 5 5 5 6 5 5 5 5 5 5 5 5 5 5 5 5 5 5 5 5 5 6 5 5 5 5 6 5 5 5 5 5 5 5 5 5 5 5 5 5 5 5 5 5 5 5 5 5 5 5 5 5 5 5 5 5 5 5 5 5 5 5 5 5 5 5 5 5 5 5 5 5 5 5 5 5 5 5 5 5 5 5 5 5 5 5 5 5 5 5 5 5 5 5 5 5 5 5 5 5 5 5 5 5 5 5 5 5 6 5 5 5 5 5 5 5 6 5 5 6 5 5 5 5 5 5 5 5 5 5 5 5 6 5 6 5 6 5 5 5 5 5 5 5 5 6 5 5 5 5 5 5 5 5 5 6 5 5 5 5 5 5 5 5 5 5 5 5 5 5 5 5 5 5 5 5 5 6 5 5 5 5 5 5 5 5 5 5 5 5 6 5 5 5 5 5 6 5 5 6 5 5 5 5 6 6 5 5 6 5 5 5 5 5 5 5 6 6 5 5 5 5 5 5 5 5 5 5 5 5 6 5 5 5 5 6 5 5 5 5 5 5 5 5 6 5 5 5 5 6 5 5 5 5 6 5 5 5 5 5 5 5 6 5 5 5 5 5 6 5 5 5 6 5 5 5 5 5 6 5 5 5 5 5 5 5 5 5 5 5 5 5 5 6 5 5 6 5 5 5 5 5 5 5 5 5 5 5 5 5 5 5 5 5 5 5 5 5 6 5 5 6 5 5 6 5 5 5 5 5 5 5 5 5 5 5 5 5 5 5 5 5 5 5 5 5 5 5 5 5 5 5 5 5 5 6 5 5 5 5 6 5 5 6 5 6 5 5 5 5 6 5 6 5 5 6 5 6 5 6 6 5 5 6 5 6 5 6 5 5 6 5 5 5 5 5 5 6 5 6 5 5 6 6 5 5 6 5 6 5 5 6 5 5 6 5 5 6 6 6 5 6 5 5 5 5 5 5 5 5 6 5 5 5 5 5 5 5 6 5 5 5 5 5 5 5 5 5 5 5 5 5 5 6 5 5 5 5 5 5 5 5 5 5 5 5 5 5 5 5 5 5 5 6 5 5 5 5 5 5 5 5 5 5 5 5 5 5 5 5 5 5 5 5 5 5 5 5 5 5 5 5 5 5 5 6 5 5 5 6 5 6 6 5 6 5 5 5 6 5 5 5 5 6 6 6 5 5 5 5 5 5 5 5 5 5 5 5 5 5 5 5 5 6 5 5 5 5 5 5 5 5 5 6 5 5 5 6 5 5 5 5 5 5 5 5 5 5 5 5 6 5 5 6 5 5 5 5 5 5 5 5 5 5 5 5 5 5 5 5 5 5 5 5 5 5 6 5 5 5 5 5 5 5 5 5 5 5 5 5 5 5 5 5 5 6 5 5 5 5 5 5 5 6 5 5 5 5 6 5 5 5 5 5 5 5 5 5 5 5 5 5 5 5 5 5 5 5 5 5 5 5 5 5 5 5 5 5 5 5 5 5 5 5 6 6 5 5 5 5 6 5 6 5 5 5 5 5 6 5 5 5 5 5 5 5 5 6 6 5 5 5 5 6 5 5 5 5 5 5 5 5 5 5 5 5 5 5 5 5 5 5 5 5 5 6 5 5 5 5 5 5 6 5 5 6 5 5 5 5 5 5 5 5 5 6 5 5 5 5 5 5 5 5 6 5 5 5 5 5 5 5 5 5 5 5 5 5 5 5 5 5 6 5 5 6 5 5 5 5 5 5 5 5 5 5 5 5 5 5 5 5 5 5 5 5 5 5 5 5 5 5 5 5 5 6 5 6 5 5 5 5 5 5 5 5 5 5 5 5 5 5 5 5 5 5 5 5 5 5 6 5 5 5 6 5 5 5 5 5 5 5 5 5 5 5 5 6 5 5 5 6 6 5 5 6 5 5 5 5 5 5 5 5 5 6 5 5 5 5 5 5 5 5 5 5 5 5 5 6 5 6 5 5 5 5 5 5 5 5 5 5 5 5 5 5 5 5 5 5 5 5 5 5 5 5 5 5 5 5 5 6 5 5 5 5 5 5 6 5 5 5 5 5 5 5 5 5 5 5 5 5 5 5 5 6 5 6 5 5 5 5 5 5 5 6 5 5 5 6 5 5 5 5 6 5 5 5 5 5 5 6 5 5 5 5 6 5 6 5 5 5 5 5 5 5 5 6 6 5 5 5 6 6 5 5 5 5 5 5 5 6 6 5 6 6 5 5 5 5 6 5 6 5 5 5 5 5 5 6 5 5 5 5 6 5 5 5 5 6 5 5 5 5 5 6 5 5 6 5 5 5 5 6 5 5 5 5 5 5 5 5 5 6 6 5 5 5 5 5 5 5 5 5 5 5 5 5 6 5 6 5 5 5 5 5 5 5 5 5 5 5 5 5 5 5 5 5 5 5 5 5 6 5 5 5 5 5 5 5 5 5 5 5 5 5 5 5 5 5 5 5 5 5 5 5 5 5 5 6 5 5 5 5 5 5 5 5 6 5 6 5 5 5 5 5 5 6 5 5 5 5 5 5 5 5 5 5 5 5 5 5 5 5 5 5 5 5 5 5 5 5 5 5 6 5 5 5 5 5 5 5 5 6 5 5 6 5 5 6 5 5 5 5 5 6 5 5 5 5 5 5 5 5 5 6 5 5 5 5 5 5 5 5 5 5 5 5 5 5 5 6 5 5 5 5 5 5 5 5 6 5 5 5 5 5 5 5 5 5 5 5 5 5 5 5 5 5 5 6 5 6 5 6 5 5 6 6 5 5 5 5 5 5 5 5 5 5 5 5 5 5 6 5 5 5 5 5 5 6 5 5 5 6 5 5 5 5 5 5 5 5 5 5 5 5 6 5 5 5 5 6 6 6 5 5 5 5 5 5 5 6 5 5 6 5 6 5 6 5 5 5 5 5 6 5 5 5 5 5 5 5 5 5 5 5 5 5 5 5 5 5 5 5 5 6 5 5 5 6 5 6 6 6 5 5 5 5 5 6 5 5 5 5 5 5 5 5 5 5 5 5 5 5 5 5 5 5 5 5 5 5 5 5 5 5 6 5 5 6 5 5 5 5 5 5 5 5 6 5 6 5 5 5 5 5 5 5 5 6 5 5 5 5 6 5 5 6 5 5 6 5 5 5 6 5 5 5 5 5 5 5 5 5 5 5 5 5 5 5 5 5 5 5 5 6 5 5 5 5 5 5 6 5 5 5 5 5 6 5 5 5 5 5 6 5 6 6 5 5 5 5 5 5 5 5 5 5 5 5 6 5 5 5 5 6 5 6 6 5 5 5 6 5 5 5 5 5 5 5 5 5 5 5 5 5 5 5 5 5 5 5 5 5 5 6 5 6 5 5 6 5 5 6 5 5 6 5 5 5 6 6 5 5 5 5 5 5 5 6 5 5 5 5 5 5 5 5 6 5 5 5 5 5 5 5 6 5 5 5 6 5 6 6 5 5 5 6 5 5 5 5 5 5 5 5 5 5 5 5 5 5 5 5 5 5 5 5 5 5 6 5 5 6 5 5 5 6 5 5 5 5 5 5 5 6 6 5 5 6 5 5 5 5 5 5 5 5 5 5 5 5 5 5 5 5 5 5 5 5 5 5 5 5 5 5 5 5 5 5 5 5 5 5 5 6 5 5 5 5 5 5 5 6 5 5 6 5 5 6 5 5 5 5 5 5 5 5 5 5 5 5 5 5 5 5 5 5 5 6 5 5 5 5 6 5 5 5 5 5 5 5 5 5 5 6 5 5 5 5 6 5 5 5 5 6 6 5 6 5 5 5 5 5 5 5 5 5 5 5 5 5 5 6 5 5 5 5 5 5 5 5 5 6 5 5 5 5 5 5 5 5 5 5 5 5 5 5 5 5 5 5 5 5 5 5 5 5 5 5 5 5 5 5 5 5 5 5 5 5 5 5 5 5 5 6 5 5 5 5 6 5 5 6 5 5 5 5 5 5 6 6 5 5 5 5 6 5 5 5 5 5 5 5 5 5 5 5 5 5 5 5 5 5 5 5 5 5 5 5 5 5 5 5 5 5 5 5 5 5 5 5 5 5 5 5 5 5 5 5 5 5 5 5 5 5 5 5 5 5 5 5 5 5 5 5 5 5 6 5 5 5 5 5 6 5 6 5 5 5 5 5 5 5 5 5 
</DataArray>
<DataArray type="Float64" Name="stress" NumberOfComponents="9" format="ascii">
13.111833462605148 3.4677324265735336 0 3.4677324265735336 1.0915585926358906 0 0 0 0 3439.9450090851915 -355.79499238447306 0 -355.79499238447306 1.3115019954079923 0 0 0 0 60.96509775868617 3.5674232697289425 0 3.5674232697289425 0.53733290183226012 0 0 0 0 857.77074933063705 1125.6897117273134 0 1125.6897117273134 1257.7544591050496 0 0 0 0 3496.8956441961495 1079.0596850822071 0 1079.0596850822071 -238.16545038380269 0 0 0 0 -515.40090474034696 376.92308844770037 0 376.92308844770037 898.46573700193619 0 0 0 0 1401.2591686939413 -54.873174090888938 0 -54.873174090888938 -841.232277594778 0 0 0 0 222.62470902533096 917.3514132342309 0 917.3514132342309 616.9240168972766 0 0 0 0 3489.6495587891113 192.11840864868992 0 192.11840864868992 -1081.014500456582 0 0 0 0 8.9655190521680197 5.7067941226614209 0 5.7067941226614209 2.6771990207445011 0 0 0 0 -495.02107051931671 254.09741838779877 0 254.09741838779877 910.39430082290744 0 0 0 0 -55.41704360255244 408.06580404147098 0 408.06580404147098 911.49496582809468 0 0 0 0 694.68768579386233 -129.264168797564 0 -129.264168797564 -188.31973044365435 0 0 0 0 9.3419256548273779 1.4216866839311137 0 1.4216866839311137 -0.39379722369981657 0 0 0 0 3474.4470206475203 931.66415968246588 0 931.66415968246588 57.378294024880574 0 0 0 0 1553.3924262696091 -783.89245297741343 0 -783.89245297741343 737.73804671156472 0 0 0 0 1726.67291728282 -998.66335522948793 0 -998.66335522948793 723.363946059245 0 0 0 0 916.21237528373604 181.76130590258003 0 181.76130590258003 388.25597621526197 0 0 0 0 1968.2308360146853 -450.53243948180818 0 -450.53243948180818 608.60934327649647 0 0 0 0 710.61932058486855 762.25303895531681 0 762.25303895531681 591.62769643773663 0 0 0 0 469.27724615325133 -287.69497808643632 0 -287.69497808643632 -358.30612678550574 0 0 0 0 735.16409991701948 163.45072932331948 0 163.45072932331948 406.45552707818342 0 0 0 0 1016.995939389697 -757.92275892782141 0 -757.92275892782141 1547.3347724496978 0 0 0 0 1356.4823120609435 30.979330248105043 0 30.979330248105043 135.75721503717386 0 0 0 0 979.48906095809434 -189.66427729918166 0 -189.66427729918166 66.41690626559739 0 0 0 0 39.531029463687446 3.716598041196411 0 3.716598041196411 1.2488712635208419 0 0 0 0 558.96748915389617 -606.89582558181803 0 -606.89582558181803 -253.98849487777568 0 0 0 0 906.95008746029634 394.11016202313783 0 394.11016202313783 331.43166562323444 0 0 0 0 811.48626127195894 509.51749433251376 0 509.51749433251376 201.80649735611871 0 0 0 0 8.5239798680053696 6.0917623097983835 0 6.0917623097983835 2.7499906416287638 0 0 0 0 -470.95972062768215 563.70346530980987 0 563.70346530980987 -39.574716481610437 0 0 0 0 919.96317389587057 492.93845488470754 0 492.93845488470754 -632.01303969437606 0 0 0 0 33.975210611690727 3.3825103908579006 0 3.3825103908579006 -0.84598049983438328 0 0 0 0 869.88994910291512 1108.4285296197406 0 1108.4285296197406 -1009.0515809045733 0 0 0 0 -562.508488514286 -562.83632525166558 0 -562.83632525166558 35.033706574031356 0 0 0 0 -58.140152729465626 -8.092389294407198 0 -8.092389294407198 -1.3247792707250607 0 0 0 0 35.580565552058374 -2.3268260854361285 0 -2.3268260854361285 -1.2222028420327331 0 0 0 0 498.47967757418519 -80.276970799024127 0 -80.276970799024127 -774.22096612909309 0 0 0 0 28.05187322232814 -6.54163379239756 0 -6.54163379239756 -7.7793800492354617 0 0 0 0 591.18351176760916 -767.25140169473661 0 -767.25140169473661 -1503.2334710299381 0 0 0 0 14.700102031200174 -3.8181475184215818 0 -3.8181475184215818 0.46871655581244254 0 0 0 0 676.01126994300284 -1518.1472938595361 0 -1518.1472938595361 1111.6816758014559 0 0 0 0 288.02898177252791 -1168.7035292646488 0 -1168.7035292646488 800.88706738893507 0 0 0 0 1018.4997712796903 -1182.8167861433599 0 -1182.8167861433599 97.809639716835136 0 0 0 0 182.94355114977225 -489.25816509063623 0 -489.25816509063623 366.92061842566136 0 0 0 0 184.82052860632393 -73.095262563867252 0 -73.095262563867252 -214.83091288011008 0 0 0 0 1874.1502586977585 -1191.2782921464329 0 -1191.2782921464329 880.72372725737273 0 0 0 0 1125.227322358056 -180.97859399802991 0 -180.97859399802991 -139.42501595553026 0 0 0 0 1477.4866906947718 -1590.9303737173045 0 -1590.9303737173045 454.91635212026722 0 0 0 0 -1.9781650963109882 -1.9244832197654773 0 -1.9244832197654773 -1.1087851777630329 0 0 0 0 1603.4492300322427 151.38618086238003 0 151.38618086238003 -558.80803678843426 0 0 0 0 33.213128074756241 37.110527076455099 0 37.110527076455099 78.949656998633429 0 0 0 0 33.49196763211512 -114.47403492775265 0 -114.47403492775265 142.13737372016067 0 0 0 0 938.06152480760647 -238.3344427518 0 -238.3344427518 40.453894502471485 0 0 0 0 142.50532720719912 95.45595056204013 0 95.45595056204013 -132.76498860940683 0 0 0 0 626.25363159037079 -254.34014199018475 0 -254.34014199018475 -498.43690402333186 0 0 0 0 63.000871071695201 -4.067298055419954 0 -4.067298055419954 -7.7698204171891971 0 0 0 0 1894.0122917780245 -414.74049604645688 0 -414.74049604645688 355.41282980337553 0 0 0 0 252.11321223665436 -738.4372898767615 0 -738.4372898767615 180.20064249166444 0 0 0 0 690.85758607011667 -1348.0765773232192 0 -1348.0765773232192 981.05218062772065 0 0 0 0 -135.28368318849243 -163.82665177085073 0 -163.82665177085073 1051.7469314470754 0 0 0 0 216.84659094515337 -376.15212454042256 0 -376.15212454042256 139.97605693895639 0 0 0 0 259.15626021369826 109.38051525271385 0 109.38051525271385 -202.44648567647619 0 0 0 0 2379.8303225009586 -1270.551460238127 0 -1270.551460238127 826.029797414207 0 0 0 0 2848.1479917873512 -909.79134080098095 0 -909.79134080098095 335.79679539118445 0 0 0 0 -57.343800674316299 62.783740051801942 0 62.783740051801942 272.98419570470105 0 0 0 0 5.778063999404913 -2.92141071900258 0 -2.92141071900258 16.629323575794224 0 0 0 0 2301.9327676860412 -897.53228203853291 0 -897.53228203853291 409.83203380639975 0 0 0 0 2153.6709115766498 -291.14771679614842 0 -291.14771679614842 131.9192180894579 0 0 0 0 -0.16350175168656733 0.51944895511117295 0 0.51944895511117295 6.2048896056735519 0 0 0 0 1632.1500480349932 -387.91360922394654 0 -387.91360922394654 -188.96782303076307 0 0 0 0 129.89602154129534 136.29114177036649 0 136.29114177036649 180.49074209940068 0 0 0 0 -59.184164771162614 19.576824487137173 0 19.576824487137173 -7.9662216223123323 0 0 0 0 17.821538497118766 1.3979397730740857 0 1.3979397730740857 4.5550259276763363 0 0 0 0 16.053897702106042 -4.0514414854842471 0 -4.0514414854842471 4.5717221167324169 0 0 0 0 24.55914810108214 -1.4230467951680907 0 -1.4230467951680907 10.046421377402934 0 0 0 0 -60.750052235787734 -115.60883999562793 0 -115.60883999562793 -140.81761226254457 0 0 0 0 18.004004745047155 2.2617737409899803 0 2.2617737409899803 3.773781360891082 0 0 0 0 54.511688708790587 -5.896948140836038 0 -5.896948140836038 -5.4753219967390141 0 0 0 0 -31.444090620178031 207.05787005566071 0 207.05787005566071 -177.58850407524073 0 0 0 0 -258.75687530575669 219.32015756859346 0 219.32015756859346 207.26394636610166 0 0 0 0 -9.0191844798100647 4.3784301870141462 0 4.3784301870141462 2.365914143882037 0 0 0 0 50.547490067088802 -141.38582822617946 0 -141.38582822617946 148.16232010999556 0 0 0 0 -14.74104399557109 -10.696394708786556 0 -10.696394708786556 -18.783290364067398 0 0 0 0 98.704890950219124 -39.147777970531024 0 -39.147777970531024 10.849676429038936 0 0 0 0 102.58028921841469 -30.336351894331756 0 -30.336351894331756 -9.4938762742995095 0 0 0 0 -11.409003109001787 -20.489332223166002 0 -20.489332223166002 35.708806644192009 0 0 0 0 1334.5839539998269 -151.07664203571696 0 -151.07664203571696 158.48644896072955 0 0 0 0 12.407219259527494 12.05771443101375 0 12.05771443101375 4.6628352248205509 0 0 0 0 74.953691983449971 -3.3848189660711228 0 -3.3848189660711228 15.227855495363428 0 0 0 0 7.4169839489787259 -1.1738499048074971 0 -1.1738499048074971 9.0430289807335207 0 0 0 0 -35.416288682106824 5.5170545988282811 0 5.5170545988282811 38.996572620749248 0 0 0 0 -6.811399246158544 0.56818007739866516 0 0.56818007739866516 -1.3016788565387287 0 0 0 0 5.3997900057549373 -3.9289922847435292 0 -3.9289922847435292 5.603283740712838 0 0 0 0 182.8453133891453 111.14863736205666 0 111.14863736205666 75.407792535148474 0 0 0 0 -0.65221142442896962 14.622008339222248 0 14.622008339222248 82.21305159898111 0 0 0 0 -31.840886356262217 -3.8715157478500615 0 -3.8715157478500615 82.820752670616912 0 0 0 0 39.77598448612116 -31.784431345695225 0 -31.784431345695225 46.001658515667259 0 0 0 0 -28.339893674128234 -61.688575805026773 0 -61.688575805026773 38.750555217839519 0 0 0 0 388.5320266003182 -31.143961896009841 0 -31.143961896009841 -31.984623387974352 0 0 0 0 -322.82031168232788 -185.63515528870266 0 -185.63515528870266 1058.9351825067206 0 0 0 0 338.12883842762676 -270.70284370845184 0 -270.70284370845184 71.319491602298513 0 0 0 0 141.64571931377577 -73.590767401615722 0 -73.590767401615722 18.128155669544867 0 0 0 0 123.54238324061589 -7.6127527192836624 0 -7.6127527192836624 -8.4362673596524473 0 0 0 0 212.26582233354566 -77.522344457516283 0 -77.522344457516283 -12.022175623686053 0 0 0 0 141.14102070571971 -56.1120096602167 0 -56.1120096602167 -18.466428620102306 0 0 0 0 156.06072325464629 -22.743188902869861 0 -22.743188902869861 -12.401530587017987 0 0 0 0 129.02629457290459 -1.1947673499560096 0 -1.1947673499560096 -16.936550068099677 0 0 0 0 187.03585916187876 2.4439242891305639 0 2.4439242891305639 -28.865420715822438 0 0 0 0 6.4712178966115061 1.4607864757381037 0 1.4607864757381037 -0.091532672860823894 0 0 0 0 50.053359899407951 24.701360010859389 0 24.701360010859389 19.053410420421642 0 0 0 0 18.660675723920576 1.8525860765957987 0 1.8525860765957987 59.222242583681691 0 0 0 0 21.213540997181553 12.835739984329848 0 12.835739984329848 54.680605495790587 0 0 0 0 15.439585995394737 20.56553476141562 0 20.56553476141562 47.991692012881686 0 0 0 0 20.889864577133253 7.2541163523006702 0 7.2541163523006702 9.9956945464253391 0 0 0 0 30.403569887625054 24.368183116059299 0 24.368183116059299 26.909520895951573 0 0 0 0 28.815258755981631 1.4496793226924183 0 1.4496793226924183 6.227508857347857 0 0 0 0 3.170686788846429 1.8993680688191432 0 1.8993680688191432 -0.020335137208228105 0 0 0 0 27.216588275731056 -0.48865512084194052 0 -0.48865512084194052 10.027730489686146 0 0 0 0 27.086509251326788 -7.9440509577216289 0 -7.9440509577216289 42.224286106593354 0 0 0 0 21.341585487592965 7.4583137783556595 0 7.4583137783556595 7.5226911914141965 0 0 0 0 1.7845775301913704 1.5685855476773867 0 1.5685855476773867 1.3113706475626259 0 0 0 0 47.788903479751752 4.4276838174917685 0 4.4276838174917685 0.79741870686484617 0 0 0 0 18.158975854687014 5.645060242849695 0 5.645060242849695 0.33036590214851458 0 0 0 0 30.671541900692091 1.5010730213351593 0 1.5010730213351593 5.5907819299472976 0 0 0 0 14.11825990533141 -0.097221355775488405 0 -0.097221355775488405 3.3431961672640913 0 0 0 0 9.7376419305273885 9.9255923952015621 0 9.9255923952015621 3.2259460907692539 0 0 0 0 23.320819313850208 4.3566855514396252 0 4.3566855514396252 -0.57320718376186086 0 0 0 0 53.28103222437494 5.3723565061636691 0 5.3723565061636691 23.08153604737754 0 0 0 0 15.856752292603474 8.2898020724281878 0 8.2898020724281878 -0.7770565089565391 0 0 0 0 108.82357911959843 -25.131821249871678 0 -25.131821249871678 -9.8845092627816484 0 0 0 0 113.85407442424912 -3.6268576598504296 0 -3.6268576598504296 -9.9197131019368499 0 0 0 0 131.319268642721 -53.997914608001338 0 -53.997914608001338 22.5714899350005 0 0 0 0 142.31599461120277 -28.104596213121567 0 -28.104596213121567 -12.640250946183187 0 0 0 0 114.41883323816 -85.820385133825312 0 -85.820385133825312 63.6898310586148 0 0 0 0 79.801190875732573 -21.594837700523385 0 -21.594837700523385 10.790584610588667 0 0 0 0 247.43649404577445 104.880125747688 0 104.880125747688 -7.695915289487516 0 0 0 0 189.16202037784387 140.77834570833147 0 140.77834570833147 45.474442579609786 0 0 0 0 56.010599167726468 -37.914839134280101 0 -37.914839134280101 37.039640273966143 0 0 0 0 13.427955346344874 3.8399312592478907 0 3.8399312592478907 -3.2287018894102673 0 0 0 0 40.672253132509724 8.2191911838512794 0 8.2191911838512794 -6.6074686401951626 0 0 0 0 43.715146915754303 49.743330589109974 0 49.743330589109974 1.9953785528377921 0 0 0 0 130.39025850407779 36.151092669146237 0 36.151092669146237 -16.743398636494021 0 0 0 0 129.29259241717955 33.853664281888314 0 33.853664281888314 -10.437292783833982 0 0 0 0 118.60733061225619 27.427659954490082 0 27.427659954490082 -12.229193480612594 0 0 0 0 55.980694904632401 58.362973615452574 0 58.362973615452574 10.53292945299836 0 0 0 0 48.904823339311406 44.31277640414919 0 44.31277640414919 -16.647209169474081 0 0 0 0 -7.53911186923267 4.0190641673253964 0 4.0190641673253964 4.2784449644790978 0 0 0 0 57.052578763396014 64.463767779070622 0 64.463767779070622 112.08065881554649 0 0 0 0 137.1497153399323 75.489265025906207 0 75.489265025906207 12.689387673373858 0 0 0 0 33.459789017972071 6.3953704025650495 0 6.3953704025650495 -12.855989830082763 0 0 0 0 31.959351208701264 9.674228431951633 0 9.674228431951633 -8.9736293701457726 0 0 0 0 28.102054218179546 17.1974714890016 0 17.1974714890016 -21.405943543378271 0 0 0 0 40.209383775536821 9.1629997461415087 0 9.1629997461415087 -7.5949246879674757 0 0 0 0 43.846882417683787 15.921653721607399 0 15.921653721607399 -12.53039949794211 0 0 0 0 55.584231177330366 -34.602815583782103 0 -34.602815583782103 46.581762122232249 0 0 0 0 26.515345940832049 18.008876892557964 0 18.008876892557964 -41.503045380697586 0 0 0 0 16.646547121878029 8.8253668775044432 0 8.8253668775044432 -1.60010411435543 0 0 0 0 32.911571329372237 9.4740609986583877 0 9.4740609986583877 -9.0503500058534883 0 0 0 0 26.25232558575226 10.732750719353135 0 10.732750719353135 -6.7042156183670158 0 0 0 0 19.561709345031943 7.5228063589776895 0 7.5228063589776895 -3.0430076639440866 0 0 0 0 10.255535150724427 5.7787364759749096 0 5.7787364759749096 -11.558703324940604 0 0 0 0 -1.6262316286301939 -112.22501747621163 0 -112.22501747621163 313.07967345285397 0 0 0 0 48.684147920701641 -5.532253902336663 0 -5.532253902336663 0.27599444560339137 0 0 0 0 46.368198303662545 -2.8875500813441874 0 -2.8875500813441874 -0.89926797449855655 0 0 0 0 51.439667525934055 -8.4406121144205173 0 -8.4406121144205173 18.959980782756702 0 0 0 0 27.820387063497037 29.910138614124435 0 29.910138614124435 -3.876927881935444 0 0 0 0 52.711520567638217 -36.044686275779895 0 -36.044686275779895 5.0521864812758395 0 0 0 0 92.175764672152582 36.041578545337188 0 36.041578545337188 116.95246728217717 0 0 0 0 198.01137458917219 -41.846201229614962 0 -41.846201229614962 -11.368980190814909 0 0 0 0 277.5475701346586 30.448980070602602 0 30.448980070602602 -69.705790578937012 0 0 0 0 130.22128984893789 -95.937366747630222 0 -95.937366747630222 67.514834501786481 0 0 0 0 136.70164884887345 -28.833077977332607 0 -28.833077977332607 -42.72081261979838 0 0 0 0 61.21141497149074 -18.891551460101709 0 -18.891551460101709 -11.395863680092589 0 0 0 0 61.700511916729738 -13.770418976408109 0 -13.770418976408109 -7.3452618754672585 0 0 0 0 58.510735450610809 -12.762694565330833 0 -12.762694565330833 -21.008874856591547 0 0 0 0 -23.272214115764655 -9.2337122019866911 0 -9.2337122019866911 63.576226670914366 0 0 0 0 -1.1301701754597344 -1.7799575105956364 0 -1.7799575105956364 13.782879505369312 0 0 0 0 56.312634736088512 -13.8936018237262 0 -13.8936018237262 -9.7208727894644653 0 0 0 0 78.459193147573387 -15.050790604237722 0 -15.050790604237722 -21.048234164499913 0 0 0 0 9.5107690523906996 9.092922907515927 0 9.092922907515927 2.0143962717363473 0 0 0 0 1946.4441309834874 -573.90904725445057 0 -573.90904725445057 131.67690491444895 0 0 0 0 1931.9036852230383 -544.15067206951187 0 -544.15067206951187 200.94873569744166 0 0 0 0 51.655960931520895 -8.0059714254283989 0 -8.0059714254283989 -8.5630284144123152 0 0 0 0 1911.5399750652323 -492.46619251941621 0 -492.46619251941621 47.339083838083681 0 0 0 0 1871.3001566269959 -634.47147063746775 0 -634.47147063746775 93.893663827647018 0 0 0 0 2121.1410838345473 -413.35179140317791 0 -413.35179140317791 128.45635733930271 0 0 0 0 2040.548768013221 -587.28707822054798 0 -587.28707822054798 111.69912932476029 0 0 0 0 2222.0767504417017 -683.65614637574322 0 -683.65614637574322 261.8945711426631 0 0 0 0 2366.8081922588317 -377.31340813014788 0 -377.31340813014788 99.574934224086263 0 0 0 0 2656.6380029954544 -551.14009799755581 0 -551.14009799755581 151.51045139226184 0 0 0 0 2681.7918512382967 -343.1247366258969 0 -343.1247366258969 -151.66177001668368 0 0 0 0 3501.3271080715567 77.303877727542144 0 77.303877727542144 -291.57070577181133 0 0 0 0 2795.8821091887658 -211.91548149374862 0 -211.91548149374862 -141.81913445222392 0 0 0 0 2128.2820359003963 -405.1104684335067 0 -405.1104684335067 102.63531362245351 0 0 0 0 2481.5617196219246 -11.827871792504041 0 -11.827871792504041 143.44248288491036 0 0 0 0 1776.8771594682476 -112.46971013336292 0 -112.46971013336292 149.16211665975973 0 0 0 0 2611.9038126449595 255.6847761135266 0 255.6847761135266 8.8029544125980106 0 0 0 0 3492.2958392123692 1648.6969542666109 0 1648.6969542666109 24.703480623111783 0 0 0 0 1046.9586314791741 393.61332037274678 0 393.61332037274678 30.39117625398643 0 0 0 0 1718.6467195829973 -679.12282048724205 0 -679.12282048724205 -3.7867841774884212 0 0 0 0 8.6792397406154578 0.14424301623073177 0 0.14424301623073177 0.026704629742007293 0 0 0 0 2119.7957489267283 -467.33974831151625 0 -467.33974831151625 11.492326630666717 0 0 0 0 1784.6476200619945 -655.26124716158313 0 -655.26124716158313 788.99831297123956 0 0 0 0 1846.9240945437341 -518.32266820914003 0 -518.32266820914003 96.615677758898073 0 0 0 0 1607.2269209351143 -340.96836040255528 0 -340.96836040255528 267.25555021149194 0 0 0 0 1997.7229616837722 -283.46014004938399 0 -283.46014004938399 360.0082563231889 0 0 0 0 1869.2078026616364 -386.33866801922176 0 -386.33866801922176 58.275085022262168 0 0 0 0 1332.1721642102289 -360.73914087025491 0 -360.73914087025491 212.19047575881314 0 0 0 0 1838.49328460783 -497.35572831191843 0 -497.35572831191843 111.14459220390536 0 0 0 0 1817.1291657113761 -325.66515953978876 0 -325.66515953978876 52.896656012563426 0 0 0 0 1558.3188985878078 -605.14512307751113 0 -605.14512307751113 139.07827406525516 0 0 0 0 2013.7194375302715 -539.49144689996615 0 -539.49144689996615 17.174600542714106 0 0 0 0 2011.1885202330304 -547.43793994778957 0 -547.43793994778957 -6.2558231137466178 0 0 0 0 1858.2376401489746 -545.37501019561785 0 -545.37501019561785 67.391087031257527 0 0 0 0 124.26910806138403 -39.060578550340779 0 -39.060578550340779 12.833240670162922 0 0 0 0 104.05737011864403 -16.810432068601131 0 -16.810432068601131 -11.660855850495864 0 0 0 0 69.649627011150272 16.511656669493675 0 16.511656669493675 -11.421173079856629 0 0 0 0 26.208354903393229 64.059185771508567 0 64.059185771508567 -83.286577626657618 0 0 0 0 51.462228416057769 71.611489636654369 0 71.611489636654369 -82.006371307434165 0 0 0 0 74.856432456777043 12.729396017455755 0 12.729396017455755 -10.538382098199765 0 0 0 0 116.2241506815335 8.7320681517221601 0 8.7320681517221601 -79.749232139952255 0 0 0 0 23.741674781151232 -0.066295866129092218 0 -0.066295866129092218 105.88092577920881 0 0 0 0 143.33224459518533 184.63483230899251 0 184.63483230899251 -317.76744595960042 0 0 0 0 23.48519949438969 92.661546284002981 0 92.661546284002981 -135.22672153269923 0 0 0 0 80.156146205815133 4.6795524224434502 0 4.6795524224434502 -8.9645662099564909 0 0 0 0 58.53276174779262 20.431779740948656 0 20.431779740948656 -14.811048388658332 0 0 0 0 -3.8960875326065434 159.65288963129885 0 159.65288963129885 -134.93680038325857 0 0 0 0 46.857311866231612 22.422742148892432 0 22.422742148892432 20.677017559239147 0 0 0 0 102.89956866034481 15.037143246535608 0 15.037143246535608 0.90099104748590264 0 0 0 0 101.48471280447848 22.274540439905294 0 22.274540439905294 0.18024503793059299 0 0 0 0 86.669327632014756 16.653540854195931 0 16.653540854195931 2.4160524502315539 0 0 0 0 217.57448971346457 -85.301302640537401 0 -85.301302640537401 68.858745322525607 0 0 0 0 108.22873959659046 23.092358482322034 0 23.092358482322034 -2.3339211869378289 0 0 0 0 157.9041984846408 32.012666799247754 0 32.012666799247754 -1.6689383015169703 0 0 0 0 289.82909874487086 -168.42915691883931 0 -168.42915691883931 295.29303415161019 0 0 0 0 418.27673615344975 -52.320909425720473 0 -52.320909425720473 -44.895228073856295 0 0 0 0 367.3615619201446 -80.457727018815135 0 -80.457727018815135 -0.08513614521703014 0 0 0 0 302.88632726623473 -14.823771133196095 0 -14.823771133196095 26.771351092117399 0 0 0 0 340.8501132982492 -1.3637442877803512 0 -1.3637442877803512 -25.740629099776861 0 0 0 0 165.73634388545179 -103.37598811718621 0 -103.37598811718621 120.38536843906223 0 0 0 0 326.54920067328203 34.493372532866289 0 34.493372532866289 -46.176424322649282 0 0 0 0 1.1397411858785063 -0.47154125279235615 0 -0.47154125279235615 -0.096551968055072296 0 0 0 0 146.08978953564656 17.920595705693778 0 17.920595705693778 -42.887060189773713 0 0 0 0 176.37996733689215 120.4310184641714 0 120.4310184641714 -153.26804790632639 0 0 0 0 394.81723962913384 -7.3896870706074989 0 -7.3896870706074989 -83.644556842709449 0 0 0 0 7.2761893924190417 -0.49376846791815865 0 -0.49376846791815865 -0.3773566041787153 0 0 0 0 -226.40507908986183 -629.46542315629517 0 -629.46542315629517 621.95106282807194 0 0 0 0 242.38948138288106 38.93241170329695 0 38.93241170329695 -73.598358328020851 0 0 0 0 92.126476886929595 110.89069949682721 0 110.89069949682721 -35.498702035512679 0 0 0 0 381.59807799578994 296.78134600757016 0 296.78134600757016 78.673216483130943 0 0 0 0 778.06054640404182 -11.430539530803145 0 -11.430539530803145 -277.74247141152637 0 0 0 0 50.003067444791668 -117.70391423516799 0 -117.70391423516799 -192.01544794878612 0 0 0 0 55.299411299344683 20.374059704616784 0 20.374059704616784 -34.139327179775364 0 0 0 0 326.08827276508964 -138.8366216158754 0 -138.8366216158754 -292.73882865025809 0 0 0 0 78.666238438257864 15.114377122569636 0 15.114377122569636 -11.56337263474235 0 0 0 0 24.730395303358307 0.30329052679715574 0 0.30329052679715574 -6.1990833229045501 0 0 0 0 -65.689937512419419 -20.393744754599538 0 -20.393744754599538 34.453975670348427 0 0 0 0 278.28503713285318 -80.940310673561925 0 -80.940310673561925 -67.483812465225384 0 0 0 0 309.73225619517325 -14.959736480912397 0 -14.959736480912397 -57.863390639683416 0 0 0 0 26.247780946425337 -3.7310743159428057 0 -3.7310743159428057 43.237583552922388 0 0 0 0 100.69997444312321 -5.7618124345635806 0 -5.7618124345635806 32.407045653123077 0 0 0 0 20.26630499518069 -25.169347451284921 0 -25.169347451284921 14.519765810735066 0 0 0 0 14.052779103687499 -1.8003042815101082 0 -1.8003042815101082 2.2489836261497942 0 0 0 0 182.99765342823957 -104.55066652805279 0 -104.55066652805279 69.685679335797545 0 0 0 0 33.599462004902307 -15.433752130601135 0 -15.433752130601135 -122.59229815404707 0 0 0 0 21.510349628298457 1.1695596291341062 0 1.1695596291341062 -0.83311417035496937 0 0 0 0 16.189871694761678 -24.422197294092076 0 -24.422197294092076 21.69283540192766 0 0 0 0 -23.186300689572818 -37.34380741395772 0 -37.34380741395772 42.187168153873685 0 0 0 0 -12.853974755060335 -62.924527150057088 0 -62.924527150057088 6.6850768034459875 0 0 0 0 3.8310315146372886 0.55759822874465215 0 0.55759822874465215 58.897793507405382 0 0 0 0 -30.408700755200698 -4.6825822906181722 0 -4.6825822906181722 -0.013645856704798121 0 0 0 0 1.8073363682925674 1.4466145220015179 0 1.4466145220015179 -0.57485913146944045 0 0 0 0 -11.377329062932404 -3.4647291880538709 0 -3.4647291880538709 -8.6553026831245532 0 0 0 0 -2.3936841397008095 0.81583402479688516 0 0.81583402479688516 -0.36695119603401571 0 0 0 0 48.120521948614623 -16.706942763812727 0 -16.706942763812727 -6.6377510085580838 0 0 0 0 -1.5829136046086205 -35.521568364761563 0 -35.521568364761563 57.226979317069961 0 0 0 0 53.967148124986124 -37.743960833055894 0 -37.743960833055894 1.1605664414124988 0 0 0 0 -12.429168628979824 7.4087018878836162 0 7.4087018878836162 -13.039904755793756 0 0 0 0 -49.605671466066269 3.9032376339423536 0 3.9032376339423536 19.833731305298897 0 0 0 0 7.8620635749800272 9.2701678781764656 0 9.2701678781764656 -4.0407032012286486 0 0 0 0 -12.454475022171664 -1.3687514437767518 0 -1.3687514437767518 -0.067011762380666418 0 0 0 0 107.91142058518017 55.145432927010901 0 55.145432927010901 1.132954570356113 0 0 0 0 -3.0199158635223284 -11.723208923029574 0 -11.723208923029574 18.35636189162642 0 0 0 0 -64.238150880890316 76.226911782170646 0 76.226911782170646 52.833107643148423 0 0 0 0 34.650361985979998 5.3346149329564128 0 5.3346149329564128 -0.61873970165552672 0 0 0 0 64.420599448465509 -10.642576827311785 0 -10.642576827311785 -44.56605349017309 0 0 0 0 21.475580538259322 1.6629999159566182 0 1.6629999159566182 -11.646352151661779 0 0 0 0 39.267426333430194 6.6251783771572832 0 6.6251783771572832 13.220524922805225 0 0 0 0 39.555418722331524 -3.6229939637414645 0 -3.6229939637414645 28.454883050826538 0 0 0 0 42.764518383817631 -9.0048803152085384 0 -9.0048803152085384 17.506678133016067 0 0 0 0 14.12151494000662 -1.4962140346958677 0 -1.4962140346958677 4.8343330179481345 0 0 0 0 76.326283126836643 -40.107343847283801 0 -40.107343847283801 -44.378494047987033 0 0 0 0 60.803215646381773 -3.1005672693218216 0 -3.1005672693218216 -8.7706354532156254 0 0 0 0 153.33264596957088 140.00495499709893 0 140.00495499709893 -167.68510407646954 0 0 0 0 41.667338894680142 -18.223776009557469 0 -18.223776009557469 6.8582972928870731 0 0 0 0 6.6235040993653342 -0.93965975012491754 0 -0.93965975012491754 4.5201060635785808 0 0 0 0 37.230350323734456 -20.410991500234559 0 -20.410991500234559 13.06913722061222 0 0 0 0 21.675339495952358 -30.71386575139104 0 -30.71386575139104 6.2083354923797742 0 0 0 0 35.003243515107897 -14.462056860495977 0 -14.462056860495977 25.613687018354767 0 0 0 0 17.111745041854022 -2.8219022370148963 0 -2.8219022370148963 1.0826924809186629 0 0 0 0 41.884675351215265 -16.164132839504134 0 -16.164132839504134 -2.3746177278126197 0 0 0 0 66.753245592233725 -77.320572328666913 0 -77.320572328666913 54.932571766581532 0 0 0 0 35.741168141030357 -7.5502031577443631 0 -7.5502031577443631 5.7195763439822258 0 0 0 0 26.631611821401748 -0.2457687969554172 0 -0.2457687969554172 6.4507538836405729 0 0 0 0 42.708657545677852 -12.136313952471028 0 -12.136313952471028 9.7824466773481618 0 0 0 0 28.985750786247365 -11.029702282706836 0 -11.029702282706836 7.4156991858723043 0 0 0 0 23.569778904765258 -3.1580311313920788 0 -3.1580311313920788 3.3323755473588292 0 0 0 0 41.579140390103987 -2.1459442895987291 0 -2.1459442895987291 1.8378339698142554 0 0 0 0 43.146403195525636 -2.622567846752645 0 -2.622567846752645 1.5474677652950959 0 0 0 0 42.950618388453762 -12.837706734002481 0 -12.837706734002481 2.7767773788830272 0 0 0 0 65.671045235008933 -10.869185394540182 0 -10.869185394540182 -14.146109674229592 0 0 0 0 49.53520355852865 1.0192051600357814 0 1.0192051600357814 -2.9726912523453493 0 0 0 0 27.17146786023855 2.5711150087892918 0 2.5711150087892918 -0.4720212493540723 0 0 0 0 39.578290941954208 -1.9617715442703503 0 -1.9617715442703503 2.2948691929100278 0 0 0 0 218.91041190743272 -23.710592219325918 0 -23.710592219325918 -116.11933927022073 0 0 0 0 3.7299982367577513 -1.1477536587813475 0 -1.1477536587813475 3.1201047707509879 0 0 0 0 67.701925723726163 -77.336036178109453 0 -77.336036178109453 55.064855596150664 0 0 0 0 47.136040141384399 5.7585076707499141 0 5.7585076707499141 -5.273361465932517 0 0 0 0 45.761157613160321 75.609800590889336 0 75.609800590889336 6.6337691835396981 0 0 0 0 14.606721562764506 25.665333756135055 0 25.665333756135055 -72.160008215114431 0 0 0 0 26.456328791593023 -51.157444572944826 0 -51.157444572944826 -126.30270298781534 0 0 0 0 101.55132880301971 60.641364910928132 0 60.641364910928132 -2.4577212722399508 0 0 0 0 10.969838156674072 1.4933653349446914 0 1.4933653349446914 -3.9272538584845185 0 0 0 0 68.829010988381924 32.236833910920382 0 32.236833910920382 10.745824949166945 0 0 0 0 56.207957329985689 4.9848420903990842 0 4.9848420903990842 -4.0238014343939685 0 0 0 0 70.25875834569888 -1.4639544780566212 0 -1.4639544780566212 -24.632865090039559 0 0 0 0 63.801661931909621 -10.29348268926168 0 -10.29348268926168 -19.316366604068207 0 0 0 0 57.455627129723965 -9.5591376007690485 0 -9.5591376007690485 -2.4532243353695398 0 0 0 0 60.435249115083479 -14.631254515508488 0 -14.631254515508488 3.9614958525146875 0 0 0 0 57.165745814139427 -16.107887824102946 0 -16.107887824102946 -2.9570364016409538 0 0 0 0 63.669858406035928 -15.142732936450784 0 -15.142732936450784 -12.563052406241695 0 0 0 0 57.591841698422598 6.5441637065386971 0 6.5441637065386971 -13.306149757028432 0 0 0 0 43.512263928801985 -13.091591868609612 0 -13.091591868609612 -24.735288991314519 0 0 0 0 52.317080351004307 -0.23241020958955261 0 -0.23241020958955261 -14.44903048494405 0 0 0 0 52.124523118183419 1.693315221046646 0 1.693315221046646 -9.2480148060875145 0 0 0 0 51.50498485834396 8.2154381926234237 0 8.2154381926234237 -28.313330099044464 0 0 0 0 74.225286722452438 -9.2269820176012445 0 -9.2269820176012445 -3.9893385712152849 0 0 0 0 46.583659223717405 -6.3049987470849373 0 -6.3049987470849373 -29.445942616811863 0 0 0 0 65.917277564687538 2.5203596891426798 0 2.5203596891426798 -19.61813895529076 0 0 0 0 105.91920715049491 -8.565650785023081 0 -8.565650785023081 -93.243395040422456 0 0 0 0 117.95069503046398 33.743390364297738 0 33.743390364297738 -35.86380257417477 0 0 0 0 65.447225325187901 71.559925476492708 0 71.559925476492708 -73.412888415188945 0 0 0 0 96.517196777043864 38.755419549311227 0 38.755419549311227 59.261443647724263 0 0 0 0 130.12554371661099 62.563241198521609 0 62.563241198521609 -78.181709327182034 0 0 0 0 7.8763471537040886 5.5382054284323665 0 5.5382054284323665 -1.2859300201771577 0 0 0 0 53.756305859511485 -126.92472601333066 0 -126.92472601333066 -71.354603142348424 0 0 0 0 6.8103747572531574 -126.31277233615879 0 -126.31277233615879 -35.40390129572279 0 0 0 0 89.865514103730675 -120.82746070658231 0 -120.82746070658231 -48.404011240929322 0 0 0 0 87.246858096972574 -43.311748288477247 0 -43.311748288477247 -14.707181284221178 0 0 0 0 26.773902557193651 -7.6816814272865486 0 -7.6816814272865486 17.405067465353113 0 0 0 0 83.640500312736549 -20.40645458539143 0 -20.40645458539143 -9.4799973258432146 0 0 0 0 -66.645562590274494 -57.832920058659738 0 -57.832920058659738 -6.893320955011518 0 0 0 0 -64.798493352922378 30.35429062241974 0 30.35429062241974 -21.50141017968599 0 0 0 0 34.279386064677965 -11.312112360454648 0 -11.312112360454648 -4.765497659029279 0 0 0 0 52.642213253711816 2.834379192929191 0 2.834379192929191 -10.123064922180674 0 0 0 0 83.584101767279208 -4.7488825581131096 0 -4.7488825581131096 -8.3349089929288311 0 0 0 0 50.086470924747118 3.2701203934493606 0 3.2701203934493606 -6.805549104849888 0 0 0 0 67.443956679795519 0.90176879379237107 0 0.90176879379237107 -9.8653526367979794 0 0 0 0 62.935076406909502 3.1397372977321538 0 3.1397372977321538 -12.227154883343246 0 0 0 0 69.658988496375969 -3.4611179395110412 0 -3.4611179395110412 -10.765932474207148 0 0 0 0 64.267055894641089 -1.0972233015440906 0 -1.0972233015440906 -7.9405977362948761 0 0 0 0 49.882582145452034 -2.510070296275444 0 -2.510070296275444 -8.2467927623256401 0 0 0 0 45.640951056120684 -10.297181231369905 0 -10.297181231369905 -12.082028998234819 0 0 0 0 48.620992435171502 -0.078374973008067172 0 -0.078374973008067172 -12.438741804958653 0 0 0 0 53.446169486429426 13.796342479808573 0 13.796342479808573 -12.350208550955585 0 0 0 0 55.549528468807694 8.1993511272564774 0 8.1993511272564774 -0.038613052932305436 0 0 0 0 48.506338082399452 6.9121074772176598 0 6.9121074772176598 13.214513435225768 0 0 0 0 88.793401598813944 -6.3505312397933267 0 -6.3505312397933267 -15.914528707986392 0 0 0 0 180.18274145014584 5.0467577560630161 0 5.0467577560630161 -3.6711710550443968 0 0 0 0 69.802765956236271 0.65956191947795162 0 0.65956191947795162 -13.334224091194319 0 0 0 0 16.537949599354761 -344.82379101665765 0 -344.82379101665765 133.18200993567848 0 0 0 0 4.8143023580165618 0.39219340991770935 0 0.39219340991770935 -2.3455876482911489 0 0 0 0 64.678462454328837 50.639257686266774 0 50.639257686266774 31.622521502695236 0 0 0 0 5.7096529626651318 -13.649248682868574 0 -13.649248682868574 51.856077550171904 0 0 0 0 183.42169942573673 72.552283715849399 0 72.552283715849399 25.475117310106725 0 0 0 0 278.36428609891664 208.20672999709348 0 208.20672999709348 -15.652306481945743 0 0 0 0 159.96960037526878 -120.18061186080217 0 -120.18061186080217 1.3943294211112516 0 0 0 0 67.222107962701216 10.996402737113684 0 10.996402737113684 -16.390101196852704 0 0 0 0 67.790863533708034 -1.2225338552666472 0 -1.2225338552666472 4.0485758133714853 0 0 0 0 135.32393399453156 -4.4457036816635451 0 -4.4457036816635451 -6.2415301301291439 0 0 0 0 118.0196228980567 73.732585311030107 0 73.732585311030107 -169.1203827986169 0 0 0 0 60.531099196348805 25.419552239499353 0 25.419552239499353 -30.917253392710336 0 0 0 0 68.536323220923578 20.596372108798349 0 20.596372108798349 -12.72493721660782 0 0 0 0 -481.08046291934443 535.89160386568028 0 535.89160386568028 -7.6775012291818712 0 0 0 0 -95.3916696174565 86.155540001760983 0 86.155540001760983 -72.643597897575091 0 0 0 0 550.06425586984551 151.59255540308368 0 151.59255540308368 -520.81348874006471 0 0 0 0 315.60502760754753 -143.79519522424039 0 -143.79519522424039 -1.0810013127493221 0 0 0 0 19.797520523280852 6.7662440804280806 0 6.7662440804280806 -3.4219620251557465 0 0 0 0 108.40977303851832 7.0986520208532511 0 7.0986520208532511 -11.839684797290602 0 0 0 0 60.953370279332091 15.047593923739143 0 15.047593923739143 -11.156691055035456 0 0 0 0 68.638643657628563 -1.8570488380591996 0 -1.8570488380591996 5.9269336521210789 0 0 0 0 108.50541504300782 -9.8758010072583602 0 -9.8758010072583602 -15.48306769361443 0 0 0 0 97.201190678257262 -16.528830648690018 0 -16.528830648690018 -2.6658630126762546 0 0 0 0 79.352720808034064 -5.5939705618166045 0 -5.5939705618166045 -8.3023112624809983 0 0 0 0 80.82854432016029 -3.2695609356965178 0 -3.2695609356965178 -9.193962048029789 0 0 0 0 85.293802636675537 -7.1888064158192719 0 -7.1888064158192719 -9.8442672962446522 0 0 0 0 89.545124559255783 -5.7616604853346871 0 -5.7616604853346871 -11.763369132599109 0 0 0 0 92.794894029997522 -13.057045629279855 0 -13.057045629279855 -6.893112021601155 0 0 0 0 85.883354221936315 -5.9385083946931445 0 -5.9385083946931445 -9.763393434091995 0 0 0 0 84.116201859578723 -3.100204359883719 0 -3.100204359883719 -10.976382174440914 0 0 0 0 96.843712570756907 -2.2701176610153198 0 -2.2701176610153198 -9.9900448542229299 0 0 0 0 81.557840483472319 1.4355051121260658 0 1.4355051121260658 -8.1096329104912002 0 0 0 0 106.24526614328352 -6.2253486881982099 0 -6.2253486881982099 -15.284572079948703 0 0 0 0 8.5135579994335551 5.2453994910629689 0 5.2453994910629689 -2.6707150593214504 0 0 0 0 80.628488611720968 0.47513283951593621 0 0.47513283951593621 -6.861266475596949 0 0 0 0 175.58941835019505 -13.08746306820467 0 -13.08746306820467 -49.827590382497874 0 0 0 0 52.733529435628867 -7.3739149067208842 0 -7.3739149067208842 -6.7237715131684199 0 0 0 0 102.57156541795848 -3.7585677314946224 0 -3.7585677314946224 -12.963704783723188 0 0 0 0 -405.3168886267913 -187.60001251401155 0 -187.60001251401155 333.32932259209156 0 0 0 0 115.09552260529017 -49.126347813338725 0 -49.126347813338725 -393.76534768417696 0 0 0 0 243.70673512585927 140.38070479923317 0 140.38070479923317 -307.9112884858805 0 0 0 0 204.61683032005385 299.92724902335794 0 299.92724902335794 -104.09386591035309 0 0 0 0 67.563545794393576 157.28100487633719 0 157.28100487633719 -92.993348491698271 0 0 0 0 1.502253049358842 264.38222076548391 0 264.38222076548391 157.60612531994866 0 0 0 0 289.21825683617499 327.03991723088848 0 327.03991723088848 166.61563043994192 0 0 0 0 113.41060358271352 338.76115218646783 0 338.76115218646783 54.05761598877325 0 0 0 0 417.01680782198673 -1106.5300034110614 0 -1106.5300034110614 713.20413128916698 0 0 0 0 998.35064864589367 -58.193995948206066 0 -58.193995948206066 232.10357013492467 0 0 0 0 1064.1804841394624 -300.53214827827355 0 -300.53214827827355 -148.76560867329817 0 0 0 0 1284.1596436614782 969.25157444268734 0 969.25157444268734 -1246.9787455639525 0 0 0 0 1630.6433843851555 -1982.0562277755453 0 -1982.0562277755453 1229.3406536914918 0 0 0 0 684.30839595760335 -451.30980132082232 0 -451.30980132082232 135.17594925200228 0 0 0 0 388.92413194786059 -274.10678441699565 0 -274.10678441699565 252.43969584549404 0 0 0 0 349.03414520413207 -330.80533343036836 0 -330.80533343036836 298.87114100518306 0 0 0 0 21.654739260579959 1.4047224467379458 0 1.4047224467379458 0.36982381467576153 0 0 0 0 -1.8275275995620177 275.01810733848879 0 275.01810733848879 264.41014146518091 0 0 0 0 -187.47376222286402 160.2075915877133 0 160.2075915877133 201.64745240793013 0 0 0 0 -1.0897019540134352 249.15996381114269 0 249.15996381114269 84.006826283893133 0 0 0 0 -15.506531925522722 173.43071982579568 0 173.43071982579568 65.33603578969587 0 0 0 0 -137.96886190790246 61.518856289449559 0 61.518856289449559 24.095215231422117 0 0 0 0 52.470776599875535 57.083630472536242 0 57.083630472536242 -84.509785960093268 0 0 0 0 90.672594065465091 163.12999000005266 0 163.12999000005266 -119.28829965598379 0 0 0 0 651.14890881485553 48.355198489857457 0 48.355198489857457 -49.920727830198302 0 0 0 0 198.76425832495443 68.837688497309955 0 68.837688497309955 -50.774508263217285 0 0 0 0 26.103474483923492 -53.61707912181555 0 -53.61707912181555 64.988130539486065 0 0 0 0 -1.9944073607450719 -0.51807671713860515 0 -0.51807671713860515 5.6754207433354082 0 0 0 0 873.45928543161426 26.966601682386681 0 26.966601682386681 -256.6625308149803 0 0 0 0 -319.45622170703427 346.79181526132197 0 346.79181526132197 180.17062997490393 0 0 0 0 147.91560139066132 -6.8020719581763842 0 -6.8020719581763842 -68.883371837516734 0 0 0 0 0.34120036932532116 -3.4741982103649462 0 -3.4741982103649462 1.922472512715967 0 0 0 0 57.732917958046755 -3.3885033867989658 0 -3.3885033867989658 -0.72387704711011036 0 0 0 0 -367.33683500409825 -180.72692942140429 0 -180.72692942140429 25.460089784371348 0 0 0 0 57.919800218172895 -126.40162750262994 0 -126.40162750262994 54.588204297919674 0 0 0 0 -14.708648601015739 -27.37109607188097 0 -27.37109607188097 11.711842253792383 0 0 0 0 94.726820253510596 -67.819684624672902 0 -67.819684624672902 11.363248180820847 0 0 0 0 91.465816909731075 -79.269455230195035 0 -79.269455230195035 -24.607036678264194 0 0 0 0 192.3592084718257 -62.031376387947603 0 -62.031376387947603 76.734117666612292 0 0 0 0 218.20592638364178 -202.9210276657841 0 -202.9210276657841 279.30966862473565 0 0 0 0 339.99908902859897 -180.85871433282841 0 -180.85871433282841 0.17195497544344107 0 0 0 0 318.09844231643365 -32.402903294464068 0 -32.402903294464068 -143.87542390467524 0 0 0 0 200.70353085261013 -122.09505263990332 0 -122.09505263990332 -12.011146870214361 0 0 0 0 150.79232460654748 -34.666496556938 0 -34.666496556938 -65.183274301298297 0 0 0 0 97.411126913000771 11.229901466666092 0 11.229901466666092 -74.775587646577151 0 0 0 0 108.90010054472077 -45.881769021258151 0 -45.881769021258151 -35.152782642621787 0 0 0 0 129.44282682248013 -64.309477457814864 0 -64.309477457814864 -18.719273900676853 0 0 0 0 308.68387869432081 -18.098264093685884 0 -18.098264093685884 -24.578349286235607 0 0 0 0 43.944497203250648 -3.2945278612560287 0 -3.2945278612560287 -138.33143769337948 0 0 0 0 422.53865319479519 150.56985862035435 0 150.56985862035435 -85.450912803440588 0 0 0 0 120.06263470270642 131.2870823411215 0 131.2870823411215 -475.81201840989888 0 0 0 0 -74.050907117270981 96.937494987299033 0 96.937494987299033 -168.43598871620907 0 0 0 0 225.7115495772814 175.64526669073712 0 175.64526669073712 -269.86590412893338 0 0 0 0 300.22429307455059 -118.98631346873822 0 -118.98631346873822 -163.18722829614489 0 0 0 0 3.2413932944837143 0.77746457069406461 0 0.77746457069406461 -175.64619094896807 0 0 0 0 67.240445239423934 23.006636887784452 0 23.006636887784452 -217.88668661879819 0 0 0 0 20.357935558221214 -3.5235473721337964 0 -3.5235473721337964 -1.0403407695936338 0 0 0 0 132.43863323714686 63.430979738487622 0 63.430979738487622 41.676700187364077 0 0 0 0 135.68067726372101 27.048263736860463 0 27.048263736860463 20.067047789886146 0 0 0 0 7.2747652038131037 1.8750298598395858 0 1.8750298598395858 8.3054864203046534 0 0 0 0 79.201914192908589 -19.703339296570448 0 -19.703339296570448 -19.854196331594721 0 0 0 0 16.372530847762391 51.256618230022013 0 51.256618230022013 -71.601652578792709 0 0 0 0 37.407473077520933 2.5230779838842299 0 2.5230779838842299 -7.5443051202559328 0 0 0 0 19.374593698317767 30.128476222346762 0 30.128476222346762 14.774755397985018 0 0 0 0 5.5294170881265572 -4.3445905273935281 0 -4.3445905273935281 -7.8396646733454745 0 0 0 0 0.50386869559588376 114.45403305317336 0 114.45403305317336 -177.07410302917742 0 0 0 0 51.557205163961044 -7.5508461491635899 0 -7.5508461491635899 30.381115034122104 0 0 0 0 67.084775370721218 19.274439946914413 0 19.274439946914413 -1.3513472418526362 0 0 0 0 -1.010353839544873 -2.3803841667715986 0 -2.3803841667715986 -1.9117980586002012 0 0 0 0 69.551544782214478 14.481108353621948 0 14.481108353621948 -15.746141178044581 0 0 0 0 46.408051570013242 0.20788272532450058 0 0.20788272532450058 -9.6064740247106748 0 0 0 0 15.101154974324125 -1.1275926563950875 0 -1.1275926563950875 -5.4511866258793198 0 0 0 0 -33.303070368827321 -11.886577829819998 0 -11.886577829819998 16.971165274478153 0 0 0 0 36.182367035136849 -34.181446515910011 0 -34.181446515910011 -15.418117037905176 0 0 0 0 66.064270786300767 -78.581202517187194 0 -78.581202517187194 -91.953000378341812 0 0 0 0 102.84835360851866 49.577958835607205 0 49.577958835607205 -29.84101559058945 0 0 0 0 53.055970924804569 -1.3720894081002371 0 -1.3720894081002371 -18.000555514968255 0 0 0 0 -66.085468789038714 -48.18947309216901 0 -48.18947309216901 -34.991838189283953 0 0 0 0 -82.041047153819818 -78.981319055564654 0 -78.981319055564654 -94.359294391199001 0 0 0 0 50.537578183219011 1.9644389478098674 0 1.9644389478098674 -134.8233704531267 0 0 0 0 11.678394538208522 -67.317154203290556 0 -67.317154203290556 -257.38278625789462 0 0 0 0 -18.153688880134723 93.128337248870594 0 93.128337248870594 -236.51266310083633 0 0 0 0 -1.9793932578846523 -1.3473810437732254 0 -1.3473810437732254 -1.5466684420076646 0 0 0 0 253.6097681992469 -147.45859525995911 0 -147.45859525995911 -301.65818111113185 0 0 0 0 -270.48915563130504 410.04991075247904 0 410.04991075247904 -316.02321932380255 0 0 0 0 -44.19585853452736 34.065637409135888 0 34.065637409135888 -357.85886260755069 0 0 0 0 -141.31083514080092 245.2687505499448 0 245.2687505499448 -295.30131745926337 0 0 0 0 -284.939299555459 54.055518994710837 0 54.055518994710837 14.430717010249282 0 0 0 0 -19.822694668786426 127.2610773686738 0 127.2610773686738 -71.741823006210325 0 0 0 0 -31.064866476088355 130.41023896555271 0 130.41023896555271 -2.1796227632657974 0 0 0 0 58.182052888761973 132.89034489803271 0 132.89034489803271 -118.51791542638057 0 0 0 0 44.371225507880808 71.618389031857077 0 71.618389031857077 -91.954601797819123 0 0 0 0 42.03558221921412 98.519675552578065 0 98.519675552578065 -272.00554691823709 0 0 0 0 -97.662123607340618 144.17081920485907 0 144.17081920485907 -75.114628999535853 0 0 0 0 94.150268040601077 74.724429216816588 0 74.724429216816588 -24.922547826019581 0 0 0 0 127.76153581069957 107.55245029836624 0 107.55245029836624 -54.245354042641793 0 0 0 0 130.52446989656164 41.02855368719338 0 41.02855368719338 -70.535117508211442 0 0 0 0 155.95436842063282 76.083310227691982 0 76.083310227691982 -29.172233409521141 0 0 0 0 150.06501052721615 49.171294652478764 0 49.171294652478764 5.5874758219251817 0 0 0 0 145.08975808847208 63.776330160129646 0 63.776330160129646 -36.200865622689889 0 0 0 0 174.61959011179897 6.0264192019808434 0 6.0264192019808434 -10.946059944843 0 0 0 0 117.3038917187655 -10.441506107771602 0 -10.441506107771602 -4.3517063840008632 0 0 0 0 170.23939619281009 21.103598752649305 0 21.103598752649305 -59.572904156581444 0 0 0 0 65.911726841688505 -32.188701561639391 0 -32.188701561639391 -92.43329005244027 0 0 0 0 112.56682827402255 76.373198147974108 0 76.373198147974108 -138.92074667069483 0 0 0 0 115.92741550082428 6.1135020417714259 0 6.1135020417714259 -64.070154819695745 0 0 0 0 121.3664309824162 4.6104446397343963 0 4.6104446397343963 19.079143628782731 0 0 0 0 33.457641658912507 -66.195477051363241 0 -66.195477051363241 -37.950610289504766 0 0 0 0 61.431348752244958 -84.04824418764656 0 -84.04824418764656 30.212657398600868 0 0 0 0 274.05024205190784 23.394459293129671 0 23.394459293129671 -25.444299786759075 0 0 0 0 156.53438222497789 -92.848744383384883 0 -92.848744383384883 -15.50837831053741 0 0 0 0 67.16698640944378 -68.935071281990531 0 -68.935071281990531 -8.9492674447233185 0 0 0 0 -5.9021455000765854 -178.49718722956959 0 -178.49718722956959 -91.268525297783526 0 0 0 0 -21.357867199925749 -13.567335080998618 0 -13.567335080998618 -14.577426715497495 0 0 0 0 190.23966482467222 182.78723599426803 0 182.78723599426803 89.317170726279642 0 0 0 0 2.7702123747766336 -0.40063353580485028 0 -0.40063353580485028 -1.9858105101523016 0 0 0 0 114.43182755444786 -59.342568686293617 0 -59.342568686293617 -33.650817492646638 0 0 0 0 106.86580981742009 -54.09283203216637 0 -54.09283203216637 -37.256792492010391 0 0 0 0 261.50935199212108 41.635842746167327 0 41.635842746167327 -13.255225834009664 0 0 0 0 264.30944558894589 29.420144642610239 0 29.420144642610239 6.0706215455629717 0 0 0 0 -1.157232350498191 1.6479019397693406 0 1.6479019397693406 1.3757566198201854 0 0 0 0 143.43505722510599 163.31036198022093 0 163.31036198022093 80.512329210700045 0 0 0 0 116.42725839197783 36.919822880377836 0 36.919822880377836 87.085271485228986 0 0 0 0 129.17717811501643 -88.188233051411316 0 -88.188233051411316 11.745277700013503 0 0 0 0 273.80313154242322 68.035423792135362 0 68.035423792135362 -58.364455455943244 0 0 0 0 69.406808392690436 26.473450475717755 0 26.473450475717755 -66.684787270181914 0 0 0 0 131.9788660592676 94.033863935941554 0 94.033863935941554 -46.201544649521566 0 0 0 0 96.938344144742587 11.711438440484926 0 11.711438440484926 -114.69470937027552 0 0 0 0 -0.49298945043204867 4.6669346272437906 0 4.6669346272437906 -4.5553481546890495 0 0 0 0 14.933411752997927 21.769127613482169 0 21.769127613482169 -24.285407281699008 0 0 0 0 90.398084493514034 78.539915406194268 0 78.539915406194268 -140.41602061644244 0 0 0 0 85.519179375492968 180.82635389825009 0 180.82635389825009 -61.524222510558957 0 0 0 0 76.08069610761595 63.93722036003328 0 63.93722036003328 -51.23759565421642 0 0 0 0 99.024345553414605 110.33077219021106 0 110.33077219021106 -23.547492967902144 0 0 0 0 17.305873229997815 41.286880069264043 0 41.286880069264043 107.46026057821155 0 0 0 0 29.442544938836363 58.777292732956539 0 58.777292732956539 69.456119164617121 0 0 0 0 -4.0081760702305473 -17.567662322453543 0 -17.567662322453543 -2.9804066176038759 0 0 0 0 -3.2196885548473801 -6.5623319324295153 0 -6.5623319324295153 -2.6235558619264339 0 0 0 0 0.51597104261642812 5.2020158739162596 0 5.2020158739162596 -7.7267969377534946 0 0 0 0 14.353373657591874 0.93975230751334493 0 0.93975230751334493 -14.372325627788086 0 0 0 0 5.5394008900612661 0.99770991087720517 0 0.99770991087720517 -10.691550833164705 0 0 0 0 5.9774775591498752 3.1088619218427169 0 3.1088619218427169 -7.7043255660507306 0 0 0 0 8.2014415222802199 2.539470716354117 0 2.539470716354117 -4.4055781938477594 0 0 0 0 3.1498054806179425 -3.7351617202627381 0 -3.7351617202627381 -44.450768492548377 0 0 0 0 11.074574049365225 -6.1600593471080103 0 -6.1600593471080103 -14.288729114452234 0 0 0 0 28.56427893176442 2.8489902705086934 0 2.8489902705086934 -18.659275262991287 0 0 0 0 38.593585903799053 0.058059637494750405 0 0.058059637494750405 -26.479471949632348 0 0 0 0 4.8229122711236414 -15.06236206871381 0 -15.06236206871381 -51.192901689428254 0 0 0 0 2.2051705963385757 -35.80646251250073 0 -35.80646251250073 -38.762871669605374 0 0 0 0 1.8081285150110489 -40.270360717400763 0 -40.270360717400763 -17.175271288258955 0 0 0 0 1.2916602770274039 -20.335348350425193 0 -20.335348350425193 -32.375046393741286 0 0 0 0 -2.9498045819782419 -7.8636579521571548 0 -7.8636579521571548 -21.916167618677719 0 0 0 0 3.4874787802109495 -7.2169879998509714 0 -7.2169879998509714 -35.877224295174528 0 0 0 0 3.5393305101024453 -16.770607301481505 0 -16.770607301481505 -27.526305223418603 0 0 0 0 3.3884197425431921 -0.95891464443866425 0 -0.95891464443866425 -24.335701244286611 0 0 0 0 3.8451755261243363 -0.50813303431840495 0 -0.50813303431840495 -2.6972860047601834 0 0 0 0 254.34034599168808 46.569427974538485 0 46.569427974538485 0.38662129397698664 0 0 0 0 0.58024696878055693 -15.545819924135685 0 -15.545819924135685 -15.238626258702425 0 0 0 0 250.88899999008572 57.759326957079793 0 57.759326957079793 -12.875116927870209 0 0 0 0 2.305163270648336 -26.109781194204061 0 -26.109781194204061 -4.9879269434732123 0 0 0 0 191.20478010820443 5.886686690647366 0 5.886686690647366 -63.99019208514801 0 0 0 0 36.696987963863151 -3.8657542494158079 0 -3.8657542494158079 -25.29493716181069 0 0 0 0 1.9202577324758749 -42.121824096255295 0 -42.121824096255295 -2.3816657376089552 0 0 0 0 70.175623810362595 31.753543522370137 0 31.753543522370137 -3.1244866224399175 0 0 0 0 68.282384812519012 30.99591876169211 0 30.99591876169211 -2.5247767331464956 0 0 0 0 66.407059816361652 36.028022922705418 0 36.028022922705418 3.0190730175031604 0 0 0 0 78.695906398897932 30.5944293227858 0 30.5944293227858 -2.9705732581169286 0 0 0 0 66.937509836745448 31.348747315007358 0 31.348747315007358 1.0560609357453359 0 0 0 0 6.6639879063473586 2.5403157800582363 0 2.5403157800582363 -8.4260315028295487 0 0 0 0 78.194306258306369 40.905813716253398 0 40.905813716253398 1.2913024163362934 0 0 0 0 75.763259875737276 45.881647388697047 0 45.881647388697047 34.307384401424315 0 0 0 0 72.996114860180569 7.8523208199653709 0 7.8523208199653709 -23.633703286372111 0 0 0 0 94.021313032100807 39.912943027445294 0 39.912943027445294 -22.900526093580993 0 0 0 0 128.31247043682129 17.933723421935582 0 17.933723421935582 4.4622322271989106 0 0 0 0 132.60979874595432 82.322348061573393 0 82.322348061573393 22.7968135039564 0 0 0 0 59.154237762093544 32.226426850362714 0 32.226426850362714 20.169187694467837 0 0 0 0 11.711775758789372 -27.637551211420543 0 -27.637551211420543 -38.850144618079867 0 0 0 0 2.3157290891456981 0.5584561768785079 0 0.5584561768785079 -5.6825574759324091 0 0 0 0 7.6694208004219036 6.0731082509767589 0 6.0731082509767589 -9.362814813793193 0 0 0 0 23.018069947908373 2.4991324630538507 0 2.4991324630538507 -13.319913975313574 0 0 0 0 42.501776296929165 35.846143475275881 0 35.846143475275881 -13.289337952343885 0 0 0 0 55.253281295775196 -0.21230315935372346 0 -0.21230315935372346 -57.940800675980427 0 0 0 0 34.990689205234958 15.775110681301612 0 15.775110681301612 1.3339810698389556 0 0 0 0 88.023333199680565 -154.17152830735677 0 -154.17152830735677 6.063621550474636 0 0 0 0 -7.1798903151029663 24.542390449873437 0 24.542390449873437 21.932273592869024 0 0 0 0 23.634190378570651 1.3723278428819246 0 1.3723278428819246 -12.118795349830407 0 0 0 0 34.982458701415453 15.05955549448845 0 15.05955549448845 -20.43639762726616 0 0 0 0 2.7230771173123784 -0.16443449162309065 0 -0.16443449162309065 -3.6653334540517868 0 0 0 0 128.34118821434095 176.93801759233247 0 176.93801759233247 8.4868990723698516 0 0 0 0 92.222677277837647 77.190138844342073 0 77.190138844342073 108.68122376030715 0 0 0 0 93.656593113864801 52.416055688760935 0 52.416055688760935 -28.648672778625951 0 0 0 0 101.76477114531735 9.0633326994602612 0 9.0633326994602612 -155.07479780106951 0 0 0 0 118.20593883476249 57.815081141828159 0 57.815081141828159 -29.860509265028668 0 0 0 0 245.90615383615659 191.55030415327565 0 191.55030415327565 -112.91881934397679 0 0 0 0 10.119760781403301 -1.8466808717083047 0 -1.8466808717083047 0.083240184017098429 0 0 0 0 -341.98564528953284 90.347953493037494 0 90.347953493037494 422.42067566365586 0 0 0 0 112.24159782764764 222.76396716233103 0 222.76396716233103 -25.494641656008753 0 0 0 0 5.7658765243177186 325.76842632170155 0 325.76842632170155 527.73756884918475 0 0 0 0 238.78252922926822 121.97396369442367 0 121.97396369442367 -464.86632269185793 0 0 0 0 182.62290403965744 900.75523248582977 0 900.75523248582977 -246.57909361106522 0 0 0 0 51.302964244590839 19.185090124292401 0 19.185090124292401 -13.012563915206556 0 0 0 0 25.113732568825071 100.38572485746317 0 100.38572485746317 210.5361406207503 0 0 0 0 383.60327973795074 -666.5861646880262 0 -666.5861646880262 237.90404184027648 0 0 0 0 137.56512136477249 31.725273828792524 0 31.725273828792524 -288.98335074832085 0 0 0 0 20.812206216691266 -36.427556460538653 0 -36.427556460538653 -16.799329103827404 0 0 0 0 -2.3556375894472268 -5.7429820065498411 0 -5.7429820065498411 -3.8816085443273103 0 0 0 0 40.529631876659778 -4.8948186037614789 0 -4.8948186037614789 -20.05288013311343 0 0 0 0 110.75546605711088 -59.634046618954699 0 -59.634046618954699 -11.982171137348814 0 0 0 0 45.74911319173043 93.983757091590633 0 93.983757091590633 97.040607141395412 0 0 0 0 69.035564319303376 -19.695539391259445 0 -19.695539391259445 -37.800731682336846 0 0 0 0 66.716400074674311 42.148842946159675 0 42.148842946159675 0.71412093507751706 0 0 0 0 38.303483872530862 -5.1697045159548267 0 -5.1697045159548267 -23.969583705215292 0 0 0 0 138.22068119065079 78.151451481533513 0 78.151451481533513 22.423554846642219 0 0 0 0 120.36206935156224 135.01009298303688 0 135.01009298303688 31.602987636433681 0 0 0 0 24.345050258089032 128.5096872518443 0 128.5096872518443 25.716757170106575 0 0 0 0 120.50307024673728 66.903098004864034 0 66.903098004864034 64.655477077212709 0 0 0 0 -54.173923837341135 58.492812681887699 0 58.492812681887699 128.39462845904927 0 0 0 0 34.810132198130304 110.38330747659165 0 110.38330747659165 3.8326382244740671 0 0 0 0 -88.357075026819075 5.4162159518473345 0 5.4162159518473345 19.996035599485822 0 0 0 0 -137.43246670739609 144.46701117643897 0 144.46701117643897 55.767415613430785 0 0 0 0 -62.785182042367524 85.172545031600748 0 85.172545031600748 146.81359496574987 0 0 0 0 -7.2389992383650679 52.591263010812014 0 52.591263010812014 117.22325192257995 0 0 0 0 -0.61976450869065047 -64.110468171360765 0 -64.110468171360765 162.53234908705781 0 0 0 0 39.005726275187044 21.284067585690536 0 21.284067585690536 137.57866802612807 0 0 0 0 32.696833381132819 12.470939017607662 0 12.470939017607662 1.9127946259537261 0 0 0 0 97.832419723948988 19.323428664515177 0 19.323428664515177 -1.5530307028975585 0 0 0 0 -9.4051364480224038 -98.399361657499867 0 -98.399361657499867 -104.72760959710286 0 0 0 0 2.3639243425028837 2.2421622757431159 0 2.2421622757431159 0.086457211358446528 0 0 0 0 109.62027818878778 26.392906586559548 0 26.392906586559548 -60.418267249770906 0 0 0 0 -37.931808929635736 14.736734411398174 0 14.736734411398174 8.9501006870032143 0 0 0 0 92.487027663777553 -12.328583137486817 0 -12.328583137486817 -5.6257564849711343 0 0 0 0 229.79292140510734 -76.594784542525304 0 -76.594784542525304 11.946771949114918 0 0 0 0 295.58888391504297 -65.879410399623339 0 -65.879410399623339 -76.627530763442792 0 0 0 0 334.95321037739632 -27.322747489638914 0 -27.322747489638914 -103.44749969051736 0 0 0 0 369.53705395791258 -48.77882684093629 0 -48.77882684093629 -145.74562156203683 0 0 0 0 553.708365583665 -122.76599654334177 0 -122.76599654334177 -118.02425258081439 0 0 0 0 235.5055547470256 -126.21756440894478 0 -126.21756440894478 70.319401865463078 0 0 0 0 870.67636199049957 -369.5651600595229 0 -369.5651600595229 159.24285056453391 0 0 0 0 7.0044321644504066 2.6647378537062849 0 2.6647378537062849 1.7371288878338049 0 0 0 0 18.621499333064747 9.0838749901116387 0 9.0838749901116387 5.0729002358392421 0 0 0 0 -8.8924070900247898 -38.162529284913035 0 -38.162529284913035 266.36812770547203 0 0 0 0 79.094089828584401 -99.221840071833412 0 -99.221840071833412 178.6695678181477 0 0 0 0 -65.640603417654916 -39.681918202571865 0 -39.681918202571865 263.93030357938005 0 0 0 0 185.84047169249789 122.15366087625443 0 122.15366087625443 619.22533876603666 0 0 0 0 1005.8521828390149 169.05181112350328 0 169.05181112350328 9.8778336140276224 0 0 0 0 1125.415700869693 -144.12858848278677 0 -144.12858848278677 -201.63857000823054 0 0 0 0 1295.3660566601466 -535.86577411161488 0 -535.86577411161488 72.627931916503968 0 0 0 0 998.13267178288697 -672.99894772392838 0 -672.99894772392838 514.24867835293276 0 0 0 0 1774.886066310879 -903.18211930598272 0 -903.18211930598272 196.13770625558118 0 0 0 0 12.600401589166722 -125.76044711004693 0 -125.76044711004693 69.623170066121929 0 0 0 0 -2.3802664029918503 -0.56638678018228461 0 -0.56638678018228461 0.6169094978804901 0 0 0 0 75.924919802224395 102.70824974347059 0 102.70824974347059 -26.461505595704029 0 0 0 0 18.127464556381568 9.4192196795130343 0 9.4192196795130343 -2.8940836618136165 0 0 0 0 -120.22768754197023 64.037822418309133 0 64.037822418309133 246.7659002219425 0 0 0 0 -118.23451314090926 -14.501925768533738 0 -14.501925768533738 1.1110020187561531 0 0 0 0 615.66616878125933 -534.66237766733252 0 -534.66237766733252 675.79556763911205 0 0 0 0 1224.5895483132772 -519.7244556080351 0 -519.7244556080351 217.96147784207366 0 0 0 0 109.87325567971857 266.43196387412439 0 266.43196387412439 243.39647248537108 0 0 0 0 1117.1406422212021 -1194.751159884549 0 -1194.751159884549 812.00399571116429 0 0 0 0 2685.0489896096915 -1944.7970198870148 0 -1944.7970198870148 893.21712972314742 0 0 0 0 4327.473532757067 -952.29870034492637 0 -952.29870034492637 61.599846992525059 0 0 0 0 3500.1963322662923 -829.63645646659972 0 -829.63645646659972 2131.0907021492303 0 0 0 0 3500.2913903083099 -1169.5428906864713 0 -1169.5428906864713 -159.85728554882903 0 0 0 0 2867.6505132500897 -1041.6966433362918 0 -1041.6966433362918 209.731518598402 0 0 0 0 2315.839123639802 -1242.2653716517186 0 -1242.2653716517186 187.59767171169688 0 0 0 0 1955.742714068343 -726.98951568598261 0 -726.98951568598261 -5.1405026523647734 0 0 0 0 2943.8002885619462 -1221.3643499352845 0 -1221.3643499352845 95.18356980838962 0 0 0 0 2671.5871573551658 -704.66678613394254 0 -704.66678613394254 1.554649986079653 0 0 0 0 2084.0505743116373 -914.58065251730534 0 -914.58065251730534 104.02711222939766 0 0 0 0 3087.7398801041163 -839.82483822542576 0 -839.82483822542576 -266.03558214030005 0 0 0 0 2670.6776857365185 -796.45958869422225 0 -796.45958869422225 -244.05980746552436 0 0 0 0 3498.5529525470024 -652.37252809035772 0 -652.37252809035772 -249.65615669790435 0 0 0 0 2301.1218071723415 -703.3757597474854 0 -703.3757597474854 100.45941860916486 0 0 0 0 2655.4002853634011 -669.36979540427001 0 -669.36979540427001 200.2069367155529 0 0 0 0 2366.8679510873772 -474.15263072573521 0 -474.15263072573521 204.28678723340914 0 0 0 0 2046.2243477939483 -448.63013816650198 0 -448.63013816650198 -137.60090194958147 0 0 0 0 1832.2148989873531 -547.7919484723443 0 -547.7919484723443 -16.287664091624947 0 0 0 0 1803.1410654209321 -535.87004718655339 0 -535.87004718655339 198.81037535296741 0 0 0 0 1285.3119933300513 -571.69370123010447 0 -571.69370123010447 203.70263875339253 0 0 0 0 87.53771072201198 123.11972227226329 0 123.11972227226329 51.626449074625214 0 0 0 0 100.7465667858487 70.777047523163304 0 70.777047523163304 182.91621919522811 0 0 0 0 101.41636114267749 142.25629064054448 0 142.25629064054448 78.01213830203119 0 0 0 0 54.840043133153813 114.1783790110029 0 114.1783790110029 137.49760844355967 0 0 0 0 566.56116092955926 -285.78766733941279 0 -285.78766733941279 55.022069638014159 0 0 0 0 883.55429592175642 106.35464746821373 0 106.35464746821373 15.911157084967442 0 0 0 0 430.35810861299979 -136.73246683823464 0 -136.73246683823464 191.3456358688164 0 0 0 0 180.61446940089809 31.55376905497954 0 31.55376905497954 149.92119298546788 0 0 0 0 141.35939566214802 -38.778911087283973 0 -38.778911087283973 269.17907064712006 0 0 0 0 174.37241595612431 61.472639598614897 0 61.472639598614897 99.294530978231705 0 0 0 0 43.635009068937507 25.206447058223375 0 25.206447058223375 189.281259394796 0 0 0 0 11.597819518850883 -28.837835476568571 0 -28.837835476568571 178.07490277132479 0 0 0 0 22.89679395519488 51.461707292630805 0 51.461707292630805 50.322034201186881 0 0 0 0 4.5029427374865634 2.7626304863859446 0 2.7626304863859446 0.73813485348211594 0 0 0 0 441.06231877629762 90.221774215544599 0 90.221774215544599 47.197738947443348 0 0 0 0 27.57749895213783 -20.815358265188934 0 -20.815358265188934 4.0293902150492613 0 0 0 0 -67.478801977951662 -70.89715596114624 0 -70.89715596114624 85.987776933371094 0 0 0 0 5.4134155658503129 -1.0963324351214112 0 -1.0963324351214112 17.63659968765797 0 0 0 0 20.075217251676804 -93.510046763232054 0 -93.510046763232054 112.08756654590331 0 0 0 0 27.763550857071323 13.303515871838599 0 13.303515871838599 -6.6182271718980141 0 0 0 0 45.144399747288844 -2.7392018937921421 0 -2.7392018937921421 11.873778945924641 0 0 0 0 14.013602388329193 -1.9457473327714752 0 -1.9457473327714752 -0.38056852489349069 0 0 0 0 82.635196878647548 -7.9306176259719905 0 -7.9306176259719905 -13.012217542765939 0 0 0 0 75.086188800574746 -13.229801099443648 0 -13.229801099443648 -15.231322081091093 0 0 0 0 33.607295026799306 9.0639310844215828 0 9.0639310844215828 -3.3911803703726902 0 0 0 0 51.13358313489698 -1.1139618310382744 0 -1.1139618310382744 0.25740241028415767 0 0 0 0 35.734710907313314 16.571142739100075 0 16.571142739100075 -10.482733765885611 0 0 0 0 53.373857431697161 11.599350131771331 0 11.599350131771331 1.8795162964051997 0 0 0 0 30.9668543142404 2.555462957452832 0 2.555462957452832 -1.2123173523620263 0 0 0 0 52.639845086123387 11.718103391302407 0 11.718103391302407 1.9154599483779293 0 0 0 0 -59.302835702663288 122.62990693611466 0 122.62990693611466 72.668500715117091 0 0 0 0 4.3117958543006738 16.527986560316592 0 16.527986560316592 9.0450353377239132 0 0 0 0 36.78077226417372 80.65912484710573 0 80.65912484710573 76.379488864208838 0 0 0 0 -18.007795567420544 123.27296550934165 0 123.27296550934165 74.095429149114466 0 0 0 0 -16.050249618259841 131.93067157453453 0 131.93067157453453 10.067332674278305 0 0 0 0 26.154580386704765 -56.922173373059337 0 -56.922173373059337 -15.934383686868955 0 0 0 0 11.628583757503861 68.072268353331509 0 68.072268353331509 -58.127876601868252 0 0 0 0 11.540507088240702 49.978647981252834 0 49.978647981252834 75.688611965788994 0 0 0 0 51.375136677736009 27.920278477369649 0 27.920278477369649 15.618440645360124 0 0 0 0 52.290586067494701 12.317012518633256 0 12.317012518633256 -7.7462073950937338 0 0 0 0 9.1395249273077788 2.4092719415828441 0 2.4092719415828441 -2.5143618552902502 0 0 0 0 34.282827260743943 11.624514665714059 0 11.624514665714059 -0.13211360947479989 0 0 0 0 21.663492928462802 7.3088760317365313 0 7.3088760317365313 -3.4274519914638404 0 0 0 0 24.180056229135531 -0.69372504836130844 0 -0.69372504836130844 -5.8643309021513836 0 0 0 0 60.283278084287303 5.2857811317896903 0 5.2857811317896903 -4.8539931012696798 0 0 0 0 65.731007977257832 12.654955563435903 0 12.654955563435903 -8.0156505255947064 0 0 0 0 67.280010284724995 15.613723184148519 0 15.613723184148519 -2.4759508764027611 0 0 0 0 59.049805911367002 7.6341419352189703 0 7.6341419352189703 14.690904414214515 0 0 0 0 36.045314833082244 17.982961134803936 0 17.982961134803936 -9.4693189022799018 0 0 0 0 91.326477411945234 0.17756684364758257 0 0.17756684364758257 -10.216860046932197 0 0 0 0 53.063926447590347 17.65426273248886 0 17.65426273248886 -13.208411220221024 0 0 0 0 74.452243941777851 -0.66186944494605893 0 -0.66186944494605893 -8.180391777744374 0 0 0 0 53.978389277690439 5.9199562214170669 0 5.9199562214170669 -4.0819335638185024 0 0 0 0 60.199282498520915 -0.40870351741227928 0 -0.40870351741227928 -3.3599782340787732 0 0 0 0 60.389834345686154 10.607748884074809 0 10.607748884074809 -12.929968013862094 0 0 0 0 49.547299479163485 18.229298341520803 0 18.229298341520803 -14.64972398110082 0 0 0 0 50.135503194884222 12.5491340983573 0 12.5491340983573 -5.559649965616984 0 0 0 0 34.184749452215328 5.2463009652528854 0 5.2463009652528854 -17.392143079028756 0 0 0 0 30.833569075752166 8.7590841949563583 0 8.7590841949563583 -12.050864483105215 0 0 0 0 6.1223550928485677 7.1589191730812871 0 7.1589191730812871 -11.01409340369066 0 0 0 0 48.182701619625732 7.4428445515010537 0 7.4428445515010537 -18.611195988762915 0 0 0 0 14.583385628012962 -1.0048234847357875 0 -1.0048234847357875 -11.145977663287059 0 0 0 0 73.728781285884907 22.878391845690885 0 22.878391845690885 1.8700329394750952 0 0 0 0 29.370690960118111 24.441445933642086 0 24.441445933642086 -9.7597474541520235 0 0 0 0 26.120360594228259 6.7079116329045974 0 6.7079116329045974 -16.051570748983067 0 0 0 0 20.346745832183494 12.997883123271009 0 12.997883123271009 -9.5203731940962459 0 0 0 0 29.226259652506997 5.6914175495212476 0 5.6914175495212476 -11.243569186093737 0 0 0 0 25.698769486758181 3.6342293297510508 0 3.6342293297510508 -16.53812167032212 0 0 0 0 48.250704918056726 33.035626666171879 0 33.035626666171879 -3.1682037229325033 0 0 0 0 42.364842409770063 20.778864915451138 0 20.778864915451138 -8.4762838572246437 0 0 0 0 31.141831767926305 25.399543056203147 0 25.399543056203147 -6.3912482771534087 0 0 0 0 9.4771619296376457 2.1631060890088776 0 2.1631060890088776 -6.2349354219208371 0 0 0 0 39.574859012442175 25.971747384180162 0 25.971747384180162 -11.244909083186144 0 0 0 0 20.209892050798601 14.842531822846091 0 14.842531822846091 -3.9602206452984188 0 0 0 0 34.5913696004136 21.093248967129171 0 21.093248967129171 -11.686578663782115 0 0 0 0 41.693323450897879 4.334116619080163 0 4.334116619080163 -14.048219135067711 0 0 0 0 34.352362542093033 18.026738300809825 0 18.026738300809825 -27.475798890015994 0 0 0 0 26.672884205763694 21.036864765882513 0 21.036864765882513 -8.2905113686440473 0 0 0 0 32.785935476160375 17.723134696632314 0 17.723134696632314 -6.5020761702272694 0 0 0 0 45.803795444982825 18.851401236071752 0 18.851401236071752 -7.4019789019682776 0 0 0 0 57.821928538396605 8.3567795089452943 0 8.3567795089452943 -7.705379976672134 0 0 0 0 40.518633507526829 12.831249732291326 0 12.831249732291326 -5.329189548226168 0 0 0 0 51.187142910071998 11.499708610229277 0 11.499708610229277 -13.379133293703148 0 0 0 0 49.716275227289771 -1.9411499665003191 0 -1.9411499665003191 -3.4615939342820639 0 0 0 0 35.743332792153524 9.4447579872580718 0 9.4447579872580718 -3.3781552454839527 0 0 0 0 1.3760451264533913 9.5582485807090052 0 9.5582485807090052 -6.0583883829394836 0 0 0 0 17.603375256234585 9.530826610616316 0 9.530826610616316 3.298650257753752 0 0 0 0 29.645444554271307 22.734318337077525 0 22.734318337077525 -22.616083174723826 0 0 0 0 10.258283168979688 22.559114894278991 0 22.559114894278991 -7.5883993798958045 0 0 0 0 8.1855393590126653 1.4068027267959451 0 1.4068027267959451 -2.8280564306711238 0 0 0 0 9.8164854718204584 12.838930957933876 0 12.838930957933876 -1.3304519764114355 0 0 0 0 58.112925585282937 30.451243470672125 0 30.451243470672125 1.5606440238682353 0 0 0 0 26.565630744895316 11.337250899136734 0 11.337250899136734 -5.6889844128038476 0 0 0 0 32.257012483270955 31.589821621903525 0 31.589821621903525 -7.8965506784916215 0 0 0 0 16.529319535753302 7.4014897051756137 0 7.4014897051756137 -10.878391836007964 0 0 0 0 -17.530528543502442 80.475308083202137 0 80.475308083202137 34.319777842568222 0 0 0 0 71.927655257553852 4.5228779885075312 0 4.5228779885075312 -11.65235886756426 0 0 0 0 26.721797220111782 27.87220646297024 0 27.87220646297024 -0.27362199070614057 0 0 0 0 47.192065139766783 13.741835135697102 0 13.741835135697102 8.3539961978899555 0 0 0 0 171.81007768121435 33.731956376009776 0 33.731956376009776 -41.319550783554405 0 0 0 0 10.968668091312409 -7.5760037982166324 0 -7.5760037982166324 -6.4912690266520165 0 0 0 0 -0.81306189319002442 -43.945089269353048 0 -43.945089269353048 99.414482949496687 0 0 0 0 33.804196230092202 7.7067338876277063 0 7.7067338876277063 -4.1650801290595538 0 0 0 0 252.14093703941762 2.1915794149644796 0 2.1915794149644796 -118.97316163727282 0 0 0 0 0.56925188245334013 -6.8341688639577285 0 -6.8341688639577285 -0.73822725513253973 0 0 0 0 169.16683537857898 -42.729306092454294 0 -42.729306092454294 3.2632785050204802 0 0 0 0 108.81757556088269 22.898873372875926 0 22.898873372875926 6.2843036037348838 0 0 0 0 126.07496188970981 42.817033498113098 0 42.817033498113098 -55.179350861184105 0 0 0 0 -171.89427012727538 92.590742268244469 0 92.590742268244469 -44.892417270639385 0 0 0 0 173.45066931172687 104.28123255068525 0 104.28123255068525 -69.712137881557283 0 0 0 0 18.321793926117326 19.37612786214477 0 19.37612786214477 6.2855001533406689 0 0 0 0 8.6968803945255786 98.64162344489668 0 98.64162344489668 34.550508652420831 0 0 0 0 62.020812246591959 13.09510220838763 0 13.09510220838763 6.1001117117662034 0 0 0 0 19.156115554175713 27.798785134033523 0 27.798785134033523 -0.36454772926598711 0 0 0 0 23.458339936954559 39.306136422357923 0 39.306136422357923 -0.77999059276871208 0 0 0 0 153.5512039176283 7.7476054324088182 0 7.7476054324088182 24.246537579170763 0 0 0 0 74.300057245898643 6.4410263799945824 0 6.4410263799945824 -9.6857690579745395 0 0 0 0 344.83140267168346 -105.06170002974272 0 -105.06170002974272 106.3670078958321 0 0 0 0 95.337469641457517 -2.3513006066968813 0 -2.3513006066968813 -11.6503651012932 0 0 0 0 54.622685602310966 49.116262417780646 0 49.116262417780646 -4.7822274454812526 0 0 0 0 39.476820689197048 14.667273082075909 0 14.667273082075909 -5.8144689121450401 0 0 0 0 381.6763955423371 189.53715308832219 0 189.53715308832219 -256.17047871925706 0 0 0 0 361.85199691705247 -194.66036540222026 0 -194.66036540222026 157.32480500794975 0 0 0 0 3.0955191991612665 -2.2255008971996659 0 -2.2255008971996659 1.0190872575851799 0 0 0 0 185.64727361225232 76.954859752326456 0 76.954859752326456 40.541443480743965 0 0 0 0 7.6965728917348315 53.397775725878319 0 53.397775725878319 -58.012912139989794 0 0 0 0 1.8109325105471044 -0.86405753344546099 0 -0.86405753344546099 1.2922417646415147 0 0 0 0 -87.224315133164055 73.742171160873454 0 73.742171160873454 22.547141807231128 0 0 0 0 -6.2187022193138546 52.406154873053481 0 52.406154873053481 124.4576005734707 0 0 0 0 131.46966100891586 -3.6829654767016109 0 -3.6829654767016109 179.17736234150834 0 0 0 0 68.042336436716141 100.9337245500235 0 100.9337245500235 -54.855787217906709 0 0 0 0 -5.0350752501690295 90.103645113218363 0 90.103645113218363 154.78780165674038 0 0 0 0 48.570584663335467 211.67934754580938 0 211.67934754580938 103.3958068573013 0 0 0 0 14.013404122932947 1.1819265342870864 0 1.1819265342870864 0.27005809953788074 0 0 0 0 73.669390182840289 23.978074153191073 0 23.978074153191073 -40.857615113406155 0 0 0 0 223.97375394825883 20.319319341304027 0 20.319319341304027 -39.602116637412109 0 0 0 0 16.564962876166007 -0.94913025759164782 0 -0.94913025759164782 -12.77234807607746 0 0 0 0 28.671966282548965 2.3470206586612221 0 2.3470206586612221 -11.483310562521183 0 0 0 0 51.336768029167217 19.73380247748976 0 19.73380247748976 -24.279754199672766 0 0 0 0 -0.20939928136611874 9.0542101479899131 0 9.0542101479899131 -7.3721285432632371 0 0 0 0 31.475603806720756 11.533736972268798 0 11.533736972268798 -16.925523576788237 0 0 0 0 17.024944578210125 11.682074870545875 0 11.682074870545875 -5.7940367023977615 0 0 0 0 -0.71533852748689242 -7.4886826276888314 0 -7.4886826276888314 -22.077446122745187 0 0 0 0 29.01116988155627 17.979676046052163 0 17.979676046052163 -33.585845844776458 0 0 0 0 9.6856740904331673 12.592500335219086 0 12.592500335219086 -21.823952933184845 0 0 0 0 10.056974876773893 21.155066762036213 0 21.155066762036213 -69.496713585989696 0 0 0 0 2.3165673968469491 51.259301401809694 0 51.259301401809694 82.547475872186169 0 0 0 0 6.7917197065398796 -16.185684080747706 0 -16.185684080747706 -61.90589564101856 0 0 0 0 1.053797962454766 0.61113275712214943 0 0.61113275712214943 -1.9347990833146416 0 0 0 0 64.767235145198356 54.350459894082405 0 54.350459894082405 5.9648887960001957 0 0 0 0 1.1966822229514946 93.117516657845215 0 93.117516657845215 68.392719586455314 0 0 0 0 67.051143788077752 67.129796938782874 0 67.129796938782874 40.637690285494273 0 0 0 0 29.933392088350956 13.367141441637159 0 13.367141441637159 -15.188289565241803 0 0 0 0 40.629746991558932 3.2032060887854641 0 3.2032060887854641 -11.892065433141624 0 0 0 0 4.1478167596229998 9.1906616571332975 0 9.1906616571332975 -8.6817204290361758 0 0 0 0 8.5681425204700474 5.5431276328514016 0 5.5431276328514016 -4.8540953532611359 0 0 0 0 0.50518930732906309 18.860147899263701 0 18.860147899263701 1.3951363508976886 0 0 0 0 51.181877135233663 36.093453225098983 0 36.093453225098983 12.041544583710674 0 0 0 0 58.918376868117775 16.243245207720975 0 16.243245207720975 -2.4178053667319546 0 0 0 0 67.639836614289379 43.046041575342088 0 43.046041575342088 3.2257304964464311 0 0 0 0 86.421385934416321 34.177425921470331 0 34.177425921470331 -0.55508109917536785 0 0 0 0 88.637113673306885 50.698029042423059 0 50.698029042423059 -23.939332030059859 0 0 0 0 67.338042658280756 28.106355394347702 0 28.106355394347702 7.1965452021076999 0 0 0 0 -56.261320645309752 193.78846071758886 0 193.78846071758886 164.06001728709759 0 0 0 0 109.50138912590046 52.314018879553714 0 52.314018879553714 4.2118265037737501 0 0 0 0 126.14136495405 88.654106691155505 0 88.654106691155505 18.164876164725911 0 0 0 0 123.85815985628324 71.868954325708046 0 71.868954325708046 92.068625287427949 0 0 0 0 107.06578599222848 147.05367193181289 0 147.05367193181289 -59.524815659654386 0 0 0 0 4.0588453740557924 -1.1409374596198418 0 -1.1409374596198418 -16.799059773595168 0 0 0 0 24.734902949981915 -149.99508366553891 0 -149.99508366553891 59.557901323680198 0 0 0 0 275.23971023689955 256.79512070932088 0 256.79512070932088 128.04108463326918 0 0 0 0 191.53156463618507 -117.73391719421559 0 -117.73391719421559 26.046402750176966 0 0 0 0 419.63233434044378 -142.97083758678346 0 -142.97083758678346 -82.328940729397345 0 0 0 0 0.51411209560653504 -2.327787310203604 0 -2.327787310203604 2.5295158171698153 0 0 0 0 30.814574607218674 -72.438428436490057 0 -72.438428436490057 44.421759246421516 0 0 0 0 24.101342963459274 36.465104713252977 0 36.465104713252977 -10.230821184935564 0 0 0 0 70.564855725395319 1.3553485963899732 0 1.3553485963899732 13.765878929686931 0 0 0 0 130.10205212936853 -11.005902690068694 0 -11.005902690068694 13.673003377484305 0 0 0 0 88.19052296243899 27.205257161236858 0 27.205257161236858 -14.94551818601542 0 0 0 0 67.970006117087905 36.097862832785978 0 36.097862832785978 7.3797781119364281 0 0 0 0 68.173194164693996 4.177258060712532 0 4.177258060712532 -24.632343753531984 0 0 0 0 28.941786710958667 26.571508602175797 0 26.571508602175797 2.773507177257283 0 0 0 0 -19.925455252989195 109.20002910306849 0 109.20002910306849 -63.83601292340461 0 0 0 0 65.27758042026835 20.100178488276271 0 20.100178488276271 21.243300721597677 0 0 0 0 88.082121385574283 1.4213080878651283 0 1.4213080878651283 -32.268769990844291 0 0 0 0 23.319440667733318 4.3596621489723191 0 4.3596621489723191 -0.97642445830140256 0 0 0 0 88.764100063352089 -3.3377205345059338 0 -3.3377205345059338 -8.5033903475119175 0 0 0 0 38.132932649557731 20.811572163282818 0 20.811572163282818 3.0990793269457901 0 0 0 0 94.756351138516038 71.1791985780103 0 71.1791985780103 11.740138675057892 0 0 0 0 55.901861891836646 39.438036168210616 0 39.438036168210616 -12.483909255614709 0 0 0 0 100.02508019861125 20.422193452649481 0 20.422193452649481 -82.838849490944995 0 0 0 0 49.533268902335521 -20.365271096255157 0 -20.365271096255157 12.691350188650947 0 0 0 0 148.00125185437901 -55.367295296237785 0 -55.367295296237785 -399.74239094850873 0 0 0 0 -147.29252912900847 -24.340695847464957 0 -24.340695847464957 18.118730316994895 0 0 0 0 274.23196208868831 219.91340113175249 0 219.91340113175249 -347.19060193731639 0 0 0 0 -114.80667451892805 312.00393904116117 0 312.00393904116117 360.91949225659869 0 0 0 0 136.74918137853092 336.30945058049383 0 336.30945058049383 79.220215521341743 0 0 0 0 -3.2812343048208277 177.66799356410843 0 177.66799356410843 60.433049013988239 0 0 0 0 29.293188728508539 175.84766029243519 0 175.84766029243519 -160.34114938032508 0 0 0 0 4292.5616080373911 -947.40086240138589 0 -947.40086240138589 355.92336757593495 0 0 0 0 3369.4595247369652 395.04352359935689 0 395.04352359935689 337.36989201049749 0 0 0 0 379.68803579371888 -1068.1470875702953 0 -1068.1470875702953 1076.098261196571 0 0 0 0 14.762005207105915 -11.403719483472742 0 -11.403719483472742 9.0401786471961216 0 0 0 0 -227.22074706629064 106.43220886226933 0 106.43220886226933 197.51882100706098 0 0 0 0 454.68966489286686 725.74980790802476 0 725.74980790802476 332.69184440656511 0 0 0 0 98.321985840317211 -426.64831169190916 0 -426.64831169190916 -286.2963615235858 0 0 0 0 2984.4929657563334 -777.6069412251768 0 -777.6069412251768 -362.80088022516878 0 0 0 0 3500.3185129334088 -156.45848706698274 0 -156.45848706698274 37.805988555570281 0 0 0 0 3565.2628086323675 -173.14985961589676 0 -173.14985961589676 -13.239461519465399 0 0 0 0 3777.4113689599726 -21.902658725270769 0 -21.902658725270769 -235.27644662406439 0 0 0 0 1499.5264303318545 221.17008960300009 0 221.17008960300009 -261.07768125594441 0 0 0 0 4.5613674154834172 -2.784445741005797 0 -2.784445741005797 -0.16897737116034528 0 0 0 0 57.285342429007869 213.33477166410131 0 213.33477166410131 55.381181380171654 0 0 0 0 402.11655302163854 118.93980655008181 0 118.93980655008181 -32.442576021792092 0 0 0 0 19.097447007180079 -0.29105086274685732 0 -0.29105086274685732 -3.1002639181026646 0 0 0 0 597.7973671161817 -479.52087482035574 0 -479.52087482035574 314.95361395843349 0 0 0 0 3336.823140215005 -507.74023846014398 0 -507.74023846014398 -324.90126093662491 0 0 0 0 3499.5042934166995 -883.25061551666931 0 -883.25061551666931 258.74276940469178 0 0 0 0 652.61601128382608 -687.02775177582612 0 -687.02775177582612 461.29527871553302 0 0 0 0 4.2742973000491489 -4.6354207928383602 0 -4.6354207928383602 4.9392298801085071 0 0 0 0 -144.7345780295509 -209.81366508519977 0 -209.81366508519977 187.81996085679907 0 0 0 0 4656.9621975601112 -330.9887054229248 0 -330.9887054229248 126.78256499154389 0 0 0 0 203.03418731581041 -8.3489655015025619 0 -8.3489655015025619 -93.285559834160722 0 0 0 0 -9.5718315937047009 156.05487038402521 0 156.05487038402521 66.09806065707437 0 0 0 0 91.961432872631121 -29.715480366288375 0 -29.715480366288375 -94.33940747816925 0 0 0 0 69.366425733678625 1.2179483376442306 0 1.2179483376442306 -23.83851962023823 0 0 0 0 27.839876436863037 20.743001708471255 0 20.743001708471255 -10.053012904377267 0 0 0 0 3501.8998633595438 493.22245936725761 0 493.22245936725761 -32.066113442274748 0 0 0 0 16.154886899489576 -13.289902319174331 0 -13.289902319174331 12.696188154633392 0 0 0 0 2421.9398836922519 -146.57600272638228 0 -146.57600272638228 16.650362102306143 0 0 0 0 105.32534811820369 32.175475794010062 0 32.175475794010062 6.8513539222085766 0 0 0 0 94.071236615389353 11.594229462959174 0 11.594229462959174 19.509376717999899 0 0 0 0 153.65432777599199 44.357688602351317 0 44.357688602351317 37.42129841915267 0 0 0 0 65.250052075563872 8.4342379953708075 0 8.4342379953708075 -14.762368504381783 0 0 0 0 67.142485581840447 -9.3370170865321285 0 -9.3370170865321285 1.7513077287044894 0 0 0 0 27.734705920683908 22.642679692184942 0 22.642679692184942 -8.1742199510133986 0 0 0 0 15.810931344994557 1.4373308775885505 0 1.4373308775885505 2.0098949616844672 0 0 0 0 53.117819567294646 9.9698837293234988 0 9.9698837293234988 -8.4633286979058653 0 0 0 0 60.512492894857132 18.922847479821314 0 18.922847479821314 0.64441695093427498 0 0 0 0 25.258958717138739 13.272838087879308 0 13.272838087879308 5.288542712979023 0 0 0 0 405.57867243254441 -197.79362644216621 0 -197.79362644216621 -219.35780277414963 0 0 0 0 8.8872291801672532 12.808786941472198 0 12.808786941472198 1.3649731238714868 0 0 0 0 14.75547353255115 -64.099850868017441 0 -64.099850868017441 -245.02244011721933 0 0 0 0 -0.85453783754162771 -0.65079790700462326 0 -0.65079790700462326 2.3593981101198866 0 0 0 0 327.27717745468544 122.84569635457811 0 122.84569635457811 1.8566455423651504 0 0 0 0 135.05354028646252 125.79912778055777 0 125.79912778055777 -20.323731660620865 0 0 0 0 180.6281626718046 261.51753141144491 0 261.51753141144491 -402.70899641750293 0 0 0 0 79.522488507287761 35.930345666868831 0 35.930345666868831 9.0799102316319917 0 0 0 0 50.974797418364687 1.9640157185236262 0 1.9640157185236262 -14.478649139662252 0 0 0 0 -10.213604782340553 287.96653336173313 0 287.96653336173313 -298.85912746041868 0 0 0 0 -63.583291040012227 310.30873411993548 0 310.30873411993548 212.2977473006149 0 0 0 0 149.5269508559013 69.939730771798168 0 69.939730771798168 -189.72794593595063 0 0 0 0 2727.6177841495155 -217.14417254803385 0 -217.14417254803385 16.184782323601087 0 0 0 0 64.764870929091558 21.952038358178015 0 21.952038358178015 -49.463153395446511 0 0 0 0 49.054351938561013 23.09921196856908 0 23.09921196856908 -0.83162376939162641 0 0 0 0 29.745042806926563 10.679922546952 0 10.679922546952 -3.757979286960353 0 0 0 0 52.802241054980271 28.018337680124596 0 28.018337680124596 13.370304131485621 0 0 0 0 3494.956552619431 -1603.7696888737032 0 -1603.7696888737032 145.79441210658024 0 0 0 0 30.629276543102606 11.940613883440847 0 11.940613883440847 9.74712740454288 0 0 0 0 17.260865000905554 7.4161546188800145 0 7.4161546188800145 10.960211895909165 0 0 0 0 495.71876062177762 184.92007841933992 0 184.92007841933992 -668.15522362938077 0 0 0 0 21.24060364537263 16.793431383083718 0 16.793431383083718 14.327868610913846 0 0 0 0 -0.79267575408098878 1.3322637092887568 0 1.3322637092887568 12.589963803363496 0 0 0 0 6.3969867791666815 5.3456238535591325 0 5.3456238535591325 16.051185954660152 0 0 0 0 3486.3270540058293 19.830838635457411 0 19.830838635457411 25.580733771892625 0 0 0 0 -470.23550340571819 138.39278626646492 0 138.39278626646492 3502.1662312064414 0 0 0 0 429.83767292891207 2549.3724881117623 0 2549.3724881117623 4426.2827425638761 0 0 0 0 3493.762251734508 3077.2791379932632 0 3077.2791379932632 478.17661058589579 0 0 0 0 1437.9404059057997 2884.2856971884958 0 2884.2856971884958 -505.0608320109751 0 0 0 0 866.83371784710835 1637.9604098693715 0 1637.9604098693715 869.28290939850831 0 0 0 0 1032.009045991384 760.88006984312983 0 760.88006984312983 878.3161871663815 0 0 0 0 10.825976191538178 1.6513357180416222 0 1.6513357180416222 -0.74178001345869049 0 0 0 0 -545.31544412509902 62.279926214688658 0 62.279926214688658 350.45760267600417 0 0 0 0 525.96297261918517 763.22587153026075 0 763.22587153026075 2038.9212663321964 0 0 0 0 497.98415298346322 1585.0058085931594 0 1585.0058085931594 926.7081015499175 0 0 0 0 -129.61956696452944 591.60234483901422 0 591.60234483901422 1023.5601041206144 0 0 0 0 110.13504115946853 111.14733918094043 0 111.14733918094043 264.77324599804473 0 0 0 0 -99.055342337830211 290.11753881225115 0 290.11753881225115 877.52673323651652 0 0 0 0 -91.246572219113844 654.81374725821468 0 654.81374725821468 779.25847043798558 0 0 0 0 579.98796611876969 332.94765451252556 0 332.94765451252556 593.59024018537593 0 0 0 0 405.78458719796981 735.16428524590197 0 735.16428524590197 1288.9441844961304 0 0 0 0 2202.4622106474653 1577.0482607921672 0 1577.0482607921672 504.30952935577875 0 0 0 0 1040.2698701898607 -74.624739170945645 0 -74.624739170945645 -485.87003970241881 0 0 0 0 -769.59387085389062 -65.260493579176568 0 -65.260493579176568 795.53348780950614 0 0 0 0 -1311.5422280866592 998.86298296641939 0 998.86298296641939 810.49688227107117 0 0 0 0 18.219659031565662 18.54228934068864 0 18.54228934068864 11.615043950260082 0 0 0 0 377.58702982705654 461.07707874604353 0 461.07707874604353 -610.22603481520673 0 0 0 0 280.12229157723232 1481.6962329791752 0 1481.6962329791752 -512.75938066934987 0 0 0 0 1200.4298960150227 -460.88127015388181 0 -460.88127015388181 -122.85527647454924 0 0 0 0 2155.4234113148486 219.12629326554679 0 219.12629326554679 -249.58598860968516 0 0 0 0 1424.7123337831727 -140.25277563393212 0 -140.25277563393212 225.53319218454379 0 0 0 0 1004.0000282300389 -125.56388904443139 0 -125.56388904443139 -885.21741011142353 0 0 0 0 3499.6107267306998 1632.1393839738259 0 1632.1393839738259 -1208.2184435639733 0 0 0 0 1310.9466536913351 1501.2713679184276 0 1501.2713679184276 -614.15378846912245 0 0 0 0 4809.9935274943691 -462.38836745020183 0 -462.38836745020183 -696.87923743204374 0 0 0 0 -959.95078451552217 2523.3329343194946 0 2523.3329343194946 306.14466908295799 0 0 0 0 8.0360227131399178 8.7221237781523868 0 8.7221237781523868 0.065142671507740779 0 0 0 0 -468.5853246029655 20.35509436147899 0 20.35509436147899 -37.279051961664663 0 0 0 0 205.57135735907559 91.793428659587789 0 91.793428659587789 -119.01557776319078 0 0 0 0 -0.2614386342342887 0.10335424772585533 0 0.10335424772585533 -7.4622874160327211 0 0 0 0 54.721278690434836 85.455673010526027 0 85.455673010526027 -187.87093752201827 0 0 0 0 700.6589746024647 179.16781624685404 0 179.16781624685404 -562.18398120454935 0 0 0 0 613.84358759948555 329.92412049186498 0 329.92412049186498 -312.77372029720243 0 0 0 0 491.65492187980817 94.207208119749794 0 94.207208119749794 -308.36784248377512 0 0 0 0 1788.0962434986541 -283.88318004278244 0 -283.88318004278244 -207.65139339248265 0 0 0 0 7.1256184643482037 8.416150899282508 0 8.416150899282508 8.4647736310305657 0 0 0 0 398.46053637574096 629.48650754442406 0 629.48650754442406 679.62869056836303 0 0 0 0 1567.5959869908747 607.13951801480789 0 607.13951801480789 -257.29738282834421 0 0 0 0 91.297903660699376 -207.97713156135364 0 -207.97713156135364 665.15384275084011 0 0 0 0 686.45472724423053 549.24002523114814 0 549.24002523114814 184.94817380214772 0 0 0 0 800.01019919065948 -237.5464790767337 0 -237.5464790767337 -48.802269145173341 0 0 0 0 62.880243587725317 -32.740845400156218 0 -32.740845400156218 -37.634652753783939 0 0 0 0 -207.30099834805878 -253.39562726150871 0 -253.39562726150871 38.030290024332999 0 0 0 0 -664.22476704250857 -88.018260701304143 0 -88.018260701304143 279.31761550684769 0 0 0 0 -1.3866647490506683 -2.8194403103793002 0 -2.8194403103793002 -24.287356518313718 0 0 0 0 -330.17763463578069 -147.4755953101114 0 -147.4755953101114 -46.251239942244865 0 0 0 0 8.5074242332098624 -0.62348409442807551 0 -0.62348409442807551 -45.29820424899961 0 0 0 0 -22.406394929913404 -190.74558039480689 0 -190.74558039480689 -325.8810500481859 0 0 0 0 102.9842174608757 -327.23641967029607 0 -327.23641967029607 -194.97793827686201 0 0 0 0 53.810881303303582 15.936073386646427 0 15.936073386646427 -25.049282225247662 0 0 0 0 75.829765081701325 19.906025081101532 0 19.906025081101532 -23.488820660028068 0 0 0 0 59.925582542113261 25.308462521546517 0 25.308462521546517 -18.7612872480953 0 0 0 0 7.193344771562975 25.429563688779893 0 25.429563688779893 -14.030583438467318 0 0 0 0 44.676779746873763 40.742395690034805 0 40.742395690034805 2.1406225371138135 0 0 0 0 88.747638104145153 43.554617476484054 0 43.554617476484054 -0.086904297228102223 0 0 0 0 140.64395058700575 45.919868106992908 0 45.919868106992908 -156.27649174181533 0 0 0 0 46.337001891119144 31.725866986407596 0 31.725866986407596 -55.273442505835874 0 0 0 0 55.509160198602117 26.955928491606727 0 26.955928491606727 -14.279898971095152 0 0 0 0 256.14816449983118 -137.62003716366053 0 -137.62003716366053 -460.46005348525796 0 0 0 0 58.920526389580118 154.25431619687936 0 154.25431619687936 -197.2455228889319 0 0 0 0 286.44616615687846 -41.594721345615142 0 -41.594721345615142 -67.410117145147495 0 0 0 0 -209.74881324248418 -128.44649901908355 0 -128.44649901908355 80.199344027197554 0 0 0 0 135.57998210041842 -17.272397329902788 0 -17.272397329902788 -142.52704251350571 0 0 0 0 53.246707496491183 4.9862503417388915 0 4.9862503417388915 -6.6474263434187355 0 0 0 0 -9.2978838137532875 94.110361704082052 0 94.110361704082052 -60.486020998996224 0 0 0 0 294.94419535403904 98.723685297283978 0 98.723685297283978 -60.887144810799754 0 0 0 0 63.406050949990458 -7.9694493136869511 0 -7.9694493136869511 -13.633212229048809 0 0 0 0 94.60454288879555 -47.015748979676374 0 -47.015748979676374 -23.421554107619158 0 0 0 0 93.009099050112127 -38.832155718251975 0 -38.832155718251975 -2.0822100270566892 0 0 0 0 77.139604994736146 -57.416849938994922 0 -57.416849938994922 4.7218294929398112 0 0 0 0 189.04253583832178 -26.937768599898789 0 -26.937768599898789 -17.939233553285991 0 0 0 0 127.76329101055634 48.916776883781395 0 48.916776883781395 -82.814198065156233 0 0 0 0 88.486965030005166 31.845520078078195 0 31.845520078078195 -43.612131868630513 0 0 0 0 10.917691606625867 23.266491792477932 0 23.266491792477932 -26.864499680581481 0 0 0 0 52.166321074830194 27.238759050871522 0 27.238759050871522 -30.545913314033328 0 0 0 0 71.994641383053931 68.683121672503148 0 68.683121672503148 -29.498826428156462 0 0 0 0 25.405969214452973 0.67510673283363509 0 0.67510673283363509 -9.1714991381279418 0 0 0 0 58.917290465680594 14.983195489357119 0 14.983195489357119 -4.7284473324446115 0 0 0 0 72.95612185979553 36.51285058067954 0 36.51285058067954 -51.887866146022212 0 0 0 0 49.485715823594774 9.1631642561204814 0 9.1631642561204814 -41.521192652540549 0 0 0 0 17.794078354781959 121.58391566170705 0 121.58391566170705 -93.698019920647639 0 0 0 0 -99.607379218471578 32.59282874084132 0 32.59282874084132 -11.651227384709188 0 0 0 0 17.283179734133824 9.6146190913587759 0 9.6146190913587759 -23.879085800255496 0 0 0 0 105.50244036339427 37.418047540397311 0 37.418047540397311 8.6207095752906753 0 0 0 0 16.311773398527006 20.535948080109534 0 20.535948080109534 -3.2031510325553505 0 0 0 0 55.410392125514988 23.38266105909717 0 23.38266105909717 -23.819053729928783 0 0 0 0 49.30844187711773 12.423128480915693 0 12.423128480915693 -16.499885694644036 0 0 0 0 63.537939870536157 11.77686044727913 0 11.77686044727913 -28.441214823757978 0 0 0 0 40.369103079691186 48.498593270567959 0 48.498593270567959 -33.170715480062576 0 0 0 0 65.896597040191622 36.355794199842762 0 36.355794199842762 -35.694104418824281 0 0 0 0 39.311348125746683 25.767751622041065 0 25.767751622041065 -15.737587033743328 0 0 0 0 48.045675162784391 15.094965417489675 0 15.094965417489675 -58.860889558251074 0 0 0 0 51.011810714646849 19.379055722099171 0 19.379055722099171 -5.9367744684639661 0 0 0 0 79.433042988308443 49.622083689755527 0 49.622083689755527 -47.859031771114132 0 0 0 0 72.282623597329803 58.277655314544972 0 58.277655314544972 -57.115065744068488 0 0 0 0 113.01069626745539 28.702172091194825 0 28.702172091194825 -56.089454931625369 0 0 0 0 97.451867094388945 44.659085303887878 0 44.659085303887878 -55.486569654424557 0 0 0 0 77.133587791453465 5.9799776386425947 0 5.9799776386425947 -61.691373896988807 0 0 0 0 43.713710752861466 -1.4423393881164515 0 -1.4423393881164515 -4.4849232769631691 0 0 0 0 71.135854871166885 -2.3184647235366356 0 -2.3184647235366356 -45.862329416233479 0 0 0 0 183.78875830973993 -7.1229141540293313 0 -7.1229141540293313 5.6728081189162367 0 0 0 0 50.554485389779984 -40.320198964178417 0 -40.320198964178417 -76.25238790273761 0 0 0 0 33.589430991807646 -14.876142488084284 0 -14.876142488084284 5.0408851223686284 0 0 0 0 145.10560476646788 125.16478933744929 0 125.16478933744929 65.114336508915585 0 0 0 0 80.283655347302556 72.222733180157775 0 72.222733180157775 68.473563892067432 0 0 0 0 20.792864742456459 -106.25392999798891 0 -106.25392999798891 -133.45949949653641 0 0 0 0 25.94397225755219 -13.909439476453667 0 -13.909439476453667 5.3638868974813505 0 0 0 0 92.61821526607946 -19.033403188216653 0 -19.033403188216653 -77.770389824258928 0 0 0 0 36.193635994914075 -24.365066849165942 0 -24.365066849165942 -59.014646272147729 0 0 0 0 139.57532704089499 -26.352155850864165 0 -26.352155850864165 -79.246629336309979 0 0 0 0 48.034574589186832 -14.371541806215419 0 -14.371541806215419 -82.842215650221078 0 0 0 0 41.648008176833628 -14.741863111166367 0 -14.741863111166367 1.4093044775463568 0 0 0 0 117.23256609024247 13.365441988693647 0 13.365441988693647 -42.540712299484085 0 0 0 0 254.74536535403331 -6.8982865952461907 0 -6.8982865952461907 -44.286351727074361 0 0 0 0 113.7813835776451 28.632412169143436 0 28.632412169143436 83.5583135332231 0 0 0 0 154.06430575911145 129.94935084732151 0 129.94935084732151 55.062915673232055 0 0 0 0 42.3009822141223 -25.299249483292897 0 -25.299249483292897 -26.237643192155701 0 0 0 0 2.901228565357151 0.26667054509397481 0 0.26667054509397481 -5.5184214951175665 0 0 0 0 65.292122360006033 60.067641761640516 0 60.067641761640516 11.65489647170034 0 0 0 0 133.10588451120566 80.76955195950768 0 80.76955195950768 -19.576199788300073 0 0 0 0 156.0582056521398 14.318536624040462 0 14.318536624040462 -66.010767877749231 0 0 0 0 116.38802755923234 16.064215084396892 0 16.064215084396892 -35.269797957651463 0 0 0 0 412.8908193301686 48.278253325201604 0 48.278253325201604 -127.379476691126 0 0 0 0 373.07787055183144 -5.9205794996653367 0 -5.9205794996653367 -110.86490219111693 0 0 0 0 366.22292295172883 -14.440984353357635 0 -14.440984353357635 -101.89560297668993 0 0 0 0 234.3189447683344 30.882146125267809 0 30.882146125267809 -28.265168341355093 0 0 0 0 373.47665669213893 126.38688554902228 0 126.38688554902228 21.045410305583346 0 0 0 0 232.99178604368626 34.343296684794723 0 34.343296684794723 8.884552644044561 0 0 0 0 43.628151605582389 -19.378276891936821 0 -19.378276891936821 -6.353222817252572 0 0 0 0 43.269179884016921 89.152439098544164 0 89.152439098544164 61.097948552726848 0 0 0 0 96.629016776416393 47.142486124800598 0 47.142486124800598 89.297085051281101 0 0 0 0 109.21025710352114 100.29374082004142 0 100.29374082004142 78.998878683861449 0 0 0 0 6.6408052833630791 -102.16686031785002 0 -102.16686031785002 -197.34420755416522 0 0 0 0 -14.624219241728497 -51.021808015585293 0 -51.021808015585293 -41.288113326953862 0 0 0 0 -50.596685988119816 -65.465569918862258 0 -65.465569918862258 -60.922686521115793 0 0 0 0 217.83787442994071 124.18536605690178 0 124.18536605690178 130.88620008959788 0 0 0 0 21.58746641445623 -10.848507570495046 0 -10.848507570495046 3.7113213724034395 0 0 0 0 219.01191478837359 118.45751894824383 0 118.45751894824383 94.169694534300106 0 0 0 0 422.55708327812317 277.63750670029981 0 277.63750670029981 196.46380614373402 0 0 0 0 14.832163710757982 -7.6319712433779152 0 -7.6319712433779152 3.1289660664928647 0 0 0 0 -30.052967417832406 -213.10156771347988 0 -213.10156771347988 -262.62522919769117 0 0 0 0 422.49303433303504 175.17757034277761 0 175.17757034277761 26.894624291194305 0 0 0 0 207.05247893726846 -501.7175046561058 0 -501.7175046561058 -18.265140787415476 0 0 0 0 -25.0381162362537 -40.965893461990646 0 -40.965893461990646 149.46745745865746 0 0 0 0 4.7137665361430834 -2.9561497683673643 0 -2.9561497683673643 2.6360549101161119 0 0 0 0 63.910978682086352 -25.670987479700216 0 -25.670987479700216 -156.23404954760827 0 0 0 0 -4.5675970097972822 19.371610454161498 0 19.371610454161498 88.786100912898519 0 0 0 0 57.153429354610125 -51.978673063363544 0 -51.978673063363544 -88.232069153258863 0 0 0 0 60.266778564332697 38.657236982963994 0 38.657236982963994 31.930818299985958 0 0 0 0 126.68660093335961 -8.0444105917785862 0 -8.0444105917785862 35.715624346026743 0 0 0 0 123.89478447777947 -120.50726202536362 0 -120.50726202536362 171.5505604538389 0 0 0 0 85.984354831120072 -91.966053794299512 0 -91.966053794299512 202.6356449784366 0 0 0 0 118.20093944547625 -85.997857852581902 0 -85.997857852581902 115.86496306047846 0 0 0 0 64.819572349783812 -94.673577784861095 0 -94.673577784861095 250.58595905904349 0 0 0 0 153.34893778247351 -229.03162137995696 0 -229.03162137995696 340.22812043459612 0 0 0 0 414.64965913753258 -264.24137642286382 0 -264.24137642286382 318.20878947468714 0 0 0 0 318.53987335351849 -134.75601213183086 0 -134.75601213183086 340.12512106543954 0 0 0 0 210.89012983799876 -267.57491710042603 0 -267.57491710042603 278.17061061451045 0 0 0 0 71.251228350757174 -13.36057152989005 0 -13.36057152989005 -24.817414000662666 0 0 0 0 168.47940554479919 -15.477836907271126 0 -15.477836907271126 -50.289052851532801 0 0 0 0 168.59414347307876 61.011355151245013 0 61.011355151245013 -9.5713719813365969 0 0 0 0 101.26884132099622 46.731562391735338 0 46.731562391735338 7.3688434922114538 0 0 0 0 91.93727246833987 -6.5878352699764946 0 -6.5878352699764946 -66.432056082787199 0 0 0 0 135.94649124110674 41.422980001051087 0 41.422980001051087 -11.924248290809146 0 0 0 0 105.52022619918989 -4.6574903190228483 0 -4.6574903190228483 81.637248758194261 0 0 0 0 152.91499598441533 -126.43087987788272 0 -126.43087987788272 122.92983191931523 0 0 0 0 139.44719795143192 0.085088826118379757 0 0.085088826118379757 -17.320097680793261 0 0 0 0 111.16280811790421 -141.06377401962277 0 -141.06377401962277 -59.457867977037068 0 0 0 0 126.76708113949962 16.614533751099088 0 16.614533751099088 -38.761570165160094 0 0 0 0 97.865576402917213 -18.47189997303721 0 -18.47189997303721 -30.825420886859405 0 0 0 0 149.30948045193691 -305.08523306811298 0 -305.08523306811298 -510.05213477382563 0 0 0 0 132.47925667263553 -196.31208310145792 0 -196.31208310145792 58.532214144644286 0 0 0 0 -55.730855181636798 -286.66638303067089 0 -286.66638303067089 43.157586539317208 0 0 0 0 -23.928252922123647 -445.17169190830998 0 -445.17169190830998 531.44969799888577 0 0 0 0 -259.79507750253151 -83.930765423228763 0 -83.930765423228763 557.07782092465368 0 0 0 0 -120.87968579861536 -55.41090953539242 0 -55.41090953539242 162.13416924222474 0 0 0 0 19.560361438871041 -166.08288797059447 0 -166.08288797059447 227.46303980470935 0 0 0 0 14.619603992116026 -88.781502028498608 0 -88.781502028498608 131.90407430098094 0 0 0 0 -73.627651161574249 -117.43550965220311 0 -117.43550965220311 221.25860249165459 0 0 0 0 18.172078099376449 -156.61915190393694 0 -156.61915190393694 170.56358708756625 0 0 0 0 121.2228347217906 -71.417337606749584 0 -71.417337606749584 90.40499494639721 0 0 0 0 243.65554012898247 -272.10644124908276 0 -272.10644124908276 297.18209316199136 0 0 0 0 148.22723595263778 -115.57740374528134 0 -115.57740374528134 147.1280042062358 0 0 0 0 98.77524114577318 -150.80237362928938 0 -150.80237362928938 165.08613332234972 0 0 0 0 117.78040873746613 -170.90375809401075 0 -170.90375809401075 186.47900572128265 0 0 0 0 325.21890953083721 -145.53043366336613 0 -145.53043366336613 28.708745005113997 0 0 0 0 183.36521691078815 -171.15369209592518 0 -171.15369209592518 -17.574394817464963 0 0 0 0 249.2534531311494 -247.50899452577619 0 -247.50899452577619 67.713119855697187 0 0 0 0 172.67471654318615 -185.0915583417559 0 -185.0915583417559 -2.5145037406437041 0 0 0 0 -145.61482753291057 -64.213800706285838 0 -64.213800706285838 35.120998953653725 0 0 0 0 -4.6282783409023978 -54.269580371786105 0 -54.269580371786105 8.5621696228599831 0 0 0 0 -105.08360590147413 -76.450784037754715 0 -76.450784037754715 167.74150036475294 0 0 0 0 35.196341740784192 -133.20181065746715 0 -133.20181065746715 124.38678365047963 0 0 0 0 96.858579622653679 -105.09983646562671 0 -105.09983646562671 53.051454686225952 0 0 0 0 330.35177188278067 -278.89071050909502 0 -278.89071050909502 283.75251540235604 0 0 0 0 298.3494576707626 -211.05721907343082 0 -211.05721907343082 142.06826944479053 0 0 0 0 243.39492011521997 -234.62777599404319 0 -234.62777599404319 372.50841573934758 0 0 0 0 244.32837307489399 -230.75360163574084 0 -230.75360163574084 283.75372413482182 0 0 0 0 143.78634937971947 -235.02715974171269 0 -235.02715974171269 306.37554164582821 0 0 0 0 164.09115645644033 -76.680859840503899 0 -76.680859840503899 205.26191670697381 0 0 0 0 159.27531200044541 -259.13627492754381 0 -259.13627492754381 260.40170538891834 0 0 0 0 235.5219214402714 -225.05278844928762 0 -225.05278844928762 253.57059257493302 0 0 0 0 698.82740717203706 -263.58218530747149 0 -263.58218530747149 44.701348750724719 0 0 0 0 0.35368025821962168 0.17599093010090883 0 0.17599093010090883 2.2388396332962088 0 0 0 0 333.85845508037528 -250.7489263284333 0 -250.7489263284333 -13.067214989269587 0 0 0 0 -256.17260831753322 -125.31052388539801 0 -125.31052388539801 225.17607250936726 0 0 0 0 284.80159396012823 -264.29897057189146 0 -264.29897057189146 97.32978865851328 0 0 0 0 235.66748121120872 -117.50678777303347 0 -117.50678777303347 -50.69824371676259 0 0 0 0 381.91817726151567 -261.9087719212348 0 -261.9087719212348 15.737377087780033 0 0 0 0 350.31011296973884 -304.57928333341169 0 -304.57928333341169 120.63890096699674 0 0 0 0 384.1883782756031 -273.93953248856087 0 -273.93953248856087 69.519929803804189 0 0 0 0 378.13995370117846 -316.4101123165965 0 -316.4101123165965 304.52638684913109 0 0 0 0 525.50846253744385 -371.90530712270083 0 -371.90530712270083 240.58592891608629 0 0 0 0 421.57161857316487 -313.52847336432029 0 -313.52847336432029 238.19715018555144 0 0 0 0 429.40024926412889 -386.17970584781165 0 -386.17970584781165 237.31135571312916 0 0 0 0 399.18463523926766 -303.12522349353821 0 -303.12522349353821 97.892289883401872 0 0 0 0 432.61565467406035 -309.83999790886355 0 -309.83999790886355 31.445613150662894 0 0 0 0 407.09751645853612 -313.39340561610743 0 -313.39340561610743 96.374060820558952 0 0 0 0 334.08731326210363 -231.96613333278583 0 -231.96613333278583 55.601838032273008 0 0 0 0 431.64333960435761 -342.96522765307418 0 -342.96522765307418 246.2363060669777 0 0 0 0 493.18230081264119 -328.59957495435901 0 -328.59957495435901 56.311420656867604 0 0 0 0 521.86888735312823 -169.31186815130059 0 -169.31186815130059 -19.222880219867875 0 0 0 0 60.186358639566606 -137.19041074284769 0 -137.19041074284769 84.033058186199924 0 0 0 0 0.31540283356498228 -1.6330482975088216 0 -1.6330482975088216 4.9257141248462943 0 0 0 0 227.24921650812894 -203.36413680617187 0 -203.36413680617187 -25.205374169199786 0 0 0 0 188.33149148000848 -119.46973813693694 0 -119.46973813693694 -100.8136467103086 0 0 0 0 35.829134958401482 -372.76452528367918 0 -372.76452528367918 382.17605281213764 0 0 0 0 -334.65742997164102 -118.48144831297139 0 -118.48144831297139 262.02961580691226 0 0 0 0 0.35231050899558614 -0.3484677568231902 0 -0.3484677568231902 2.6602947180906114 0 0 0 0 309.66497978923508 -313.63177990294753 0 -313.63177990294753 393.5478744971424 0 0 0 0 361.59136712866302 -205.59481625424655 0 -205.59481625424655 133.41856221349008 0 0 0 0 317.89797726480538 -270.63322091890223 0 -270.63322091890223 411.55558430559381 0 0 0 0 401.10299763646253 -189.01620565412031 0 -189.01620565412031 64.781339096398369 0 0 0 0 469.63768511690796 -459.95062425020024 0 -459.95062425020024 425.85373045070617 0 0 0 0 786.03132830652748 -397.59340577846194 0 -397.59340577846194 177.7458416060108 0 0 0 0 453.53125890627234 -340.12229785931981 0 -340.12229785931981 327.56900046994633 0 0 0 0 487.93713890378422 -310.84086502590981 0 -310.84086502590981 264.02102301035302 0 0 0 0 455.00284132743582 -347.91062808490187 0 -347.91062808490187 360.37601944027119 0 0 0 0 662.37748749111051 -394.02575831253671 0 -394.02575831253671 275.90349641505418 0 0 0 0 503.42009213670781 -270.54766668046307 0 -270.54766668046307 208.1424559793013 0 0 0 0 507.58543453490711 -318.48390452151034 0 -318.48390452151034 305.22745926015705 0 0 0 0 375.15444857565672 -262.87714425072409 0 -262.87714425072409 295.24598424742226 0 0 0 0 143.61128752568766 20.900215283549187 0 20.900215283549187 -58.377990060337197 0 0 0 0 550.32421004779826 -166.23520736072714 0 -166.23520736072714 -86.336898650788498 0 0 0 0 373.47906573136538 -127.9743771800164 0 -127.9743771800164 275.97467185455025 0 0 0 0 565.33725565146597 -197.59391709618831 0 -197.59391709618831 243.72751531588438 0 0 0 0 446.54958476779302 -418.14073199314225 0 -418.14073199314225 115.56960621825056 0 0 0 0 3.4320977594909721 -2.5651864998368605 0 -2.5651864998368605 -3.0745246250106621 0 0 0 0 37.064209726791887 153.37119543866902 0 153.37119543866902 -271.35309099779897 0 0 0 0 232.10205334676721 59.533657879735983 0 59.533657879735983 -239.23823559919038 0 0 0 0 209.46557346695045 154.79571824742379 0 154.79571824742379 -184.21815026011791 0 0 0 0 -5.471477905752181 29.240379419334204 0 29.240379419334204 -329.61328668532951 0 0 0 0 2.8688262691985358 -1.1605254573254529 0 -1.1605254573254529 -2.6035675177194051 0 0 0 0 581.84426307510057 -582.9377510666709 0 -582.9377510666709 484.07770728128526 0 0 0 0 58.572762085659633 55.026038287708616 0 55.026038287708616 -27.832513373009306 0 0 0 0 406.25818113527566 -402.05219114344891 0 -402.05219114344891 472.15383002138879 0 0 0 0 63.217890812795304 6.8216373867981019 0 6.8216373867981019 -101.47978795000745 0 0 0 0 296.39257540921426 -120.58900662427914 0 -120.58900662427914 76.162575700327579 0 0 0 0 3.0930995546044642 -4.8358698195410383 0 -4.8358698195410383 5.4349933312758356 0 0 0 0 4.8294088313665346 -8.5768236684362353 0 -8.5768236684362353 12.638166541022031 0 0 0 0 9.1910677939804373 -4.9815817531575703 0 -4.9815817531575703 10.578350679071264 0 0 0 0 71.137715174667392 -92.177812509687101 0 -92.177812509687101 -77.21925420070329 0 0 0 0 -50.048804928475874 -129.41093168730163 0 -129.41093168730163 -25.681368564253717 0 0 0 0 250.52142456844877 -149.95585916925893 0 -149.95585916925893 -84.190153265024492 0 0 0 0 69.259186316720843 -93.414835704869802 0 -93.414835704869802 -27.931198867303465 0 0 0 0 297.88852534739817 -196.45708943810268 0 -196.45708943810268 -60.879807033889847 0 0 0 0 214.97584577545058 -201.2484691300242 0 -201.2484691300242 3.8477214451404507 0 0 0 0 294.59407902364819 -207.1181604377457 0 -207.1181604377457 -39.312133274168445 0 0 0 0 344.73154594688822 -282.56951968106478 0 -282.56951968106478 44.353138093013513 0 0 0 0 186.46497273814566 -201.77228630829995 0 -201.77228630829995 5.1969892344359323 0 0 0 0 368.43805029822761 -191.66598119861919 0 -191.66598119861919 -27.253434077689917 0 0 0 0 230.76707269136477 -174.76918246513401 0 -174.76918246513401 -22.462324568447002 0 0 0 0 301.67492853413205 -186.51386120997313 0 -186.51386120997313 78.031013579755381 0 0 0 0 550.53852532907695 -299.10732360127895 0 -299.10732360127895 115.19177884536066 0 0 0 0 61.766953746962827 -180.55553942161532 0 -180.55553942161532 278.29294447437951 0 0 0 0 219.13205425159686 -398.40294994580972 0 -398.40294994580972 570.90571770940005 0 0 0 0 156.9646150256649 -77.003092110815487 0 -77.003092110815487 594.12279199675686 0 0 0 0 131.18756555637356 486.91237806114236 0 486.91237806114236 917.29755270927672 0 0 0 0 -0.21872131322017729 -1.1417280625876174 0 -1.1417280625876174 11.24911042388467 0 0 0 0 1152.5195915860859 -593.86797416527952 0 -593.86797416527952 384.37434300170753 0 0 0 0 396.7700758899482 -115.14653727653513 0 -115.14653727653513 103.90675375310639 0 0 0 0 311.36182480139723 -148.23640882183008 0 -148.23640882183008 95.899752234156949 0 0 0 0 2.0421542476577779 -9.4136412181271822 0 -9.4136412181271822 25.593237420449498 0 0 0 0 18.402417793870427 -25.062170264783163 0 -25.062170264783163 104.65441714850203 0 0 0 0 15.539920165728784 -8.745155869912832 0 -8.745155869912832 -1.2479519038284739 0 0 0 0 4.1013775677930084 11.090892379551178 0 11.090892379551178 269.14051567490787 0 0 0 0 -141.75483065582421 41.258559534567212 0 41.258559534567212 266.91280495459614 0 0 0 0 -550.45298439562612 -86.382670469518416 0 -86.382670469518416 590.11912414112589 0 0 0 0 -110.29011709292558 -51.028060968586146 0 -51.028060968586146 448.86776156345059 0 0 0 0 -661.13170011884904 -243.73699850050889 0 -243.73699850050889 433.09703267780787 0 0 0 0 -298.19451578845565 -428.47001489771174 0 -428.47001489771174 504.85788231096376 0 0 0 0 -770.8041480128586 -164.03831524487123 0 -164.03831524487123 1532.1056532610867 0 0 0 0 -415.77609216386736 -2082.4986106869537 0 -2082.4986106869537 1060.5281436253426 0 0 0 0 215.51811513876191 329.95824061658118 0 329.95824061658118 -240.89628164238729 0 0 0 0 32.792585266287105 2.4139867341946193 0 2.4139867341946193 -1.795025792130529 0 0 0 0 -109.57066878565001 -774.66341749740775 0 -774.66341749740775 -1320.9310297601255 0 0 0 0 -118.31143031097736 97.685431651166937 0 97.685431651166937 282.165211338468 0 0 0 0 144.33615785176426 -224.28720489707166 0 -224.28720489707166 271.89226908317028 0 0 0 0 -415.70264610043796 -530.76856830231372 0 -530.76856830231372 456.20889430648572 0 0 0 0 8.3376810691798404 1.8239577647896423 0 1.8239577647896423 -0.1859355322813574 0 0 0 0 4.4703988680779254 -0.88360397945879576 0 -0.88360397945879576 8.4704932929377215 0 0 0 0 17.477859851193898 -8.6598168150910624 0 -8.6598168150910624 10.098837008677947 0 0 0 0 0.32732511979816081 -132.2149559187734 0 -132.2149559187734 292.45884096608881 0 0 0 0 321.38153783846701 -73.894899302915519 0 -73.894899302915519 -90.221502454983238 0 0 0 0 448.18775155320378 -548.73881982324838 0 -548.73881982324838 596.5314675880054 0 0 0 0 710.66500912039146 -369.80350702847136 0 -369.80350702847136 43.007216904417021 0 0 0 0 811.81551111247541 -34.094209352529219 0 -34.094209352529219 -115.74724994038684 0 0 0 0 1521.2424040380274 304.19737239761309 0 304.19737239761309 309.49799834160478 0 0 0 0 967.28550357103086 -384.23202948720058 0 -384.23202948720058 200.35825324859775 0 0 0 0 1731.8783939896425 -100.75076694369562 0 -100.75076694369562 -82.553565045463756 0 0 0 0 1397.7379850442762 -144.86888072545071 0 -144.86888072545071 155.08296302860458 0 0 0 0 2848.7076513958518 -563.54543630823491 0 -563.54543630823491 -158.69422793207787 0 0 0 0 2994.5813374055965 778.81093579728599 0 778.81093579728599 125.7867687598773 0 0 0 0 2601.1577977514066 525.68812553057035 0 525.68812553057035 -14.399068927349163 0 0 0 0 2402.1338492340319 196.35593511107629 0 196.35593511107629 80.853171297834251 0 0 0 0 3008.6638161547767 1623.2104487434676 0 1623.2104487434676 1792.8370367970952 0 0 0 0 4860.6083449802827 927.6042752758558 0 927.6042752758558 118.58017374347935 0 0 0 0 3190.5813502497303 -1213.0547021836169 0 -1213.0547021836169 355.41035455257406 0 0 0 0 602.30037921798919 -829.26604840489324 0 -829.26604840489324 538.94362970949442 0 0 0 0 3284.8172485634077 1217.2527552244158 0 1217.2527552244158 1425.61371943168 0 0 0 0 19.217557332181599 3.6489334866148102 0 3.6489334866148102 0.035118853908841174 0 0 0 0 1896.2644287601327 3190.4923910070015 0 3190.4923910070015 769.60942043361683 0 0 0 0 2701.2972675868959 592.34399950342208 0 592.34399950342208 766.27635232949069 0 0 0 0 3272.415722406311 135.06362789686818 0 135.06362789686818 1666.6650186023849 0 0 0 0 3906.279158709312 507.65196340526859 0 507.65196340526859 532.93642118613661 0 0 0 0 2387.2927471413068 1238.1407056677542 0 1238.1407056677542 1089.7624459837452 0 0 0 0 2769.5345501521738 595.76204028835718 0 595.76204028835718 518.76867714247703 0 0 0 0 2818.146428545856 780.91866776252982 0 780.91866776252982 792.18513407949422 0 0 0 0 1702.8833444297545 643.67215782259336 0 643.67215782259336 646.40711175368403 0 0 0 0 2319.5866092067968 1004.9597116016495 0 1004.9597116016495 409.47629285248536 0 0 0 0 2628.452413168633 1359.1652219322064 0 1359.1652219322064 761.97511071868144 0 0 0 0 2512.0493316875586 1158.4356216122658 0 1158.4356216122658 775.21023226376883 0 0 0 0 2711.2012782285888 1073.5625948311144 0 1073.5625948311144 792.73799819745636 0 0 0 0 3498.5321033515061 726.12887887309387 0 726.12887887309387 -123.34795220780488 0 0 0 0 4.1350192749604187 0.34903015044191532 0 0.34903015044191532 3.9076492870146642 0 0 0 0 2408.7651502376129 658.42611625801032 0 658.42611625801032 110.10211239514271 0 0 0 0 3501.6250881158339 1274.133729361824 0 1274.133729361824 455.7626543513926 0 0 0 0 2057.8641798893759 1382.3678875635915 0 1382.3678875635915 666.44571870755226 0 0 0 0 2721.112034393896 1202.3359224987814 0 1202.3359224987814 560.80306191170916 0 0 0 0 2658.0914387373632 1642.0979478856409 0 1642.0979478856409 407.68198769809646 0 0 0 0 2123.1314304367634 845.07599346442851 0 845.07599346442851 523.50333896426469 0 0 0 0 2181.9944075830572 1166.6340011779607 0 1166.6340011779607 893.70319019226258 0 0 0 0 2271.2163667392365 1191.1733142032763 0 1191.1733142032763 617.23130749803249 0 0 0 0 2012.1849536105588 805.88476150597398 0 805.88476150597398 478.06591423308282 0 0 0 0 1780.8544819188276 889.29812691358222 0 889.29812691358222 493.38379870659332 0 0 0 0 1877.8501440550242 509.77639640715336 0 509.77639640715336 157.41015504343363 0 0 0 0 1630.6815062370272 320.64943324352009 0 320.64943324352009 69.570380786905162 0 0 0 0 1225.6609901225529 622.9781382990567 0 622.9781382990567 426.71375287009613 0 0 0 0 1719.7723661197215 1170.9608134043947 0 1170.9608134043947 335.59280375900221 0 0 0 0 908.74632245645466 312.60693919491473 0 312.60693919491473 212.00180987276872 0 0 0 0 2205.42810674866 2174.4961829402419 0 2174.4961829402419 1089.7937975828856 0 0 0 0 3490.876220714893 1785.693507338362 0 1785.693507338362 379.2466443440191 0 0 0 0 1875.1124333282505 1028.2111488907667 0 1028.2111488907667 466.44203507372947 0 0 0 0 1951.3243601436188 681.26893813513357 0 681.26893813513357 155.15516907489302 0 0 0 0 1850.2206795019665 491.20571346400834 0 491.20571346400834 491.62161896182215 0 0 0 0 -1285.1316940896468 1271.6487359724047 0 1271.6487359724047 1474.7399680833726 0 0 0 0 127.97717385695069 1585.6642341174402 0 1585.6642341174402 1220.8528780788145 0 0 0 0 7.4031813715725683 8.4255589608546479 0 8.4255589608546479 5.7712046562029844 0 0 0 0 3500.2367662625661 -997.05041448817622 0 -997.05041448817622 30.849754039619164 0 0 0 0 -284.34192214654286 13.235562653904935 0 13.235562653904935 599.94611835121577 0 0 0 0 2908.2087144227989 781.10491461770869 0 781.10491461770869 -1074.6631141558044 0 0 0 0 3204.0739612238722 -329.02034034722948 0 -329.02034034722948 -850.94941631188931 0 0 0 0 1730.0347661187188 836.27205893682719 0 836.27205893682719 -567.3034896969898 0 0 0 0 2778.261237550425 101.47186317118367 0 101.47186317118367 -861.43739068041111 0 0 0 0 3498.0722603916784 -996.58231060583398 0 -996.58231060583398 31.092650380627809 0 0 0 0 16.04500501221051 19.156349997205886 0 19.156349997205886 4.3720555977580204 0 0 0 0 733.41248808143337 372.81232701483395 0 372.81232701483395 -397.22860604027835 0 0 0 0 719.06363018559932 15.589392481886534 0 15.589392481886534 -165.72353932181522 0 0 0 0 1020.1985017013958 1302.0846467451577 0 1302.0846467451577 -237.63793209134724 0 0 0 0 10.678609576082422 9.2004686113573122 0 9.2004686113573122 4.6451033584543993 0 0 0 0 -797.85351015500419 1262.9972752810618 0 1262.9972752810618 -121.80332987321049 0 0 0 0 1842.9014981893597 -214.39073729596345 0 -214.39073729596345 -771.27471177313214 0 0 0 0 154.16427788578949 -33.198002110361472 0 -33.198002110361472 -569.43173578999176 0 0 0 0 1038.4566404087077 288.69028702746971 0 288.69028702746971 -487.28504293833498 0 0 0 0 807.82317736221194 -10.436796875102146 0 -10.436796875102146 -430.57287392848843 0 0 0 0 882.91122883223306 155.55882846182408 0 155.55882846182408 -202.86845486331828 0 0 0 0 878.5306037421276 55.851754974555746 0 55.851754974555746 -33.307336656302596 0 0 0 0 727.39422985623878 34.330247740734876 0 34.330247740734876 29.19192904233887 0 0 0 0 697.03643473136253 326.09412003163925 0 326.09412003163925 -299.97497374043587 0 0 0 0 967.99620210673902 337.46435575359658 0 337.46435575359658 -375.56879787271782 0 0 0 0 370.84192672389781 466.74935807341853 0 466.74935807341853 -394.27824932577857 0 0 0 0 667.77846200110434 138.2821955614254 0 138.2821955614254 -54.306467950676961 0 0 0 0 -341.94999775375663 -254.7850160528227 0 -254.7850160528227 114.61267741625943 0 0 0 0 576.17117045700343 -115.21992585093585 0 -115.21992585093585 132.11798489687169 0 0 0 0 1049.4712853072606 -591.31224221300226 0 -591.31224221300226 346.2509752189053 0 0 0 0 351.04213377932683 -87.816841681895994 0 -87.816841681895994 653.176509029101 0 0 0 0 1054.7837241347142 -517.68429022153418 0 -517.68429022153418 591.7348486747378 0 0 0 0 600.22060875871284 226.92289364143198 0 226.92289364143198 42.551360538055178 0 0 0 0 692.7223961523423 -146.87223707786393 0 -146.87223707786393 378.13922810037184 0 0 0 0 759.46847335588336 -121.25958321362759 0 -121.25958321362759 357.70134070465156 0 0 0 0 837.06936510019841 -279.63915527555855 0 -279.63915527555855 123.88722906876001 0 0 0 0 915.62048278533439 -417.32404754363824 0 -417.32404754363824 358.11573278305991 0 0 0 0 869.57098915696952 -55.240228597474697 0 -55.240228597474697 -91.62443872613315 0 0 0 0 858.26085757778867 -307.13912895659149 0 -307.13912895659149 97.591536097039352 0 0 0 0 1.5880404168238758 -0.78723552922744489 0 -0.78723552922744489 5.116202055597487 0 0 0 0 -315.16238519757371 85.79682240162947 0 85.79682240162947 249.08205823901335 0 0 0 0 -0.1445016325388 0.94573816894440021 0 0.94573816894440021 2.0612832204363283 0 0 0 0 1371.7317622481714 -284.44712766527073 0 -284.44712766527073 -55.532244904408344 0 0 0 0 -94.710583904623036 -59.752870959079019 0 -59.752870959079019 -88.063594438031942 0 0 0 0 -199.51879527682536 -161.32470093112249 0 -161.32470093112249 27.175366263716569 0 0 0 0 11.086820648240973 -3.1939965514598043 0 -3.1939965514598043 11.63227698879416 0 0 0 0 0.70830308331089975 -0.71560553234508451 0 -0.71560553234508451 8.2971083232415381 0 0 0 0 411.08070111500467 -145.80816087204718 0 -145.80816087204718 141.92641660668187 0 0 0 0 1.8538314698385054 -4.2659746461757866 0 -4.2659746461757866 9.4397021210762873 0 0 0 0 1010.7191324692249 -233.83690120931806 0 -233.83690120931806 -36.065000992306977 0 0 0 0 1000.9936821850738 -124.32720270619131 0 -124.32720270619131 144.30293747213068 0 0 0 0 1158.226267169458 -82.624628475070836 0 -82.624628475070836 -172.24960119605669 0 0 0 0 946.22052886231813 -211.07583659760814 0 -211.07583659760814 90.764763401155506 0 0 0 0 919.06622033001349 -191.18472675663065 0 -191.18472675663065 114.10882510811177 0 0 0 0 897.08371847966873 -26.171381592058879 0 -26.171381592058879 -231.79656219502931 0 0 0 0 918.15894443857633 50.255581647308645 0 50.255581647308645 -36.418923588995085 0 0 0 0 8.8616474340951488 2.5207828398638172 0 2.5207828398638172 1.9024873939580962 0 0 0 0 406.48047201174757 -418.38337537323741 0 -418.38337537323741 303.03141312898742 0 0 0 0 1081.6602601539264 -231.18542069999194 0 -231.18542069999194 130.68922049535831 0 0 0 0 413.94890681072047 520.29080090336174 0 520.29080090336174 -129.96572735030463 0 0 0 0 1126.1504421681459 -732.55470672997478 0 -732.55470672997478 430.0929424933629 0 0 0 0 11.494042511804293 0.84925649070458853 0 0.84925649070458853 0.23005661587860438 0 0 0 0 1636.6354504553562 10.811666543968386 0 10.811666543968386 -91.496525276758348 0 0 0 0 652.21100835815787 92.289759200256412 0 92.289759200256412 653.11085158952483 0 0 0 0 812.53003362060008 -523.88404902287948 0 -523.88404902287948 332.02210668340626 0 0 0 0 33.610214971709411 -136.88655281408683 0 -136.88655281408683 256.55108043391238 0 0 0 0 112.03488328853791 45.062499981346718 0 45.062499981346718 151.55084872454972 0 0 0 0 -308.48052933547524 42.994811256154208 0 42.994811256154208 271.84419667809016 0 0 0 0 428.59896203828475 -289.15097206009023 0 -289.15097206009023 87.381986660198891 0 0 0 0 -130.05678122198151 231.11200303524538 0 231.11200303524538 -36.896342536741713 0 0 0 0 -83.303743279228001 5.1674454453877843 0 5.1674454453877843 82.501761025834639 0 0 0 0 23.417546272427444 11.666297066562493 0 11.666297066562493 53.880170474878469 0 0 0 0 9.2803882190432887 60.69324348934947 0 60.69324348934947 28.164057778144524 0 0 0 0 15.075371059447843 16.116152683037804 0 16.116152683037804 3.2122729194916451 0 0 0 0 -48.820126714006165 178.32237995443938 0 178.32237995443938 -183.34110420456091 0 0 0 0 -30.563353889030623 30.564033220093734 0 30.564033220093734 8.7122139420762323 0 0 0 0 -43.661232134681086 -272.35347321110157 0 -272.35347321110157 182.39238612114514 0 0 0 0 168.85710745929495 -10.483122306552673 0 -10.483122306552673 -59.088010591311104 0 0 0 0 75.697360461013488 -10.282565162798164 0 -10.282565162798164 -59.064472508725885 0 0 0 0 -21.172978788805722 48.574493858097412 0 48.574493858097412 41.728585876534908 0 0 0 0 -0.4551850460871365 6.3864670327319786 0 6.3864670327319786 0.036062974048714835 0 0 0 0 13.389140820779176 67.862731510002618 0 67.862731510002618 -19.465793793204284 0 0 0 0 29.04199137118222 33.324566706492604 0 33.324566706492604 -7.2090042033590684 0 0 0 0 35.511773685315802 78.595379546972197 0 78.595379546972197 -19.14189315474141 0 0 0 0 115.65673837494614 78.799276752224614 0 78.799276752224614 -24.506492406914731 0 0 0 0 40.38166929426734 44.101876976021231 0 44.101876976021231 -25.291093248418292 0 0 0 0 8.4217487281684953 49.349854977321229 0 49.349854977321229 -22.454020486688933 0 0 0 0 12.336180159472406 70.152726141792755 0 70.152726141792755 -0.77133956384932389 0 0 0 0 61.783940390307052 60.652337669762801 0 60.652337669762801 -20.885359717731358 0 0 0 0 24.710100373550404 75.98517105074734 0 75.98517105074734 -11.024452491500597 0 0 0 0 21.786242391699943 46.047832509411364 0 46.047832509411364 -15.952769795989298 0 0 0 0 30.507468757387123 49.075033857466138 0 49.075033857466138 12.830547388616633 0 0 0 0 63.096078336617211 50.390499284498901 0 50.390499284498901 34.01284035734534 0 0 0 0 -21.912238696743316 109.98497916323231 0 109.98497916323231 75.999347961653029 0 0 0 0 3.1416865681140695 7.113010595337304 0 7.113010595337304 1.4104656853902204 0 0 0 0 -19.462454070927322 113.83152410786215 0 113.83152410786215 25.972856097687327 0 0 0 0 98.530152393844105 237.85258554634629 0 237.85258554634629 155.47633801315078 0 0 0 0 276.91862741387035 157.72156996087688 0 157.72156996087688 -51.716196415231479 0 0 0 0 319.25296798339804 104.4037795633717 0 104.4037795633717 -111.37772830760332 0 0 0 0 308.20922377880572 111.65747254162943 0 111.65747254162943 -29.83088805774878 0 0 0 0 -344.78372227598356 -20.909242046242071 0 -20.909242046242071 390.46351815980233 0 0 0 0 -256.40845912268924 120.48225531460866 0 120.48225531460866 192.27031820725188 0 0 0 0 1329.8666169112546 154.52160059175822 0 154.52160059175822 -147.17240273778771 0 0 0 0 489.92438758172852 660.07416235068013 0 660.07416235068013 172.0693089922388 0 0 0 0 661.18650015291314 -424.94048472872964 0 -424.94048472872964 325.13975289119026 0 0 0 0 1064.1635647718053 -481.83803206987795 0 -481.83803206987795 27.970521688642293 0 0 0 0 544.23761641076771 -299.90917261951563 0 -299.90917261951563 -34.516328678063019 0 0 0 0 749.62908366877718 -86.845584212438098 0 -86.845584212438098 -119.27836290954747 0 0 0 0 211.92167765459703 -156.626559585834 0 -156.626559585834 -66.998497286360362 0 0 0 0 662.78551530764423 -462.30196583703673 0 -462.30196583703673 -71.59552278242063 0 0 0 0 591.3763885194362 -259.86415189236504 0 -259.86415189236504 -163.09396270253751 0 0 0 0 674.72288915668287 -420.12062640518116 0 -420.12062640518116 57.28717238763511 0 0 0 0 1092.3770560463954 -296.43708873007245 0 -296.43708873007245 -161.03531736820264 0 0 0 0 382.5360959716395 35.733713360805496 0 35.733713360805496 43.156568619926475 0 0 0 0 19.913746551765598 -18.005987610625652 0 -18.005987610625652 53.566374012363895 0 0 0 0 505.85872837288207 -270.29903520395294 0 -270.29903520395294 21.280366610935744 0 0 0 0 179.33266711276701 -20.806093155603776 0 -20.806093155603776 -27.273284024131499 0 0 0 0 261.61019992124193 -152.96767986446866 0 -152.96767986446866 23.483536503776122 0 0 0 0 411.22967171664209 -350.77240402895677 0 -350.77240402895677 238.2032833216881 0 0 0 0 265.56039985502139 -139.84052673418773 0 -139.84052673418773 66.322125073681605 0 0 0 0 627.96142909317155 -296.81755739216612 0 -296.81755739216612 -5.455322935962613 0 0 0 0 35.385804633060616 -14.273821803850069 0 -14.273821803850069 -15.356193979303498 0 0 0 0 12.852800764925181 -12.945468812121195 0 -12.945468812121195 -2.3164322137756219 0 0 0 0 80.298732020522493 -76.249667015148134 0 -76.249667015148134 78.094035740601612 0 0 0 0 -12.377292698310157 -10.408054556423849 0 -10.408054556423849 32.382335874930504 0 0 0 0 -1.9408329579091514 2.3411536202656862 0 2.3411536202656862 17.138986439683094 0 0 0 0 0.013911523024059846 -0.33983622602865182 0 -0.33983622602865182 -0.69841685468095127 0 0 0 0 4.9509476226371589 21.080775264659223 0 21.080775264659223 13.621411634500873 0 0 0 0 16.3161450695981 3.6510564283739573 0 3.6510564283739573 -11.136307658946574 0 0 0 0 -7.0089337480176255 32.302568595111325 0 32.302568595111325 -12.781472923049478 0 0 0 0 -0.61977356930037786 9.5430070409693144 0 9.5430070409693144 -10.144854574762576 0 0 0 0 -0.30709821360048117 0.45243165078853753 0 0.45243165078853753 -0.62046570805802759 0 0 0 0 31.80611736061423 -7.6010924352536691 0 -7.6010924352536691 -5.525366743834744 0 0 0 0 61.590299912324326 33.762857659568986 0 33.762857659568986 -97.338324648930723 0 0 0 0 -5.3656787409449294 23.365503395988384 0 23.365503395988384 -1.1129395883117468 0 0 0 0 15.533568489542972 36.941314764434082 0 36.941314764434082 83.936759531510234 0 0 0 0 3.1110213849012212 -2.4342538570389145 0 -2.4342538570389145 -1.0459071855008468 0 0 0 0 38.08014393747311 -77.917322379781353 0 -77.917322379781353 24.341696228505953 0 0 0 0 10.22871314930353 6.9292953962162755 0 6.9292953962162755 -6.9690705934291373 0 0 0 0 180.19353184306055 -101.10525321758178 0 -101.10525321758178 -280.50380660672272 0 0 0 0 -9.5613847069871554 11.460154494609924 0 11.460154494609924 3.7543509323277249 0 0 0 0 5.270367992183612 0.94608886707263373 0 0.94608886707263373 -1.5974598600323926 0 0 0 0 7.9387009195611427 16.335388951265941 0 16.335388951265941 -19.687150250186278 0 0 0 0 18.212460654580894 7.7615192368277537 0 7.7615192368277537 -9.4736287225315099 0 0 0 0 -74.177872978803862 -241.15473825263416 0 -241.15473825263416 234.1293413213898 0 0 0 0 218.09213740047562 -95.932641244781735 0 -95.932641244781735 -383.43292976086082 0 0 0 0 12.304846219358765 -3.2005984304997721 0 -3.2005984304997721 0.37014548989056806 0 0 0 0 -31.631749018717528 5.1836225645324703 0 5.1836225645324703 8.8861211612211264 0 0 0 0 160.10002347448335 -46.874716258937497 0 -46.874716258937497 139.05322856670296 0 0 0 0 212.23653937981874 -41.407705574401007 0 -41.407705574401007 -42.63891804058585 0 0 0 0 36.06266659198036 -38.764380705210897 0 -38.764380705210897 76.851009777458557 0 0 0 0 -29.144235248521909 104.73750294945876 0 104.73750294945876 2.4529987210520403 0 0 0 0 27.65160587779323 4.0280990840862714 0 4.0280990840862714 -2.7037899211552103 0 0 0 0 -127.73716694986797 948.87962434788096 0 948.87962434788096 -79.852635134184311 0 0 0 0 189.58694039833426 207.17992158006473 0 207.17992158006473 -707.64542959364371 0 0 0 0 -21.971120663823967 -53.124502619401028 0 -53.124502619401028 -968.70845762242971 0 0 0 0 459.22947553109407 -961.24451282094742 0 -961.24451282094742 -607.32516551032791 0 0 0 0 -64.939127481135074 315.03707654573373 0 315.03707654573373 -645.87280117491355 0 0 0 0 6.8165576377163291 -0.13255876650218745 0 -0.13255876650218745 -5.0671686578517416 0 0 0 0 182.7613571717402 -198.83997075649495 0 -198.83997075649495 -134.49282533633323 0 0 0 0 100.92279514833353 -172.71932435144117 0 -172.71932435144117 165.89200755542583 0 0 0 0 15.098991648347692 -52.460758957533017 0 -52.460758957533017 10.430281349394136 0 0 0 0 66.003722591090991 -33.130903000474063 0 -33.130903000474063 -498.91353048364545 0 0 0 0 -118.42267961651532 45.377450985859014 0 45.377450985859014 -21.821148971114781 0 0 0 0 283.08460207212374 246.73412897646517 0 246.73412897646517 38.946259236078731 0 0 0 0 102.89996714603421 2.5187447666526168 0 2.5187447666526168 -12.021721154690567 0 0 0 0 172.28510525942329 -32.123571178139173 0 -32.123571178139173 -73.598463793261999 0 0 0 0 184.55662829361245 -94.72584225497485 0 -94.72584225497485 -41.266499943606505 0 0 0 0 187.27563440357221 -89.676949701706462 0 -89.676949701706462 -186.78364784408768 0 0 0 0 177.3244657943078 -24.216350765119842 0 -24.216350765119842 -61.199557879353961 0 0 0 0 200.77856198387417 -27.709327508860042 0 -27.709327508860042 -146.82496124559475 0 0 0 0 173.25136166209768 60.454940932018189 0 60.454940932018189 22.715511860214065 0 0 0 0 187.740763586311 -31.417964378987563 0 -31.417964378987563 -50.944143603697739 0 0 0 0 236.49318221066278 11.887441366425719 0 11.887441366425719 -85.549660441602555 0 0 0 0 263.50512392421842 -3.1995489933019599 0 -3.1995489933019599 -7.1330893206504697 0 0 0 0 368.4887948761625 70.153523647602924 0 70.153523647602924 -13.593182731751085 0 0 0 0 368.29373051676521 71.939168725131935 0 71.939168725131935 -29.277194871812753 0 0 0 0 100.41984740832686 54.489530234281801 0 54.489530234281801 -297.53169596072894 0 0 0 0 -45.550564789485634 -10.994512805684508 0 -10.994512805684508 -95.674842047810216 0 0 0 0 163.51677539555021 -3.565330554247339 0 -3.565330554247339 -168.92077104833555 0 0 0 0 154.95341375423232 -72.06163726192699 0 -72.06163726192699 -170.86516826769821 0 0 0 0 166.66935854626354 -25.142904154983626 0 -25.142904154983626 -142.56284527324806 0 0 0 0 153.52563267795267 -12.402645516210214 0 -12.402645516210214 -61.419707436535646 0 0 0 0 150.00868870551039 -2.625836940660065 0 -2.625836940660065 36.121088796826371 0 0 0 0 174.32335235956089 -46.143786126761825 0 -46.143786126761825 -28.399994012217576 0 0 0 0 48.255262231706183 -11.683968674485413 0 -11.683968674485413 -32.714475170698279 0 0 0 0 208.80656406586058 29.346502663275714 0 29.346502663275714 -25.35737439529521 0 0 0 0 65.584332528303321 -92.357997113864769 0 -92.357997113864769 -36.263595878237538 0 0 0 0 57.768181608498253 -39.475860398222267 0 -39.475860398222267 4.2429523203873032 0 0 0 0 70.331427271503344 -71.696221049752239 0 -71.696221049752239 86.80975681057771 0 0 0 0 154.41263428786988 -84.452519609340015 0 -84.452519609340015 79.200341932653828 0 0 0 0 231.72756865783526 -176.62616200756662 0 -176.62616200756662 163.56794969843668 0 0 0 0 195.54492320488134 -28.970076296782281 0 -28.970076296782281 50.1832409833969 0 0 0 0 256.63072317235049 15.720750752303246 0 15.720750752303246 59.608355303387725 0 0 0 0 269.07696140751159 -49.156563525086767 0 -49.156563525086767 159.39497646787208 0 0 0 0 264.73690048814024 -115.0816006826567 0 -115.0816006826567 94.966998413132615 0 0 0 0 274.54918342747078 -46.782589394605793 0 -46.782589394605793 15.770846928782248 0 0 0 0 35.238244708314596 -30.007099083708454 0 -30.007099083708454 47.264314557395664 0 0 0 0 14.673129935206589 -14.227424841921959 0 -14.227424841921959 82.729251077645586 0 0 0 0 1.1247403573888732 -31.922773334352087 0 -31.922773334352087 212.24731063940271 0 0 0 0 31.628650567916338 -76.066219164936228 0 -76.066219164936228 222.67916911706288 0 0 0 0 39.265943495818647 33.876721570937661 0 33.876721570937661 38.929998729054205 0 0 0 0 4.1749220782526457 1.277000571329399 0 1.277000571329399 1.0166527234094147 0 0 0 0 1.5922802466316179 0.84891195407650066 0 0.84891195407650066 -0.23368504988928862 0 0 0 0 451.11114348761748 62.258854153875745 0 62.258854153875745 -29.653098151167796 0 0 0 0 356.51866915827259 24.625158723039988 0 24.625158723039988 25.883818143777262 0 0 0 0 355.17400881176945 26.37687726746185 0 26.37687726746185 31.693610733794003 0 0 0 0 243.86876121194018 63.323381679755812 0 63.323381679755812 19.508683118186582 0 0 0 0 354.10664843853192 -20.447299014788314 0 -20.447299014788314 63.792340898081875 0 0 0 0 275.45051388634937 18.006422558312053 0 18.006422558312053 57.713587734428074 0 0 0 0 403.23199641510064 30.028478732853159 0 30.028478732853159 25.151505855536016 0 0 0 0 425.31424083951561 -12.870568828774765 0 -12.870568828774765 105.60028084068404 0 0 0 0 467.44388720892493 -8.3367590406992349 0 -8.3367590406992349 -6.7590147732193486 0 0 0 0 495.28873074398734 -64.943705467222173 0 -64.943705467222173 90.631038026256419 0 0 0 0 601.68374970882701 -55.814812416495613 0 -55.814812416495613 -113.14959386217015 0 0 0 0 584.02191946198764 -8.2334896756478884 0 -8.2334896756478884 -95.029465489799804 0 0 0 0 535.16339064753083 -78.597717718753529 0 -78.597717718753529 -78.844799267531016 0 0 0 0 486.58506367924292 16.354609719083783 0 16.354609719083783 -20.619890529065515 0 0 0 0 524.66757880504156 119.06407690383276 0 119.06407690383276 -100.49574425021365 0 0 0 0 572.48761171508409 33.090937846738484 0 33.090937846738484 -130.81863365664231 0 0 0 0 784.83248198405909 48.010146019336844 0 48.010146019336844 -170.80314038158167 0 0 0 0 757.860635157655 -218.57212399428431 0 -218.57212399428431 -69.807863532837473 0 0 0 0 426.70176165771477 -176.69906575822597 0 -176.69906575822597 43.615740451891725 0 0 0 0 1512.3433799890295 41.545820264897202 0 41.545820264897202 -247.62929111577068 0 0 0 0 618.75894322928707 128.70052659623252 0 128.70052659623252 -194.47311477024778 0 0 0 0 581.9953358360699 131.65264740381554 0 131.65264740381554 -99.191886087242494 0 0 0 0 134.4202698114521 -86.980582270711579 0 -86.980582270711579 -33.034793401791831 0 0 0 0 -94.873804115180519 46.25258780602735 0 46.25258780602735 75.848369880720384 0 0 0 0 411.91903822835002 -210.31620576954174 0 -210.31620576954174 49.990443027711535 0 0 0 0 135.09670562519977 -104.2878706428819 0 -104.2878706428819 49.260769489636914 0 0 0 0 451.30755972099132 -142.70338290069571 0 -142.70338290069571 -40.105199651282646 0 0 0 0 454.52889036650731 -90.671085087853044 0 -90.671085087853044 -92.168062283804375 0 0 0 0 0.66492717292917636 -5.6525283125525627 0 -5.6525283125525627 4.4827379559865328 0 0 0 0 17.935532157842772 -127.63127418073054 0 -127.63127418073054 71.778662534717114 0 0 0 0 190.27755647445065 24.891777134640051 0 24.891777134640051 -40.450726065143499 0 0 0 0 51.500805277467407 -50.0098959162857 0 -50.0098959162857 6.2290113178396496 0 0 0 0 391.35392185982982 -46.013996108658148 0 -46.013996108658148 -39.315499678536014 0 0 0 0 3.4978188926542613 -5.1399381096563364 0 -5.1399381096563364 3.5958676438005988 0 0 0 0 456.42498539224221 34.504132213498735 0 34.504132213498735 -13.70735598113879 0 0 0 0 -46.26352415792303 -112.02983769499122 0 -112.02983769499122 21.917114765267115 0 0 0 0 181.74295244082305 46.672786092125989 0 46.672786092125989 7.8309149150309167 0 0 0 0 213.3760751600812 33.723097248703198 0 33.723097248703198 -46.893622722042892 0 0 0 0 0.42049157273575904 -0.98218666649844 0 -0.98218666649844 -2.6118416530169419 0 0 0 0 155.19630494225885 0.2630777446116781 0 0.2630777446116781 -75.365404455370026 0 0 0 0 160.34945537074145 39.789876827958324 0 39.789876827958324 -27.856647249249818 0 0 0 0 149.02859582784822 -4.2809396698355613 0 -4.2809396698355613 -42.520576081769036 0 0 0 0 86.446941391374367 92.00373801458079 0 92.00373801458079 -26.216389565933241 0 0 0 0 122.75209760318376 16.683295002504337 0 16.683295002504337 17.552282914092018 0 0 0 0 104.48602230012875 -0.86945556397859036 0 -0.86945556397859036 17.33303147510469 0 0 0 0 283.9407638161756 38.427693831738907 0 38.427693831738907 -71.807920979028495 0 0 0 0 22.072233982035083 2.3601561279926742 0 2.3601561279926742 -10.490879056580212 0 0 0 0 132.37585677683819 1.422464590634263 0 1.422464590634263 -19.946232052218875 0 0 0 0 29.398972368210444 46.345451309472594 0 46.345451309472594 -24.304213728275041 0 0 0 0 192.01543293317809 -31.696698001784171 0 -31.696698001784171 -65.647595551521249 0 0 0 0 74.483233520273643 16.065683082988471 0 16.065683082988471 -36.774627068065456 0 0 0 0 166.37634226435694 55.78619965406142 0 55.78619965406142 -369.49217378522917 0 0 0 0 211.48612556713124 191.69385253987002 0 191.69385253987002 -71.336635838198688 0 0 0 0 274.50591477510898 -66.515000296991388 0 -66.515000296991388 -366.97036091626705 0 0 0 0 -1.4245878994531722 2.8319450032546811 0 2.8319450032546811 -1.7473900336572754 0 0 0 0 40.531097934715945 -107.26631603392934 0 -107.26631603392934 -239.37125128005755 0 0 0 0 43.836346207499446 -75.242045634100577 0 -75.242045634100577 -83.825113675926332 0 0 0 0 144.2080371882912 134.77351850950436 0 134.77351850950436 -597.58539753273544 0 0 0 0 132.20702938215254 129.21773417248914 0 129.21773417248914 -110.28461262209203 0 0 0 0 33.171598590248323 161.4398568904071 0 161.4398568904071 -95.271025636964623 0 0 0 0 41.64400175823539 213.95404036728178 0 213.95404036728178 22.187047837847786 0 0 0 0 144.81102979119896 41.085315904198978 0 41.085315904198978 281.10957330733072 0 0 0 0 71.665848246244423 581.5263091256129 0 581.5263091256129 -126.91078383040258 0 0 0 0 61.371790737728588 128.30300306263962 0 128.30300306263962 59.292749374578307 0 0 0 0 257.35857463065986 191.19332831766769 0 191.19332831766769 -34.234076981016187 0 0 0 0 4.8335175071489971 0.6656518658080337 0 0.6656518658080337 -0.3396790763680464 0 0 0 0 114.64998971239402 198.11041122633742 0 198.11041122633742 9.2876537756569633 0 0 0 0 290.33664590425906 161.24996941990366 0 161.24996941990366 -38.881973804807785 0 0 0 0 223.36536480866198 166.48662133358448 0 166.48662133358448 -38.11273798136699 0 0 0 0 221.89006797521142 183.51540890757497 0 183.51540890757497 -30.083376035730907 0 0 0 0 246.77614547975099 189.87671494897313 0 189.87671494897313 -34.165003353567954 0 0 0 0 273.87319733369804 167.11318681199919 0 167.11318681199919 -25.547157013696051 0 0 0 0 226.86653724203279 187.71543051033404 0 187.71543051033404 -28.017457940397435 0 0 0 0 234.29690659632615 180.3512471431095 0 180.3512471431095 -34.705936731528709 0 0 0 0 251.20811127372872 187.05911116300467 0 187.05911116300467 -37.645039589446242 0 0 0 0 242.97634110259969 213.24506881273373 0 213.24506881273373 9.2546606027553935 0 0 0 0 174.19908677467902 166.35458132682743 0 166.35458132682743 -10.480380737000814 0 0 0 0 292.27564577534213 177.51531862665252 0 177.51531862665252 -19.52747823519303 0 0 0 0 256.82132505741174 197.95001945597141 0 197.95001945597141 -24.249413964935229 0 0 0 0 283.30885505050537 158.48920866441222 0 158.48920866441222 8.2233615190853016 0 0 0 0 287.49862031541852 178.47210218547661 0 178.47210218547661 -16.078334822119359 0 0 0 0 91.075046043632028 175.09903985820347 0 175.09903985820347 -16.944497949109063 0 0 0 0 2.6868018925633805 172.20571659514007 0 172.20571659514007 50.589811419027683 0 0 0 0 176.60852152203006 121.10712297281407 0 121.10712297281407 3.3495288568374235 0 0 0 0 191.91405199186556 181.85178938879744 0 181.85178938879744 -23.533750105467334 0 0 0 0 134.56383254513275 201.44657927849266 0 201.44657927849266 -2.9847692815874325 0 0 0 0 65.67564390404732 123.47257058959713 0 123.47257058959713 -21.552210587501122 0 0 0 0 -158.28114394933073 73.865383884010043 0 73.865383884010043 21.763041581391008 0 0 0 0 -7.0763994070921399 130.9756847113739 0 130.9756847113739 -58.06791805613102 0 0 0 0 -152.59970181776589 78.963289262618673 0 78.963289262618673 26.217194585455218 0 0 0 0 -149.99290816568282 72.273505228336148 0 72.273505228336148 16.748015628523717 0 0 0 0 35.394417477543755 47.927794280645827 0 47.927794280645827 -10.158050777292946 0 0 0 0 128.24279542371005 12.170010712979092 0 12.170010712979092 61.441507079779058 0 0 0 0 82.392551399123022 8.9479115170136083 0 8.9479115170136083 91.560570003571229 0 0 0 0 196.59273920907708 33.114032433582452 0 33.114032433582452 -192.57137114655779 0 0 0 0 205.63382620945686 -27.540435766482915 0 -27.540435766482915 -137.18553351635819 0 0 0 0 0.23540290626032534 -0.88460545628342935 0 -0.88460545628342935 -0.99032462213475014 0 0 0 0 167.81540372653353 13.936771103392289 0 13.936771103392289 0.8864557113038245 0 0 0 0 34.499539710559411 45.787223375551207 0 45.787223375551207 -16.442544558068867 0 0 0 0 22.945188799850257 170.27570854228316 0 170.27570854228316 -24.84097828609265 0 0 0 0 16.252148367711925 -33.07392369743593 0 -33.07392369743593 -6.3458763921753416 0 0 0 0 -3.5422067986618089 -6.1385248486349155 0 -6.1385248486349155 -7.462130820872261 0 0 0 0 23.086101421823514 -49.920316084406977 0 -49.920316084406977 -13.531117125012315 0 0 0 0 15.911630975559319 4.4143621313309342 0 4.4143621313309342 -0.0092364512770508611 0 0 0 0 -47.472945689565677 93.924690351504978 0 93.924690351504978 -167.05218507638529 0 0 0 0 -27.052619000249251 58.626914421207857 0 58.626914421207857 -263.52544553279222 0 0 0 0 13.340547459716618 107.90935196141436 0 107.90935196141436 -316.01139939701261 0 0 0 0 -8.3914185998019093 121.70185779247868 0 121.70185779247868 -272.76869535475998 0 0 0 0 -33.183533877341688 98.433227170119608 0 98.433227170119608 -173.35299709507126 0 0 0 0 -3.2572299041985389 -48.12105910704804 0 -48.12105910704804 27.453596016061056 0 0 0 0 14.281463566124927 4.3725952421733201 0 4.3725952421733201 0.79093345740215604 0 0 0 0 59.524126264470397 1.112351212482281 0 1.112351212482281 -73.466650942038541 0 0 0 0 29.653453129272748 105.70426760139344 0 105.70426760139344 -333.0508553269965 0 0 0 0 53.096908672501741 16.635603319425172 0 16.635603319425172 -159.76240558529935 0 0 0 0 11.283287440298295 2.8808785385193953 0 2.8808785385193953 0.20249503988744699 0 0 0 0 -44.496377774298708 81.839427405296874 0 81.839427405296874 -171.67554634090993 0 0 0 0 -32.787149743668124 75.884061202287739 0 75.884061202287739 -127.11306748995958 0 0 0 0 95.557814035779302 46.822013463386611 0 46.822013463386611 -154.49203190279968 0 0 0 0 -9.6565300437941914 50.308545484502247 0 50.308545484502247 27.115494106885308 0 0 0 0 219.23894512905827 50.968715260049976 0 50.968715260049976 8.9657273669781716 0 0 0 0 174.57434549964091 103.88029263625458 0 103.88029263625458 -9.3152133157964272 0 0 0 0 309.64318261152948 92.957239931763979 0 92.957239931763979 -8.6034210212897051 0 0 0 0 312.86533465979255 93.922193346200231 0 93.922193346200231 -9.6359366716060322 0 0 0 0 183.52427114893362 -159.76651791038967 0 -159.76651791038967 120.42222066595423 0 0 0 0 269.51078468530613 -20.572771595087033 0 -20.572771595087033 18.810733624624845 0 0 0 0 321.78099505850923 -10.370447240190572 0 -10.370447240190572 3.681942745399283 0 0 0 0 148.74740386697522 21.381426841894609 0 21.381426841894609 5.6189380204377812 0 0 0 0 131.94960179089685 -61.313378430031321 0 -61.313378430031321 58.200795979289978 0 0 0 0 208.42977176859495 -69.412044958016622 0 -69.412044958016622 -135.08806853006536 0 0 0 0 43.501435950100131 -12.914951125749212 0 -12.914951125749212 33.906724453202514 0 0 0 0 27.650397864126717 -55.65249517927532 0 -55.65249517927532 95.689507238652368 0 0 0 0 36.188355476704601 -32.876478582044001 0 -32.876478582044001 69.833712823014764 0 0 0 0 -0.49501537094531756 -5.2058090862538222 0 -5.2058090862538222 -6.5537007182995808 0 0 0 0 105.38678103327402 58.031290880022425 0 58.031290880022425 -53.674763765277021 0 0 0 0 6.8016483775633105 2.7688401435503849 0 2.7688401435503849 0.2151895868975533 0 0 0 0 24.443775211057073 -42.996307643184309 0 -42.996307643184309 69.253376493310498 0 0 0 0 44.164903830755065 -55.306936222150853 0 -55.306936222150853 -36.599002245913653 0 0 0 0 -10.484816205949755 -9.1482780309238478 0 -9.1482780309238478 -2.2036886985479214 0 0 0 0 57.025722327762196 -38.014420134446482 0 -38.014420134446482 -20.615278445975036 0 0 0 0 44.073693935650226 -73.942169371232126 0 -73.942169371232126 5.4492316247069539 0 0 0 0 -1.3450288411914642 -3.016282646642594 0 -3.016282646642594 -2.442814951393963 0 0 0 0 18.9080283336516 -35.148502096693846 0 -35.148502096693846 9.2917440973978955 0 0 0 0 5.8092056300250405 -2.3465574507896427 0 -2.3465574507896427 -7.2763085668172778 0 0 0 0 306.07053968193213 -234.63972291103528 0 -234.63972291103528 83.351328179988059 0 0 0 0 286.02446294180481 -199.9183086271787 0 -199.9183086271787 74.495935710877347 0 0 0 0 308.66453983545216 -235.3438756370283 0 -235.3438756370283 57.058792801133677 0 0 0 0 267.57143801784696 -237.6504218675891 0 -237.6504218675891 138.49602819914298 0 0 0 0 361.72986926582598 -293.78314359774231 0 -293.78314359774231 115.1426175261131 0 0 0 0 401.58901664192672 -291.83765509760997 0 -291.83765509760997 35.728143818972512 0 0 0 0 365.81382399704262 -368.0514605920996 0 -368.0514605920996 292.82462218112778 0 0 0 0 32.962160388116899 3.8387309909121541 0 3.8387309909121541 27.101151061589917 0 0 0 0 4.4479170229498735 -1.9334348819344482 0 -1.9334348819344482 -4.837164639099921 0 0 0 0 333.39828236974427 -338.28975530259095 0 -338.28975530259095 290.09321237398945 0 0 0 0 428.02923165549873 -268.25467182586499 0 -268.25467182586499 146.01718913552031 0 0 0 0 414.70686668322378 -332.05014949044016 0 -332.05014949044016 164.40082129199436 0 0 0 0 413.36321389204659 -264.14816984338495 0 -264.14816984338495 -25.331446166557726 0 0 0 0 423.29533594431632 -313.77085054717736 0 -313.77085054717736 44.386879044518537 0 0 0 0 411.38790661400526 -306.32199193286465 0 -306.32199193286465 73.469816641790203 0 0 0 0 196.62810581859594 -92.533684439868921 0 -92.533684439868921 -35.886134210744785 0 0 0 0 426.8071465777175 -323.33378677487053 0 -323.33378677487053 57.254351084043265 0 0 0 0 419.97792977656718 -296.93897563290193 0 -296.93897563290193 -56.321737324975402 0 0 0 0 504.16066971658074 -278.24708949150181 0 -278.24708949150181 127.48933467476309 0 0 0 0 424.91921938578525 -208.28944656174508 0 -208.28944656174508 458.54158257109975 0 0 0 0 406.2145206025707 -252.93271081119065 0 -252.93271081119065 121.10568288890863 0 0 0 0 443.24367450686987 -320.90756986246652 0 -320.90756986246652 236.4310868052944 0 0 0 0 580.37382335654547 -165.1755315540322 0 -165.1755315540322 118.9111616787759 0 0 0 0 522.62663135233015 -320.0961252405973 0 -320.0961252405973 497.37719461013148 0 0 0 0 654.00984314110246 27.290781534381495 0 27.290781534381495 -361.08969494587291 0 0 0 0 306.47911349601054 -223.13842604377169 0 -223.13842604377169 107.08855620944087 0 0 0 0 352.10312457368491 -97.370677525768542 0 -97.370677525768542 -94.607787182441825 0 0 0 0 374.85975680933916 -117.8547811011249 0 -117.8547811011249 -171.0006983758276 0 0 0 0 -107.12846637133043 -8.9260166507792746 0 -8.9260166507792746 -64.005082241021228 0 0 0 0 -114.87941107696679 -113.46200748704814 0 -113.46200748704814 30.839923801420809 0 0 0 0 -43.904989696643497 377.72954712888111 0 377.72954712888111 -239.38138095560862 0 0 0 0 173.558012514457 284.18743072873735 0 284.18743072873735 -378.32760981542378 0 0 0 0 -0.64856646947274044 -1.3077746803735231 0 -1.3077746803735231 -2.4075366351497642 0 0 0 0 158.46324569539502 109.36042678682952 0 109.36042678682952 -101.75760844340039 0 0 0 0 2.0403360072369594 1.1832368989196844 0 1.1832368989196844 0.87818705506222727 0 0 0 0 521.1317919013527 -195.60731929695976 0 -195.60731929695976 90.051354735483073 0 0 0 0 297.6702278497396 -178.13206630598506 0 -178.13206630598506 123.12329434338608 0 0 0 0 513.23888808483389 -76.889685596830532 0 -76.889685596830532 31.324033100725501 0 0 0 0 418.37814301004255 58.67474339970795 0 58.67474339970795 2.123382914675858 0 0 0 0 426.91876336446876 61.393976791464866 0 61.393976791464866 -1.6060866653751873 0 0 0 0 731.70756774556503 36.101265744315242 0 36.101265744315242 -11.664811991089664 0 0 0 0 465.34248668102737 244.41625090148045 0 244.41625090148045 92.752927544290287 0 0 0 0 572.56784099120705 498.3189018864241 0 498.3189018864241 -289.44190334201357 0 0 0 0 613.74097290782265 251.20808055693442 0 251.20808055693442 82.700164128222241 0 0 0 0 105.53386859873717 192.16519795630757 0 192.16519795630757 85.895721595481518 0 0 0 0 1111.2753413929968 321.65214949931305 0 321.65214949931305 102.48376534684894 0 0 0 0 321.08220430234724 471.64189627320548 0 471.64189627320548 506.84455766777683 0 0 0 0 4.3737886865401379 3.7119010001351675 0 3.7119010001351675 3.4566378721170921 0 0 0 0 1042.0373573745564 -20.944485577474552 0 -20.944485577474552 -40.495917776507667 0 0 0 0 -15.993924735397741 102.70370970266049 0 102.70370970266049 467.80242775331783 0 0 0 0 105.56226829731168 -26.755631781210241 0 -26.755631781210241 117.80701765416597 0 0 0 0 798.03672341398487 -133.94845781038384 0 -133.94845781038384 78.861728454103286 0 0 0 0 811.44110540081601 -217.09114229209263 0 -217.09114229209263 -32.781986185005735 0 0 0 0 918.41783513553673 -6.7071771842445287 0 -6.7071771842445287 67.509558959493006 0 0 0 0 980.33797045041138 -49.919365511439082 0 -49.919365511439082 82.678052716492857 0 0 0 0 1115.6193058008503 -104.48893203210901 0 -104.48893203210901 -42.409784939263773 0 0 0 0 1089.4429736578459 -336.56336345612999 0 -336.56336345612999 307.70391114649919 0 0 0 0 851.63771872377401 -131.08786375790396 0 -131.08786375790396 160.58966522601304 0 0 0 0 644.46896752556495 124.52336869248575 0 124.52336869248575 690.2307885132343 0 0 0 0 672.74593449072654 -121.96066485183098 0 -121.96066485183098 256.9039021071203 0 0 0 0 1020.4024099104795 139.34369482795375 0 139.34369482795375 178.33233211702282 0 0 0 0 616.99453052276658 -245.4969330068684 0 -245.4969330068684 277.88387298177986 0 0 0 0 439.83105187293404 -227.42137009467206 0 -227.42137009467206 300.10744296979556 0 0 0 0 569.67995445087581 -145.34773878454166 0 -145.34773878454166 314.17643603752367 0 0 0 0 607.71837175786277 -217.51048173145386 0 -217.51048173145386 345.95760139215793 0 0 0 0 872.85118099546798 -201.87937972221403 0 -201.87937972221403 301.79183685308271 0 0 0 0 607.02387834997353 -181.85293357513092 0 -181.85293357513092 451.12022495528299 0 0 0 0 432.47537626833582 -242.40538930874209 0 -242.40538930874209 270.47764418918496 0 0 0 0 417.6526487844385 -241.5842025752263 0 -241.5842025752263 372.25350212559033 0 0 0 0 459.22540881144232 -271.7787857383546 0 -271.7787857383546 168.1816373877291 0 0 0 0 -75.059501125648239 30.494271944984575 0 30.494271944984575 71.052366455493029 0 0 0 0 -38.694632888866181 60.590011338505974 0 60.590011338505974 6.5679299752478073 0 0 0 0 -159.90989400616672 135.38028177806837 0 135.38028177806837 -23.779651631373781 0 0 0 0 -55.583194455972261 36.927521348154187 0 36.927521348154187 11.338155232277131 0 0 0 0 -41.423426109467982 63.520294846484603 0 63.520294846484603 6.436636626625841 0 0 0 0 32.736819310711567 29.529050004044109 0 29.529050004044109 -13.927597549791722 0 0 0 0 56.489463937796245 91.83829032216363 0 91.83829032216363 -71.583824646948415 0 0 0 0 -81.548302467090252 106.83953520901287 0 106.83953520901287 -79.276528802599387 0 0 0 0 139.74808831747214 -12.326139443983266 0 -12.326139443983266 4.829855459916871 0 0 0 0 29.656952917339421 -1.6337526222737608 0 -1.6337526222737608 -4.3130208719224399 0 0 0 0 -114.53305019327649 13.043442515851893 0 13.043442515851893 51.025872254356727 0 0 0 0 25.191702966587737 -1.4025721213888489 0 -1.4025721213888489 2.8625251899244475 0 0 0 0 -18.842455726997457 53.495131564203845 0 53.495131564203845 -3.7771130432359215 0 0 0 0 -28.474038926433423 4.8127121916622855 0 4.8127121916622855 -31.534417613009282 0 0 0 0 -104.60776568492997 67.159349589790963 0 67.159349589790963 -58.087894664540727 0 0 0 0 -64.59483217255729 190.20399980705952 0 190.20399980705952 8.674093511672254 0 0 0 0 -152.09504208862927 69.395625090799513 0 69.395625090799513 12.938684057107821 0 0 0 0 -105.93653436480963 189.13876808013902 0 189.13876808013902 -134.74543462096972 0 0 0 0 -12.275433417425134 18.074928314736169 0 18.074928314736169 -0.42531103972406648 0 0 0 0 -218.82374078392786 109.60071004895917 0 109.60071004895917 14.796917562976887 0 0 0 0 177.08632979345566 156.38719236915495 0 156.38719236915495 -29.222323120177862 0 0 0 0 34.673967862938298 136.63828052718418 0 136.63828052718418 66.672816658171541 0 0 0 0 122.35276919802095 150.44565895725103 0 150.44565895725103 43.142228307111509 0 0 0 0 17.973626868370047 83.46421704281056 0 83.46421704281056 -95.547462448837905 0 0 0 0 395.01733647597121 199.38221446964326 0 199.38221446964326 11.984186151705217 0 0 0 0 289.30182660431456 149.63827792283428 0 149.63827792283428 87.789593599227373 0 0 0 0 177.84542411765142 164.03060575793063 0 164.03060575793063 43.155848084614263 0 0 0 0 289.81281656192004 191.48221683455904 0 191.48221683455904 38.781628175981496 0 0 0 0 122.21093133016984 151.09512531697783 0 151.09512531697783 133.81569720890911 0 0 0 0 434.53200317631126 153.67452487191076 0 153.67452487191076 83.258290645861734 0 0 0 0 78.103305016404192 8.4009112791163716 0 8.4009112791163716 84.681300596257643 0 0 0 0 210.33975292298055 213.68308146032632 0 213.68308146032632 215.93413312898156 0 0 0 0 378.06250080127211 277.2214292052995 0 277.2214292052995 198.94433284298793 0 0 0 0 171.40739198364463 86.578890578707615 0 86.578890578707615 76.574217453800884 0 0 0 0 96.651151786089031 198.9923611178333 0 198.9923611178333 191.12817332931263 0 0 0 0 78.04690975097401 103.25218027713754 0 103.25218027713754 154.08888382908026 0 0 0 0 0.44858577219201834 11.282789296699775 0 11.282789296699775 56.047992633639012 0 0 0 0 -19.576148487252794 60.874088294202011 0 60.874088294202011 26.259443350161746 0 0 0 0 11.835856796144071 -34.400103038245561 0 -34.400103038245561 124.57334306293342 0 0 0 0 3.1290355110504606 1.011941898562327 0 1.011941898562327 27.523782547290466 0 0 0 0 84.596542902989313 -41.659963655770298 0 -41.659963655770298 -16.196763240740438 0 0 0 0 112.48476084988215 143.83255734268823 0 143.83255734268823 286.16222729335277 0 0 0 0 7.3198460903172418 -70.908493421968615 0 -70.908493421968615 143.01232451677606 0 0 0 0 11.021720048545447 9.0396432221583289 0 9.0396432221583289 8.6652600520431786 0 0 0 0 28.391881347943126 92.018997951427195 0 92.018997951427195 73.67767412228568 0 0 0 0 17.036967253032344 33.743236823673215 0 33.743236823673215 -39.227733850142386 0 0 0 0 12.531808737152431 6.125156315056536 0 6.125156315056536 -1.797794234653578 0 0 0 0 13.514651166784461 3.1453277289278958 0 3.1453277289278958 6.9185710107249179 0 0 0 0 35.271077604385937 -18.463308060582222 0 -18.463308060582222 28.347507407424416 0 0 0 0 -19.373318026071502 33.548296647360417 0 33.548296647360417 9.6793762649067503 0 0 0 0 -9.2414158194769698 -3.0190889657905018 0 -3.0190889657905018 40.471432270573132 0 0 0 0 -4.3846781825268408 -4.022545799173713 0 -4.022545799173713 39.736127124619998 0 0 0 0 -26.551171864612115 35.649450918783259 0 35.649450918783259 18.158325464137306 0 0 0 0 -29.355125057652913 39.762101019569855 0 39.762101019569855 12.133027069892705 0 0 0 0 56.960262852378946 32.438767937506213 0 32.438767937506213 25.897870662180935 0 0 0 0 21.754484279125364 8.430292952569495 0 8.430292952569495 -3.4742485166857913 0 0 0 0 -1.6366266931190125 13.464932441889255 0 13.464932441889255 -3.373735313272074 0 0 0 0 -21.73881331175653 36.421547362388083 0 36.421547362388083 6.2859212942767044 0 0 0 0 44.47700535345939 38.083840410430639 0 38.083840410430639 6.5703254993668452 0 0 0 0 56.808134097344009 40.160235602324065 0 40.160235602324065 23.284509493033966 0 0 0 0 36.627281624576426 31.611401433700848 0 31.611401433700848 19.674964932027251 0 0 0 0 65.487340943818708 26.465077382885738 0 26.465077382885738 -6.0116835645712854 0 0 0 0 46.741269022099004 34.703953854382235 0 34.703953854382235 -15.817096869082434 0 0 0 0 43.640318020929953 30.679327463638742 0 30.679327463638742 -6.5277334671245626 0 0 0 0 31.354709220455334 19.121928978558458 0 19.121928978558458 -6.833196936756849 0 0 0 0 21.915554909352068 22.954941306932369 0 22.954941306932369 2.4033156896680339 0 0 0 0 -17.533957681003812 14.387894125518415 0 14.387894125518415 41.128166552139191 0 0 0 0 12.6529120811486 6.1000577070912172 0 6.1000577070912172 -9.1065667749996475 0 0 0 0 21.620853001510113 4.1579076144698774 0 4.1579076144698774 -0.88090546439184436 0 0 0 0 17.564277139128535 2.3471359871882669 0 2.3471359871882669 -0.7284631850070582 0 0 0 0 9.6676285890255542 4.4261726873847849 0 4.4261726873847849 2.966322236486949 0 0 0 0 15.610732510226796 0.42321457168893417 0 0.42321457168893417 -0.27846366625465624 0 0 0 0 16.726153616054944 1.7161007297881952 0 1.7161007297881952 0.59036865294820018 0 0 0 0 6.0488077589056388 -1.6300351927718673 0 -1.6300351927718673 3.4222923622727697 0 0 0 0 107.45591879100539 -55.33989250848208 0 -55.33989250848208 -21.856626429471589 0 0 0 0 186.95389896156848 -676.61760365933537 0 -676.61760365933537 731.27517041126703 0 0 0 0 408.62650863546878 -551.75450360025434 0 -551.75450360025434 797.88948890460438 0 0 0 0 833.3586410584976 -797.03148657893996 0 -797.03148657893996 740.46757705611753 0 0 0 0 -323.10163525362805 -667.10995937464668 0 -667.10995937464668 900.56451329190986 0 0 0 0 22.705252481265191 0.094177451655752975 0 0.094177451655752975 -3.0486061647993274 0 0 0 0 16.010788058338221 2.6407038658735473 0 2.6407038658735473 -5.6837481472921354 0 0 0 0 18.190622313247786 4.0150293182334984 0 4.0150293182334984 0.6886257881517448 0 0 0 0 17.885511746753281 9.4755691918188703 0 9.4755691918188703 2.548962052019407 0 0 0 0 3.8112372430335455 3.1196729761388653 0 3.1196729761388653 -0.82582664691532592 0 0 0 0 -67.443966890597949 -548.14302597315054 0 -548.14302597315054 520.64844348054066 0 0 0 0 785.71163456908835 -133.65279508648325 0 -133.65279508648325 640.58454386823428 0 0 0 0 421.67504319363798 135.67487674410722 0 135.67487674410722 162.63188975997309 0 0 0 0 455.14902989676921 -704.94744219563199 0 -704.94744219563199 472.09095452982029 0 0 0 0 1190.6685349956824 -1187.6506453609911 0 -1187.6506453609911 695.68313469728946 0 0 0 0 176.88139638335269 -613.29277715356386 0 -613.29277715356386 1438.2719734083048 0 0 0 0 1.2937553679828078 -4.7146977529792196 0 -4.7146977529792196 9.6694442824980573 0 0 0 0 -1627.590717187144 -600.22859170602464 0 -600.22859170602464 737.79545154050311 0 0 0 0 -89.806602655116876 -1060.8946299042336 0 -1060.8946299042336 732.40762741660728 0 0 0 0 -587.4074778726972 123.02942550558464 0 123.02942550558464 -48.584354636297576 0 0 0 0 2101.5669976298504 -404.48786479385745 0 -404.48786479385745 71.4779309548436 0 0 0 0 760.73761385085527 -35.725050275456525 0 -35.725050275456525 15.448630626921656 0 0 0 0 531.71448954233347 -456.79040004887599 0 -456.79040004887599 564.90951618085307 0 0 0 0 531.92469113080733 -452.98960081069106 0 -452.98960081069106 432.84157668403623 0 0 0 0 60.914031587707086 107.0004550775283 0 107.0004550775283 398.933003602599 0 0 0 0 410.12863546056906 -490.59185737962071 0 -490.59185737962071 555.54556539350131 0 0 0 0 1.4130790296858038 0.99814114353237215 0 0.99814114353237215 1.5825940544674335 0 0 0 0 51.38661774355819 -120.03673369353149 0 -120.03673369353149 22.735523974840362 0 0 0 0 40.692415875096174 11.66792078315623 0 11.66792078315623 0.35333110033654247 0 0 0 0 84.02762108904426 5.6607448789200134 0 5.6607448789200134 -29.856123516294247 0 0 0 0 224.99424593492768 -194.95796977979069 0 -194.95796977979069 556.60618793242861 0 0 0 0 9.0640383234994317 0.58803800434893105 0 0.58803800434893105 3.7337621824476166 0 0 0 0 622.4985094237345 -627.41838425075719 0 -627.41838425075719 401.675781421181 0 0 0 0 871.73502630126495 -454.77460218515967 0 -454.77460218515967 421.94444934386479 0 0 0 0 482.69584008917809 -253.37427568289854 0 -253.37427568289854 252.28374355936785 0 0 0 0 421.62693517722732 -202.22478069713452 0 -202.22478069713452 467.55827857669738 0 0 0 0 612.59741832527288 -39.201323263243637 0 -39.201323263243637 403.30598341917766 0 0 0 0 774.66154297610046 -343.94967256330983 0 -343.94967256330983 606.84176007246697 0 0 0 0 603.45888973072761 2.7317664946110654 0 2.7317664946110654 744.25213684065557 0 0 0 0 599.93209819906042 -50.85486134790321 0 -50.85486134790321 472.94459881832529 0 0 0 0 626.4432082628191 169.88417351124076 0 169.88417351124076 404.55411350589338 0 0 0 0 618.79156192030496 61.120205241858457 0 61.120205241858457 523.29185598564254 0 0 0 0 767.46167192234134 122.40043886323951 0 122.40043886323951 926.17082101819233 0 0 0 0 943.682291043031 -374.18990926749979 0 -374.18990926749979 755.46906004462107 0 0 0 0 806.88749585709593 19.239851878045556 0 19.239851878045556 504.65347510851052 0 0 0 0 746.28303180634248 -164.52035398256658 0 -164.52035398256658 554.67782983931511 0 0 0 0 750.04453340543614 -224.88283992373513 0 -224.88283992373513 1110.9114823779801 0 0 0 0 867.20914501696461 -276.4671088770674 0 -276.4671088770674 420.94073460563595 0 0 0 0 1427.5234209781993 -425.57491105474128 0 -425.57491105474128 250.97212934545496 0 0 0 0 1086.3135581653914 -555.79365857976882 0 -555.79365857976882 688.25799926987929 0 0 0 0 1137.302184339118 -382.47468564032442 0 -382.47468564032442 345.13121197114924 0 0 0 0 1655.5588383791328 -1229.7360956201446 0 -1229.7360956201446 1561.2536152251414 0 0 0 0 991.97183326791128 -172.32658288650782 0 -172.32658288650782 846.79196811564907 0 0 0 0 1051.9156620848189 67.893715241436894 0 67.893715241436894 1739.6435874902436 0 0 0 0 1631.7772892714274 -129.04273036408017 0 -129.04273036408017 840.86408941115587 0 0 0 0 869.88945419825177 -1160.0543943472992 0 -1160.0543943472992 1708.9352838916852 0 0 0 0 2514.0787805871951 -599.60587450665071 0 -599.60587450665071 -298.91144495643857 0 0 0 0 1052.6869525860311 550.47292365007524 0 550.47292365007524 309.0872702127308 0 0 0 0 5.3400836580362778 -3.3625328149311073 0 -3.3625328149311073 1.2726204211640999 0 0 0 0 1.6342270629295825 -3.2746706790369196 0 -3.2746706790369196 -0.71686851583720834 0 0 0 0 992.07201658903796 255.32823928269636 0 255.32823928269636 -132.06155027010209 0 0 0 0 24.898883405970992 243.04423504673105 0 243.04423504673105 94.25070693172438 0 0 0 0 274.3380374044682 -398.13435380784921 0 -398.13435380784921 1206.5556889459979 0 0 0 0 322.83329536442034 -361.23558447192659 0 -361.23558447192659 554.31178704926003 0 0 0 0 911.49374564195023 -252.75057079404826 0 -252.75057079404826 572.37710846690607 0 0 0 0 231.63679463482549 -591.95320474691744 0 -591.95320474691744 888.88444294755573 0 0 0 0 144.77975691978645 -138.17271717992128 0 -138.17271717992128 278.37514489788896 0 0 0 0 -99.130410272809968 -341.97797070924662 0 -341.97797070924662 299.35803008809961 0 0 0 0 5.8264013673106092 -318.46824045908988 0 -318.46824045908988 12.691334069689617 0 0 0 0 4.5757275482901605 -259.3800735894738 0 -259.3800735894738 -308.76402919361249 0 0 0 0 316.75461313922278 -13.10392240757028 0 -13.10392240757028 -27.017629913913879 0 0 0 0 591.46072622935026 -118.33479108240704 0 -118.33479108240704 -37.667194256936455 0 0 0 0 317.87595136252276 -128.34521673322934 0 -128.34521673322934 320.79314023445386 0 0 0 0 642.5160441672806 138.75689650115987 0 138.75689650115987 307.67889235644202 0 0 0 0 1026.4985353794482 20.53238589781725 0 20.53238589781725 -63.993253603236553 0 0 0 0 924.36789457071245 609.67014520565658 0 609.67014520565658 400.03314340731731 0 0 0 0 801.29808656595196 261.64412943908792 0 261.64412943908792 409.84690327773433 0 0 0 0 586.62656201736172 -74.317848989051754 0 -74.317848989051754 450.97776613662484 0 0 0 0 863.33548453788171 -50.127492576186341 0 -50.127492576186341 153.99347339784345 0 0 0 0 525.45652421994237 -47.92897804143513 0 -47.92897804143513 -154.99652601891194 0 0 0 0 524.01653638973585 166.14926131292623 0 166.14926131292623 -3.2060981590789197 0 0 0 0 428.52068461442104 16.476393509196441 0 16.476393509196441 36.837894732042514 0 0 0 0 477.89127917549376 -41.713731493503701 0 -41.713731493503701 -140.89568683751804 0 0 0 0 229.29809048966854 -163.97264937100772 0 -163.97264937100772 -130.98275445128644 0 0 0 0 -13.40319273602654 -136.76471534500797 0 -136.76471534500797 -49.806790041362547 0 0 0 0 0.46291422019567108 -222.75605535176055 0 -222.75605535176055 -82.82790389216234 0 0 0 0 252.53663482159027 -273.14063582106041 0 -273.14063582106041 -138.15829308788307 0 0 0 0 273.1256926025344 -7.7651659611078685 0 -7.7651659611078685 43.619303706267146 0 0 0 0 -216.95830557747286 -302.81048471024656 0 -302.81048471024656 -96.302077213339544 0 0 0 0 -56.072199362744868 -224.50593913158048 0 -224.50593913158048 -119.03686487422601 0 0 0 0 -72.456518060571398 -158.90286035708777 0 -158.90286035708777 -69.364444937387816 0 0 0 0 -160.21510076231061 -212.26702320882168 0 -212.26702320882168 -63.927167257455949 0 0 0 0 -258.51641470914547 -133.50533177735906 0 -133.50533177735906 -6.0163751391519327 0 0 0 0 -193.00243842335476 -114.0885950739721 0 -114.0885950739721 -0.34593600421521842 0 0 0 0 -205.13605261921475 -66.63282647100641 0 -66.63282647100641 -71.600648167194777 0 0 0 0 38.109105428326075 -5.8692197565751485 0 -5.8692197565751485 -228.89862653246382 0 0 0 0 52.683648490681662 -54.718581288744645 0 -54.718581288744645 -135.45673798061034 0 0 0 0 20.811052777387886 -134.51347303762259 0 -134.51347303762259 -105.40488458536493 0 0 0 0 162.4202879196564 -99.158907597352936 0 -99.158907597352936 -115.3761518814099 0 0 0 0 -19.005226216599112 -96.091002012220088 0 -96.091002012220088 -70.064425037294313 0 0 0 0 423.96036218172594 13.002920497533296 0 13.002920497533296 -155.25070622159637 0 0 0 0 256.50213889610404 -56.496270444969809 0 -56.496270444969809 -143.18728673366149 0 0 0 0 247.91541473034522 -36.223415406009735 0 -36.223415406009735 -175.70766968456883 0 0 0 0 424.54653574719487 -15.877353203071834 0 -15.877353203071834 -202.41751846896204 0 0 0 0 424.80082397630395 -22.825920922255136 0 -22.825920922255136 -134.20069353578674 0 0 0 0 445.442815612907 -214.06446205708659 0 -214.06446205708659 103.33300577309848 0 0 0 0 525.72517030950257 -174.61426583056277 0 -174.61426583056277 112.49646826820754 0 0 0 0 474.24886749968573 -250.03553075858071 0 -250.03553075858071 132.13556391489777 0 0 0 0 411.56775592001941 -341.83353649887744 0 -341.83353649887744 187.97245388752299 0 0 0 0 469.47845975137898 -279.84647332339989 0 -279.84647332339989 193.43420378080572 0 0 0 0 446.90229686444945 -274.02139117541844 0 -274.02139117541844 415.76196199590788 0 0 0 0 357.57513660149561 -312.5209200332099 0 -312.5209200332099 237.99532804424265 0 0 0 0 588.00712529912016 -176.10096824419986 0 -176.10096824419986 54.602191059887872 0 0 0 0 648.46250245688134 -315.12882906679499 0 -315.12882906679499 145.88828052036285 0 0 0 0 867.39144398393182 -400.06836953481331 0 -400.06836953481331 224.0413881574691 0 0 0 0 -724.35282624437241 -346.47594939894179 0 -346.47594939894179 -22.292461175047265 0 0 0 0 3.6464941762001004 -14.224699138007729 0 -14.224699138007729 21.626957199130633 0 0 0 0 555.73126413203136 -134.20731372169038 0 -134.20731372169038 75.891351496858533 0 0 0 0 605.97743558141519 -57.735285461890101 0 -57.735285461890101 -102.82248925480451 0 0 0 0 614.61895687858487 -166.57799016859684 0 -166.57799016859684 52.010614069823987 0 0 0 0 537.01522556311102 -70.988937328431803 0 -70.988937328431803 -55.042689742991797 0 0 0 0 483.28397792023952 -145.20545443154614 0 -145.20545443154614 169.25197273608319 0 0 0 0 496.74409494801603 7.9498265174655032 0 7.9498265174655032 21.45193935729867 0 0 0 0 133.87882632102264 -274.4176599767078 0 -274.4176599767078 425.19074752722463 0 0 0 0 -411.27229034391712 -257.68797373963071 0 -257.68797373963071 20.160691106963895 0 0 0 0 234.69811166002182 85.702697130782326 0 85.702697130782326 21.620162000108962 0 0 0 0 3.5723643368410336 -17.53195840392106 0 -17.53195840392106 24.52437789003859 0 0 0 0 1.4887087096440723 1.5989845615836629 0 1.5989845615836629 0.81290258572022367 0 0 0 0 358.71082734881929 93.753446388344855 0 93.753446388344855 -338.31351115390407 0 0 0 0 841.95681630922536 -262.94132283007855 0 -262.94132283007855 35.903506906623079 0 0 0 0 475.09850697491493 -72.177081494149661 0 -72.177081494149661 159.69075149835635 0 0 0 0 3.1136179768316623 2.0651497201434381 0 2.0651497201434381 -0.058190448596129762 0 0 0 0 802.46357353443454 52.323067640327963 0 52.323067640327963 76.851874237774496 0 0 0 0 22.739850362755533 38.882703570518288 0 38.882703570518288 107.56172249234351 0 0 0 0 213.30166550082868 -172.06189360204701 0 -172.06189360204701 66.508543799840936 0 0 0 0 317.17334283289222 -79.089337799320703 0 -79.089337799320703 78.07694615016635 0 0 0 0 423.34984892079956 -9.7480591507355712 0 -9.7480591507355712 100.05190822529246 0 0 0 0 315.39318521066161 -231.69805333804993 0 -231.69805333804993 151.72613855376062 0 0 0 0 352.54072929317772 -245.25855968984183 0 -245.25855968984183 134.01158394529466 0 0 0 0 210.29787925308483 -144.48742680223882 0 -144.48742680223882 134.77603842425484 0 0 0 0 308.78929490757582 -182.57647723808168 0 -182.57647723808168 144.82471155884241 0 0 0 0 258.86138898124955 -261.52706878240383 0 -261.52706878240383 243.58813656056145 0 0 0 0 267.65787403756258 -224.39693539909695 0 -224.39693539909695 345.81793216452047 0 0 0 0 458.61061578437511 -295.32694288047742 0 -295.32694288047742 423.91295350431415 0 0 0 0 803.38793522921333 -668.68902309458372 0 -668.68902309458372 439.6857095422838 0 0 0 0 692.31560302470461 -446.21440687429458 0 -446.21440687429458 354.36121234635607 0 0 0 0 682.27314240920532 -361.17586449689668 0 -361.17586449689668 233.70670979357465 0 0 0 0 889.81433459877007 -237.125593729294 0 -237.125593729294 302.81497742479905 0 0 0 0 674.8674707918708 -308.66784773951804 0 -308.66784773951804 289.04052455523242 0 0 0 0 476.47878403375216 -319.92089583932398 0 -319.92089583932398 315.11563126826195 0 0 0 0 462.06230793062423 -348.66969858708649 0 -348.66969858708649 257.99142882208344 0 0 0 0 458.73963742952765 -289.84498109781651 0 -289.84498109781651 212.86746617252243 0 0 0 0 658.74765278164705 -309.28079292564422 0 -309.28079292564422 150.79298616120371 0 0 0 0 369.02770963699732 -351.14887703317078 0 -351.14887703317078 290.26837162904621 0 0 0 0 313.00555715220253 -296.76423144649141 0 -296.76423144649141 209.34230627603847 0 0 0 0 347.84527685108333 -280.50414211482388 0 -280.50414211482388 175.61232619570649 0 0 0 0 465.52870954590617 -454.3609972269096 0 -454.3609972269096 442.00649924653226 0 0 0 0 657.66457413976605 -643.96785951166657 0 -643.96785951166657 276.33386108137802 0 0 0 0 655.82080802778364 -646.44436970302741 0 -646.44436970302741 512.48080887624019 0 0 0 0 668.66609364839678 -554.05981873932342 0 -554.05981873932342 408.33249000660544 0 0 0 0 566.04489457221644 -570.10309245183316 0 -570.10309245183316 574.58261374000722 0 0 0 0 -3505.4039569442939 1769.901142127504 0 1769.901142127504 -1332.4037902303608 0 0 0 0 -2.6017182428815815 0.22081365657267327 0 0.22081365657267327 8.7759100955571991 0 0 0 0 1297.5304990382137 -920.21428885125624 0 -920.21428885125624 310.19506048935364 0 0 0 0 668.17076245363501 -1081.0791866639213 0 -1081.0791866639213 1000.7773392708004 0 0 0 0 1663.342970545958 -734.48778065840042 0 -734.48778065840042 167.39306794507866 0 0 0 0 1370.7111935006687 -296.14854542431431 0 -296.14854542431431 172.73993875579754 0 0 0 0 680.01282049999281 -352.84130783214238 0 -352.84130783214238 201.65423566865275 0 0 0 0 -187.56165348686591 515.91801980591185 0 515.91801980591185 -581.3674982448938 0 0 0 0 -39.689192088131676 -296.20604827782154 0 -296.20604827782154 973.02001124668277 0 0 0 0 -5.3208071743332326 -3.5682076598821908 0 -3.5682076598821908 36.340568758282025 0 0 0 0 -2337.4544982277039 -1040.2384105059409 0 -1040.2384105059409 2442.7249842245656 0 0 0 0 262.33529217229807 -564.45832625076036 0 -564.45832625076036 1209.5698090355963 0 0 0 0 513.02977679646574 -280.20382190344753 0 -280.20382190344753 6.3986195456163841 0 0 0 0 388.5626889864252 -265.94475508670553 0 -265.94475508670553 126.42977199543748 0 0 0 0 117.62155404064106 -407.21500117090909 0 -407.21500117090909 210.36745209049332 0 0 0 0 188.71922931773588 -270.20970949641924 0 -270.20970949641924 492.61610456944436 0 0 0 0 -115.80272562917889 237.74811763202615 0 237.74811763202615 -202.75481070466662 0 0 0 0 15.99539722118713 -2.4493619807058167 0 -2.4493619807058167 0.95439261339304693 0 0 0 0 101.7285794306008 10.631648709746514 0 10.631648709746514 -225.21570670175788 0 0 0 0 -106.9457742853192 -153.07650736407322 0 -153.07650736407322 -6.8055033583223121 0 0 0 0 127.51792635109788 14.180679281426212 0 14.180679281426212 -56.0387571726868 0 0 0 0 277.31527038557215 -49.616112733457157 0 -49.616112733457157 -217.77857832700829 0 0 0 0 892.50545385128498 -136.13299596005345 0 -136.13299596005345 -678.96802191628012 0 0 0 0 564.44943302941465 11.719331287727528 0 11.719331287727528 111.81528009097747 0 0 0 0 378.74497702096778 -399.59218346670013 0 -399.59218346670013 -494.76184237453708 0 0 0 0 167.64654898115987 -177.83608112919865 0 -177.83608112919865 48.933954559524864 0 0 0 0 355.8280774539453 6.7131972083325309 0 6.7131972083325309 -174.93860668682828 0 0 0 0 218.58161723271405 85.673778724227304 0 85.673778724227304 111.25818726628495 0 0 0 0 563.6249955448875 -430.66677223873739 0 -430.66677223873739 488.62451348278046 0 0 0 0 55.081673200591467 140.68756434154602 0 140.68756434154602 -64.940522926433914 0 0 0 0 -9.6278150126921105 11.197911206057114 0 11.197911206057114 -5.4614824612603812 0 0 0 0 -20.510038456522921 105.50806574887315 0 105.50806574887315 -176.53420398100934 0 0 0 0 25.160422094131718 196.33277123705375 0 196.33277123705375 -145.97803239466703 0 0 0 0 18.362063970268736 22.868009785499726 0 22.868009785499726 -6.7553414820797677 0 0 0 0 62.840376099946546 59.390766574803045 0 59.390766574803045 -95.267298507329073 0 0 0 0 415.5370584390912 -314.69564094286443 0 -314.69564094286443 168.74092224779506 0 0 0 0 393.28805532737169 -329.94203826989263 0 -329.94203826989263 181.27091755964466 0 0 0 0 355.7133990135917 -263.37895939558183 0 -263.37895939558183 150.37090491230151 0 0 0 0 -7.5478871972076078 -4.2499011998009735 0 -4.2499011998009735 51.618506182493292 0 0 0 0 -223.85778820244013 -25.719825917009075 0 -25.719825917009075 259.19551255770421 0 0 0 0 373.01641793993622 -232.02042528925654 0 -232.02042528925654 162.73895649908621 0 0 0 0 387.09466995352705 -245.30708758245555 0 -245.30708758245555 136.55247925042596 0 0 0 0 283.65210000595107 -123.52145927904229 0 -123.52145927904229 31.791084337112238 0 0 0 0 258.26124735624762 -270.9783704006519 0 -270.9783704006519 241.67879815462618 0 0 0 0 249.25555112685106 -193.23846265934719 0 -193.23846265934719 135.41126087142879 0 0 0 0 282.93593610121752 -386.12340905738336 0 -386.12340905738336 372.89090758436782 0 0 0 0 186.04511966625796 85.421274494373279 0 85.421274494373279 -0.46738017684651822 0 0 0 0 101.30366839402268 -207.6245569390868 0 -207.6245569390868 231.90023785538256 0 0 0 0 107.08569180121413 13.769738684838558 0 13.769738684838558 -24.609213224479163 0 0 0 0 86.725855450909876 12.296352258279057 0 12.296352258279057 -24.648415424109999 0 0 0 0 61.655230351256193 15.442171694514711 0 15.442171694514711 10.129165938942958 0 0 0 0 72.547821097805354 33.946452786696454 0 33.946452786696454 -17.540435905404593 0 0 0 0 85.703591789908387 43.703000083810366 0 43.703000083810366 -33.747498439749506 0 0 0 0 109.01961213982941 26.549863724938177 0 26.549863724938177 -28.054111314260808 0 0 0 0 59.923906745687418 45.519080148248577 0 45.519080148248577 -32.230934435267955 0 0 0 0 28.514052616042271 -6.4755710503228627 0 -6.4755710503228627 1.4182570069486395 0 0 0 0 10.597065672234748 -95.460386105287398 0 -95.460386105287398 240.7553673062182 0 0 0 0 11.859162227044671 -8.0042112275123287 0 -8.0042112275123287 58.450174110578487 0 0 0 0 77.330973084295692 45.117995986625374 0 45.117995986625374 -44.446676328840113 0 0 0 0 68.853416434423707 -95.464412450140571 0 -95.464412450140571 56.561259269106813 0 0 0 0 97.85674678643062 0.88192151706221011 0 0.88192151706221011 -13.734402148108607 0 0 0 0 68.709292710294903 38.323659255103053 0 38.323659255103053 -25.793393460927291 0 0 0 0 79.652928814590268 42.923572156498949 0 42.923572156498949 -47.109179535465728 0 0 0 0 90.782092141001812 30.570812781303609 0 30.570812781303609 -39.043781071619065 0 0 0 0 11.92358157401371 27.471542199100391 0 27.471542199100391 -34.304914578346192 0 0 0 0 -90.072329599008299 38.658227234739456 0 38.658227234739456 23.622032554926363 0 0 0 0 -7.5878254375038523 52.561758035250023 0 52.561758035250023 -101.03101497471016 0 0 0 0 -24.207710511365804 62.140985555673296 0 62.140985555673296 7.3596764335497937 0 0 0 0 -30.887408985519869 -54.404025884061639 0 -54.404025884061639 30.821579250095283 0 0 0 0 83.19532960862125 29.256663982663667 0 29.256663982663667 -24.606823428046539 0 0 0 0 82.194817724954191 37.499148936144707 0 37.499148936144707 -14.782369537815612 0 0 0 0 96.21402112863143 35.217829078542763 0 35.217829078542763 -23.071670634997872 0 0 0 0 74.037949950805341 36.223999174116443 0 36.223999174116443 -13.95529096415828 0 0 0 0 465.54171577849866 568.96988223799099 0 568.96988223799099 -154.35088340060008 0 0 0 0 -30.674526554157637 -20.49554057640421 0 -20.49554057640421 -36.014560857633569 0 0 0 0 8.4580026463995051 25.969979976373619 0 25.969979976373619 -14.549781653777039 0 0 0 0 25.533110332697682 10.143655003217052 0 10.143655003217052 1.1256440790884552 0 0 0 0 8.6136678291513817 -14.549947836858443 0 -14.549947836858443 -106.57425748758294 0 0 0 0 219.97694599536146 -501.36629985803438 0 -501.36629985803438 9.2423617806853144 0 0 0 0 -75.759669742650658 -389.82009235633905 0 -389.82009235633905 116.80489902353838 0 0 0 0 592.11369479893801 -418.41098465162213 0 -418.41098465162213 -134.86067597637884 0 0 0 0 273.8495115941887 -323.19280397171769 0 -323.19280397171769 -208.84514481984479 0 0 0 0 -911.70632959088289 34.097392223826319 0 34.097392223826319 -13.463336911776423 0 0 0 0 14.812647179172705 4.5778000704741455 0 4.5778000704741455 -0.78907564372950212 0 0 0 0 415.28056234046312 -199.54491782119203 0 -199.54491782119203 -64.983918849984548 0 0 0 0 -365.85405177506618 -192.18477066074365 0 -192.18477066074365 0.2862137215988696 0 0 0 0 811.13392670959865 -622.32678682074038 0 -622.32678682074038 -153.17007215623471 0 0 0 0 313.11571533197002 -405.71691872279098 0 -405.71691872279098 -80.69890211065217 0 0 0 0 205.39064109801762 104.90930761657592 0 104.90930761657592 -229.59780707592472 0 0 0 0 70.416503304728167 39.783442649824963 0 39.783442649824963 -236.51196176650365 0 0 0 0 72.801474477593615 22.592146967051622 0 22.592146967051622 1.3227096132059692 0 0 0 0 96.9422621688052 35.040898347863731 0 35.040898347863731 -133.99615266254432 0 0 0 0 78.808295808060365 27.06670650597345 0 27.06670650597345 3.5190825417235709 0 0 0 0 86.898739169373584 19.768415346804659 0 19.768415346804659 -14.2448461324052 0 0 0 0 84.280603014936787 42.02960345678548 0 42.02960345678548 -8.9615951553232662 0 0 0 0 40.67403395545125 161.69980036730658 0 161.69980036730658 -105.69629636132413 0 0 0 0 18.567856977424753 189.18729241541087 0 189.18729241541087 11.657232901231055 0 0 0 0 86.776871671885601 16.818484764049117 0 16.818484764049117 3.5548382582467184 0 0 0 0 -8.276959411608189 8.2423567314509381 0 8.2423567314509381 7.9158912898720706 0 0 0 0 19.162575874020529 4.8576672522334619 0 4.8576672522334619 -5.6198800818635473 0 0 0 0 68.797395365741977 30.202647411131466 0 30.202647411131466 13.356499623606396 0 0 0 0 80.572658814926399 32.135169745515213 0 32.135169745515213 12.280561031577236 0 0 0 0 80.819141425468842 39.423638424158526 0 39.423638424158526 4.4564640761450391 0 0 0 0 98.420394682299957 26.696514074711331 0 26.696514074711331 -18.343774383206892 0 0 0 0 80.891599044800387 41.091755694986432 0 41.091755694986432 17.954328731905889 0 0 0 0 86.398482708886149 28.962720742143119 0 28.962720742143119 -18.020383440007663 0 0 0 0 76.127980537428812 11.072240077002334 0 11.072240077002334 -21.318486335517264 0 0 0 0 82.361982167190945 24.403386560525064 0 24.403386560525064 -20.652826147661472 0 0 0 0 86.475169072575227 26.952297936110881 0 26.952297936110881 -27.556622373558525 0 0 0 0 77.510512476823351 32.286008596346164 0 32.286008596346164 -17.251553581445592 0 0 0 0 84.629969873192749 27.191550910032674 0 27.191550910032674 -16.157563602136179 0 0 0 0 71.847113645890204 26.839758009859054 0 26.839758009859054 -15.870218171600754 0 0 0 0 81.4083337679549 19.718095198375977 0 19.718095198375977 -13.270121001730331 0 0 0 0 -305.62418114080356 106.84017455737353 0 106.84017455737353 34.520446801564276 0 0 0 0 1671.2288913840748 -290.69115938675031 0 -290.69115938675031 104.51553123624461 0 0 0 0 59.212890202223207 93.959017426916532 0 93.959017426916532 -2.2766327768185874 0 0 0 0 -136.29371523140435 8.8795143104671297 0 8.8795143104671297 -2.0060303647410365 0 0 0 0 -184.35489579718342 326.38412265834222 0 326.38412265834222 -69.662978093453603 0 0 0 0 80.53282848073286 208.59451136364851 0 208.59451136364851 -240.28742399162729 0 0 0 0 19.625250773180689 -10.73053915965512 0 -10.73053915965512 -18.456158497497519 0 0 0 0 39.312789470150591 -21.557024997474286 0 -21.557024997474286 5.7431697225031995 0 0 0 0 43.69963793902707 -114.64998952880933 0 -114.64998952880933 -22.49876337127921 0 0 0 0 236.86827229580103 -61.218305404097123 0 -61.218305404097123 -457.07446121425892 0 0 0 0 14.695057541788527 -8.3975840819864338 0 -8.3975840819864338 5.1635796691196605 0 0 0 0 553.94577469931528 209.64245724816828 0 209.64245724816828 -13.278953427623492 0 0 0 0 1371.9931873903342 230.39688750478672 0 230.39688750478672 -17.876758747764825 0 0 0 0 787.17514256432469 -466.95002374258547 0 -466.95002374258547 -149.3897137817994 0 0 0 0 1717.6739571320077 -746.20553553379114 0 -746.20553553379114 34.380008127138353 0 0 0 0 1471.0740680488652 -523.58755378744263 0 -523.58755378744263 -159.85310281128477 0 0 0 0 607.18751275366503 -547.42155632473214 0 -547.42155632473214 442.25464834598461 0 0 0 0 129.83464697217823 1041.0786567290018 0 1041.0786567290018 2043.8763566834168 0 0 0 0 1186.5405895688364 -992.45492694233599 0 -992.45492694233599 784.088632956742 0 0 0 0 708.81970912991346 -1336.9797374103323 0 -1336.9797374103323 323.71781391178183 0 0 0 0 659.64673715739627 -1226.6898286994967 0 -1226.6898286994967 274.29769714863562 0 0 0 0 884.89396333214245 -1096.5580309142415 0 -1096.5580309142415 473.57393719272568 0 0 0 0 16.63198337355254 0.13306638655050484 0 0.13306638655050484 -1.7663813221746572 0 0 0 0 257.58496934475261 288.55990706508965 0 288.55990706508965 188.49857929014172 0 0 0 0 1436.8148252749252 -215.47109250352719 0 -215.47109250352719 -151.76607867769235 0 0 0 0 930.28427645706688 398.31117041519883 0 398.31117041519883 24.294735660543211 0 0 0 0 13.994571256167546 -66.03863307804113 0 -66.03863307804113 -70.516937914230766 0 0 0 0 -45.658303209448604 -47.975639572520777 0 -47.975639572520777 111.44044864431726 0 0 0 0 229.09282913244897 185.49563788979776 0 185.49563788979776 166.748103660894 0 0 0 0 13.253477370491964 4.4361038764596969 0 4.4361038764596969 79.529565080355951 0 0 0 0 283.74362466630737 21.053696405601386 0 21.053696405601386 -11.524139191513314 0 0 0 0 13.955088110622455 114.28898049736199 0 114.28898049736199 73.062909485942868 0 0 0 0 380.70006028539137 41.611486828347552 0 41.611486828347552 21.708771603261994 0 0 0 0 342.4637787648353 135.66985057384136 0 135.66985057384136 32.878725028166912 0 0 0 0 742.86013318091864 -24.359119305031982 0 -24.359119305031982 -184.52027353335052 0 0 0 0 716.30019045064182 -67.11683063026021 0 -67.11683063026021 -148.13020526240257 0 0 0 0 482.81706539477818 -292.95045134404609 0 -292.95045134404609 84.029560883579961 0 0 0 0 783.51008794822155 -682.97279475075425 0 -682.97279475075425 493.96344577243326 0 0 0 0 17.76036448384184 -27.864154987195775 0 -27.864154987195775 856.56657887744041 0 0 0 0 -191.691889290978 -27.420234034749797 0 -27.420234034749797 434.05535492680883 0 0 0 0 125.76601817776918 -256.35762637706688 0 -256.35762637706688 230.77075118174571 0 0 0 0 140.52165138394594 -229.37291977772861 0 -229.37291977772861 194.14146251340799 0 0 0 0 153.06395603144301 -77.908407260880949 0 -77.908407260880949 45.140085387458385 0 0 0 0 863.1010567618705 9.5882096733857907 0 9.5882096733857907 -196.70671199996832 0 0 0 0 655.8355473457741 -11.577891441349607 0 -11.577891441349607 -184.86432259396042 0 0 0 0 256.08866417448189 215.42375488388916 0 215.42375488388916 -25.754634883070139 0 0 0 0 -92.045704907181062 -254.70781192583854 0 -254.70781192583854 -10.970107211803679 0 0 0 0 -104.94696302681405 120.09875454745361 0 120.09875454745361 15.766092720677307 0 0 0 0 310.95036194661952 -221.11501436092112 0 -221.11501436092112 -44.723410658909415 0 0 0 0 832.43231755784291 -145.42531142964799 0 -145.42531142964799 -179.36347352129815 0 0 0 0 567.94637845737634 -41.152045403816373 0 -41.152045403816373 -182.30979766814926 0 0 0 0 11.993881221970412 1.5291872304878922 0 1.5291872304878922 1.4805515452007718 0 0 0 0 615.68892159698225 -242.56510349175005 0 -242.56510349175005 -47.297533570771066 0 0 0 0 -19.929749426126364 693.03959833586032 0 693.03959833586032 -236.28096344115215 0 0 0 0 -41.43988476974846 17.751053404793311 0 17.751053404793311 -67.392934507609425 0 0 0 0 220.41505081575997 254.32478601244316 0 254.32478601244316 10.551698436587685 0 0 0 0 8.4549439792990597 8.7236962607944761 0 8.7236962607944761 -8.3123534003842359 0 0 0 0 167.04470151446489 -2.2811525632141638 0 -2.2811525632141638 -34.680055103562111 0 0 0 0 -73.0379431832298 -11.263745500858704 0 -11.263745500858704 -550.74684190267544 0 0 0 0 -110.98012336628744 -443.28732726049566 0 -443.28732726049566 254.78219911928136 0 0 0 0 314.74585855664918 -729.88705550149552 0 -729.88705550149552 -302.95936763560849 0 0 0 0 365.0106849958247 -451.31895175535738 0 -451.31895175535738 -271.22811383574981 0 0 0 0 505.16221100141411 -771.95559500709669 0 -771.95559500709669 147.07171719913686 0 0 0 0 483.61997848075407 -314.22999205668202 0 -314.22999205668202 -152.65542707465465 0 0 0 0 61.757035681886919 -561.66427118220838 0 -561.66427118220838 -728.47359866520128 0 0 0 0 12.043691775909565 -22.373013693812446 0 -22.373013693812446 -3.4214155216068178 0 0 0 0 862.69698617465383 -699.47614765027947 0 -699.47614765027947 -699.72974566859466 0 0 0 0 195.68091777784551 -49.473307255831401 0 -49.473307255831401 3.538838177538004 0 0 0 0 -175.13507566403132 -380.25433303390537 0 -380.25433303390537 -146.67347637165449 0 0 0 0 -674.71398656975362 -368.4713518773674 0 -368.4713518773674 608.1736405894917 0 0 0 0 -59.764124175024335 -783.32576691224722 0 -783.32576691224722 -1077.0302703130512 0 0 0 0 196.95902554561326 250.83028784458884 0 250.83028784458884 -1463.4429646939316 0 0 0 0 618.91249761003928 88.543513513154949 0 88.543513513154949 -835.24211260005632 0 0 0 0 -1.7706259268816211 58.565676321073397 0 58.565676321073397 1510.5344646149488 0 0 0 0 228.23564487267868 -49.784761125588375 0 -49.784761125588375 543.16642231198421 0 0 0 0 -98.663878003946593 -422.07360476188796 0 -422.07360476188796 927.16752600461405 0 0 0 0 506.0034461238829 -181.52361565484216 0 -181.52361565484216 1009.2713473780939 0 0 0 0 1062.9793142842027 439.91508967081973 0 439.91508967081973 827.77983593135809 0 0 0 0 646.23046087679268 -49.798521473378372 0 -49.798521473378372 336.16005469500988 0 0 0 0 747.23266100602632 -466.88876632166966 0 -466.88876632166966 1122.5484148760243 0 0 0 0 630.56682768059545 -135.87752246198693 0 -135.87752246198693 418.88066390682616 0 0 0 0 850.02305440365853 -178.41585786580026 0 -178.41585786580026 31.142623193351938 0 0 0 0 830.44480237904645 -291.96560338791005 0 -291.96560338791005 242.13607958588659 0 0 0 0 807.61583839097875 -13.941645624389821 0 -13.941645624389821 297.92596783756471 0 0 0 0 865.23134839395061 -122.82602452325477 0 -122.82602452325477 133.13754629478626 0 0 0 0 -45.418852273094672 -66.896977679053521 0 -66.896977679053521 -17.246672022837174 0 0 0 0 1.2311460446289857 -6.9467742032459228 0 -6.9467742032459228 10.388243178865196 0 0 0 0 33.114682774299581 -6.2085238182228011 0 -6.2085238182228011 -28.269308955041879 0 0 0 0 8.5159165806589243 7.3234976793182369 0 7.3234976793182369 9.2228198644358432 0 0 0 0 8.1178034933793271 -9.208480201432522 0 -9.208480201432522 18.453308293482401 0 0 0 0 702.13836388832715 -1.0227105249980468 0 -1.0227105249980468 79.198534641862935 0 0 0 0 1.4780764519348679 2.2788233297193443 0 2.2788233297193443 4.733477105444063 0 0 0 0 1192.945204811127 -369.70771103645757 0 -369.70771103645757 109.54355168842258 0 0 0 0 57.858513194863917 -48.666544844384021 0 -48.666544844384021 -19.159277929984043 0 0 0 0 -135.62702311009343 -124.29433479787394 0 -124.29433479787394 763.34234865304279 0 0 0 0 -119.13761993126536 75.594998851158152 0 75.594998851158152 230.36417121619752 0 0 0 0 674.03848743473645 -844.68493346427135 0 -844.68493346427135 1097.9121295057193 0 0 0 0 4.8363825555838673 1.7629088050524473 0 1.7629088050524473 6.5776887753199791 0 0 0 0 457.21992432439583 -922.85045006936934 0 -922.85045006936934 1108.4724763180329 0 0 0 0 616.36697042841115 -364.18380436137795 0 -364.18380436137795 802.34315382977957 0 0 0 0 370.87794538559683 -461.08621451963427 0 -461.08621451963427 219.52969628826122 0 0 0 0 283.99819443149681 -764.28777459014111 0 -764.28777459014111 443.57599140193088 0 0 0 0 474.0866437907971 -371.77550299698851 0 -371.77550299698851 263.48348371823977 0 0 0 0 287.28399634946254 -689.75920440142568 0 -689.75920440142568 790.570753266471 0 0 0 0 545.06272813522082 -842.33737015968563 0 -842.33737015968563 418.80571268119638 0 0 0 0 442.83784083443516 -647.42830033670134 0 -647.42830033670134 359.85087544620183 0 0 0 0 447.52954483358553 -684.63822221838655 0 -684.63822221838655 389.87705035631188 0 0 0 0 501.84038472920656 -647.69482345189681 0 -647.69482345189681 414.58991580827683 0 0 0 0 163.14346334896982 -465.33692286419046 0 -465.33692286419046 397.1256829101809 0 0 0 0 344.29680851558805 -96.949389070422058 0 -96.949389070422058 101.6696549789159 0 0 0 0 1109.5543546618719 -411.61008509894691 0 -411.61008509894691 98.349493521156546 0 0 0 0 844.54208119088435 -287.13565395805472 0 -287.13565395805472 96.61038283664675 0 0 0 0 470.38251275307266 -484.24367722138959 0 -484.24367722138959 263.3859184567882 0 0 0 0 971.35544694689452 -600.43928286882328 0 -600.43928286882328 284.88287769755698 0 0 0 0 1668.8066154758903 -1059.470588018635 0 -1059.470588018635 246.90493947694449 0 0 0 0 -2.3134374726368279 0.2095439675073294 0 0.2095439675073294 11.738653323459447 0 0 0 0 -3610.9894138247037 1620.3830174854493 0 1620.3830174854493 -1493.9248321496852 0 0 0 0 712.28099441883387 -732.09328305188455 0 -732.09328305188455 509.28631829157393 0 0 0 0 772.64256504622972 -469.5253568051279 0 -469.5253568051279 376.93128925978544 0 0 0 0 249.70760249845625 -440.81839983223472 0 -440.81839983223472 1298.0475490698404 0 0 0 0 488.29534498618523 -6.1601016852489465 0 -6.1601016852489465 100.25228301317475 0 0 0 0 1074.9756185747028 -1267.9249376464663 0 -1267.9249376464663 868.08574032340493 0 0 0 0 -137.38821407481737 -2211.9946374276151 0 -2211.9946374276151 2507.1239133836334 0 0 0 0 335.59543935373222 -91.073583347590557 0 -91.073583347590557 85.28769167808332 0 0 0 0 -270.58775502601884 233.52257467198001 0 233.52257467198001 532.87059641772976 0 0 0 0 50.548923740701866 236.39929492757983 0 236.39929492757983 -254.55838302120446 0 0 0 0 301.29820254479273 47.731610717216427 0 47.731610717216427 219.41079727476972 0 0 0 0 -6.3320608975699955 -5.6163515776880928 0 -5.6163515776880928 22.863067179127011 0 0 0 0 76.161520440742606 -104.62717664327687 0 -104.62717664327687 360.14577348405851 0 0 0 0 -1114.5616695308163 80.12060591984482 0 80.12060591984482 922.9406683019206 0 0 0 0 163.52601926628267 -287.07577362341829 0 -287.07577362341829 145.54964027693615 0 0 0 0 202.680189666964 -127.24459404232471 0 -127.24459404232471 197.24323556980971 0 0 0 0 279.73164124674076 -68.207815985173056 0 -68.207815985173056 47.546328287107372 0 0 0 0 265.15692568747909 -161.52256518170179 0 -161.52256518170179 131.50882408957841 0 0 0 0 223.33203159132972 -60.232992128379919 0 -60.232992128379919 277.69941293224394 0 0 0 0 441.65608834994782 -330.81518619544113 0 -330.81518619544113 349.71692432709187 0 0 0 0 256.82901925360784 -667.43744987245691 0 -667.43744987245691 456.23363949150098 0 0 0 0 219.87514617363922 -86.341136528747711 0 -86.341136528747711 57.270481032897351 0 0 0 0 1.4618671634628981 0.40495856607553549 0 0.40495856607553549 -4.8648737942744127 0 0 0 0 227.56092393599647 -108.49947829265295 0 -108.49947829265295 19.11697383461069 0 0 0 0 187.25417050215037 -51.740461733821121 0 -51.740461733821121 68.7528890031831 0 0 0 0 190.30189937274554 -88.79345529143211 0 -88.79345529143211 19.840751812140297 0 0 0 0 195.23657694092253 -66.194344785126759 0 -66.194344785126759 0.45094532082657679 0 0 0 0 214.45285660584341 -75.17338013087533 0 -75.17338013087533 20.639034483850992 0 0 0 0 210.75345725473744 -80.842987595954583 0 -80.842987595954583 28.710115340310949 0 0 0 0 184.54572099938378 -65.375565550360079 0 -65.375565550360079 28.878886092192261 0 0 0 0 9.9651830103684915 49.328703116951147 0 49.328703116951147 77.359499290121676 0 0 0 0 61.068656791477224 -52.060736485590496 0 -52.060736485590496 55.867321014562549 0 0 0 0 4.7032878009174652 4.9585593261075047 0 4.9585593261075047 -0.2188517566732493 0 0 0 0 160.96077698616864 -77.528761734273758 0 -77.528761734273758 43.340453926135524 0 0 0 0 185.86467128977529 -81.413490632576213 0 -81.413490632576213 42.643473799132153 0 0 0 0 154.24468232355957 -34.307191967043821 0 -34.307191967043821 -0.096369834001961863 0 0 0 0 -22.817324039751838 19.219664084371288 0 19.219664084371288 -3.0306487622719942 0 0 0 0 -7.1155334639380072 -8.0294615987024542 0 -8.0294615987024542 21.045455024517434 0 0 0 0 66.428136300594815 60.473622935765533 0 60.473622935765533 12.473978736346169 0 0 0 0 190.84267925500171 -281.41440858903479 0 -281.41440858903479 -176.89666701625345 0 0 0 0 248.62399259129597 -105.5831216187255 0 -105.5831216187255 21.84503673331983 0 0 0 0 0.81986382131553626 -1.7449052096926181 0 -1.7449052096926181 -10.128628526960689 0 0 0 0 208.44907821421657 -87.599643517392906 0 -87.599643517392906 38.573465383068196 0 0 0 0 -161.53901940667492 56.465359586129125 0 56.465359586129125 68.266616504324702 0 0 0 0 -52.750687009727699 -1.3679432485755569 0 -1.3679432485755569 52.415002606252528 0 0 0 0 93.868967465765309 -163.2409201806704 0 -163.2409201806704 42.293652066385448 0 0 0 0 0.32494103895486148 -2.6526315936558831 0 -2.6526315936558831 -12.523356646563993 0 0 0 0 263.79298365538125 -120.597100253382 0 -120.597100253382 6.844788482741933 0 0 0 0 245.30556224869724 -87.701446404857052 0 -87.701446404857052 23.018394677181277 0 0 0 0 185.23854690966255 -109.11098815358946 0 -109.11098815358946 25.952091728522646 0 0 0 0 237.05569182710315 -113.25853886146979 0 -113.25853886146979 14.307433964101619 0 0 0 0 253.55825409226236 -114.73411586324164 0 -114.73411586324164 4.4097081433428684 0 0 0 0 235.96150887775002 -119.10516411969866 0 -119.10516411969866 6.5097896504776145 0 0 0 0 222.42230494950491 -172.15019447498344 0 -172.15019447498344 88.898140443161537 0 0 0 0 137.01311976542638 -116.82043210058418 0 -116.82043210058418 53.054425129555966 0 0 0 0 244.39035288436571 -123.38908803638697 0 -123.38908803638697 -0.1839274681333336 0 0 0 0 -0.27735826120040485 -3.3775797416687539 0 -3.3775797416687539 -12.444305097876182 0 0 0 0 12.793966234508844 -60.022019016338163 0 -60.022019016338163 25.126624876458663 0 0 0 0 237.94906022043142 3.664309761586992 0 3.664309761586992 -17.593978496737691 0 0 0 0 -3.316630538474783 -10.758735762318224 0 -10.758735762318224 -21.273375826549454 0 0 0 0 214.0569069570156 -82.660261221618157 0 -82.660261221618157 27.186386862555082 0 0 0 0 0.74440626776586072 1.2486476514001623 0 1.2486476514001623 0.45793020556061137 0 0 0 0 147.33338156681566 -59.63093815224056 0 -59.63093815224056 29.695068591609015 0 0 0 0 188.80605471834133 -67.0292036930623 0 -67.0292036930623 18.070175336308239 0 0 0 0 174.54154554104025 -82.929559956164667 0 -82.929559956164667 39.280592857889133 0 0 0 0 187.01061512121851 -85.274337800915646 0 -85.274337800915646 39.369624829903842 0 0 0 0 189.86900544992386 -85.913228379480643 0 -85.913228379480643 24.318144925040542 0 0 0 0 83.311649916548049 -42.822380857707685 0 -42.822380857707685 -20.366489248980997 0 0 0 0 111.73022941646923 -32.051394934353993 0 -32.051394934353993 -29.484101144887973 0 0 0 0 155.88849862173811 -94.488903688612481 0 -94.488903688612481 32.432670611089634 0 0 0 0 0.95407854121707203 0.89890491109341042 0 0.89890491109341042 -1.5743869960501051 0 0 0 0 -5.4838975648963242 -0.52046493617581291 0 -0.52046493617581291 -24.044447179339841 0 0 0 0 2.2302507166486549 4.2120344493334727 0 4.2120344493334727 -1.2568535288992138 0 0 0 0 0.3732782468581064 -1.8440214645359845 0 -1.8440214645359845 -2.2807881003398798 0 0 0 0 30.557269510074548 -7.8406365322825877 0 -7.8406365322825877 -11.15691397049568 0 0 0 0 14.694862686082203 -14.621604700706698 0 -14.621604700706698 -1.7330894429623775 0 0 0 0 19.599825320248556 -0.64172896026023807 0 -0.64172896026023807 -10.626436527428329 0 0 0 0 11.132346076694375 25.91804065821816 0 25.91804065821816 42.376913663390951 0 0 0 0 88.132471749069737 -50.85477721371339 0 -50.85477721371339 -152.8930143414189 0 0 0 0 38.238938246544421 51.623672736295958 0 51.623672736295958 -43.249512898457226 0 0 0 0 36.19651109705481 -15.460385044250991 0 -15.460385044250991 -0.2097963158879439 0 0 0 0 264.45151166949654 23.489303982051183 0 23.489303982051183 -122.12778020525855 0 0 0 0 435.68845016587875 -276.84156607660589 0 -276.84156607660589 225.62759627794549 0 0 0 0 -88.195920172598562 -10.372973092074972 0 -10.372973092074972 1.1102886479566223 0 0 0 0 1.1291873478506886 -1.5120524604080856 0 -1.5120524604080856 0.93820582692850252 0 0 0 0 2.222881785062782 -19.381433202233893 0 -19.381433202233893 289.26518710954406 0 0 0 0 -0.026134330509336223 -1.7424792611880235 0 -1.7424792611880235 0.8658593101429517 0 0 0 0 432.41230334286229 56.91609170169977 0 56.91609170169977 -86.427815819683019 0 0 0 0 336.61361951401341 -176.238006830225 0 -176.238006830225 27.031413671233167 0 0 0 0 538.56341783174139 -247.26575418110679 0 -247.26575418110679 27.279634195678227 0 0 0 0 589.65200981750968 9.3669340539963741 0 9.3669340539963741 -119.1854650478781 0 0 0 0 170.3217460046435 -182.77020135206112 0 -182.77020135206112 207.00150613516325 0 0 0 0 4.6866539257013358 1.6202780935109717 0 1.6202780935109717 -6.5783091516120891 0 0 0 0 12.382333078951831 -64.517465527701518 0 -64.517465527701518 119.29763193919644 0 0 0 0 -71.912072818711749 118.59986972518527 0 118.59986972518527 53.376025926104376 0 0 0 0 250.98809898814943 3.8368462637699849 0 3.8368462637699849 -37.748263231361307 0 0 0 0 35.901721446837087 -1.8439080932710255 0 -1.8439080932710255 -33.100622873000411 0 0 0 0 306.81940976685291 -69.273819310965337 0 -69.273819310965337 -150.20870143516368 0 0 0 0 175.11854898034653 -115.44214946987267 0 -115.44214946987267 -39.280704814103956 0 0 0 0 621.86791480440297 -131.25504725896644 0 -131.25504725896644 -67.764276230271207 0 0 0 0 404.60664708355034 -314.86692546899212 0 -314.86692546899212 359.04752957553137 0 0 0 0 145.29782502124726 -354.8023477932511 0 -354.8023477932511 286.63422034682662 0 0 0 0 198.20888205061783 -161.62301720833966 0 -161.62301720833966 -62.326643449938274 0 0 0 0 5.684369320091136 -24.919257660047748 0 -24.919257660047748 8.5944413248348965 0 0 0 0 1.1748332944915489 -41.16145295930076 0 -41.16145295930076 22.453717200000803 0 0 0 0 -89.399715615974856 -114.84480651742524 0 -114.84480651742524 79.657291183350026 0 0 0 0 59.621132761098124 -43.984713083315 0 -43.984713083315 18.897278564918452 0 0 0 0 -172.61794567889956 -145.75010002613089 0 -145.75010002613089 100.91271193321882 0 0 0 0 -180.63356274784383 -170.80682207221435 0 -170.80682207221435 186.43996906244138 0 0 0 0 -83.244718311943871 -4.0325369094498456 0 -4.0325369094498456 -2.4253780174428812 0 0 0 0 -103.64456726267235 -50.037382983665793 0 -50.037382983665793 22.122880213925328 0 0 0 0 -83.792005963099655 -1.8710071299524316 0 -1.8710071299524316 11.21426269272979 0 0 0 0 -95.421994127420476 -3.8330988275392883 0 -3.8330988275392883 90.631275229598032 0 0 0 0 -123.10322451409593 -61.914399048560881 0 -61.914399048560881 -22.636231251519348 0 0 0 0 31.643067607779813 9.782120269069992 0 9.782120269069992 3.0251800495534553 0 0 0 0 -262.54247419821331 51.630232150368101 0 51.630232150368101 -87.320382483230787 0 0 0 0 23.004847708257273 -19.459818299372117 0 -19.459818299372117 -10.88177097114788 0 0 0 0 208.10375498910435 -30.435555841191672 0 -30.435555841191672 15.129179912561085 0 0 0 0 47.276881024111674 -33.098515397119542 0 -33.098515397119542 16.240763634440007 0 0 0 0 -1.5015934231187913 1.5349628472583134 0 1.5349628472583134 3.4735170583533304 0 0 0 0 63.391874169479706 -12.308123084455929 0 -12.308123084455929 16.268798694562975 0 0 0 0 65.922035564552061 -14.2611385934797 0 -14.2611385934797 10.216149309874709 0 0 0 0 67.696369037512341 -12.162204411970379 0 -12.162204411970379 8.2637199766418235 0 0 0 0 91.195102651880006 -20.351176429548104 0 -20.351176429548104 7.2402787181828216 0 0 0 0 192.44398043912952 -43.371469816942408 0 -43.371469816942408 -70.363841041604246 0 0 0 0 67.488247660138484 4.1820404712033366 0 4.1820404712033366 -3.4113002862454476 0 0 0 0 48.497123249238712 8.7787703400439483 0 8.7787703400439483 -3.1730849348224002 0 0 0 0 63.526763469999423 -14.179199982090267 0 -14.179199982090267 29.779458433826221 0 0 0 0 100.73629189362691 -665.98528976276748 0 -665.98528976276748 1061.6140706532299 0 0 0 0 13.282616179322275 6.6666048628761985 0 6.6666048628761985 23.237086284491635 0 0 0 0 1901.9271958176541 -696.14674081073042 0 -696.14674081073042 -92.286436324535785 0 0 0 0 1010.7555859093627 -287.21088322115151 0 -287.21088322115151 -200.37720011417437 0 0 0 0 49.011353071764461 -22.142431718513308 0 -22.142431718513308 25.400708038808943 0 0 0 0 65.509251121835405 -14.468484794291271 0 -14.468484794291271 28.746962047898705 0 0 0 0 3.8663838233081265 8.1624770538072084 0 8.1624770538072084 18.858618359728961 0 0 0 0 1064.7273968755617 -397.03760717637761 0 -397.03760717637761 8.1628952712696901 0 0 0 0 916.30512341817666 -158.69139535775003 0 -158.69139535775003 8.7014263088529962 0 0 0 0 925.63707315582724 -160.60532630059674 0 -160.60532630059674 -51.283204839334303 0 0 0 0 874.45630301871279 -73.074704040238203 0 -73.074704040238203 -17.490204239619288 0 0 0 0 957.08536181386444 -188.52036378808941 0 -188.52036378808941 22.465193822738229 0 0 0 0 5.7126846935024247 9.2389127960031914 0 9.2389127960031914 13.205818525958827 0 0 0 0 62.032318988407496 32.281756596388504 0 32.281756596388504 -20.709346555719037 0 0 0 0 30.399998376880831 17.301498303953167 0 17.301498303953167 33.827822838280554 0 0 0 0 57.733305750283762 -49.970077001234131 0 -49.970077001234131 132.68233937802279 0 0 0 0 -34.876696005634585 -115.63263515862502 0 -115.63263515862502 135.70685617321942 0 0 0 0 -6.5156875801159231 -14.461142822267803 0 -14.461142822267803 13.811937694147137 0 0 0 0 -5.5548676906604584 -14.172930944336898 0 -14.172930944336898 25.556442357394253 0 0 0 0 -29.314944251178531 -30.566063558459973 0 -30.566063558459973 -0.55565276655943308 0 0 0 0 -14.768764444204862 8.806501873439629 0 8.806501873439629 -3.3966209630293633 0 0 0 0 -12.902755010727262 -2.7162784426593589 0 -2.7162784426593589 18.407734453215056 0 0 0 0 -39.115585387211468 4.0057914971337141 0 4.0057914971337141 7.173016770329923 0 0 0 0 -1.0599954082615568 -31.03553630036771 0 -31.03553630036771 17.141316374754922 0 0 0 0 -0.63033686610866368 1.7360476709548038 0 1.7360476709548038 1.5940296808543657 0 0 0 0 74.236188915318053 -48.322319887990261 0 -48.322319887990261 39.778550327049743 0 0 0 0 76.807845813629683 -1.9782193397288665 0 -1.9782193397288665 2.5658430127186875 0 0 0 0 166.63762389168551 -14.288154953023877 0 -14.288154953023877 -6.5070714523999413 0 0 0 0 744.60995708723931 -446.45525878540775 0 -446.45525878540775 144.86268171395386 0 0 0 0 241.47743631910271 -15.83320355684009 0 -15.83320355684009 618.6562503955447 0 0 0 0 26.133011887399334 46.282304813833889 0 46.282304813833889 -13.317722993642747 0 0 0 0 141.79629764398123 -261.47983199865303 0 -261.47983199865303 17.570232154661085 0 0 0 0 202.34767595259473 -149.07901120959741 0 -149.07901120959741 170.80183734569437 0 0 0 0 1.291782560350839 -64.139315981090931 0 -64.139315981090931 80.711183296230956 0 0 0 0 183.88994504143193 157.67577791523308 0 157.67577791523308 225.26530981877181 0 0 0 0 420.31492783609065 -3.8252637880532347 0 -3.8252637880532347 9.389836935673884 0 0 0 0 772.20386660444683 259.85275932234401 0 259.85275932234401 204.86303654194853 0 0 0 0 406.3916169018903 74.027318763872017 0 74.027318763872017 -13.063099556873567 0 0 0 0 237.65836925501208 -16.277076328254225 0 -16.277076328254225 -107.16104227720007 0 0 0 0 218.88737275459425 -68.730661266624111 0 -68.730661266624111 -205.98446209559916 0 0 0 0 104.86250454659967 -0.10281854284949077 0 -0.10281854284949077 96.210093337130274 0 0 0 0 287.51323891250649 -55.464986505990964 0 -55.464986505990964 -126.97437074287518 0 0 0 0 22.801742319985351 -116.93832575831311 0 -116.93832575831311 -69.770059376998688 0 0 0 0 18.003904951779987 -6.0973433014714828 0 -6.0973433014714828 -57.160430878837019 0 0 0 0 -121.17357531965536 -158.63507160177187 0 -158.63507160177187 -175.36667014717568 0 0 0 0 -350.06385388115268 95.618634953902529 0 95.618634953902529 -35.06476749948888 0 0 0 0 15.100612790799417 -6.2851504294674072 0 -6.2851504294674072 -1.8358959641016206 0 0 0 0 10.730808849661116 -104.19396050640808 0 -104.19396050640808 -103.65068606037858 0 0 0 0 -350.00944484348656 -27.193132168118609 0 -27.193132168118609 227.15481525155428 0 0 0 0 16.951826395391706 -41.635933462163813 0 -41.635933462163813 -6.9700676031799347 0 0 0 0 -36.709298215182571 76.524115694381862 0 76.524115694381862 -53.590625571159762 0 0 0 0 0.21147532675612268 -1.0722815175708007 0 -1.0722815175708007 2.0739298559933559 0 0 0 0 281.35325570898567 -90.557686555579494 0 -90.557686555579494 -147.56329002173698 0 0 0 0 -328.57838532253299 -44.365298592748331 0 -44.365298592748331 233.66669793161236 0 0 0 0 -288.86831722362695 -69.33538837281958 0 -69.33538837281958 96.057740504011235 0 0 0 0 13.740279747543116 -46.590660002691308 0 -46.590660002691308 -3.7623623423680428 0 0 0 0 318.96073260050616 -15.456507273201623 0 -15.456507273201623 -71.626326074790995 0 0 0 0 176.38118326972835 56.324493322357739 0 56.324493322357739 -37.010703606947573 0 0 0 0 -47.196514418668812 32.875166178826476 0 32.875166178826476 23.438932985416614 0 0 0 0 125.29651760389243 -6.4317238912963148 0 -6.4317238912963148 -11.003931370865757 0 0 0 0 26.649277141375933 71.055676564645182 0 71.055676564645182 -50.757214437163839 0 0 0 0 33.952327184088062 76.88582224228594 0 76.88582224228594 -88.379313768629345 0 0 0 0 17.284461401135502 13.614792707491162 0 13.614792707491162 2.7188149908683457 0 0 0 0 5.0310873276716208 1.2743045391087264 0 1.2743045391087264 9.5161245243476564 0 0 0 0 590.19535389560406 -135.12206440719569 0 -135.12206440719569 -17.973687759451423 0 0 0 0 -27.151719624569523 106.16072568686286 0 106.16072568686286 -20.760454547562404 0 0 0 0 65.00090458464183 -11.046106784774111 0 -11.046106784774111 10.86894476112866 0 0 0 0 48.204709314530191 -24.814248319804392 0 -24.814248319804392 25.48413562019141 0 0 0 0 90.444048059653142 -36.780733454758774 0 -36.780733454758774 11.371540007670774 0 0 0 0 153.47776023157439 55.786486904156504 0 55.786486904156504 -12.293070440417068 0 0 0 0 35.586994768981015 20.156505968099879 0 20.156505968099879 14.157337370497086 0 0 0 0 57.2858919183127 39.50585831335593 0 39.50585831335593 13.961273218646966 0 0 0 0 99.278456225612899 37.384614116484499 0 37.384614116484499 1.9732123364974541 0 0 0 0 10.17396929647073 -15.646158285013279 0 -15.646158285013279 22.079194854834661 0 0 0 0 -4.3532819456140714 -29.367606757197507 0 -29.367606757197507 76.787084421107465 0 0 0 0 475.34397457184241 -149.73020955019251 0 -149.73020955019251 25.421363254447442 0 0 0 0 626.3620593048181 -276.62871996268473 0 -276.62871996268473 96.605391501928352 0 0 0 0 574.09250738483388 -130.71932490951508 0 -130.71932490951508 -1.4694854466597462 0 0 0 0 115.99280440949224 0.87296623616703073 0 0.87296623616703073 -2.0295105684972441 0 0 0 0 505.98402304584306 -63.606283470849576 0 -63.606283470849576 37.763104197383655 0 0 0 0 0.95984743913138715 1.9299053179392871 0 1.9299053179392871 4.3772208820137593 0 0 0 0 438.11862627807204 -144.13436258985575 0 -144.13436258985575 6.3170958729824633 0 0 0 0 454.03021469476516 -107.85831287248175 0 -107.85831287248175 28.712145577486808 0 0 0 0 15.672606692955014 37.509230892630512 0 37.509230892630512 46.104293820198109 0 0 0 0 5.5720795989480507 4.8127775014360452 0 4.8127775014360452 1.0644055699191668 0 0 0 0 239.20175642823961 -107.85199564377831 0 -107.85199564377831 18.57580879834677 0 0 0 0 138.91754306855728 -2.8376321193113654 0 -2.8376321193113654 -14.417688757868973 0 0 0 0 205.53980412496821 -52.659599352172449 0 -52.659599352172449 -13.118033583758461 0 0 0 0 61.373219074965164 -64.782531060805013 0 -64.782531060805013 69.441063178200466 0 0 0 0 207.92234460985674 3.0927078640038417 0 3.0927078640038417 23.491855324517019 0 0 0 0 92.77681962637871 -19.864692756553268 0 -19.864692756553268 19.435798094807069 0 0 0 0 6.262844032487763 5.6995422321877953 0 5.6995422321877953 1.3220006107799058 0 0 0 0 487.31090582386241 -179.1862023268859 0 -179.1862023268859 15.853031305793593 0 0 0 0 384.40940143661282 -103.86374523843733 0 -103.86374523843733 88.382085178704983 0 0 0 0 316.03140324170818 -176.69361957829915 0 -176.69361957829915 67.101376401875314 0 0 0 0 387.71072128115338 -38.061327145945597 0 -38.061327145945597 25.03187798934232 0 0 0 0 442.01773062692519 -107.74113358197201 0 -107.74113358197201 125.69191127068734 0 0 0 0 440.95742247042654 -151.76411185858069 0 -151.76411185858069 -3.4904407900273782 0 0 0 0 342.97642999369418 -96.316492283422122 0 -96.316492283422122 -44.592045164858064 0 0 0 0 362.97357553597249 17.178733860652756 0 17.178733860652756 42.034546782462712 0 0 0 0 78.88842725237555 -116.33603883766227 0 -116.33603883766227 58.396709755461416 0 0 0 0 539.5313194571354 58.946426871357289 0 58.946426871357289 -102.97555930020462 0 0 0 0 158.15582195277238 -15.809888171163948 0 -15.809888171163948 -36.977918948336082 0 0 0 0 158.87621294468579 -59.680657949980485 0 -59.680657949980485 86.447768472949974 0 0 0 0 -46.491847594719729 168.98580038810906 0 168.98580038810906 -253.57070488947647 0 0 0 0 10.878186805997771 7.1302185149596369 0 7.1302185149596369 6.0057902991832393 0 0 0 0 776.15670498723921 -344.03993094822272 0 -344.03993094822272 52.795668643535919 0 0 0 0 7.8195419884838984 -0.57657589805889131 0 -0.57657589805889131 -0.59130743902419169 0 0 0 0 -98.307644012291348 100.57646178273535 0 100.57646178273535 -187.5787889977546 0 0 0 0 -81.720241273724241 160.98428059097932 0 160.98428059097932 -251.41772871079957 0 0 0 0 -346.60216087187291 424.45758241111912 0 424.45758241111912 -95.196624666885327 0 0 0 0 -224.76818842926878 102.81869982862918 0 102.81869982862918 -169.04333657672032 0 0 0 0 32.202875933477117 108.14065176609301 0 108.14065176609301 -115.96769525036143 0 0 0 0 -66.829677108529722 211.42212854579975 0 211.42212854579975 -142.54329647576378 0 0 0 0 -23.554765117165516 418.88485033504185 0 418.88485033504185 -162.93987776312042 0 0 0 0 923.64230505596788 -766.24207276430479 0 -766.24207276430479 189.03916694869213 0 0 0 0 562.90876207748079 305.11558718425931 0 305.11558718425931 -152.39781096309343 0 0 0 0 2.818719849936187 2.2353346335228395 0 2.2353346335228395 1.9592155638289306 0 0 0 0 -22.906305327793234 -192.76168585914547 0 -192.76168585914547 270.70054307068858 0 0 0 0 376.90584674808633 98.828204302851191 0 98.828204302851191 -99.466063101786858 0 0 0 0 44.515708719773102 147.48764668745753 0 147.48764668745753 -237.08979170802331 0 0 0 0 37.301400045096557 -9.31471719443139 0 -9.31471719443139 2.2532257273437994 0 0 0 0 195.21017472845415 51.500850908748816 0 51.500850908748816 -105.16185262189356 0 0 0 0 74.147435990067606 102.46701817628764 0 102.46701817628764 92.70248690381959 0 0 0 0 197.29067925657728 135.13453535778081 0 135.13453535778081 -24.929942702472545 0 0 0 0 51.910085779221845 237.43449886207236 0 237.43449886207236 74.739423645439501 0 0 0 0 238.78876106580356 270.10124188401278 0 270.10124188401278 -91.982517552689387 0 0 0 0 82.860323054614128 175.56812313035334 0 175.56812313035334 -27.542732699472367 0 0 0 0 252.34621244625305 -55.648302646372031 0 -55.648302646372031 -142.49313337740296 0 0 0 0 495.0831082532095 -21.839244181626782 0 -21.839244181626782 -144.37818969298223 0 0 0 0 723.59713969448057 -78.813328714237741 0 -78.813328714237741 -145.3555795763441 0 0 0 0 420.53752325236565 313.80882858462746 0 313.80882858462746 92.893457346827745 0 0 0 0 15.021738685263898 -2.0085732092853021 0 -2.0085732092853021 0.34528578100740859 0 0 0 0 119.98376008837658 178.92711826102936 0 178.92711826102936 213.87502121190391 0 0 0 0 655.51589569423231 495.68978042897425 0 495.68978042897425 384.91319691484387 0 0 0 0 249.00200375264103 -188.10227514045073 0 -188.10227514045073 66.605096830548973 0 0 0 0 1398.5002148674394 -605.52369053619623 0 -605.52369053619623 196.65101554695548 0 0 0 0 525.57290042366367 -247.32810750611134 0 -247.32810750611134 -5.1912423207513712 0 0 0 0 293.68612925372145 -193.82131723888597 0 -193.82131723888597 -4.2721044674899531 0 0 0 0 281.75523388617876 -157.968788989735 0 -157.968788989735 -110.06675734060082 0 0 0 0 211.18434097130375 -169.07647683608457 0 -169.07647683608457 -95.223023136557458 0 0 0 0 195.75360677101708 -62.530140845417918 0 -62.530140845417918 -147.58883293812733 0 0 0 0 252.86673178620913 -33.036114814691246 0 -33.036114814691246 -170.20939488910153 0 0 0 0 288.21796309346973 -133.96428529051445 0 -133.96428529051445 -120.34234016948903 0 0 0 0 332.08379937547579 39.711190737829384 0 39.711190737829384 -177.55818609776907 0 0 0 0 86.717019492127292 52.129308692698942 0 52.129308692698942 -216.23178929172718 0 0 0 0 91.963387426920235 68.841293513563869 0 68.841293513563869 -173.05114776896448 0 0 0 0 218.11412496268167 -46.109098347036706 0 -46.109098347036706 -162.47716055199635 0 0 0 0 91.023915044410387 52.163891701567991 0 52.163891701567991 -186.88439189507062 0 0 0 0 95.991430880443659 46.584768934243584 0 46.584768934243584 -219.82222555690714 0 0 0 0 -176.26275778246418 162.24530780911505 0 162.24530780911505 -143.39039030069398 0 0 0 0 41.214041921019088 48.854898988491186 0 48.854898988491186 -92.426041002523789 0 0 0 0 39.696968161981204 38.564377035505458 0 38.564377035505458 -55.255998711679695 0 0 0 0 135.84425185548025 36.566677611410341 0 36.566677611410341 -143.66517747586477 0 0 0 0 154.30557277126354 -19.920572831380696 0 -19.920572831380696 17.052352033455463 0 0 0 0 192.1811224140838 -52.769933857644901 0 -52.769933857644901 -108.97416047622755 0 0 0 0 218.49171830043633 -108.33427404499162 0 -108.33427404499162 -56.014180931873852 0 0 0 0 -158.61536305867685 -105.15277525861939 0 -105.15277525861939 9.7245666198068648 0 0 0 0 0.76946036383492 -3.3187472258128352 0 -3.3187472258128352 5.4530671256306178 0 0 0 0 83.654926349314337 -93.920036509263809 0 -93.920036509263809 -84.626853872193806 0 0 0 0 -83.294412556799216 -95.018720356648373 0 -95.018720356648373 -35.564133077149563 0 0 0 0 -233.82624065824348 -71.789241928985575 0 -71.789241928985575 44.637475005179112 0 0 0 0 14.679650963901913 -48.16294991387948 0 -48.16294991387948 -1.3726337386980489 0 0 0 0 224.5922314116433 -109.7986334840989 0 -109.7986334840989 -82.280108853832644 0 0 0 0 196.16766038996866 -122.86068628192788 0 -122.86068628192788 -56.802299884643617 0 0 0 0 13.753872683948842 -49.356206216135647 0 -49.356206216135647 -0.084060224970901487 0 0 0 0 -160.54053280800144 -158.41387232019815 0 -158.41387232019815 58.383638386235361 0 0 0 0 50.685916656839254 -290.82365237772478 0 -290.82365237772478 69.142030398497809 0 0 0 0 291.79238806487047 -299.80986315585244 0 -299.80986315585244 45.409751675644657 0 0 0 0 -382.55100901857077 46.84211009982846 0 46.84211009982846 363.15897455459572 0 0 0 0 -200.1389519290824 -81.873930422919329 0 -81.873930422919329 -14.580738343633584 0 0 0 0 1.1096280299630052 -4.3662250254786841 0 -4.3662250254786841 7.1719866446432299 0 0 0 0 -205.92391704727925 -72.689323039496344 0 -72.689323039496344 -2.7023588383453898 0 0 0 0 1158.7302750016534 24.095361240967577 0 24.095361240967577 -304.75386569686907 0 0 0 0 -72.427112624362053 142.42656244005866 0 142.42656244005866 521.87421775170333 0 0 0 0 1.1145446974856199 -3.3752005345183278 0 -3.3752005345183278 3.3840169552360564 0 0 0 0 447.705223549121 -67.651362795656496 0 -67.651362795656496 -71.541223340378565 0 0 0 0 524.63669307863165 -145.49105868218248 0 -145.49105868218248 -6.8473833838816063 0 0 0 0 -224.21278637413616 -92.931008936119724 0 -92.931008936119724 82.979939578273843 0 0 0 0 384.57248582060129 210.31389741687235 0 210.31389741687235 37.534238910036038 0 0 0 0 514.9440113239325 36.539939475820574 0 36.539939475820574 89.701265554143902 0 0 0 0 92.906416600228113 139.03006727420961 0 139.03006727420961 142.76624018912207 0 0 0 0 551.82207704204484 442.34367646869123 0 442.34367646869123 343.03794768931402 0 0 0 0 8.0105966729442457 -0.71952792495324669 0 -0.71952792495324669 -0.46087028775936645 0 0 0 0 205.58647577085503 -310.39570019805433 0 -310.39570019805433 -120.43870198246259 0 0 0 0 343.72260875089341 -120.42591451573207 0 -120.42591451573207 -216.08849294889842 0 0 0 0 617.35315947290655 -304.22957653512731 0 -304.22957653512731 -230.86305341677962 0 0 0 0 422.75469202017848 -267.86972491465622 0 -267.86972491465622 -197.82322861764442 0 0 0 0 633.6090273255395 -37.071973995179178 0 -37.071973995179178 -217.11634819118262 0 0 0 0 270.56761956703849 10.985245228106578 0 10.985245228106578 -223.38074093000751 0 0 0 0 321.40038074980112 -145.86115941153548 0 -145.86115941153548 -178.36271509966718 0 0 0 0 418.86174689601103 -231.46997432376111 0 -231.46997432376111 -131.6000351226794 0 0 0 0 353.03607938607456 -227.4140524726954 0 -227.4140524726954 28.343077580855606 0 0 0 0 674.05416708837947 -173.07033203029914 0 -173.07033203029914 -211.96947368719157 0 0 0 0 111.44041719773668 6.7376290199144933 0 6.7376290199144933 20.529665714846033 0 0 0 0 69.062763280831859 -9.5563414634702895 0 -9.5563414634702895 31.665310311213034 0 0 0 0 64.050932141180965 -50.200607228067383 0 -50.200607228067383 6.511294380476329 0 0 0 0 110.89264036732402 -34.158946963514325 0 -34.158946963514325 9.2817027932087512 0 0 0 0 125.18653375875874 -3.2046090103758615 0 -3.2046090103758615 -21.404063701898849 0 0 0 0 127.72690832402986 -23.485764633513725 0 -23.485764633513725 -20.32825536823475 0 0 0 0 103.97331672584187 59.422988481739537 0 59.422988481739537 11.324495806391496 0 0 0 0 -0.18738141374331008 -1.04878806916944 0 -1.04878806916944 -0.49558876512046979 0 0 0 0 34.076259198780463 0.22933297252677676 0 0.22933297252677676 -26.322216866746317 0 0 0 0 10.091518833129555 5.9720358430356022 0 5.9720358430356022 -1.5128622048592484 0 0 0 0 -165.83582718002435 379.25095153746815 0 379.25095153746815 -42.642500711453977 0 0 0 0 62.523028131538013 -33.01985460968092 0 -33.01985460968092 -98.472523846104878 0 0 0 0 397.14324115363706 287.88710041544618 0 287.88710041544618 -70.197265649819656 0 0 0 0 36.891862960465005 178.04202961816736 0 178.04202961816736 59.111761362126344 0 0 0 0 200.63847780565629 -210.37020569674496 0 -210.37020569674496 177.05412110637735 0 0 0 0 213.23156904323696 118.9166040123373 0 118.9166040123373 -158.79511990746641 0 0 0 0 5.5139359765635163 -413.64700895594615 0 -413.64700895594615 -71.527944129131356 0 0 0 0 92.427326370940136 10.279401614869244 0 10.279401614869244 -72.14890610396867 0 0 0 0 40.828154493778129 -22.4080406035755 0 -22.4080406035755 -61.453558344530848 0 0 0 0 39.995117724244125 -10.749712207823885 0 -10.749712207823885 -3.0943507363076463 0 0 0 0 26.074015520931425 -313.6870567288496 0 -313.6870567288496 -566.30951934635868 0 0 0 0 52.725883267212765 7.236117621856943 0 7.236117621856943 -6.2209211038465302 0 0 0 0 25.405746980737604 1.7658492214227408 0 1.7658492214227408 -19.684435818349812 0 0 0 0 33.473971525607162 -10.210092388491731 0 -10.210092388491731 -7.9414192712787397 0 0 0 0 22.59272792217962 -17.176465343792188 0 -17.176465343792188 -58.213974932588826 0 0 0 0 51.33235686742205 -20.878777262057607 0 -20.878777262057607 -3.2828781151926316 0 0 0 0 21.617089258527766 -46.831713034475904 0 -46.831713034475904 -0.99692040603484244 0 0 0 0 -8.0709112725780869 -325.58813235567504 0 -325.58813235567504 -310.69134926194511 0 0 0 0 -190.39540431946807 -148.99144454083944 0 -148.99144454083944 -89.897708491220328 0 0 0 0 -179.91913958509758 -112.33656346409839 0 -112.33656346409839 29.717764116983744 0 0 0 0 -177.97604917383433 -224.2800218120401 0 -224.2800218120401 179.48585159643153 0 0 0 0 -9.2971176538649161 -7.6852892946087152 0 -7.6852892946087152 1.8418175778792012 0 0 0 0 -200.04267990296648 143.08277568247877 0 143.08277568247877 -223.93851931008248 0 0 0 0 -249.1350820115731 57.766332227071871 0 57.766332227071871 15.83951739251097 0 0 0 0 -390.95474357095372 252.34570268385642 0 252.34570268385642 118.19557977198656 0 0 0 0 63.179481896062498 -14.042232849010361 0 -14.042232849010361 -4.8152800255766124 0 0 0 0 1.2489801625552843 -1.8084950919434633 0 -1.8084950919434633 -2.9357429674078217 0 0 0 0 0.066236462558663334 -13.772980107963008 0 -13.772980107963008 10.494100611073009 0 0 0 0 6.7061086917528883 48.547532231654259 0 48.547532231654259 61.754653758988752 0 0 0 0 47.731154985303874 72.103939685334808 0 72.103939685334808 -7.1133632887722342 0 0 0 0 60.083730204820313 -3.3488781915530126 0 -3.3488781915530126 -5.7688627602801716 0 0 0 0 56.283807699503086 7.6580798099885214 0 7.6580798099885214 -96.17224106858248 0 0 0 0 19.31115608622639 -6.5289030246989057 0 -6.5289030246989057 -1.7387147934225489 0 0 0 0 27.012036855965562 24.780693717865688 0 24.780693717865688 71.712850869371323 0 0 0 0 5.3473838169646086 9.7627714632288303 0 9.7627714632288303 -15.066408140551324 0 0 0 0 30.20636330472189 4.5741106688919899 0 4.5741106688919899 -24.541380780659892 0 0 0 0 35.156491381494561 23.963293667192829 0 23.963293667192829 32.557265969873697 0 0 0 0 4.0768312355754155 -1.5187657294188455 0 -1.5187657294188455 -3.9127546517563374 0 0 0 0 60.942433233067277 40.978296577549372 0 40.978296577549372 17.237078303487579 0 0 0 0 35.446981581982982 -27.684638444181473 0 -27.684638444181473 14.442821186532456 0 0 0 0 100.98451784292411 66.393102551517586 0 66.393102551517586 32.238667949730029 0 0 0 0 107.10141006755293 76.25249111560197 0 76.25249111560197 44.944689522726549 0 0 0 0 67.871491049372707 31.741106611075338 0 31.741106611075338 27.858292461927704 0 0 0 0 332.12720294891915 31.665235621910142 0 31.665235621910142 5.6057632814556655 0 0 0 0 198.68586303239863 124.27972963881712 0 124.27972963881712 58.440816920865473 0 0 0 0 146.2778231621196 47.073420101912234 0 47.073420101912234 33.675176325163079 0 0 0 0 137.74716331348463 84.243668903511207 0 84.243668903511207 37.618195972987451 0 0 0 0 220.70518782467116 53.395593598127562 0 53.395593598127562 1.5740714560897686 0 0 0 0 264.96480958575557 -40.79556698856095 0 -40.79556698856095 38.894056040183386 0 0 0 0 330.45242243593748 17.39526647471007 0 17.39526647471007 -74.688873201674141 0 0 0 0 400.01188453038776 -37.436968395018994 0 -37.436968395018994 -31.470052005296566 0 0 0 0 256.22480485783672 219.1098967419307 0 219.1098967419307 162.6278032365226 0 0 0 0 665.65493114403216 73.494970486040074 0 73.494970486040074 -65.329494153871565 0 0 0 0 185.57544495822367 49.077848570611877 0 49.077848570611877 67.284952361893659 0 0 0 0 144.08156094591686 91.442134742675762 0 91.442134742675762 58.895764240733115 0 0 0 0 14.961087664752057 -5.1461560703569162 0 -5.1461560703569162 1.3884105754353726 0 0 0 0 28.205074868425527 -102.47374003974244 0 -102.47374003974244 -215.13778624782753 0 0 0 0 -192.47399210228104 276.85210847494045 0 276.85210847494045 -147.81919087469487 0 0 0 0 407.03845926917711 595.76394595249303 0 595.76394595249303 -113.54358841048543 0 0 0 0 -210.73467557495496 -281.87451030735906 0 -281.87451030735906 905.42077933671771 0 0 0 0 772.10462856659433 -580.33000205824465 0 -580.33000205824465 27.82116808876799 0 0 0 0 675.13841031269476 -806.60168707161529 0 -806.60168707161529 -236.54717691321912 0 0 0 0 6.0156285225118893 -2.4455155885094584 0 -2.4455155885094584 0.93985692329570192 0 0 0 0 884.13725412843633 465.02820555402286 0 465.02820555402286 258.62406223834569 0 0 0 0 1217.6345948258713 -256.71781988708381 0 -256.71781988708381 -0.47288189418577531 0 0 0 0 147.65794909727265 -313.55737694681238 0 -313.55737694681238 593.80703097005062 0 0 0 0 -101.24980226933985 203.78462106637858 0 203.78462106637858 305.1150940485586 0 0 0 0 -131.59288258623565 103.1029665748124 0 103.1029665748124 60.443991854638625 0 0 0 0 -0.3204068402190785 -3.7179833433201281 0 -3.7179833433201281 16.708989645985028 0 0 0 0 -214.70114394246048 -139.88802979913817 0 -139.88802979913817 284.92052405699815 0 0 0 0 18.474145948279329 31.106624546349053 0 31.106624546349053 -8.9591441325146661 0 0 0 0 473.20819427827519 -172.65114682110152 0 -172.65114682110152 19.973249097194639 0 0 0 0 390.02475119123847 -63.964274177758398 0 -63.964274177758398 -92.215103657894815 0 0 0 0 407.18704947076913 -86.43254406661481 0 -86.43254406661481 -15.969592950275 0 0 0 0 256.3660208654328 -148.7383663712103 0 -148.7383663712103 -25.592094240222877 0 0 0 0 -132.87119492046259 -53.228104430163626 0 -53.228104430163626 -0.51458329384877288 0 0 0 0 0.85458238144082799 -3.2607619677220754 0 -3.2607619677220754 11.208575560053433 0 0 0 0 -182.05798400110871 -50.58140837360969 0 -50.58140837360969 47.332739959280843 0 0 0 0 717.98279851789266 -138.16670328644159 0 -138.16670328644159 -71.659718077611615 0 0 0 0 0.40630114081978519 -0.61425141609224454 0 -0.61425141609224454 3.9650014309811361 0 0 0 0 227.55426286204602 -155.97048509143951 0 -155.97048509143951 90.15947749596944 0 0 0 0 522.11429202360159 -68.131575159059594 0 -68.131575159059594 -22.460666762682195 0 0 0 0 477.8978403070214 -226.70616228240442 0 -226.70616228240442 57.10221266924782 0 0 0 0 -10.430189587568748 -87.639330753442664 0 -87.639330753442664 94.380772673721367 0 0 0 0 497.38220139620535 -220.76589530124693 0 -220.76589530124693 -422.16515757334309 0 0 0 0 -86.680950242269319 -109.6513273253986 0 -109.6513273253986 78.77643903066064 0 0 0 0 119.58475836931925 -29.145687762888947 0 -29.145687762888947 6.506614768609456 0 0 0 0 112.14742062345613 -67.46218393541993 0 -67.46218393541993 -65.863643975835046 0 0 0 0 91.744123144984769 -62.013344925982217 0 -62.013344925982217 -0.095511452722699827 0 0 0 0 109.91870099684456 -41.497118491937947 0 -41.497118491937947 -40.501710342982093 0 0 0 0 124.03961056954179 -29.651987788995047 0 -29.651987788995047 6.7593983735326528 0 0 0 0 201.55664692047139 -16.699377738395924 0 -16.699377738395924 -313.93711886119172 0 0 0 0 105.16105328872436 -29.810949335936648 0 -29.810949335936648 -57.642094844052536 0 0 0 0 97.887952415665495 1.4769961940575782 0 1.4769961940575782 0.16065253761943807 0 0 0 0 120.85191597297194 30.636340877707354 0 30.636340877707354 -48.623822436331466 0 0 0 0 122.75281297182664 -33.398543319285181 0 -33.398543319285181 -172.62843290573619 0 0 0 0 144.96795812060736 60.185723870145011 0 60.185723870145011 -46.050536718716103 0 0 0 0 130.83409761678195 26.331372813493545 0 26.331372813493545 -48.41138257699896 0 0 0 0 115.4607512939474 76.905049554808102 0 76.905049554808102 -24.928664060177653 0 0 0 0 174.67027122364379 86.916332686841997 0 86.916332686841997 -217.39663180943671 0 0 0 0 180.56334301542665 2.2808313048958553 0 2.2808313048958553 10.962157093420501 0 0 0 0 193.74514055775762 10.168942458182642 0 10.168942458182642 12.899213859023803 0 0 0 0 135.83761343020524 66.129516068923749 0 66.129516068923749 9.5799347337142535 0 0 0 0 179.02514573645021 35.764132075561974 0 35.764132075561974 18.744778021330603 0 0 0 0 129.13014704699162 66.928262666279807 0 66.928262666279807 13.746383702402227 0 0 0 0 115.90673323929514 56.910907466570734 0 56.910907466570734 13.059129604034752 0 0 0 0 119.15958037501696 46.341609393894487 0 46.341609393894487 10.331779777734482 0 0 0 0 86.421429786954832 29.163722854952539 0 29.163722854952539 1.3324203946467605 0 0 0 0 -0.8231576535753149 -2.3215798774941447 0 -2.3215798774941447 6.136328480397033 0 0 0 0 140.86508469763794 20.350832196957526 0 20.350832196957526 -5.080858555206305 0 0 0 0 117.68159242739785 52.747941668814747 0 52.747941668814747 1.1868170538291452 0 0 0 0 141.83051330406306 -5.9013588886850812 0 -5.9013588886850812 -37.26197692920141 0 0 0 0 144.55759531923104 11.981170301668499 0 11.981170301668499 -83.257965139499447 0 0 0 0 132.36073816720273 40.119838589898052 0 40.119838589898052 -33.514897650502462 0 0 0 0 126.6354713202777 -25.65799718915035 0 -25.65799718915035 4.4292118998120298 0 0 0 0 12.392079736841993 -10.74794001271043 0 -10.74794001271043 3.5395995402678886 0 0 0 0 73.430092818365665 -3.2168707958232763 0 -3.2168707958232763 -0.006874285838210939 0 0 0 0 228.39864568698977 -125.02503736233851 0 -125.02503736233851 -44.192833171256893 0 0 0 0 50.292619737505447 2.657144587462632 0 2.657144587462632 -0.0046858281637325088 0 0 0 0 73.127117844938766 1.0916805109575216 0 1.0916805109575216 -4.1678353287440899 0 0 0 0 65.205290623896872 -8.591779565412935 0 -8.591779565412935 -9.8351461430327163 0 0 0 0 53.99619055755187 -1.0594683678270798 0 -1.0594683678270798 -4.0435167925825715 0 0 0 0 142.20288205466022 -0.50566459444095813 0 -0.50566459444095813 3.9724969503022294 0 0 0 0 77.93897403395448 3.2733432098274875 0 3.2733432098274875 -0.65433956930622017 0 0 0 0 152.2024105963792 21.775793087846978 0 21.775793087846978 -16.443016556806469 0 0 0 0 26.021551161117248 -6.8095009744058359 0 -6.8095009744058359 14.14593946244948 0 0 0 0 87.531932309313561 127.60725962061952 0 127.60725962061952 -93.803544086278109 0 0 0 0 123.92172558994821 21.2873983907932 0 21.2873983907932 -23.622622643790464 0 0 0 0 45.713881656693687 18.092039010176364 0 18.092039010176364 -14.005925758198934 0 0 0 0 60.033929562472622 40.744483580096023 0 40.744483580096023 -31.669280762767077 0 0 0 0 84.333168927201768 111.88557383231688 0 111.88557383231688 62.493522003666421 0 0 0 0 15.934150838242203 10.562490220899663 0 10.562490220899663 -20.369656601080223 0 0 0 0 2.4078781640090483 4.2634230053237587 0 4.2634230053237587 1.2518620717014237 0 0 0 0 16.432577833964466 3.6477908851548193 0 3.6477908851548193 0.70163338959327426 0 0 0 0 136.23585209890734 77.281988233178978 0 77.281988233178978 -0.050734650628888697 0 0 0 0 82.361254992167233 27.358607997577106 0 27.358607997577106 22.5607551580222 0 0 0 0 129.04628439283988 39.439223200572087 0 39.439223200572087 -5.7392391852919857 0 0 0 0 22.910304684162838 86.05345398636689 0 86.05345398636689 -14.5423106535393 0 0 0 0 130.81613861076494 -19.873105481218204 0 -19.873105481218204 28.49374177152913 0 0 0 0 114.54138970436179 1.3907528028275919 0 1.3907528028275919 19.986883418575871 0 0 0 0 100.21619548000126 -13.561022632021832 0 -13.561022632021832 5.4233078884681163 0 0 0 0 125.55378788104986 4.0934065629843133 0 4.0934065629843133 0.68808960470050806 0 0 0 0 135.0116434921074 2.0217215841466896 0 2.0217215841466896 -0.86213262744786334 0 0 0 0 144.06539188012539 -16.395680992816324 0 -16.395680992816324 -4.5646246456253721 0 0 0 0 106.39227020385442 -24.217360546143937 0 -24.217360546143937 -5.9206657591603289 0 0 0 0 134.72076042887056 -93.031639587719383 0 -93.031639587719383 31.691009189689794 0 0 0 0 91.104225080256583 -154.52503456569912 0 -154.52503456569912 -11.284880454685208 0 0 0 0 202.45106206584751 16.576733085834462 0 16.576733085834462 -97.642530339330733 0 0 0 0 -58.045174899889389 -173.30731220690632 0 -173.30731220690632 -97.622333137394889 0 0 0 0 -15.60850595953525 21.806088612307121 0 21.806088612307121 -92.934949685012157 0 0 0 0 46.383950045772508 -174.70541322946195 0 -174.70541322946195 -26.855839890102288 0 0 0 0 60.841519212350249 -110.44554362243707 0 -110.44554362243707 -65.735633504366888 0 0 0 0 72.413605072739301 -137.82973960270556 0 -137.82973960270556 -114.27148839321762 0 0 0 0 78.160410016949754 -103.13734569984581 0 -103.13734569984581 -23.935555697644531 0 0 0 0 22.778388978767907 -112.17110531474964 0 -112.17110531474964 -21.700720150752318 0 0 0 0 30.192720687802648 -139.17848553217436 0 -139.17848553217436 6.9468034122940026 0 0 0 0 -86.300778393546352 -118.83630326976697 0 -118.83630326976697 54.458774570765854 0 0 0 0 -11.542814567323148 -136.66909167768716 0 -136.66909167768716 32.676600677981241 0 0 0 0 176.5346979299502 -154.47247712613273 0 -154.47247712613273 41.651295391305439 0 0 0 0 -6.9082875060121296 -114.91566641153167 0 -114.91566641153167 89.949244551560241 0 0 0 0 85.491366701258812 -179.18303245884249 0 -179.18303245884249 35.749463906214487 0 0 0 0 215.57195650575159 -180.00206341606906 0 -180.00206341606906 103.23329218565755 0 0 0 0 185.63795128444326 -46.537871961421388 0 -46.537871961421388 164.88834231618966 0 0 0 0 987.63090259025921 -190.2727410456344 0 -190.2727410456344 -32.121809653510695 0 0 0 0 557.94131469642161 -18.994574782274867 0 -18.994574782274867 -194.67450821992907 0 0 0 0 683.48489170766697 245.72342570896865 0 245.72342570896865 24.151375528971585 0 0 0 0 418.97839930429473 33.619989909683682 0 33.619989909683682 -112.8901146828498 0 0 0 0 420.41533530900779 -98.666066996739346 0 -98.666066996739346 -65.991480248165772 0 0 0 0 314.90951762271288 104.20445677176758 0 104.20445677176758 -250.76640502023065 0 0 0 0 15.239834778651129 16.183138606420471 0 16.183138606420471 -264.69280464719395 0 0 0 0 409.10821563718127 -249.53773677902342 0 -249.53773677902342 -68.986232676080363 0 0 0 0 136.34818891731265 -260.46146712365908 0 -260.46146712365908 329.29293642087941 0 0 0 0 4.1038174816180799 -2.2633147041520871 0 -2.2633147041520871 4.319207242631073 0 0 0 0 460.54334258538438 404.25672162785531 0 404.25672162785531 195.58226584570002 0 0 0 0 109.4860321959859 281.09077795232974 0 281.09077795232974 297.36371834245165 0 0 0 0 467.53535032299988 102.65363143133845 0 102.65363143133845 -111.08189186344498 0 0 0 0 161.01727953331283 259.86871048431499 0 259.86871048431499 -480.01103690974105 0 0 0 0 -55.947045844775857 58.088953007766577 0 58.088953007766577 -99.220241325361712 0 0 0 0 191.18885737497476 -131.61523939933522 0 -131.61523939933522 -328.64332077535619 0 0 0 0 -138.815541205724 302.27524312185665 0 302.27524312185665 -422.99854024885644 0 0 0 0 13.417354351807532 1.0488215763095639 0 1.0488215763095639 -2.8463709550479379 0 0 0 0 1964.1354518809239 318.5689463288337 0 318.5689463288337 -237.4466508539675 0 0 0 0 43.999702026247576 11.77623935936613 0 11.77623935936613 6.3434918640092635 0 0 0 0 18.854093368528993 174.17818193483026 0 174.17818193483026 -518.91491488962492 0 0 0 0 143.28376974257117 60.92096149563622 0 60.92096149563622 -190.00366013141138 0 0 0 0 162.17754785314901 55.058646329029216 0 55.058646329029216 -231.76570265576811 0 0 0 0 100.79529292639927 -101.28503749543506 0 -101.28503749543506 13.557010131678453 0 0 0 0 67.353735539792979 -78.625579664931252 0 -78.625579664931252 49.176603354108011 0 0 0 0 172.86792656645412 -96.233556945815053 0 -96.233556945815053 3.2593653073463429 0 0 0 0 -5.7414734996834085 -20.792978153219792 0 -20.792978153219792 16.120630853896287 0 0 0 0 132.66626874753274 112.15055839175693 0 112.15055839175693 -213.79027171388134 0 0 0 0 71.764781221281737 -165.56939736465574 0 -165.56939736465574 -254.3628226895371 0 0 0 0 95.965054184562177 -102.53430953675138 0 -102.53430953675138 -90.193284161883639 0 0 0 0 2.7970536983397238 -4.7565221469853611 0 -4.7565221469853611 2.1357080061555163 0 0 0 0 60.410507288266672 -72.583396087318306 0 -72.583396087318306 -39.806043468767257 0 0 0 0 44.45212264971633 -55.072005166769145 0 -55.072005166769145 -5.0820568950457528 0 0 0 0 115.274953806962 -88.931020566997177 0 -88.931020566997177 -80.429662232141254 0 0 0 0 61.868468322798947 -19.439525860625608 0 -19.439525860625608 -4.6943362082827358 0 0 0 0 30.479262592317568 -49.931246606694401 0 -49.931246606694401 -6.092458230288762 0 0 0 0 100.98308662034106 -103.30369966949502 0 -103.30369966949502 -91.50536719327647 0 0 0 0 32.453567199179943 -49.093384480410919 0 -49.093384480410919 18.946417799149927 0 0 0 0 26.568124587152852 -35.105742694062428 0 -35.105742694062428 24.990176591598811 0 0 0 0 60.057471384388919 -46.752641202804625 0 -46.752641202804625 3.6003141540713841 0 0 0 0 59.358195228873228 -124.82991499474429 0 -124.82991499474429 -19.413706737883331 0 0 0 0 105.9166396248911 -128.76974844955839 0 -128.76974844955839 -70.098372608513273 0 0 0 0 82.597680907514587 -94.921548466495551 0 -94.921548466495551 8.2897884484118549 0 0 0 0 140.8035579083662 -97.689896144964223 0 -97.689896144964223 -44.710975634374336 0 0 0 0 36.015383733380034 -7.5061547431118214 0 -7.5061547431118214 -33.713310570047859 0 0 0 0 131.71291637926015 3.9926084247117615 0 3.9926084247117615 -131.11687423155308 0 0 0 0 -0.60048693261342123 16.347166758400107 0 16.347166758400107 -48.727144584497509 0 0 0 0 9.7049507698814637 4.1626395607701063 0 4.1626395607701063 -5.4424568643915245 0 0 0 0 4.8027910658347537 12.555619779184383 0 12.555619779184383 -50.512067786732928 0 0 0 0 48.291832952891127 -54.911163677472132 0 -54.911163677472132 46.332095199703986 0 0 0 0 38.570465768345457 -40.280958398700363 0 -40.280958398700363 162.26742097342481 0 0 0 0 83.07729719587951 -74.381725630238861 0 -74.381725630238861 5.666057780191295 0 0 0 0 84.416453240104602 -83.632332241021686 0 -83.632332241021686 3.4772742892168935 0 0 0 0 66.67749242860009 -78.685759411857134 0 -78.685759411857134 24.119245585732187 0 0 0 0 52.315870920952875 -59.76355070027148 0 -59.76355070027148 -0.22276809556169042 0 0 0 0 52.642930229543708 -38.093618577565394 0 -38.093618577565394 31.767839091760152 0 0 0 0 43.060672532308672 -68.994902940919474 0 -68.994902940919474 -9.4234589168327147 0 0 0 0 47.681800140097039 -13.735885750812258 0 -13.735885750812258 -55.751609104518138 0 0 0 0 18.012099710467737 -60.709112355521029 0 -60.709112355521029 -16.402559864903651 0 0 0 0 31.079470002761809 -36.216345725811152 0 -36.216345725811152 -31.355239594116938 0 0 0 0 61.43168162874403 -36.525631016722677 0 -36.525631016722677 -21.753676693357139 0 0 0 0 9.6078526499757686 -5.0131288169419577 0 -5.0131288169419577 0.74935606802156407 0 0 0 0 8.6353847566516109 -5.7913086889945049 0 -5.7913086889945049 15.863292198058277 0 0 0 0 181.13384372170549 75.007492901729847 0 75.007492901729847 -96.972824455526052 0 0 0 0 250.12980203741608 -199.23843056663361 0 -199.23843056663361 107.62173573198652 0 0 0 0 -198.32968273565348 -153.90563848617498 0 -153.90563848617498 266.16833784286024 0 0 0 0 4.2492871900624039 -1.0563698919933451 0 -1.0563698919933451 0.019677923212523263 0 0 0 0 80.052497173601296 -204.4903727992305 0 -204.4903727992305 276.17093013009548 0 0 0 0 20.399401137998211 38.218296538795585 0 38.218296538795585 -12.483928086313597 0 0 0 0 17.322964665290783 -30.172804448893885 0 -30.172804448893885 -12.682627242941635 0 0 0 0 129.11167141947953 -149.82183204413582 0 -149.82183204413582 57.416628292262885 0 0 0 0 142.7877393536246 -52.40502973405215 0 -52.40502973405215 -51.219152166972435 0 0 0 0 -194.29697561716785 17.790792050020968 0 17.790792050020968 48.616402084106994 0 0 0 0 18.771332910131605 -25.288825339736604 0 -25.288825339736604 -33.70471770877657 0 0 0 0 -43.222602868438116 5.8612603756141652 0 5.8612603756141652 -17.131622870649153 0 0 0 0 58.165590771357529 -40.909277413730706 0 -40.909277413730706 -31.04806399634316 0 0 0 0 91.284387099520245 -66.30319972451116 0 -66.30319972451116 -34.292295547417325 0 0 0 0 76.168096517700178 -83.861143569075125 0 -83.861143569075125 -0.62160516892527085 0 0 0 0 -5.803959894044965 -76.643845180577273 0 -76.643845180577273 -25.501431491486073 0 0 0 0 54.181798490899382 -49.447903292949377 0 -49.447903292949377 -30.718888085162916 0 0 0 0 100.78296901452995 -50.739143201721618 0 -50.739143201721618 -1.0420319243837355 0 0 0 0 47.677678793617815 -50.933894138521509 0 -50.933894138521509 -0.87005476427202666 0 0 0 0 74.548589759797323 -71.866758187969026 0 -71.866758187969026 0.060973942850274909 0 0 0 0 74.101878184526868 -73.286918093788813 0 -73.286918093788813 -4.4538420136850618 0 0 0 0 90.211206752996077 -68.395038276287323 0 -68.395038276287323 -3.1371466362475076 0 0 0 0 88.552098520929576 -73.762711071964986 0 -73.762711071964986 -19.564231990400913 0 0 0 0 89.209009911181056 -58.784868367143645 0 -58.784868367143645 -24.772004304160419 0 0 0 0 66.57230755670389 -73.577779916282452 0 -73.577779916282452 -14.149255762771645 0 0 0 0 87.709113214230456 -61.391884783112801 0 -61.391884783112801 7.0188685653411085 0 0 0 0 15.416882181305056 -47.379255378318348 0 -47.379255378318348 6.8400840277847887 0 0 0 0 96.788111341178592 -46.9026219876705 0 -46.9026219876705 17.946654548444712 0 0 0 0 88.479973903871723 -66.615102385230557 0 -66.615102385230557 -4.2826267231412203 0 0 0 0 -112.8828588652359 -23.477288455618037 0 -23.477288455618037 48.636985391197868 0 0 0 0 141.49211016012123 -28.830768402494868 0 -28.830768402494868 -4.3950317630833524 0 0 0 0 24.156136949471929 -48.384889822729548 0 -48.384889822729548 17.249718954109639 0 0 0 0 123.26282766899385 -45.731470556370823 0 -45.731470556370823 2.8236493241493008 0 0 0 0 116.24561710987473 -28.303035727150018 0 -28.303035727150018 14.800002110473997 0 0 0 0 111.30156404786976 -46.945380430190426 0 -46.945380430190426 -9.9233503699306311 0 0 0 0 89.899967082921648 -18.821931518192287 0 -18.821931518192287 -6.709102261688713 0 0 0 0 94.455109933303902 -36.552869450002618 0 -36.552869450002618 2.9685061277778004 0 0 0 0 94.912934797387379 -50.191384749227439 0 -50.191384749227439 -20.811671972921431 0 0 0 0 55.77821707091789 -38.368346147732581 0 -38.368346147732581 -89.041742146187858 0 0 0 0 97.673304408241734 -27.9322361398781 0 -27.9322361398781 4.9747883516118545 0 0 0 0 91.868887756267213 -31.515065527872139 0 -31.515065527872139 18.897211811240595 0 0 0 0 72.193130879255477 -59.107503546211547 0 -59.107503546211547 -77.56389298438242 0 0 0 0 -1.8661845596507192 -75.452498877713879 0 -75.452498877713879 -71.846875170669875 0 0 0 0 -1.6369107273640111 -56.283186069764724 0 -56.283186069764724 -66.263885629158722 0 0 0 0 20.339832137862686 -113.66460884891393 0 -113.66460884891393 -101.52936818879243 0 0 0 0 6.9593247798151197 -4.9081510737663621 0 -4.9081510737663621 -1.9511886775008414 0 0 0 0 110.83765649423003 -80.320453290121804 0 -80.320453290121804 -90.171341995783223 0 0 0 0 -62.155751823273022 -21.420554329871266 0 -21.420554329871266 -12.38546119009311 0 0 0 0 -50.960473374734647 -80.422129551635635 0 -80.422129551635635 -10.447091428479325 0 0 0 0 53.777160067576915 -52.870312293877305 0 -52.870312293877305 -7.2691543422029099 0 0 0 0 76.249699778665672 -63.153138901511738 0 -63.153138901511738 -25.193817669507325 0 0 0 0 110.44031957084593 -26.938816142745722 0 -26.938816142745722 6.6571687861588451 0 0 0 0 -66.058789405004063 -123.64328502791022 0 -123.64328502791022 -49.287425460198847 0 0 0 0 82.678934501534968 -54.758040314463038 0 -54.758040314463038 -47.619431281108135 0 0 0 0 146.77660643783747 -67.872550826875909 0 -67.872550826875909 -113.29338337344214 0 0 0 0 98.950945608012262 -41.092220853160484 0 -41.092220853160484 -83.636406303539786 0 0 0 0 207.31937006820226 -51.052904852799045 0 -51.052904852799045 -83.002397551201426 0 0 0 0 102.57392879412873 -59.620865777941887 0 -59.620865777941887 -46.935295621492102 0 0 0 0 126.73507714716834 -95.009068167336906 0 -95.009068167336906 0.017618117907602288 0 0 0 0 -3.5468775638291845 -65.868257026515863 0 -65.868257026515863 -53.533362732290811 0 0 0 0 0.42347970543210067 -66.823615983946709 0 -66.823615983946709 -62.267573825971112 0 0 0 0 1.9212991282361713 -0.94477383823867456 0 -0.94477383823867456 0.12342390112358426 0 0 0 0 -0.1410058761629216 -5.8645839903988213 0 -5.8645839903988213 -48.872255023575747 0 0 0 0 107.12563142183353 -29.770650472850264 0 -29.770650472850264 -87.613845747341912 0 0 0 0 -51.081000571502955 -39.889607765369121 0 -39.889607765369121 -0.081109994374443148 0 0 0 0 147.20120127461269 35.043986241199889 0 35.043986241199889 -38.735563442910433 0 0 0 0 1.0120610714851637 -0.38906422830650911 0 -0.38906422830650911 0.0062276694915156527 0 0 0 0 -10.201741706347093 -9.7687355287160251 0 -9.7687355287160251 -46.785375069261548 0 0 0 0 45.164219648286235 -66.80810877884376 0 -66.80810877884376 0.060931509168064418 0 0 0 0 180.58147278954857 -48.241547669196649 0 -48.241547669196649 -44.672113593624516 0 0 0 0 265.31662967833108 63.425051060707439 0 63.425051060707439 -64.603672439661409 0 0 0 0 99.439867260516621 33.37809385699569 0 33.37809385699569 -37.288406524137741 0 0 0 0 0.77510824467753991 -92.568930486703934 0 -92.568930486703934 -58.035115886534712 0 0 0 0 -28.741247490383103 -44.556067865236685 0 -44.556067865236685 -4.7505845594369873 0 0 0 0 -4.4276419822272146 -74.36475312608728 0 -74.36475312608728 -51.3472631388845 0 0 0 0 -86.602362828693003 -109.33837881176112 0 -109.33837881176112 -66.571927356949914 0 0 0 0 -44.933589960390236 -80.201006414517479 0 -80.201006414517479 -50.409826515682425 0 0 0 0 -8.0313302903600743 -13.324662297463234 0 -13.324662297463234 10.416723368561303 0 0 0 0 -12.189979773334926 -112.91571690155661 0 -112.91571690155661 -125.84283695352565 0 0 0 0 -68.187123258670908 -3.8267212146461134 0 -3.8267212146461134 41.798351608819189 0 0 0 0 1.3715941142862107 -0.32369425794855999 0 -0.32369425794855999 -0.13367271378103185 0 0 0 0 417.31125515690655 46.48162637671112 0 46.48162637671112 -67.679954234821452 0 0 0 0 378.32321025714919 -26.100971295140027 0 -26.100971295140027 1.8386777202867961 0 0 0 0 202.4892378999939 -183.13881474660758 0 -183.13881474660758 34.393256813140056 0 0 0 0 -55.34940528399602 -133.52945617725453 0 -133.52945617725453 96.247376591057389 0 0 0 0 -117.99199928261805 -28.802171589722491 0 -28.802171589722491 45.332408536414064 0 0 0 0 819.29627572983486 -372.93532202644275 0 -372.93532202644275 -142.85388471181284 0 0 0 0 357.77809219064147 -25.751124445987713 0 -25.751124445987713 332.41282933740388 0 0 0 0 799.13620324233489 124.64898505926578 0 124.64898505926578 33.986410828576794 0 0 0 0 421.61701771150615 -83.592076006402323 0 -83.592076006402323 -76.077802510071479 0 0 0 0 534.41497567220358 -66.796168806350792 0 -66.796168806350792 -101.44395153552182 0 0 0 0 532.820546947563 -168.49708338780894 0 -168.49708338780894 -54.997789801635349 0 0 0 0 350.35900719293386 -109.72070872064299 0 -109.72070872064299 -0.16902118814217132 0 0 0 0 514.32599711749936 -185.62149842711642 0 -185.62149842711642 0.10877508854012638 0 0 0 0 653.43547758710702 -126.21073550752155 0 -126.21073550752155 -68.478797900193968 0 0 0 0 545.62847848771344 119.88103395274277 0 119.88103395274277 -9.5882027748899077 0 0 0 0 401.88961538682634 -48.615475983107928 0 -48.615475983107928 -29.676417937156884 0 0 0 0 385.82403388411331 -75.648916312698589 0 -75.648916312698589 -75.046858436141264 0 0 0 0 494.00360726135841 -199.94171283538657 0 -199.94171283538657 -80.026698054813778 0 0 0 0 -42.06037383885996 -19.441889409250688 0 -19.441889409250688 -48.011586783238748 0 0 0 0 12.250144835779793 -70.543790686630032 0 -70.543790686630032 0.045442694027534411 0 0 0 0 2.4119918454106823 -0.57860140024448015 0 -0.57860140024448015 -0.00040955881396098626 0 0 0 0 -59.017992504726863 -36.616315763463028 0 -36.616315763463028 -0.084987635211932158 0 0 0 0 75.237719195560203 102.67315320564194 0 102.67315320564194 10.446317756905415 0 0 0 0 48.0274314706121 -49.95595781421077 0 -49.95595781421077 -130.74418519136481 0 0 0 0 37.558908464430715 -121.07761749276185 0 -121.07761749276185 -72.464448160061551 0 0 0 0 4.5316467051214886 -1.8742454455381363 0 -1.8742454455381363 0.29262452468227002 0 0 0 0 155.23246022604872 77.092148536751836 0 77.092148536751836 -61.684349705507771 0 0 0 0 111.98456301679471 75.175054073703365 0 75.175054073703365 -9.0357122803320635 0 0 0 0 375.07646216575813 -159.23322006795053 0 -159.23322006795053 -86.284013070095426 0 0 0 0 59.793620299031318 12.115008724091766 0 12.115008724091766 -33.942153918786062 0 0 0 0 345.06267600714637 -183.94322087401943 0 -183.94322087401943 4.4369671077013209 0 0 0 0 -112.81397894733527 -1.3742355132814055 0 -1.3742355132814055 -47.48551505460955 0 0 0 0 251.95261745798052 -398.33789333782534 0 -398.33789333782534 -14.578512598400778 0 0 0 0 959.49626863660546 431.51759166635117 0 431.51759166635117 -323.60580273961477 0 0 0 0 8.5165450525848314 -1.7012163185210909 0 -1.7012163185210909 -0.11440152766536849 0 0 0 0 402.24144029218587 491.77798553335549 0 491.77798553335549 -173.5309005094814 0 0 0 0 415.24177071865415 274.87269581109103 0 274.87269581109103 94.898946298280066 0 0 0 0 651.93044278703746 -500.37266000146474 0 -500.37266000146474 -734.16113262163617 0 0 0 0 175.0756135921838 324.94240473856291 0 324.94240473856291 84.482230433350992 0 0 0 0 99.690147017077834 -70.229027453023491 0 -70.229027453023491 -338.48776783552876 0 0 0 0 15.596786109626294 -5.241692915957394 0 -5.241692915957394 0.66134234392014535 0 0 0 0 -0.76178492976760026 -49.051122288198144 0 -49.051122288198144 0.45870008307147003 0 0 0 0 436.13149209586118 92.888722762322686 0 92.888722762322686 -209.66047931007051 0 0 0 0 7.1882707046444807 -3.2920993021700085 0 -3.2920993021700085 1.2956959600164613 0 0 0 0 -175.07180030699055 -726.3893131300897 0 -726.3893131300897 703.27665634158507 0 0 0 0 -78.806053491993225 -98.793912571950159 0 -98.793912571950159 280.24303196618803 0 0 0 0 -7.7354363488848321 -518.88241513127252 0 -518.88241513127252 910.68379236661372 0 0 0 0 392.38337741076248 -666.81691309569828 0 -666.81691309569828 633.79277694388361 0 0 0 0 -110.29854857871396 -301.47028273578894 0 -301.47028273578894 458.60746528984237 0 0 0 0 52.242285987897048 111.50429853697362 0 111.50429853697362 -197.79792544889466 0 0 0 0 190.08845194525202 -298.62179512601085 0 -298.62179512601085 367.45032794057812 0 0 0 0 39.127031048497884 357.8573534821868 0 357.8573534821868 767.070511339841 0 0 0 0 68.124909180070972 -114.27774864998899 0 -114.27774864998899 -26.267457073041392 0 0 0 0 368.05650746758329 -458.15775472345427 0 -458.15775472345427 559.30309323482084 0 0 0 0 2122.4131494679459 284.43727678731602 0 284.43727678731602 851.42784744201572 0 0 0 0 1224.6675241392804 -1443.627904585743 0 -1443.627904585743 601.8624077746299 0 0 0 0 17.766731515135461 3.8467524002213906 0 3.8467524002213906 1.0829698123812452 0 0 0 0 2012.2173520473298 -2379.7315049824256 0 -2379.7315049824256 1202.6581117396645 0 0 0 0 20.417718095497548 571.69663389375717 0 571.69663389375717 371.06382294637478 0 0 0 0 0.14144236283027567 -9.4270209092705954 0 -9.4270209092705954 -58.805147679086076 0 0 0 0 1060.4123539299471 -1054.7662487630344 0 -1054.7662487630344 829.34858929349821 0 0 0 0 98.587682350480463 -202.27437670239237 0 -202.27437670239237 1757.958162178812 0 0 0 0 1784.6724849327438 640.43019218988911 0 640.43019218988911 76.481184054479854 0 0 0 0 231.90981146014383 7.9771811964816379 0 7.9771811964816379 282.23928801744887 0 0 0 0 307.96207934574704 162.3153702706104 0 162.3153702706104 6.2125448569444188 0 0 0 0 820.81105673834099 -1.8473486468544706 0 -1.8473486468544706 -110.49660495986012 0 0 0 0 26.969488880495192 -53.261093121702913 0 -53.261093121702913 -163.65157583425412 0 0 0 0 -31.533338295121212 54.882750937402875 0 54.882750937402875 75.970834488883611 0 0 0 0 134.37883890249941 182.7819712638406 0 182.7819712638406 -228.08412452933578 0 0 0 0 113.97177131965873 -95.728650075068629 0 -95.728650075068629 -217.23160993744921 0 0 0 0 170.74369198780914 82.174780055852125 0 82.174780055852125 56.293614597071951 0 0 0 0 478.11053341400111 -20.122367145589465 0 -20.122367145589465 351.87985852936436 0 0 0 0 80.937378111033468 -169.5029401152774 0 -169.5029401152774 301.43889832816183 0 0 0 0 261.7577826991037 100.50516023715113 0 100.50516023715113 78.706888587638957 0 0 0 0 268.00853861468204 -258.41954320063473 0 -258.41954320063473 590.14167402074781 0 0 0 0 657.47066308757894 -443.81281866699095 0 -443.81281866699095 153.78122508662966 0 0 0 0 353.37018326843827 -91.248673908902106 0 -91.248673908902106 189.70525879364959 0 0 0 0 296.13442869564278 -89.527223292708385 0 -89.527223292708385 228.00308046490966 0 0 0 0 478.48787931646802 -179.32253509727053 0 -179.32253509727053 157.96017007615788 0 0 0 0 448.96441006253008 -142.01943200386978 0 -142.01943200386978 117.9580657048129 0 0 0 0 521.81435408874677 -171.17365278471937 0 -171.17365278471937 102.41056578864004 0 0 0 0 504.52492936576891 -177.53924419054582 0 -177.53924419054582 110.89547221104044 0 0 0 0 504.967364096854 -176.56518538631539 0 -176.56518538631539 45.520987972102546 0 0 0 0 532.74997835920658 -198.17307787965115 0 -198.17307787965115 -36.11716703542362 0 0 0 0 64.912323532778828 -258.08460144305656 0 -258.08460144305656 54.246248083046908 0 0 0 0 2.6080117048173861 -0.96593505289712311 0 -0.96593505289712311 0.11500780862143811 0 0 0 0 519.60382769022544 74.091669430020517 0 74.091669430020517 -80.385669499585987 0 0 0 0 -37.451199582083063 -1.3389980590557933 0 -1.3389980590557933 -3.319492159397214 0 0 0 0 625.76039365232282 -205.63521637839227 0 -205.63521637839227 -6.0708139085685957 0 0 0 0 379.72779100336629 -104.6170922578218 0 -104.6170922578218 -0.091102439718016279 0 0 0 0 277.62649796542246 17.852772634769259 0 17.852772634769259 -41.811906668891105 0 0 0 0 496.10832693972407 -155.10966245837528 0 -155.10966245837528 27.75684387028042 0 0 0 0 505.31821847811807 -87.151361773042183 0 -87.151361773042183 -89.220594475720674 0 0 0 0 520.39708387744031 -160.34822844390419 0 -160.34822844390419 12.497278370005741 0 0 0 0 508.99234992965648 -148.23257614740183 0 -148.23257614740183 -0.047703946706517786 0 0 0 0 505.96424404740537 -148.65430059679491 0 -148.65430059679491 19.738131515350517 0 0 0 0 501.15698497128324 -138.67002468096123 0 -138.67002468096123 0.0092254905822109212 0 0 0 0 492.98722157125303 -144.90441072682921 0 -144.90441072682921 18.836542939919809 0 0 0 0 508.17960741048591 -129.15664655375616 0 -129.15664655375616 12.565250595608404 0 0 0 0 590.016764173517 -134.74818492115517 0 -134.74818492115517 0.14354226547062462 0 0 0 0 1.7473695510359164 -0.73159807918452202 0 -0.73159807918452202 0.33490780026404354 0 0 0 0 716.89169153052717 79.578169492259292 0 79.578169492259292 -18.541578153717239 0 0 0 0 324.32895093456318 99.029096541882495 0 99.029096541882495 -19.432163788513265 0 0 0 0 485.1809303609698 -87.793426084572189 0 -87.793426084572189 -0.80328495022462221 0 0 0 0 488.14961220491386 -88.879580569780927 0 -88.879580569780927 -5.1493068423673094 0 0 0 0 428.5496281235537 -34.194755552850978 0 -34.194755552850978 -37.816240243282721 0 0 0 0 454.67096843338732 -92.979377425927041 0 -92.979377425927041 30.527507039448324 0 0 0 0 283.73983764842706 -40.914647233654847 0 -40.914647233654847 59.114106193302575 0 0 0 0 446.10676810970472 -77.15050249888634 0 -77.15050249888634 16.522651713982611 0 0 0 0 450.83282262772991 -93.845256030840801 0 -93.845256030840801 75.490255449440042 0 0 0 0 446.95344371540841 -110.64729454697995 0 -110.64729454697995 44.82353327142755 0 0 0 0 482.17105536795862 -131.98179676101529 0 -131.98179676101529 54.023027548796733 0 0 0 0 473.82633290784725 -105.84409146002423 0 -105.84409146002423 -0.77410594916909758 0 0 0 0 259.53729444778037 30.939616745287839 0 30.939616745287839 0.063826417342409958 0 0 0 0 363.26461806945736 41.182948912678256 0 41.182948912678256 -13.712920413855437 0 0 0 0 360.58335060340323 79.530393707728251 0 79.530393707728251 85.784743640745603 0 0 0 0 89.203277560620336 17.297990507743535 0 17.297990507743535 0.066286150491435838 0 0 0 0 203.2299832950157 104.33569143915932 0 104.33569143915932 59.710945129289726 0 0 0 0 143.99685059480544 38.794492454592572 0 38.794492454592572 18.360011598743306 0 0 0 0 219.14390406293751 93.420986729615421 0 93.420986729615421 21.109762638982666 0 0 0 0 2.4928879753812794 -1.8900431169122101 0 -1.8900431169122101 1.2477041481482223 0 0 0 0 114.09478574823879 86.905626310160812 0 86.905626310160812 9.990518540953758 0 0 0 0 204.04330188973472 -58.036930736674691 0 -58.036930736674691 -37.926828189212415 0 0 0 0 278.55555678834207 -32.647276040603629 0 -32.647276040603629 96.898146466619608 0 0 0 0 112.79754356718331 -94.970850277161674 0 -94.970850277161674 142.34999920266887 0 0 0 0 238.11499076898326 -249.99376581028747 0 -249.99376581028747 285.8504488903389 0 0 0 0 -31.592662761759129 -118.02005456703552 0 -118.02005456703552 253.92798789694797 0 0 0 0 465.49332385041635 41.776396730515387 0 41.776396730515387 17.533802260265208 0 0 0 0 1.3182602634833813 -0.99727776767832665 0 -0.99727776767832665 0.85049061352115074 0 0 0 0 532.97223572258372 -24.691053096568226 0 -24.691053096568226 65.209405432895352 0 0 0 0 292.61892976436411 -59.08656837289864 0 -59.08656837289864 213.0659468176141 0 0 0 0 297.50182672107985 -12.863417087500673 0 -12.863417087500673 116.91119016449848 0 0 0 0 524.27550580594107 -121.53859131979216 0 -121.53859131979216 161.54887302239069 0 0 0 0 472.55510192801012 -231.58946758540779 0 -231.58946758540779 388.44585494829209 0 0 0 0 548.48677399501321 -192.88011048406173 0 -192.88011048406173 354.56053196158632 0 0 0 0 -24.779683865635889 18.480247442046736 0 18.480247442046736 339.51780723249664 0 0 0 0 100.56357659742935 48.338051503927055 0 48.338051503927055 159.05301435406264 0 0 0 0 254.06721724642557 -168.9792796810396 0 -168.9792796810396 403.15901791383152 0 0 0 0 145.8811504986661 7.794412680658553 0 7.794412680658553 211.540324375057 0 0 0 0 187.01041608248488 41.762383981876539 0 41.762383981876539 233.494819601861 0 0 0 0 85.580734171177028 110.22417518992475 0 110.22417518992475 196.56597306545797 0 0 0 0 194.78157397125324 92.784774752234028 0 92.784774752234028 167.83318069668502 0 0 0 0 173.57795064985839 89.718838221267902 0 89.718838221267902 168.34582928735745 0 0 0 0 263.43180679512443 8.2329258471936839 0 8.2329258471936839 84.365716860364785 0 0 0 0 294.52992072384222 61.842370473667167 0 61.842370473667167 163.89938894746712 0 0 0 0 50.653403774820617 -64.405421448074506 0 -64.405421448074506 40.679058455804267 0 0 0 0 48.573049212347541 -30.488846065377473 0 -30.488846065377473 -11.699483441956062 0 0 0 0 64.508594138649642 57.594213749592029 0 57.594213749592029 146.27889674170467 0 0 0 0 170.9195860959735 101.39980472378502 0 101.39980472378502 79.64174126686666 0 0 0 0 165.50873950176174 128.28004284327051 0 128.28004284327051 125.50559492994719 0 0 0 0 87.020953140425263 55.647330647233922 0 55.647330647233922 123.03347636616058 0 0 0 0 72.618114226250327 81.972086380324697 0 81.972086380324697 76.251963154946509 0 0 0 0 26.004017285842565 -26.054657683076861 0 -26.054657683076861 -67.166881587148282 0 0 0 0 0.13888686153978824 -0.51182969014769242 0 -0.51182969014769242 1.3481333567422924 0 0 0 0 -71.529445511696395 97.030068437761571 0 97.030068437761571 213.45868228629206 0 0 0 0 21.477221470966469 131.03857460187936 0 131.03857460187936 77.180927669338558 0 0 0 0 -116.31524101240211 -9.9163440215115131 0 -9.9163440215115131 18.437286209674291 0 0 0 0 -12.271281176508637 -21.550803996413208 0 -21.550803996413208 11.735013349340164 0 0 0 0 -11.951882335619302 -15.147722418052922 0 -15.147722418052922 -95.470572818118583 0 0 0 0 -0.49232780327787395 -1.4275156345094899 0 -1.4275156345094899 2.4615976658566039 0 0 0 0 230.7313753956696 -112.13978186352941 0 -112.13978186352941 -28.680496215237895 0 0 0 0 111.39417311437137 -87.458299535078083 0 -87.458299535078083 62.271521890886049 0 0 0 0 272.68918283791572 -97.456224930534916 0 -97.456224930534916 -12.517397832130939 0 0 0 0 471.93111802076692 -246.87465799216349 0 -246.87465799216349 99.468189004450892 0 0 0 0 247.63796497606745 -151.15348296096226 0 -151.15348296096226 145.7486042197018 0 0 0 0 228.31271319274674 -109.22054462497323 0 -109.22054462497323 84.626945462699325 0 0 0 0 311.46141010110296 -138.79576157725469 0 -138.79576157725469 39.382157936503461 0 0 0 0 437.57854044043052 -121.69970269712047 0 -121.69970269712047 2.4133854317844339 0 0 0 0 164.72530998600996 207.73172696847206 0 207.73172696847206 233.96144757874299 0 0 0 0 165.05065125544934 -145.30899022177761 0 -145.30899022177761 134.87375581885357 0 0 0 0 3.9472677594238235 -0.35654210376673845 0 -0.35654210376673845 0.061198259134987332 0 0 0 0 78.276448171100128 46.835310157355401 0 46.835310157355401 39.811792798287684 0 0 0 0 0.21490871590503957 23.559668094814185 0 23.559668094814185 -47.275020943131381 0 0 0 0 3.0579987924716221 -0.30975791901369121 0 -0.30975791901369121 -0.13290251327120051 0 0 0 0 -159.53647562993501 176.70699941056927 0 176.70699941056927 306.92610506023379 0 0 0 0 1.9268514297132242 -2.0873730895745553 0 -2.0873730895745553 0.16877854685177773 0 0 0 0 -42.617840040024021 -1.667414976683574 0 -1.667414976683574 104.40908644149613 0 0 0 0 25.638190386263886 -78.240010759377313 0 -78.240010759377313 -108.9623035846251 0 0 0 0 14.092065777251264 -91.04084275292054 0 -91.04084275292054 -106.5652594930657 0 0 0 0 28.166873777852743 -89.336668981369371 0 -89.336668981369371 -108.15165725505335 0 0 0 0 39.005607741244603 -79.862286381533579 0 -79.862286381533579 -112.56922006111824 0 0 0 0 5.4388430923718261 15.943848618184433 0 15.943848618184433 -37.788752085034673 0 0 0 0 395.83316021310748 175.04794275087227 0 175.04794275087227 -167.2643328211077 0 0 0 0 10.992178788006299 0.99120135883211447 0 0.99120135883211447 -0.83042176852094896 0 0 0 0 -12.391280019131955 19.01565672712934 0 19.01565672712934 -88.825868285412412 0 0 0 0 6.9104109888731955 1.9342646119907165 0 1.9342646119907165 -0.44378787194081504 0 0 0 0 -127.07728081093228 59.140604578073749 0 59.140604578073749 213.70313045731785 0 0 0 0 4.1616221305815202 1.0593201387790714 0 1.0593201387790714 -0.26271819540599495 0 0 0 0 30.92462441365933 28.864631511885477 0 28.864631511885477 154.13289128350175 0 0 0 0 33.53243106676382 -135.6974590569796 0 -135.6974590569796 -152.91953119797847 0 0 0 0 -82.030158801673679 -156.45789268129082 0 -156.45789268129082 -60.0925300052929 0 0 0 0 37.246513622732891 -40.248039139389618 0 -40.248039139389618 7.5844483941486942 0 0 0 0 4.9644891592906788 -104.51684927204238 0 -104.51684927204238 -46.619953472812085 0 0 0 0 436.07781484685256 -56.521848673973693 0 -56.521848673973693 91.658700603464197 0 0 0 0 515.57464400064782 -0.4658301648657357 0 -0.4658301648657357 105.63525309068991 0 0 0 0 422.93491364400688 -39.779448859595959 0 -39.779448859595959 97.019302363223915 0 0 0 0 450.17197957343888 -51.947661879644926 0 -51.947661879644926 75.037388181976553 0 0 0 0 425.37932429176726 -71.068064181664425 0 -71.068064181664425 87.587088635970304 0 0 0 0 393.86442653580161 -42.673551385959456 0 -42.673551385959456 63.829402042027766 0 0 0 0 388.05930021998211 -68.890298618382161 0 -68.890298618382161 62.696181223603645 0 0 0 0 404.49783938510518 -55.513980432352867 0 -55.513980432352867 53.670006019958862 0 0 0 0 322.44229879401973 -71.564246640717272 0 -71.564246640717272 85.003734421359923 0 0 0 0 396.00028743258372 -62.518076300008872 0 -62.518076300008872 188.34019072027729 0 0 0 0 449.0401432664512 31.235693121257412 0 31.235693121257412 135.74279704795418 0 0 0 0 315.3287272588932 -0.15081596192806046 0 -0.15081596192806046 281.53611971291514 0 0 0 0 276.88939721687348 -81.315986594313699 0 -81.315986594313699 185.85738865578196 0 0 0 0 502.13959213922499 -123.13546526445955 0 -123.13546526445955 69.969499364401031 0 0 0 0 380.84248063073755 -204.72109687622751 0 -204.72109687622751 278.60044471775404 0 0 0 0 458.8731777789726 -71.845305546608785 0 -71.845305546608785 81.01155802635526 0 0 0 0 703.37308713825041 -327.02124809322277 0 -327.02124809322277 275.76605761610608 0 0 0 0 973.09762033258767 52.836360442525006 0 52.836360442525006 194.27161706411084 0 0 0 0 388.56450724181195 -111.93033706991389 0 -111.93033706991389 565.44676466741362 0 0 0 0 431.5783934876963 -68.136997699173364 0 -68.136997699173364 206.79910395206971 0 0 0 0 508.42098021345737 42.031461741283799 0 42.031461741283799 -209.45002527621523 0 0 0 0 233.59513160572533 -42.604615310298101 0 -42.604615310298101 283.59382973584064 0 0 0 0 397.83885256733356 -74.551505205261009 0 -74.551505205261009 199.34697926339663 0 0 0 0 367.17251383137773 -80.53098872298068 0 -80.53098872298068 165.22709181388325 0 0 0 0 148.70658386260766 160.43473460226781 0 160.43473460226781 -35.008231778872414 0 0 0 0 182.39100839736057 4.3919503179573098 0 4.3919503179573098 -119.90737286204069 0 0 0 0 303.15993550117855 -18.785488420215614 0 -18.785488420215614 -112.95513271718983 0 0 0 0 29.774053179906332 -43.700058608477889 0 -43.700058608477889 -88.577875933709493 0 0 0 0 619.93710410183121 279.11034748973793 0 279.11034748973793 -512.84692495866761 0 0 0 0 118.26393303866098 212.54708585566277 0 212.54708585566277 -461.84590762226077 0 0 0 0 -122.63531059367233 -362.62480476477793 0 -362.62480476477793 -550.19804146121487 0 0 0 0 0.33873363148967428 1.4809102505746523 0 1.4809102505746523 -5.051378568810919 0 0 0 0 491.526090464351 319.37970868618748 0 319.37970868618748 -160.75273916631306 0 0 0 0 -209.00163375627017 328.30240768346187 0 328.30240768346187 -348.91767945403865 0 0 0 0 447.22738557244884 363.38971594764183 0 363.38971594764183 -381.01864850313962 0 0 0 0 198.11747831063258 -16.970737767535581 0 -16.970737767535581 -582.47721142005321 0 0 0 0 200.9883588879311 149.91641668066359 0 149.91641668066359 -502.80585650617604 0 0 0 0 41.117181769135641 128.06592430478719 0 128.06592430478719 -298.84034244656033 0 0 0 0 412.26982751752075 157.40073732017399 0 157.40073732017399 -130.31558305261433 0 0 0 0 515.24577402627619 111.11450661825248 0 111.11450661825248 -298.45843407668616 0 0 0 0 358.23494643322192 129.55296894797289 0 129.55296894797289 -151.27858215909131 0 0 0 0 405.43121438733942 61.765641725688184 0 61.765641725688184 -559.67108937277817 0 0 0 0 -24.445794839870359 52.928685523203995 0 52.928685523203995 -147.124599263645 0 0 0 0 -33.897011073946487 32.348534917936831 0 32.348534917936831 -121.47173606256274 0 0 0 0 -11.546607747903181 35.311844853163805 0 35.311844853163805 -131.79660924370523 0 0 0 0 24.960300023929449 11.192509585167443 0 11.192509585167443 -111.29357000699622 0 0 0 0 -8.8300244326555912 8.0526435324743595 0 8.0526435324743595 -108.18678559877731 0 0 0 0 101.146152930276 72.190568155595599 0 72.190568155595599 -98.972891921844848 0 0 0 0 13.181148861200199 14.544854603181307 0 14.544854603181307 -56.891627498658863 0 0 0 0 16.74080592073733 8.5675941956757242 0 8.5675941956757242 -47.321101360838952 0 0 0 0 178.63280841738015 45.364851110927873 0 45.364851110927873 -348.52296067272152 0 0 0 0 12.084177748387447 -13.495120332717192 0 -13.495120332717192 -179.71406533776883 0 0 0 0 257.5722442575061 173.56489486671239 0 173.56489486671239 -161.68140833615467 0 0 0 0 92.120930756893358 84.118369133835984 0 84.118369133835984 -96.011909414633465 0 0 0 0 194.70158994395752 203.43148070045083 0 203.43148070045083 19.546300550510864 0 0 0 0 338.72095326973067 224.33291825508792 0 224.33291825508792 -3.8376065884907575 0 0 0 0 288.09713805285719 149.996683401072 0 149.996683401072 -109.40143028206262 0 0 0 0 246.20032759383321 181.7150198675198 0 181.7150198675198 -101.33578051771195 0 0 0 0 183.50612249906715 227.53152191932935 0 227.53152191932935 -134.38148256974137 0 0 0 0 217.79238381352479 -46.590225175133696 0 -46.590225175133696 -281.90629168043938 0 0 0 0 63.520539170560369 -20.356184576868657 0 -20.356184576868657 -184.63804421795703 0 0 0 0 168.87129658649792 3.1155314210884626 0 3.1155314210884626 -181.93560363452445 0 0 0 0 296.38357715660095 91.100319157222316 0 91.100319157222316 -184.26917353990552 0 0 0 0 2.2335995177332961 1.1825745761822173 0 1.1825745761822173 -0.34346916220108925 0 0 0 0 109.11205889171106 138.03493921408131 0 138.03493921408131 73.159038094776292 0 0 0 0 48.692018617046415 34.437316170267195 0 34.437316170267195 -76.601213990075394 0 0 0 0 27.813533521453792 24.655719452564711 0 24.655719452564711 -76.957341924269713 0 0 0 0 21.482694697486295 68.609296765979593 0 68.609296765979593 -191.20771020881421 0 0 0 0 13.266877613816177 75.955105162988275 0 75.955105162988275 -27.619614719778838 0 0 0 0 63.523510219994932 28.623526472522826 0 28.623526472522826 -17.451312036940067 0 0 0 0 18.370689935490816 1.0175121086375327 0 1.0175121086375327 -6.3005707047352821 0 0 0 0 11.801235805461943 -6.306748984833888 0 -6.306748984833888 -0.73882494566333357 0 0 0 0 76.104247534516617 33.543463134272827 0 33.543463134272827 -224.85805930415381 0 0 0 0 5.5701780117306043 -15.551998196035129 0 -15.551998196035129 -133.89621374905801 0 0 0 0 67.798144232394407 23.967177723233647 0 23.967177723233647 -147.50470197262348 0 0 0 0 157.79381161318116 4.6098176489307834 0 4.6098176489307834 -168.22898297824986 0 0 0 0 157.76761060225544 21.769831845497947 0 21.769831845497947 -158.23689442321302 0 0 0 0 137.76659573800498 7.7955674401875967 0 7.7955674401875967 -125.01258753166439 0 0 0 0 177.10025694253272 -8.6394274352089724 0 -8.6394274352089724 -160.1583366975583 0 0 0 0 218.90492564908345 -15.427413358801459 0 -15.427413358801459 -92.183202791974509 0 0 0 0 169.02256867922551 27.815365214835992 0 27.815365214835992 -129.62731864568559 0 0 0 0 102.30533619216294 65.160360197501177 0 65.160360197501177 -185.17356770831884 0 0 0 0 143.01176351393224 -11.530409191971557 0 -11.530409191971557 -158.46535917442634 0 0 0 0 133.74221688156831 0.4505770874125119 0 0.4505770874125119 -56.211574559332803 0 0 0 0 73.494106093537994 53.788112928977171 0 53.788112928977171 -46.660658828585497 0 0 0 0 1.6462879867206937 -0.50275316362885292 0 -0.50275316362885292 -0.11574352463575721 0 0 0 0 200.79958468399127 62.854270621962996 0 62.854270621962996 -54.997962778802048 0 0 0 0 137.00303072850511 -1.7936160374849806 0 -1.7936160374849806 -119.72283682565421 0 0 0 0 147.55281905533047 7.8079630608617663 0 7.8079630608617663 -165.14648541412998 0 0 0 0 178.40734780539469 19.719775296754158 0 19.719775296754158 -160.57436585726509 0 0 0 0 -15.90478974636062 -82.241144708372303 0 -82.241144708372303 -135.58670085289668 0 0 0 0 134.71581747192249 -43.064393046158102 0 -43.064393046158102 -205.31632983343763 0 0 0 0 111.66108438839728 19.27792137278675 0 19.27792137278675 -33.388729314167676 0 0 0 0 109.44598245918314 34.457449574722546 0 34.457449574722546 -41.09954326371826 0 0 0 0 5.6678487602621317 -179.98000728505212 0 -179.98000728505212 -19.928401550718263 0 0 0 0 230.27071437519771 74.702315705874184 0 74.702315705874184 -110.16099774286977 0 0 0 0 56.437922287394372 -17.188364187926297 0 -17.188364187926297 5.4164324802834525 0 0 0 0 13.708522151905186 11.645749999991807 0 11.645749999991807 -18.451195355794795 0 0 0 0 154.21409036923433 467.94805742607741 0 467.94805742607741 103.95485162813611 0 0 0 0 176.84289903517518 -10.167058101233273 0 -10.167058101233273 -23.950514288563934 0 0 0 0 -408.4359331035339 -62.001087782381546 0 -62.001087782381546 338.8819369722878 0 0 0 0 -97.641943006306974 -343.1246323390742 0 -343.1246323390742 -131.51823479333984 0 0 0 0 285.10648422495797 33.58660456003031 0 33.58660456003031 31.904217258704193 0 0 0 0 63.752436804290525 20.637151919398988 0 20.637151919398988 20.868216197734476 0 0 0 0 201.56055561281391 130.15845541891781 0 130.15845541891781 82.836675682332952 0 0 0 0 83.214894952363437 -12.675834499866063 0 -12.675834499866063 -16.87952700098527 0 0 0 0 93.111576351396934 29.051382122186283 0 29.051382122186283 7.9961900170637445 0 0 0 0 56.771653704694472 4.4374882972915657 0 4.4374882972915657 -27.361002434343391 0 0 0 0 165.04618641393893 20.461882936561494 0 20.461882936561494 -7.981027058790648 0 0 0 0 56.998916628042934 -23.153595981960279 0 -23.153595981960279 12.165915151785157 0 0 0 0 106.26506461569807 26.845035172973439 0 26.845035172973439 6.4563841371978015 0 0 0 0 127.67265447272803 33.192733096571828 0 33.192733096571828 29.941995008946833 0 0 0 0 110.68593840886751 56.133768838656579 0 56.133768838656579 73.441272651121835 0 0 0 0 109.20388820649532 24.374807447696639 0 24.374807447696639 -0.34311573673949169 0 0 0 0 158.38785911962623 80.770039049410116 0 80.770039049410116 39.730673172773095 0 0 0 0 151.56451166665647 20.175421686853952 0 20.175421686853952 9.7758235255932959 0 0 0 0 95.759682855899925 2.4661633863531307 0 2.4661633863531307 13.09038684879531 0 0 0 0 94.292390907820902 5.9244317917178364 0 5.9244317917178364 -13.331034505770891 0 0 0 0 116.81080443708925 42.058540016641928 0 42.058540016641928 6.0024936698464444 0 0 0 0 117.54395471909083 45.188575049243809 0 45.188575049243809 19.225024120694798 0 0 0 0 113.30811764169084 34.975265820546582 0 34.975265820546582 33.595543113699932 0 0 0 0 195.0797244971327 44.281861983446106 0 44.281861983446106 -12.832153977536109 0 0 0 0 39.649770595241826 5.26456000727012 0 5.26456000727012 1.6141001494877685 0 0 0 0 178.24321353661071 44.331157711042579 0 44.331157711042579 -7.9508329549773862 0 0 0 0 98.242928066072636 10.278497191085535 0 10.278497191085535 27.265049959359658 0 0 0 0 98.935968884613203 8.8859865955968438 0 8.8859865955968438 7.5573931691715188 0 0 0 0 98.618314256440499 25.944931573548047 0 25.944931573548047 -0.99931525511874497 0 0 0 0 74.869340431996648 32.496325427804152 0 32.496325427804152 1.2676027182237277 0 0 0 0 64.086901523125562 21.84105956638561 0 21.84105956638561 -0.72839355964197239 0 0 0 0 112.41444453303384 34.868161921834556 0 34.868161921834556 -7.9752477680426006 0 0 0 0 61.847582426504232 19.136768209342335 0 19.136768209342335 -17.550544936453662 0 0 0 0 107.11983615464558 26.695868977080451 0 26.695868977080451 -4.7038532373628108 0 0 0 0 94.59683061096797 23.4275185926519 0 23.4275185926519 3.5795781308036112 0 0 0 0 141.90374047961086 1.290941171675513 0 1.290941171675513 -46.960854439581453 0 0 0 0 136.71022727262891 31.061774673068712 0 31.061774673068712 13.638683310811334 0 0 0 0 115.28740644679056 -37.156350528959592 0 -37.156350528959592 33.85284740330826 0 0 0 0 180.15644933487056 37.758832215455186 0 37.758832215455186 -14.945993221881508 0 0 0 0 248.16842459747568 40.84964920123457 0 40.84964920123457 30.148375316228339 0 0 0 0 108.19146942255611 30.454732347257959 0 30.454732347257959 89.127512215874958 0 0 0 0 57.064945068765155 45.369344695349866 0 45.369344695349866 55.834568849081279 0 0 0 0 0.08785855685184174 0.35677938122172748 0 0.35677938122172748 2.238425280734754 0 0 0 0 130.47651192681224 20.83694800912599 0 20.83694800912599 14.659991387840819 0 0 0 0 55.625943045925325 27.136444675925219 0 27.136444675925219 38.079318271051292 0 0 0 0 62.308783164009924 6.8465848464899679 0 6.8465848464899679 4.1622130055016022 0 0 0 0 66.85718588485534 18.036658697422681 0 18.036658697422681 1.4788481662539832 0 0 0 0 67.009156541423167 16.228125781734015 0 16.228125781734015 -14.238631625687301 0 0 0 0 114.57942229870241 26.27228492634714 0 26.27228492634714 -2.1681088701664635 0 0 0 0 130.64939930897526 6.2530927824278137 0 6.2530927824278137 -7.3612168978484078 0 0 0 0 112.46382775811435 -4.4664987748109368 0 -4.4664987748109368 -10.040290036475142 0 0 0 0 112.97693600720959 6.7163131896581945 0 6.7163131896581945 -6.2761343869058237 0 0 0 0 117.49378156822058 6.8877269334338962 0 6.8877269334338962 7.5024146308197714 0 0 0 0 125.8620477232591 -4.1293472690514932 0 -4.1293472690514932 -22.722168176744514 0 0 0 0 112.5630039819298 5.5844745075479523 0 5.5844745075479523 4.9508934321961533 0 0 0 0 114.33587506075855 -3.0872119272371492 0 -3.0872119272371492 15.135679647715278 0 0 0 0 68.025324368342694 27.434787804702822 0 27.434787804702822 -1.5695801857455347 0 0 0 0 47.520108086496066 -30.170886491691149 0 -30.170886491691149 -2.5598502511778349 0 0 0 0 117.23819280906173 6.0631272094700535 0 6.0631272094700535 4.8875909855519239 0 0 0 0 104.517678232648 155.73742701462572 0 155.73742701462572 -392.96203999990394 0 0 0 0 3151.4550693428027 769.16485263348613 0 769.16485263348613 1124.2345257382306 0 0 0 0 179.22531437892832 -8.6915755849490139 0 -8.6915755849490139 -26.815758261390449 0 0 0 0 -22.872908776640543 -333.12946296909854 0 -333.12946296909854 -450.38391555487641 0 0 0 0 227.58808553859126 213.25234579508106 0 213.25234579508106 -107.08194634970459 0 0 0 0 15.935814379313854 -36.171935621529997 0 -36.171935621529997 -18.050130390424062 0 0 0 0 291.17209136113524 -204.0646264914767 0 -204.0646264914767 -1699.9581071871671 0 0 0 0 266.22946780398343 127.43536518283327 0 127.43536518283327 69.966062909225002 0 0 0 0 275.77057464563404 36.610957917657288 0 36.610957917657288 123.65475539231556 0 0 0 0 105.78042598785032 19.252066918670607 0 19.252066918670607 375.42933193288809 0 0 0 0 157.19620164059376 41.335451151749353 0 41.335451151749353 5.311279635519508 0 0 0 0 112.61163765212405 230.31199184465822 0 230.31199184465822 -252.31600372547882 0 0 0 0 -88.662201862956863 -305.53115697951262 0 -305.53115697951262 -354.91882994193475 0 0 0 0 24.178827899580256 24.130410319058228 0 24.130410319058228 -0.50463648939572536 0 0 0 0 9.7716841520596063 -317.90258330320194 0 -317.90258330320194 -669.53158667165008 0 0 0 0 40.944674070662586 259.83782580793218 0 259.83782580793218 -148.29416795501811 0 0 0 0 10.379406627185801 -1.4258210041831347 0 -1.4258210041831347 -2.5349262426550627 0 0 0 0 -211.79039840225596 -738.52622871867061 0 -738.52622871867061 210.04307840054494 0 0 0 0 -426.39771962315717 -301.05802766685622 0 -301.05802766685622 -448.82518032805842 0 0 0 0 -191.58119288309535 207.25685755381983 0 207.25685755381983 230.35680921636359 0 0 0 0 -933.80342051973275 892.70505230387448 0 892.70505230387448 23.949909425740316 0 0 0 0 325.82260950854106 -756.45733524477123 0 -756.45733524477123 -803.70940613511993 0 0 0 0 3075.9564322397346 2012.0213164162737 0 2012.0213164162737 200.12243966918186 0 0 0 0 1037.4683673152176 566.51208198795609 0 566.51208198795609 -371.49484907044848 0 0 0 0 516.72601748415036 -43.52739990965847 0 -43.52739990965847 3.0511776600018266 0 0 0 0 814.79705073411606 -158.61469936789135 0 -158.61469936789135 -209.61141370214136 0 0 0 0 154.2331412157655 -80.176897479630952 0 -80.176897479630952 81.029913471581494 0 0 0 0 433.65524316948722 -507.07794616555714 0 -507.07794616555714 152.75190149556693 0 0 0 0 2213.5951443678459 -862.94392075506312 0 -862.94392075506312 -158.27876599484807 0 0 0 0 786.41490186471492 -282.30588003102412 0 -282.30588003102412 -209.09177041586136 0 0 0 0 285.0410275751783 201.49740615108226 0 201.49740615108226 -15.47675847904884 0 0 0 0 -1.977221065168834 3.9619110200025887 0 3.9619110200025887 -13.7430495451006 0 0 0 0 132.31087385525461 -68.068294744977493 0 -68.068294744977493 75.13407710193701 0 0 0 0 35.887384957922961 -9.7564085500495565 0 -9.7564085500495565 0.42143023904414445 0 0 0 0 87.601046750554815 -148.1267477498202 0 -148.1267477498202 -359.40974741331729 0 0 0 0 526.1827840487822 748.7812952823906 0 748.7812952823906 -54.635546441447332 0 0 0 0 -27.946255599876167 134.01549137300799 0 134.01549137300799 90.536276026950418 0 0 0 0 58.331076390692033 205.33192519159047 0 205.33192519159047 -334.82436868655941 0 0 0 0 410.95406780368648 -586.57531828911874 0 -586.57531828911874 -102.80058548644416 0 0 0 0 9.2880342770610014 1.5664507834851946 0 1.5664507834851946 -3.4614911345014758 0 0 0 0 -686.6745382269728 -412.48260627468517 0 -412.48260627468517 89.512065656183211 0 0 0 0 512.38174612727016 951.11590570661883 0 951.11590570661883 2359.2337257451727 0 0 0 0 13.273321822831406 -2.4611690546394271 0 -2.4611690546394271 0.35906119293368022 0 0 0 0 -310.0042363399989 53.591780145956363 0 53.591780145956363 79.408002578935708 0 0 0 0 -152.52961882785894 -294.51438020112073 0 -294.51438020112073 85.257210535205786 0 0 0 0 71.742167001564667 445.95973273852542 0 445.95973273852542 -50.512488180065702 0 0 0 0 -216.65520449128235 210.13710657871252 0 210.13710657871252 162.72305159312964 0 0 0 0 1314.1048727926682 8.8125004289672688 0 8.8125004289672688 -721.04011656402065 0 0 0 0 182.80191427439982 -21.442628888481835 0 -21.442628888481835 -32.166333856063055 0 0 0 0 94.181339323491557 41.14526224173369 0 41.14526224173369 535.58955073539892 0 0 0 0 894.94248727018021 -635.54089290573302 0 -635.54089290573302 -456.8483671399481 0 0 0 0 1231.1464647508965 296.38725001235957 0 296.38725001235957 -147.82461012218664 0 0 0 0 1312.9363682171825 -529.36688135927579 0 -529.36688135927579 -477.20637545012823 0 0 0 0 41.380727902957005 453.27417309407156 0 453.27417309407156 406.37489535385248 0 0 0 0 684.87197416934941 645.46378954629381 0 645.46378954629381 190.21980521336536 0 0 0 0 335.69949265529431 89.902768346997618 0 89.902768346997618 88.794193918090969 0 0 0 0 -23.530801505083218 200.82147263242587 0 200.82147263242587 808.99772319276417 0 0 0 0 996.65225173686486 -222.52637206238796 0 -222.52637206238796 -25.244109581816701 0 0 0 0 1125.5823682610644 571.72266649236917 0 571.72266649236917 239.84356353712974 0 0 0 0 3.4758757739420645 5.9817344165091946 0 5.9817344165091946 7.446638667959375 0 0 0 0 26.967848738277098 210.96210489162149 0 210.96210489162149 240.56950779817271 0 0 0 0 -36.347091286332216 75.482350109515039 0 75.482350109515039 81.440421501412857 0 0 0 0 104.11797990728519 335.04603762545776 0 335.04603762545776 179.29231590524341 0 0 0 0 137.79992181278067 267.76222395092555 0 267.76222395092555 -4.6699631300725741 0 0 0 0 166.23140647100809 138.31316651672387 0 138.31316651672387 164.75313539888521 0 0 0 0 112.5573478988299 187.33393105175219 0 187.33393105175219 123.66247633959756 0 0 0 0 132.86412117453438 59.388081404795003 0 59.388081404795003 66.850941819884611 0 0 0 0 73.945611278650176 142.5007538291361 0 142.5007538291361 -26.934002492227137 0 0 0 0 33.757201238198377 101.43504088020342 0 101.43504088020342 57.550725700926705 0 0 0 0 103.66311273428437 -66.00416552946308 0 -66.00416552946308 -273.65372595094641 0 0 0 0 -8.8779575396474684 88.283791227298479 0 88.283791227298479 61.254071740258041 0 0 0 0 -3.1849560666377954 7.1133046258675279 0 7.1133046258675279 -6.1355393274453291 0 0 0 0 36.945073940569728 135.70989557613785 0 135.70989557613785 60.925407183451171 0 0 0 0 -96.955811128093046 -121.20183619929867 0 -121.20183619929867 522.33268743411827 0 0 0 0 8.2675349788823951 -229.63927247483738 0 -229.63927247483738 -171.36486556427189 0 0 0 0 138.41664989863784 162.2508799451598 0 162.2508799451598 225.99490464955306 0 0 0 0 223.77928255250299 -83.40045743934752 0 -83.40045743934752 205.52163575969735 0 0 0 0 132.51729666165193 228.36922817909772 0 228.36922817909772 -267.76118421213505 0 0 0 0 116.91511035078315 36.128158051401101 0 36.128158051401101 11.183636432037167 0 0 0 0 240.81898789588013 121.2261542822871 0 121.2261542822871 -398.20980234151193 0 0 0 0 295.87539414191269 -31.392422236100174 0 -31.392422236100174 -278.43190582960096 0 0 0 0 201.67309333487356 9.9047423055328636 0 9.9047423055328636 -107.80775859373216 0 0 0 0 508.97418611586909 -102.3026170793255 0 -102.3026170793255 -68.867888258126641 0 0 0 0 218.45255977065244 65.020590220486611 0 65.020590220486611 -185.59364493238638 0 0 0 0 86.220152074412908 142.74831528459254 0 142.74831528459254 -101.47162655221655 0 0 0 0 175.37617864533968 -20.828987504855604 0 -20.828987504855604 -40.071214279464812 0 0 0 0 98.806379706442385 -226.53267722791452 0 -226.53267722791452 82.913898130999769 0 0 0 0 146.8092288281041 -158.19273497776067 0 -158.19273497776067 -41.227459103958608 0 0 0 0 325.74802325248311 -112.56126077221097 0 -112.56126077221097 -101.75853715039375 0 0 0 0 208.75561139569618 -234.82041138510431 0 -234.82041138510431 53.324072984208215 0 0 0 0 132.80035668627534 -119.428456303855 0 -119.428456303855 -21.215582697609761 0 0 0 0 62.657969059626339 42.608797142624098 0 42.608797142624098 -156.42998043053831 0 0 0 0 124.17464342509629 -50.677386658428986 0 -50.677386658428986 -129.5823189560183 0 0 0 0 82.9508493477299 23.583245774599249 0 23.583245774599249 6.878937736698445 0 0 0 0 -105.78188287364537 -221.3722710021143 0 -221.3722710021143 583.76553555837381 0 0 0 0 309.09929911378276 238.02192013977583 0 238.02192013977583 149.3425382190735 0 0 0 0 124.61101313497784 211.56007528516784 0 211.56007528516784 193.10053306408099 0 0 0 0 1.759989234888593 4.6511534136096984 0 4.6511534136096984 -4.0939280619353351 0 0 0 0 73.913706887011358 167.11699834412502 0 167.11699834412502 228.18310647291855 0 0 0 0 116.68084313297004 137.43048336559968 0 137.43048336559968 188.03721317876443 0 0 0 0 -24.044171809349791 198.61742914635443 0 198.61742914635443 421.28529195651299 0 0 0 0 149.67094174240674 169.9558116721287 0 169.9558116721287 87.626061343306901 0 0 0 0 122.80601297196699 -34.138376956781485 0 -34.138376956781485 78.276432939497681 0 0 0 0 71.24472727398097 -57.684950504433345 0 -57.684950504433345 368.40283842272038 0 0 0 0 109.0500458177703 -117.86744137562073 0 -117.86744137562073 680.2739413305444 0 0 0 0 50.763433277241234 14.33611068267412 0 14.33611068267412 4.8726200721821753 0 0 0 0 1175.2238186530085 -630.51565849480744 0 -630.51565849480744 69.98815461970662 0 0 0 0 17.72360926877667 4.6190853769016549 0 4.6190853769016549 2.6199216383263124 0 0 0 0 151.04273120085418 217.97040251560929 0 217.97040251560929 1355.9798908745406 0 0 0 0 520.61590579975746 -473.93446499188394 0 -473.93446499188394 436.37456925884931 0 0 0 0 1165.9137988115044 -145.79423938242559 0 -145.79423938242559 170.97242305201871 0 0 0 0 416.11797494214261 -271.51638010280124 0 -271.51638010280124 239.58321739260009 0 0 0 0 439.28526118696027 -172.84520130825649 0 -172.84520130825649 253.83767313063754 0 0 0 0 459.16099318237684 -156.55988000934713 0 -156.55988000934713 132.6271007574336 0 0 0 0 746.43601025461976 -201.59704873901524 0 -201.59704873901524 120.5062904678532 0 0 0 0 866.22554954259249 -21.681312048538871 0 -21.681312048538871 107.49053643727393 0 0 0 0 806.12413112902141 -140.323362926747 0 -140.323362926747 36.824185551505934 0 0 0 0 58.217395737650804 -115.67854439254825 0 -115.67854439254825 242.83366427482906 0 0 0 0 46.658631598118518 -69.835309107249259 0 -69.835309107249259 67.504746640239318 0 0 0 0 141.72215799515834 -140.52319191866513 0 -140.52319191866513 243.23179201453331 0 0 0 0 240.52586932638951 -220.87448755202445 0 -220.87448755202445 161.33575571220445 0 0 0 0 119.90742128998681 -212.24243488867978 0 -212.24243488867978 138.45793734673384 0 0 0 0 90.649439149987302 -204.51723631769551 0 -204.51723631769551 170.67142773346632 0 0 0 0 84.131270995581872 -223.54011227789783 0 -223.54011227789783 115.24727641589641 0 0 0 0 53.416241000351874 -233.27114460456116 0 -233.27114460456116 60.419622431021253 0 0 0 0 2.5504159393749433 -240.69070688351644 0 -240.69070688351644 169.70985330562934 0 0 0 0 13.372584404103691 -143.75108028298678 0 -143.75108028298678 161.46294618219554 0 0 0 0 211.52001952278079 -106.95690024118966 0 -106.95690024118966 17.956528000941489 0 0 0 0 254.03069279440388 -66.311064068197794 0 -66.311064068197794 -413.3965826705446 0 0 0 0 -141.73773090778104 -285.61334393364353 0 -285.61334393364353 57.514010178625313 0 0 0 0 -161.03169459491937 -3.6610847560835786 0 -3.6610847560835786 -5.490444596237694 0 0 0 0 -11.56893738436338 -178.06941502914538 0 -178.06941502914538 96.407578959379634 0 0 0 0 30.305430461710785 -134.48701889851316 0 -134.48701889851316 -409.41362363866563 0 0 0 0 728.26676306545414 -51.943595494470856 0 -51.943595494470856 -47.887255961330084 0 0 0 0 710.41224556110683 -122.98682282242549 0 -122.98682282242549 -48.727728351803705 0 0 0 0 385.80478838558338 -52.473355256467244 0 -52.473355256467244 75.889371859832409 0 0 0 0 202.66045587703411 -101.66412064596227 0 -101.66412064596227 92.797614364793276 0 0 0 0 243.34294211681117 -62.18912946652685 0 -62.18912946652685 -60.505135796777793 0 0 0 0 558.12443083243852 62.839845892475864 0 62.839845892475864 -112.70153003053167 0 0 0 0 828.42124810060341 -51.277737859342608 0 -51.277737859342608 -149.75181870902691 0 0 0 0 1082.1461873138906 -221.20772526963998 0 -221.20772526963998 -170.86945058836761 0 0 0 0 790.59995797318697 149.7662407802662 0 149.7662407802662 -191.86429018688241 0 0 0 0 200.32978255441049 -240.36463192341711 0 -240.36463192341711 -307.0024394076076 0 0 0 0 58.814203613510472 -64.024791316513074 0 -64.024791316513074 -107.61563013929079 0 0 0 0 34.189575276150038 -12.482463594823223 0 -12.482463594823223 2.8699432236292566 0 0 0 0 2.9672775870531041 461.20338134985303 0 461.20338134985303 -46.869632269620411 0 0 0 0 14.065700518943004 -7.2177017908190209 0 -7.2177017908190209 2.7846388240343822 0 0 0 0 1333.7591252803031 409.43304766812082 0 409.43304766812082 -215.94096702719204 0 0 0 0 557.62448154412596 -1827.3462975814475 0 -1827.3462975814475 391.78906793010782 0 0 0 0 41.184657680661189 -10.524646764298751 0 -10.524646764298751 0.59359063934993039 0 0 0 0 -118.34732803203224 -81.931509213376103 0 -81.931509213376103 -3.0230425386600359 0 0 0 0 0.52867776007707334 -6.7383996773490722 0 -6.7383996773490722 -1.3072111118145546 0 0 0 0 126.93751301860902 -18.85901242700184 0 -18.85901242700184 -796.32195526554119 0 0 0 0 -114.11767801559472 -243.08176867562628 0 -243.08176867562628 -218.71917121552141 0 0 0 0 363.65098267236317 -383.65934972664479 0 -383.65934972664479 -1343.5153473505175 0 0 0 0 -53.745866819648654 122.14360457223728 0 122.14360457223728 -176.71138813909883 0 0 0 0 36.203135171163012 -64.248327293999594 0 -64.248327293999594 -272.47014949287518 0 0 0 0 0.36042467871448025 10.062156188841072 0 10.062156188841072 -224.21421625884898 0 0 0 0 34.858089122691297 -2.5690425982854848 0 -2.5690425982854848 -3.3906253721819231 0 0 0 0 210.60359840019373 31.546709802946474 0 31.546709802946474 -14.293055380207484 0 0 0 0 157.78973165214848 107.93741492769989 0 107.93741492769989 -600.40479104545875 0 0 0 0 1.4506431357243059 0.53253294979963783 0 0.53253294979963783 -0.23022761921180412 0 0 0 0 23.99672430030364 -0.17157871131357894 0 -0.17157871131357894 -2.7525909675984286 0 0 0 0 330.72598745339201 -427.86522379504953 0 -427.86522379504953 350.43646568312641 0 0 0 0 166.80031256511575 -257.36909225169268 0 -257.36909225169268 188.51883218491847 0 0 0 0 23.069655905722357 298.76093834760866 0 298.76093834760866 -720.84564561190041 0 0 0 0 130.27172762830742 -69.784948658924463 0 -69.784948658924463 -434.01082143908934 0 0 0 0 904.22098004938198 -988.76013726346184 0 -988.76013726346184 951.69919043353684 0 0 0 0 212.32251288818952 478.6750061296384 0 478.6750061296384 -453.45175834706004 0 0 0 0 9.2390060671082779 -0.77578749175040684 0 -0.77578749175040684 -0.81711206607089304 0 0 0 0 271.84055333051947 -318.62928432733946 0 -318.62928432733946 438.63355448634269 0 0 0 0 393.34809422241233 -453.29947880345503 0 -453.29947880345503 83.668830885479991 0 0 0 0 224.67232214177784 -718.81380513840429 0 -718.81380513840429 -396.5194652082414 0 0 0 0 465.90024704698271 -295.42314264934998 0 -295.42314264934998 -38.234634721075309 0 0 0 0 543.52231270169432 -512.31996135453119 0 -512.31996135453119 -22.151055286477657 0 0 0 0 -202.94065374956699 -213.0135540232958 0 -213.0135540232958 -134.29562095837878 0 0 0 0 227.93840567470761 153.51768868874842 0 153.51768868874842 230.32025792696504 0 0 0 0 3.1030397726089518 -1.5809677019140338 0 -1.5809677019140338 0.3882323989398655 0 0 0 0 633.36768495554861 316.38689679297045 0 316.38689679297045 230.16764283125303 0 0 0 0 370.4200255178439 -70.543937076789689 0 -70.543937076789689 59.782141200515071 0 0 0 0 891.70848604624189 -172.47959610982991 0 -172.47959610982991 16.501211889097249 0 0 0 0 166.78494591105846 -220.17040524188735 0 -220.17040524188735 58.74334520804166 0 0 0 0 380.56121640367269 -358.36661051799388 0 -358.36661051799388 120.55852899788124 0 0 0 0 51.962065943622292 -325.98008548381353 0 -325.98008548381353 128.91927608011201 0 0 0 0 174.10035936358327 -279.45057218797513 0 -279.45057218797513 108.33659786169505 0 0 0 0 129.75307877865271 -190.0937472230508 0 -190.0937472230508 34.257038739744587 0 0 0 0 71.538665509382554 -254.04783325549295 0 -254.04783325549295 96.59563300802013 0 0 0 0 205.06490504133399 -279.73131206630535 0 -279.73131206630535 46.254735175105282 0 0 0 0 402.09385373435362 -347.80254465245605 0 -347.80254465245605 345.20545188444163 0 0 0 0 291.90888410792104 -154.64735341998892 0 -154.64735341998892 145.1974855785156 0 0 0 0 462.20183338461857 -217.1831717202765 0 -217.1831717202765 171.62113886370821 0 0 0 0 1880.3006576465123 -80.345607391012805 0 -80.345607391012805 39.960211991148341 0 0 0 0 1873.6956963102712 -30.465744978633253 0 -30.465744978633253 -249.30076164200935 0 0 0 0 3500.1136442676361 384.31880155679852 0 384.31880155679852 -526.8242023331901 0 0 0 0 1385.7682205542224 626.61928542082853 0 626.61928542082853 -94.77290028418011 0 0 0 0 1409.6892395030227 139.04297935571802 0 139.04297935571802 -283.94664475183356 0 0 0 0 170.82231713162037 -51.497246168639222 0 -51.497246168639222 194.29398655064341 0 0 0 0 41.939592101279572 -15.82364235412912 0 -15.82364235412912 2.6982471059489779 0 0 0 0 117.29119590158371 53.880651528558474 0 53.880651528558474 -122.5963808158001 0 0 0 0 184.75864475750132 -264.47510746378305 0 -264.47510746378305 -116.0679018749442 0 0 0 0 49.617136060711346 52.517919302581717 0 52.517919302581717 7.0820977855626097 0 0 0 0 -8.8836804976787818 20.408037043106603 0 20.408037043106603 -8.8908030007151702 0 0 0 0 56.564714702399215 21.94488587288356 0 21.94488587288356 -46.919534794503761 0 0 0 0 7.1601729384356645 4.1852783458329128 0 4.1852783458329128 -6.0824172898939697 0 0 0 0 -206.11153939674114 -51.202590053089615 0 -51.202590053089615 198.10085394632156 0 0 0 0 10.657780373459758 -0.098379525192314077 0 -0.098379525192314077 -8.2106002105494191 0 0 0 0 58.595170340136974 22.895879609872736 0 22.895879609872736 -12.189236033976613 0 0 0 0 -47.202177188686619 210.14706879998116 0 210.14706879998116 53.97584880859273 0 0 0 0 -69.494719425337962 -268.54284281320827 0 -268.54284281320827 445.00137693756142 0 0 0 0 10.499962384958053 93.321321779913433 0 93.321321779913433 -136.6680161286539 0 0 0 0 47.411893345117164 6.6760527765924476 0 6.6760527765924476 -1.1243036742755064 0 0 0 0 125.11981018613733 356.45423233815563 0 356.45423233815563 335.94441679443457 0 0 0 0 -92.082040972461982 199.02612153454754 0 199.02612153454754 433.43313858012607 0 0 0 0 185.82261634268798 216.30449301654153 0 216.30449301654153 111.44943031993353 0 0 0 0 68.52945974283648 0.73839425439611261 0 0.73839425439611261 672.91374651775561 0 0 0 0 1193.5955396160716 883.03043920336745 0 883.03043920336745 1257.3611526981881 0 0 0 0 1711.6748760724149 -776.62154380797278 0 -776.62154380797278 198.08387436231015 0 0 0 0 19.008056335837978 2.5486544724340057 0 2.5486544724340057 1.5981374490116642 0 0 0 0 3738.7610598380561 211.10508151027008 0 211.10508151027008 -289.89193287502474 0 0 0 0 3501.2757170900659 -69.338836448363196 0 -69.338836448363196 1460.0563790045887 0 0 0 0 3568.3152385475842 -627.43779663608655 0 -627.43779663608655 92.051430949789221 0 0 0 0 3491.8759127294543 -17.353163620362956 0 -17.353163620362956 -370.36636821084858 0 0 0 0 505.29447318743041 54.657580623309983 0 54.657580623309983 0.85169010135517786 0 0 0 0 1742.4386486179901 -971.38016560679 0 -971.38016560679 -680.83295741125085 0 0 0 0 16.166191711369663 1.989409969825009 0 1.989409969825009 -0.74768954440641167 0 0 0 0 1293.640629225767 187.54185440240073 0 187.54185440240073 -203.23834669651148 0 0 0 0 3486.310478149062 1870.4569636651133 0 1870.4569636651133 55.385815350241373 0 0 0 0 25.539670356161139 3.558523462466372 0 3.558523462466372 -0.68735388295957867 0 0 0 0 83.614043630215747 387.80822638820911 0 387.80822638820911 -281.91249198806383 0 0 0 0 -315.33004229454673 678.64974767932028 0 678.64974767932028 757.85472430060668 0 0 0 0 26.589678542950423 315.91745595948873 0 315.91745595948873 359.52824258185353 0 0 0 0 97.042404412004544 512.11209363637499 0 512.11209363637499 857.4870673574419 0 0 0 0 823.02647727503427 -141.87673188216363 0 -141.87673188216363 41.247459517628386 0 0 0 0 651.94046520569827 585.17176356030166 0 585.17176356030166 225.97408828907797 0 0 0 0 9.5188588844214337 2.5813846932511719 0 2.5813846932511719 0.24748518036951561 0 0 0 0 605.98044947693415 108.42165406925996 0 108.42165406925996 -170.67176627186555 0 0 0 0 310.39554347783269 368.37800777671009 0 368.37800777671009 150.5463858841924 0 0 0 0 208.53080293608218 118.42081716250375 0 118.42081716250375 33.55537492125498 0 0 0 0 57.759345301143185 106.97197287371964 0 106.97197287371964 -19.030884169887088 0 0 0 0 -239.3735014263948 -84.086355113750557 0 -84.086355113750557 67.75179550395022 0 0 0 0 3.240564193809405 77.148393510403295 0 77.148393510403295 471.66438795489063 0 0 0 0 88.466442678778549 -7.5962366371738881 0 -7.5962366371738881 113.60746585021138 0 0 0 0 122.8495019171678 25.561050832682668 0 25.561050832682668 -210.39876499620732 0 0 0 0 127.48231948630564 76.46504668284507 0 76.46504668284507 -7.8911060509297499 0 0 0 0 0.98610211864456687 -1.6224331111020831 0 -1.6224331111020831 -2.3631266883329349 0 0 0 0 -230.48761248619121 -333.15009701798618 0 -333.15009701798618 84.72836865893251 0 0 0 0 9.619393555106825 2.4113483519330146 0 2.4113483519330146 3.987709524456942 0 0 0 0 56.221754283862538 3.9970826842803291 0 3.9970826842803291 14.077697011944679 0 0 0 0 79.884782742425159 45.534030072724818 0 45.534030072724818 3.9046637380040465 0 0 0 0 84.116619573367643 47.535661313030687 0 47.535661313030687 57.649135744827618 0 0 0 0 32.472764693404315 11.374545745531805 0 11.374545745531805 5.2495218196133919 0 0 0 0 6.3569974970596377 -1.3835230531649358 0 -1.3835230531649358 63.754074501975992 0 0 0 0 3.9111975973854953 18.891281728381983 0 18.891281728381983 25.123436233212246 0 0 0 0 52.693298289334848 19.309249658418047 0 19.309249658418047 -0.12846717795453366 0 0 0 0 87.670248893351527 54.175420162757291 0 54.175420162757291 -1.5900327571625894 0 0 0 0 79.613510061230045 84.687822206850797 0 84.687822206850797 49.135411714668862 0 0 0 0 97.682549720571842 81.188193455592682 0 81.188193455592682 25.39095508881519 0 0 0 0 12.644610142687924 5.5929997087941388 0 5.5929997087941388 5.1802527916433068 0 0 0 0 14.497815332933641 6.6978864377362868 0 6.6978864377362868 -2.0847437952175456 0 0 0 0 -24.278044072911143 -214.33945768356375 0 -214.33945768356375 -94.541453319118318 0 0 0 0 524.47402202116791 95.196931448927444 0 95.196931448927444 -140.48592245905002 0 0 0 0 68.6533560782118 -27.880153087594863 0 -27.880153087594863 -117.83224719191935 0 0 0 0 160.46637591003673 305.19169106873983 0 305.19169106873983 244.81164006827322 0 0 0 0 130.44811419432517 171.34794503391436 0 171.34794503391436 24.304198297765652 0 0 0 0 194.71620814436756 247.88567908805635 0 247.88567908805635 -74.242560505211713 0 0 0 0 56.555793571231106 19.315054460292441 0 19.315054460292441 -1.1343994672454079 0 0 0 0 75.708222091154312 22.970615119051672 0 22.970615119051672 -25.115837854165761 0 0 0 0 31.897748564719222 100.43023399742219 0 100.43023399742219 -174.06281851521817 0 0 0 0 14.308666203766848 4.1405214888721105 0 4.1405214888721105 0.96851562070480846 0 0 0 0 16.432320063943806 7.9437424334203115 0 7.9437424334203115 -12.71075201974937 0 0 0 0 62.216517037602898 15.258576994584814 0 15.258576994584814 -6.2743322942087616 0 0 0 0 101.63352305841181 14.026317344455435 0 14.026317344455435 -248.78190863350483 0 0 0 0 57.327501520140345 17.606915213740066 0 17.606915213740066 -1.3095985260831651 0 0 0 0 81.217508601177542 50.57267619274603 0 50.57267619274603 4.3144951443039758 0 0 0 0 607.76866764601436 156.77272413334686 0 156.77272413334686 -173.03924755088474 0 0 0 0 13.214779645427427 6.0854076631904377 0 6.0854076631904377 -5.7728251469625445 0 0 0 0 73.938511873186144 14.86458932378082 0 14.86458932378082 -2.619378503036387 0 0 0 0 68.367539804661646 28.453825268836226 0 28.453825268836226 26.448358061651106 0 0 0 0 75.161147781036561 21.047780265849951 0 21.047780265849951 -8.2396519722771018 0 0 0 0 60.228419341627159 14.916820519317156 0 14.916820519317156 -0.47933279160270104 0 0 0 0 1.7922990355405943 -0.40931745625421456 0 -0.40931745625421456 -8.283279021839661 0 0 0 0 111.20237807984813 37.705274003225966 0 37.705274003225966 -14.471729420683062 0 0 0 0 116.41343945654808 81.111652174500549 0 81.111652174500549 18.314539421507288 0 0 0 0 83.860674640745856 59.785993333870238 0 59.785993333870238 -19.764102656081093 0 0 0 0 153.46964395296527 70.334338880355631 0 70.334338880355631 18.055264841297912 0 0 0 0 196.78489398720558 336.21201769464506 0 336.21201769464506 102.49589876551181 0 0 0 0 67.866764181544568 26.046531851623854 0 26.046531851623854 46.555379445019071 0 0 0 0 -10.589064396911965 5.3471685374457394 0 5.3471685374457394 6.7808101674405048 0 0 0 0 -7.3905136922121528 4.6966957189428067 0 4.6966957189428067 20.647122621009572 0 0 0 0 -6.6173091004457092 12.229761331234499 0 12.229761331234499 19.11411340636279 0 0 0 0 12.051484968786099 7.1931616267891254 0 7.1931616267891254 16.494619585779276 0 0 0 0 12.298232948698569 5.8165617632512863 0 5.8165617632512863 23.891518147343447 0 0 0 0 17.460301840561442 4.1823622889325094 0 4.1823622889325094 15.06288098659229 0 0 0 0 39.426207981727202 -3.2932422123137428 0 -3.2932422123137428 13.807164232879558 0 0 0 0 17.01954602899059 7.311344004716851 0 7.311344004716851 1.3516821603425342 0 0 0 0 11.101561899165063 -3.3057135918816272 0 -3.3057135918816272 9.592338714838661 0 0 0 0 35.308950296952389 3.7834124806539648 0 3.7834124806539648 7.2747997493639787 0 0 0 0 12.158578293219762 5.7407343209766566 0 5.7407343209766566 13.013414221637504 0 0 0 0 -2.9885221440777627 6.18144537259559 0 6.18144537259559 10.258125349958267 0 0 0 0 87.420829506139853 44.648344164962509 0 44.648344164962509 82.368242496509993 0 0 0 0 68.942952566838358 70.95930236536924 0 70.95930236536924 25.854204027189553 0 0 0 0 54.045911533932667 -19.572742598426885 0 -19.572742598426885 18.838655676732742 0 0 0 0 2.7063291838314001 -0.12081595900360753 0 -0.12081595900360753 -0.79282972451601097 0 0 0 0 -1.4650942596576186 5.3094447300531442 0 5.3094447300531442 5.7761130021389704 0 0 0 0 77.288544823451957 11.06533620093046 0 11.06533620093046 1.9600048549813209 0 0 0 0 1148.8306864490078 235.07674261158746 0 235.07674261158746 2.8732581809757249 0 0 0 0 48.934940366103547 2.839936582999826 0 2.839936582999826 5.2927871078945827 0 0 0 0 35.168966926484927 8.7272572422763837 0 8.7272572422763837 13.125419407530444 0 0 0 0 99.895983118833101 9.6663794022071556 0 9.6663794022071556 3.3448281873383507 0 0 0 0 49.875145431084093 9.2675219260857489 0 9.2675219260857489 15.771370345947503 0 0 0 0 50.016853962923051 10.716876219575084 0 10.716876219575084 7.1516433368029624 0 0 0 0 1349.8256815075292 756.45374449380222 0 756.45374449380222 310.40878398652421 0 0 0 0 1451.240063193065 247.12862864478382 0 247.12862864478382 -50.199566522293935 0 0 0 0 6.6513656639834267 -0.72514250905476274 0 -0.72514250905476274 -1.038954796336844 0 0 0 0 -47.901371999474577 -225.42957946721526 0 -225.42957946721526 -132.08665292749913 0 0 0 0 700.62992391109583 480.49823322519984 0 480.49823322519984 195.0572242467816 0 0 0 0 403.42752786420897 129.3399432269689 0 129.3399432269689 6.569299656792964 0 0 0 0 1170.6303684865125 243.90255089340394 0 243.90255089340394 -54.099271762457192 0 0 0 0 876.69674922628474 323.38186402620835 0 323.38186402620835 73.277487980409376 0 0 0 0 671.5584149575734 400.55432889151746 0 400.55432889151746 120.21780067651844 0 0 0 0 850.23858238921093 258.14360389078126 0 258.14360389078126 -2.8293237214115834 0 0 0 0 698.60101835420937 131.14579786589582 0 131.14579786589582 175.73616573033837 0 0 0 0 908.32532473624451 355.40242852875019 0 355.40242852875019 18.972811158119612 0 0 0 0 912.69388392474502 331.58663972816964 0 331.58663972816964 45.682418216185852 0 0 0 0 887.98730266764323 339.75552575492856 0 339.75552575492856 149.85720255553952 0 0 0 0 0.80997438570926761 9.0509944563941076 0 9.0509944563941076 7.8505760785045471 0 0 0 0 28.311589344221687 -3.547699798564949 0 -3.547699798564949 -9.7415900592624158 0 0 0 0 59.408373254387698 14.79860539287165 0 14.79860539287165 7.484494178353998 0 0 0 0 37.209396102873143 11.692576480404114 0 11.692576480404114 14.381146648201707 0 0 0 0 55.376735448386171 19.034341798486253 0 19.034341798486253 9.9422450215797653 0 0 0 0 41.223992542174528 3.5447381055139431 0 3.5447381055139431 4.7574181031614984 0 0 0 0 31.854959249521016 -1.1517853332623815 0 -1.1517853332623815 -6.2018962186259348 0 0 0 0 113.08875189699756 75.926235678839419 0 75.926235678839419 9.5364319434646632 0 0 0 0 32.059566950134467 29.801380572512329 0 29.801380572512329 102.82327309288235 0 0 0 0 238.65434408551664 80.735997429989538 0 80.735997429989538 -0.26757329677510217 0 0 0 0 94.167145738349063 19.418149492650571 0 19.418149492650571 -13.033688252649789 0 0 0 0 1.4401894231654069 -2.1984241030592671 0 -2.1984241030592671 -0.19365803673772808 0 0 0 0 16.292197646784189 -24.736975400382143 0 -24.736975400382143 36.501673547039566 0 0 0 0 138.6658021300409 44.446861722831031 0 44.446861722831031 -15.935527732184596 0 0 0 0 89.358645388885634 -11.22425872219128 0 -11.22425872219128 -24.809129213991241 0 0 0 0 129.85558998546912 79.502820743552604 0 79.502820743552604 7.615813467506257 0 0 0 0 0.86394962610322068 -0.50572019429424131 0 -0.50572019429424131 -0.34298769334392154 0 0 0 0 201.49988823209424 78.804365335243503 0 78.804365335243503 -39.707817768296117 0 0 0 0 69.082453560229624 35.812217104116286 0 35.812217104116286 -0.27496880561625403 0 0 0 0 -55.804403234898928 -25.42423759708938 0 -25.42423759708938 71.411819148584712 0 0 0 0 0.95926012532399341 -0.44614869988234318 0 -0.44614869988234318 0.21691309711833864 0 0 0 0 707.96394737302035 50.430394360046805 0 50.430394360046805 -66.421595275117355 0 0 0 0 99.637985471592401 -47.287708248912651 0 -47.287708248912651 141.61313160128287 0 0 0 0 750.78663324775698 90.972427138402537 0 90.972427138402537 -69.254710816114596 0 0 0 0 194.28995987333474 146.21771227423164 0 146.21771227423164 -60.600592131473761 0 0 0 0 0.26475269260932066 -0.71647915012945873 0 -0.71647915012945873 -0.81763993195872042 0 0 0 0 609.99886482836882 143.69895725750064 0 143.69895725750064 -8.2622990737024224 0 0 0 0 792.2255293182252 103.18754201819554 0 103.18754201819554 -120.67093109197367 0 0 0 0 805.5741036278996 224.66156314191073 0 224.66156314191073 24.45472973101846 0 0 0 0 710.42483897699276 227.02807834256521 0 227.02807834256521 50.514991675527767 0 0 0 0 824.52717450032651 380.785274777251 0 380.785274777251 253.65228289238712 0 0 0 0 6.2994950182648779 0.46182710619979161 0 0.46182710619979161 -3.952187259225632 0 0 0 0 27.930389394081431 19.027284143955427 0 19.027284143955427 88.277973503420114 0 0 0 0 416.43396643850429 -204.15956369168885 0 -204.15956369168885 108.40786868175496 0 0 0 0 966.95804713868711 249.47928193178208 0 249.47928193178208 -66.250801692328537 0 0 0 0 1255.3732231358881 520.76895504876563 0 520.76895504876563 210.82439707321407 0 0 0 0 6.2327946014663667 0.89525806437143274 0 0.89525806437143274 0.66603508200579942 0 0 0 0 726.10027127857757 280.19780144334351 0 280.19780144334351 164.71746805922237 0 0 0 0 912.830122359097 65.780174048500953 0 65.780174048500953 343.75655162267645 0 0 0 0 497.72154553509608 220.026858850172 0 220.026858850172 172.37054694058807 0 0 0 0 573.39262645881536 148.65161622092825 0 148.65161622092825 197.10412104026852 0 0 0 0 407.17588383870316 122.09049995419853 0 122.09049995419853 154.43489465974534 0 0 0 0 409.45241686128429 173.56899988632273 0 173.56899988632273 160.6102128271512 0 0 0 0 665.35466320397973 287.44143181912381 0 287.44143181912381 156.73027114782894 0 0 0 0 626.91903822924542 194.92719224571152 0 194.92719224571152 47.388029528019189 0 0 0 0 489.07877873134566 113.11353828128816 0 113.11353828128816 0.13456031626124398 0 0 0 0 526.18999464694207 160.55258297394874 0 160.55258297394874 54.98379829333112 0 0 0 0 366.14816798648098 118.12403541895827 0 118.12403541895827 110.03022148613731 0 0 0 0 287.49593164121325 105.77678320363529 0 105.77678320363529 144.78626164430602 0 0 0 0 410.05007415990985 149.73163365943418 0 149.73163365943418 118.94175439720016 0 0 0 0 364.65808869054308 115.52109774951361 0 115.52109774951361 108.61702780576269 0 0 0 0 377.26074398779747 143.26494222851443 0 143.26494222851443 146.00613571762733 0 0 0 0 344.95693285147718 109.58888064423039 0 109.58888064423039 144.0565002801433 0 0 0 0 297.11474065003858 127.90826311577453 0 127.90826311577453 125.61576705419964 0 0 0 0 340.68476656254643 123.76293701793045 0 123.76293701793045 120.99239780786581 0 0 0 0 154.88328974710021 112.87213296501554 0 112.87213296501554 185.78005463612229 0 0 0 0 270.30927255767892 166.40511606409652 0 166.40511606409652 123.00481561795445 0 0 0 0 274.62009323401435 -33.845664285244709 0 -33.845664285244709 212.45031965540292 0 0 0 0 266.14688981718791 209.81496818435852 0 209.81496818435852 228.73451416721386 0 0 0 0 413.69615104908007 196.30220905644251 0 196.30220905644251 115.80024209191788 0 0 0 0 425.96095530770799 120.63162500069365 0 120.63162500069365 19.518171230402515 0 0 0 0 332.97314396731963 153.38740991721806 0 153.38740991721806 209.96007664441177 0 0 0 0 367.96367098788323 67.55465277339465 0 67.55465277339465 103.51015078547013 0 0 0 0 585.61650556580571 249.22074484123218 0 249.22074484123218 86.157118317013214 0 0 0 0 335.7787954712403 124.9346410535104 0 124.9346410535104 95.913590832539427 0 0 0 0 370.33494808588875 300.83040193371659 0 300.83040193371659 -61.454978783612034 0 0 0 0 145.15648952034826 204.14829311573132 0 204.14829311573132 104.33086477317457 0 0 0 0 534.29956949474581 125.19151586034647 0 125.19151586034647 -18.345920470297102 0 0 0 0 172.03089720931894 -199.45829404165801 0 -199.45829404165801 -222.80432771229417 0 0 0 0 5.4951841873585749 -0.29250727471273308 0 -0.29250727471273308 -1.1742218126088577 0 0 0 0 392.30888260897336 451.33371188819638 0 451.33371188819638 318.76345193843235 0 0 0 0 428.92497250379529 764.38671723519212 0 764.38671723519212 561.05312485673812 0 0 0 0 302.46583312598523 417.43257055228531 0 417.43257055228531 412.92480125066317 0 0 0 0 436.35566826957802 91.420972644079939 0 91.420972644079939 -115.66409195330965 0 0 0 0 11.339525254217278 -1.6109170794921539 0 -1.6109170794921539 -2.2250128203709796 0 0 0 0 711.33340681332629 103.34025173180771 0 103.34025173180771 -42.564588407023393 0 0 0 0 679.74286838999251 212.57693027852065 0 212.57693027852065 -242.3192016215437 0 0 0 0 664.14830077404622 499.60458974874729 0 499.60458974874729 -70.890177986286062 0 0 0 0 116.52938621382054 434.97794142607927 0 434.97794142607927 250.22002694507842 0 0 0 0 327.85705262733973 476.59359725564389 0 476.59359725564389 313.94592922307868 0 0 0 0 338.12407991843065 -28.22033884144389 0 -28.22033884144389 -407.8285550886925 0 0 0 0 6.1278916605250515 1.760618518614768 0 1.760618518614768 -0.4536367175519318 0 0 0 0 -48.125396451699999 -204.54626840200234 0 -204.54626840200234 11.012905420725701 0 0 0 0 -135.96846719777204 352.65693971161875 0 352.65693971161875 264.69549057102756 0 0 0 0 93.831325276260031 29.329714256879242 0 29.329714256879242 63.034531479240513 0 0 0 0 2.3254591169122705 1.3388228818282197 0 1.3388228818282197 -0.25185553979289865 0 0 0 0 265.76341940043494 -43.256056113108826 0 -43.256056113108826 -343.59245297403436 0 0 0 0 10.12020130766274 1.984995467808881 0 1.984995467808881 -0.72337377512498158 0 0 0 0 166.45140525827446 109.31142364593393 0 109.31142364593393 32.69300634217899 0 0 0 0 -79.841420337844056 46.783637974105517 0 46.783637974105517 48.38685488149838 0 0 0 0 -88.750895882272744 -22.304294199081738 0 -22.304294199081738 163.06557909579618 0 0 0 0 761.32490224920912 352.64664398496308 0 352.64664398496308 78.73800847505413 0 0 0 0 179.44020990282297 489.47479405125443 0 489.47479405125443 374.21248078912595 0 0 0 0 -2.2416085869481321 -6.4527378541679354 0 -6.4527378541679354 -108.24565089900102 0 0 0 0 2.5328852999373339 23.596776165417054 0 23.596776165417054 -222.89830297807907 0 0 0 0 29.19418217978091 41.937702476286404 0 41.937702476286404 -246.1543820690205 0 0 0 0 -26.74259912539128 48.138897558551378 0 48.138897558551378 -143.98426472642359 0 0 0 0 -14.457515960384626 31.922898884078108 0 31.922898884078108 -134.8920135074975 0 0 0 0 -10.501407071744325 6.1722872964668341 0 6.1722872964668341 -105.1079673843667 0 0 0 0 -6.4640292277981644 18.024902050071162 0 18.024902050071162 -153.23507180368551 0 0 0 0 -24.230729141949269 64.827059556736231 0 64.827059556736231 -91.06352262602195 0 0 0 0 32.958738358836854 102.71844114646547 0 102.71844114646547 -165.39279786414272 0 0 0 0 47.8651884209321 50.486595168779317 0 50.486595168779317 -66.71406597323994 0 0 0 0 189.25211498515273 146.7288604258913 0 146.7288604258913 -61.16384413332139 0 0 0 0 214.9212158274604 128.92422057983941 0 128.92422057983941 -112.45999435958788 0 0 0 0 470.25142648640031 373.46291037787012 0 373.46291037787012 48.50853721410158 0 0 0 0 499.32341143589292 431.26000313074485 0 431.26000313074485 -97.357645478119821 0 0 0 0 96.492140734557324 178.53792998068371 0 178.53792998068371 109.26312394742922 0 0 0 0 447.18322753859684 456.20229028922006 0 456.20229028922006 275.37557254556896 0 0 0 0 58.981428595136094 51.280667779887267 0 51.280667779887267 -127.48290467756397 0 0 0 0 116.5284519274137 -5.3787188333936911 0 -5.3787188333936911 -73.708972824950649 0 0 0 0 6.8043672832333755 2.0864107894216706 0 2.0864107894216706 -0.47687972480357732 0 0 0 0 404.4102998608796 -136.71478902215256 0 -136.71478902215256 -208.73608642961176 0 0 0 0 3.6672247272645677 1.4127596421064643 0 1.4127596421064643 -0.11573024501717843 0 0 0 0 -15.071576789790925 65.010856307436399 0 65.010856307436399 108.22197774582037 0 0 0 0 -7.4468552631951752 88.916013029433742 0 88.916013029433742 9.0199498703077552 0 0 0 0 15.583255381854542 23.061525910102944 0 23.061525910102944 -152.91680957015433 0 0 0 0 5.3809039433615453 1.9567111070972505 0 1.9567111070972505 -0.52458019136197209 0 0 0 0 17.59218032057106 34.630462878923595 0 34.630462878923595 -79.698658827634162 0 0 0 0 6.774578847187513 32.919145980440703 0 32.919145980440703 -69.024833189072524 0 0 0 0 -2.9145637581532355 10.901036666257141 0 10.901036666257141 -57.400462908707027 0 0 0 0 23.041593126807129 -14.369534937626895 0 -14.369534937626895 -121.02433956045115 0 0 0 0 11.291291909474239 -50.113082229680145 0 -50.113082229680145 -26.005048673146121 0 0 0 0 33.62982537325297 -89.689475224010494 0 -89.689475224010494 -56.035286392663693 0 0 0 0 47.780950116823078 -108.04296876898786 0 -108.04296876898786 -47.701996083175345 0 0 0 0 68.036579655512469 -89.674996548948911 0 -89.674996548948911 -96.512270534649929 0 0 0 0 52.428309887298383 -88.381838876797701 0 -88.381838876797701 -3.5779959306564706 0 0 0 0 92.141112990138936 -25.490299498071181 0 -25.490299498071181 -14.931728381082621 0 0 0 0 61.190321946385666 -51.41836895738561 0 -51.41836895738561 -23.116615758834087 0 0 0 0 78.131492626205727 -56.94507357163161 0 -56.94507357163161 -66.014778942992962 0 0 0 0 55.761546935449587 -66.266723170977457 0 -66.266723170977457 -57.360830410028484 0 0 0 0 84.265110054956466 3.878803229317576 0 3.878803229317576 -6.4701649089704709 0 0 0 0 93.993919227661536 -39.583308216175851 0 -39.583308216175851 -93.768416041366436 0 0 0 0 103.90981244301656 -22.656403124650666 0 -22.656403124650666 -11.609772797996385 0 0 0 0 72.90240597143594 -4.1983993680632317 0 -4.1983993680632317 -10.581590937287402 0 0 0 0 127.43692120764172 14.398294237230402 0 14.398294237230402 -23.813444253614641 0 0 0 0 87.397280093391601 -12.702679502443161 0 -12.702679502443161 -3.0032937470723766 0 0 0 0 54.419123517199864 -19.325349875893622 0 -19.325349875893622 -10.189957896350535 0 0 0 0 49.189784696641709 2.1790199107568569 0 2.1790199107568569 -0.72950614338217434 0 0 0 0 184.41287358934642 -17.863543785546426 0 -17.863543785546426 -118.35460352826703 0 0 0 0 11.895130539947843 0.51994183511880721 0 0.51994183511880721 -2.3470818750282536 0 0 0 0 -62.134170369034109 17.399321488423084 0 17.399321488423084 90.670359563797319 0 0 0 0 19.658711121417582 -385.41182125144815 0 -385.41182125144815 361.92052383583086 0 0 0 0 139.00203030184275 -27.761490557366436 0 -27.761490557366436 -85.950320004434076 0 0 0 0 54.819871292784228 -53.041612457966039 0 -53.041612457966039 -108.89102889218157 0 0 0 0 72.498378824660904 -179.35253288260719 0 -179.35253288260719 -149.97660106293506 0 0 0 0 104.69523103725805 -57.350945473197953 0 -57.350945473197953 -358.42076184049893 0 0 0 0 19.195417009836092 -85.361807810430491 0 -85.361807810430491 -11.306323636692468 0 0 0 0 50.302219572200556 -121.95483901895727 0 -121.95483901895727 -90.673773192531371 0 0 0 0 11.777226047212025 -49.269889665621804 0 -49.269889665621804 -28.24465557765842 0 0 0 0 172.98317462736304 -135.5789912055684 0 -135.5789912055684 3.5727474173979772 0 0 0 0 -2.0343072608302464 -62.061591503244927 0 -62.061591503244927 163.00947135910428 0 0 0 0 190.35192222076876 79.386505279262337 0 79.386505279262337 194.16833782550805 0 0 0 0 613.53871688682557 -9.0107153198929666 0 -9.0107153198929666 66.820101577054174 0 0 0 0 634.22242968816136 341.54762049775888 0 341.54762049775888 526.41678071460387 0 0 0 0 285.4473985074419 409.49862520992383 0 409.49862520992383 162.09976163434567 0 0 0 0 657.39103062069626 392.3467726971644 0 392.3467726971644 6.1081320399409833 0 0 0 0 420.94200011188514 -147.53039556554359 0 -147.53039556554359 -104.92309520395565 0 0 0 0 15.138681253342554 -0.7828236807451816 0 -0.7828236807451816 -1.6858599255858486 0 0 0 0 38.369194381652051 129.90714123949965 0 129.90714123949965 -274.92248025952858 0 0 0 0 266.11665746539802 -135.27567515975079 0 -135.27567515975079 -778.92214199778346 0 0 0 0 -524.71549899426464 150.75265002097967 0 150.75265002097967 63.936086898056601 0 0 0 0 62.615224821634911 -163.65391233726223 0 -163.65391233726223 622.73093687276105 0 0 0 0 28.72758806114507 -250.53705113514968 0 -250.53705113514968 517.03300638440032 0 0 0 0 26.234122912372072 2.3042101485253283 0 2.3042101485253283 -0.48036683310392192 0 0 0 0 -99.557033684541238 60.697924856014652 0 60.697924856014652 95.829877190884872 0 0 0 0 143.50507465978444 -34.678085387048668 0 -34.678085387048668 233.40704484796834 0 0 0 0 677.69751992558304 392.93575911569178 0 392.93575911569178 137.29629187217245 0 0 0 0 2176.4770654664753 279.93821852301107 0 279.93821852301107 145.64935796340922 0 0 0 0 894.29401859737118 -173.08654803052377 0 -173.08654803052377 293.98639584680313 0 0 0 0 547.65530685638805 891.77097170928664 0 891.77097170928664 111.73262924788469 0 0 0 0 917.83300475293072 -617.22947120803929 0 -617.22947120803929 812.53641488505309 0 0 0 0 13.043102275964884 3.9141699845656817 0 3.9141699845656817 2.2369789194126675 0 0 0 0 1081.8479349275003 1088.0409661520739 0 1088.0409661520739 -45.772512538939964 0 0 0 0 955.03930401078833 754.16711271339432 0 754.16711271339432 773.35103990434982 0 0 0 0 984.65503179198276 -268.01957488217113 0 -268.01957488217113 519.5540122284192 0 0 0 0 1977.7916139000517 548.9638125398925 0 548.9638125398925 -195.74324532753599 0 0 0 0 1266.7036227692442 625.02173018388726 0 625.02173018388726 -159.98038759028384 0 0 0 0 1255.9483932027506 188.26201415475794 0 188.26201415475794 109.76203248763341 0 0 0 0 972.05275648023962 609.68679780301272 0 609.68679780301272 121.43881677458467 0 0 0 0 8.1776702353045607 4.9850207779632143 0 4.9850207779632143 2.9672835828610897 0 0 0 0 1056.1562734814943 -229.2276317071512 0 -229.2276317071512 -58.526249563627516 0 0 0 0 -185.9663016085542 486.11711847044148 0 486.11711847044148 152.1832588377049 0 0 0 0 -150.49024806251691 -111.19174860349347 0 -111.19174860349347 198.54925223238331 0 0 0 0 1192.5288309215539 193.78372941544876 0 193.78372941544876 -71.066379498853394 0 0 0 0 1633.1641309696934 281.25546307047154 0 281.25546307047154 -54.650101075364546 0 0 0 0 1311.8747042460091 649.05606417975446 0 649.05606417975446 292.64223076493772 0 0 0 0 809.445281828921 335.11533970790219 0 335.11533970790219 172.17809722789707 0 0 0 0 797.73284040113504 358.70913481585796 0 358.70913481585796 135.10813602891841 0 0 0 0 1208.0943537193716 322.30574794310405 0 322.30574794310405 69.659383205052336 0 0 0 0 1091.3724396514735 221.50055065643232 0 221.50055065643232 22.212414759403714 0 0 0 0 964.06609163390385 74.565938381711931 0 74.565938381711931 -86.014390743857575 0 0 0 0 476.66218267427234 -20.850536530442334 0 -20.850536530442334 -167.76604043739167 0 0 0 0 1166.1097230428568 198.92459099667997 0 198.92459099667997 -144.38223790743552 0 0 0 0 1197.5969598417068 308.9270295712796 0 308.9270295712796 -7.2273152761642905 0 0 0 0 1109.8865050144741 169.29585669652698 0 169.29585669652698 206.68132604557422 0 0 0 0 0.10913884269491803 2.9339101304503288 0 2.9339101304503288 4.0881970959406742 0 0 0 0 47.488441042129125 -17.489489209208813 0 -17.489489209208813 26.356829205874874 0 0 0 0 23.246113493587472 1.189857316496159 0 1.189857316496159 30.308556855636198 0 0 0 0 213.90510914992774 -40.824218953913999 0 -40.824218953913999 -10.117558637471348 0 0 0 0 0.78996103679379814 0.70290802992917634 0 0.70290802992917634 1.2607198027948447 0 0 0 0 1169.0771973782976 213.08510049603694 0 213.08510049603694 -51.812025382944285 0 0 0 0 1114.0410910839564 183.27697037682498 0 183.27697037682498 -23.563754261817621 0 0 0 0 -35.880451069635455 20.257133530466717 0 20.257133530466717 23.350190441590144 0 0 0 0 22.899532937939512 8.5820761000482548 0 8.5820761000482548 13.685825503368392 0 0 0 0 -9.617073560883 -1.0757036270451863 0 -1.0757036270451863 18.717886025141638 0 0 0 0 33.230062083610392 5.8354386181476698 0 5.8354386181476698 17.545052018711715 0 0 0 0 1.4002887717797421 1.1104126918026509 0 1.1104126918026509 25.724769366601123 0 0 0 0 -0.83820124105841387 10.16246596725702 0 10.16246596725702 17.321559608213747 0 0 0 0 -8.0651651784282876 7.2139868497580082 0 7.2139868497580082 24.647770066260698 0 0 0 0 -12.876447517883207 14.921967455634645 0 14.921967455634645 16.830417974858165 0 0 0 0 145.95037880941527 176.86743435586311 0 176.86743435586311 20.162882684763247 0 0 0 0 -8.9572155711960306 7.9641114440328238 0 7.9641114440328238 5.0160795127561801 0 0 0 0 0.26543699898320483 24.820892444763984 0 24.820892444763984 3.9919756393616126 0 0 0 0 114.11845390768576 161.65177789347408 0 161.65177789347408 195.36272161416218 0 0 0 0 63.869693748405552 25.314997624884526 0 25.314997624884526 48.707226689243328 0 0 0 0 93.826000478209608 -45.186164829428805 0 -45.186164829428805 54.703707234517196 0 0 0 0 43.757707221040619 -87.907438010718778 0 -87.907438010718778 -64.866805702172414 0 0 0 0 70.039325650137471 -9.9016701436446795 0 -9.9016701436446795 214.53541915073151 0 0 0 0 3.1933447273692934 2.3699280978411679 0 2.3699280978411679 -8.6398494357111328 0 0 0 0 385.70103744126391 -32.690564641595529 0 -32.690564641595529 14.047656364991326 0 0 0 0 397.91176895871649 73.36766935392825 0 73.36766935392825 -26.787692413920013 0 0 0 0 -4.1853801385877318 2.8143859461540899 0 2.8143859461540899 4.3262255413436783 0 0 0 0 306.89383795304457 -5.093767092815142 0 -5.093767092815142 4.400364452822032 0 0 0 0 4.2351364042947353 1.4106871017046387 0 1.4106871017046387 0.1511840330176133 0 0 0 0 329.37175334919084 88.036334937399616 0 88.036334937399616 -27.606656567348637 0 0 0 0 146.94383119986742 12.442051866630095 0 12.442051866630095 -55.023725626185922 0 0 0 0 159.94515739032067 105.08971687497063 0 105.08971687497063 -40.751327154262299 0 0 0 0 20.104720174539125 11.004312552663038 0 11.004312552663038 4.3082151578678856 0 0 0 0 -22.859037906571757 45.743334470222635 0 45.743334470222635 -5.9155124720629715 0 0 0 0 67.568828168081382 37.870036098064574 0 37.870036098064574 -200.39953725531464 0 0 0 0 85.631888397991133 -111.88483423148364 0 -111.88483423148364 -154.98777070177721 0 0 0 0 141.11957861045084 24.57738526399595 0 24.57738526399595 -71.347368731507231 0 0 0 0 103.38412886006699 6.423803407057477 0 6.423803407057477 -79.726734022875206 0 0 0 0 37.941112182925281 -9.3852533738175339 0 -9.3852533738175339 27.549663772609051 0 0 0 0 47.478552843647776 -35.906574712197596 0 -35.906574712197596 -37.801935246998369 0 0 0 0 29.444828886567848 -28.210028043270086 0 -28.210028043270086 30.269608702511391 0 0 0 0 48.004292733731745 -42.350516645001392 0 -42.350516645001392 39.015664886674813 0 0 0 0 40.651548192647169 43.174857329859151 0 43.174857329859151 226.30387389845203 0 0 0 0 32.423265137535054 -132.53357097948071 0 -132.53357097948071 61.772545379800675 0 0 0 0 19.391874935197734 9.9194685755281569 0 9.9194685755281569 4.4025218102188726 0 0 0 0 -103.51042856340791 132.69904342058004 0 132.69904342058004 -52.420826344845636 0 0 0 0 191.46086474698677 249.49672187876303 0 249.49672187876303 -430.26604798308881 0 0 0 0 139.54323331598425 -245.88869012145983 0 -245.88869012145983 67.05119337117776 0 0 0 0 -35.898596056096721 -177.08150416125272 0 -177.08150416125272 158.31263094355586 0 0 0 0 177.60483710275366 88.364498585299458 0 88.364498585299458 61.433054159519543 0 0 0 0 0.40438162008137368 -1.2479311084425149 0 -1.2479311084425149 3.1462278446924099 0 0 0 0 598.1503436005296 177.06964929695596 0 177.06964929695596 28.612635361696732 0 0 0 0 123.35443682285404 -201.99559915151406 0 -201.99559915151406 74.999862757497795 0 0 0 0 624.84004457302581 178.95319420570354 0 178.95319420570354 -84.625454998211353 0 0 0 0 -0.8917649937791623 -0.94136717686745897 0 -0.94136717686745897 6.6786657608795323 0 0 0 0 -382.35359813233663 9.5841981147102615 0 9.5841981147102615 393.42443619656979 0 0 0 0 74.910835642876918 15.230839661604477 0 15.230839661604477 -11.437218409217166 0 0 0 0 -242.05538562686706 -65.716467312220175 0 -65.716467312220175 211.8159401921821 0 0 0 0 6.4764279675048471 4.6768514441074842 0 4.6768514441074842 3.946126634205573 0 0 0 0 1115.009708957281 573.52311255621726 0 573.52311255621726 -124.42343023838066 0 0 0 0 697.59521008864976 565.28977616324801 0 565.28977616324801 98.886525336267141 0 0 0 0 -14.793696741708118 43.650734721612764 0 43.650734721612764 13.068369809028582 0 0 0 0 38.326932513271458 37.170510339332736 0 37.170510339332736 -31.039933395983041 0 0 0 0 47.238020699529443 45.58417867561775 0 45.58417867561775 1.4843882588000099 0 0 0 0 26.389478040115279 18.015145886835995 0 18.015145886835995 6.4689663586204045 0 0 0 0 45.351214861060726 3.0356757859609615 0 3.0356757859609615 4.7387291704760486 0 0 0 0 24.990115089469583 20.159389817766268 0 20.159389817766268 12.3787399098879 0 0 0 0 21.313334838438095 56.400180596728205 0 56.400180596728205 6.6086035411256034 0 0 0 0 -0.20443463268748019 58.90567652571616 0 58.90567652571616 -13.985579599202538 0 0 0 0 10.813227977938368 9.4891400697115387 0 9.4891400697115387 32.474327241121955 0 0 0 0 85.393249431610457 31.732396819991891 0 31.732396819991891 12.570347511447153 0 0 0 0 112.36823195949546 25.253963109878214 0 25.253963109878214 11.318118932414166 0 0 0 0 25.818320991601468 13.186020874315716 0 13.186020874315716 94.430660761365289 0 0 0 0 25.491610932996991 8.2014413416082235 0 8.2014413416082235 19.264580230941647 0 0 0 0 6.427033754211152 32.934344972725398 0 32.934344972725398 7.9119814993947557 0 0 0 0 15.458548666478521 1.7258452114621718 0 1.7258452114621718 -8.2116339762660537 0 0 0 0 37.701660026083118 13.85034266398803 0 13.85034266398803 0.082373212574168519 0 0 0 0 23.542306724835598 10.73945663106683 0 10.73945663106683 0.0097149077141418516 0 0 0 0 31.17083324820851 21.560409870248805 0 21.560409870248805 5.3312979184675555 0 0 0 0 26.701672084127267 10.422583268703299 0 10.422583268703299 9.144482407691612 0 0 0 0 18.011711399629434 14.296574282910171 0 14.296574282910171 1.4959447293344068 0 0 0 0 71.898435319802957 82.738309904798598 0 82.738309904798598 34.229017450553329 0 0 0 0 26.949056099108816 23.019195792469446 0 23.019195792469446 12.319511507896966 0 0 0 0 -3.6955646205751691 -5.7707310032579926 0 -5.7707310032579926 -6.368502911620908 0 0 0 0 0.9428623545407504 1.0666188383328858 0 1.0666188383328858 -1.1434596510690627 0 0 0 0 73.244504147984117 76.247444764161855 0 76.247444764161855 60.482749849433276 0 0 0 0 109.0977944216138 20.669034824495952 0 20.669034824495952 -54.153363578325298 0 0 0 0 1.8728625816584099 4.9977224278090375 0 4.9977224278090375 -2.9297387117389917 0 0 0 0 -13.73038186730264 39.465385259208119 0 39.465385259208119 3.2137817214390907 0 0 0 0 64.347073580647702 34.235284825185346 0 34.235284825185346 1.6864428638085087 0 0 0 0 65.179290587358992 33.211132482187992 0 33.211132482187992 2.2754785685702927 0 0 0 0 49.333927851126646 35.341775306540512 0 35.341775306540512 2.5685102492933538 0 0 0 0 -109.59261072104709 24.737733655616466 0 24.737733655616466 -671.19352242797868 0 0 0 0 -84.619079052121378 432.9714745086676 0 432.9714745086676 -1130.6944049856247 0 0 0 0 132.8339176629961 94.00988855871492 0 94.00988855871492 -1031.2224977697988 0 0 0 0 10.864224707527399 -7.0222947754201535 0 -7.0222947754201535 -13.546691184828351 0 0 0 0 486.91199161142868 524.62648832437253 0 524.62648832437253 -1134.664951388012 0 0 0 0 37.710565092908809 27.226049749312356 0 27.226049749312356 13.503773658279393 0 0 0 0 23.359153107237944 14.340182653760159 0 14.340182653760159 15.303834059147178 0 0 0 0 30.605702455912251 13.110927525745083 0 13.110927525745083 -1.2555153409471131 0 0 0 0 185.35878113789659 16.916063225078744 0 16.916063225078744 -32.955562020243065 0 0 0 0 3492.3986281824982 -547.6578107616325 0 -547.6578107616325 -248.99514411634519 0 0 0 0 12.038058376785173 -1.127841489986892 0 -1.127841489986892 -9.2262555694782726 0 0 0 0 38.639882491479511 -75.515924679707837 0 -75.515924679707837 107.73188273420865 0 0 0 0 190.41721347398197 -87.929817497387376 0 -87.929817497387376 -477.3290016106348 0 0 0 0 -180.8856978652766 -419.04805916902239 0 -419.04805916902239 -611.29822885125168 0 0 0 0 14.64655101087007 -1.2536269991439326 0 -1.2536269991439326 -18.675760858796629 0 0 0 0 8.4289740323663835 7.2079680811837221 0 7.2079680811837221 -0.16067425938738378 0 0 0 0 87.615355710455333 44.836392519253877 0 44.836392519253877 28.294264885543271 0 0 0 0 30.819837069146161 8.7824591261364731 0 8.7824591261364731 -2.1135319836064355 0 0 0 0 14.389782335987547 3.3233031151848991 0 3.3233031151848991 -7.5718159007083159 0 0 0 0 14.713785107407944 6.3466790881559803 0 6.3466790881559803 -5.3583415177767675 0 0 0 0 12.926660321420059 1.2653326586028015 0 1.2653326586028015 -7.8748069599893142 0 0 0 0 57.06225665255262 27.336835512434028 0 27.336835512434028 1.0278407785833288 0 0 0 0 21.093360353802666 4.8723907272276321 0 4.8723907272276321 -14.586619635492559 0 0 0 0 12.335354051028844 0.39955156337100561 0 0.39955156337100561 -9.1161023533333321 0 0 0 0 13.463548359635752 2.0206967341314339 0 2.0206967341314339 -9.2164968137694814 0 0 0 0 28.564525406179385 5.1968798007913222 0 5.1968798007913222 -2.8817132464760222 0 0 0 0 27.49362348899021 13.550800937040918 0 13.550800937040918 -0.32102448091328739 0 0 0 0 3.1331120288814418 15.661803798757319 0 15.661803798757319 -27.572041860717945 0 0 0 0 23.359049124588466 17.392296230398784 0 17.392296230398784 2.7621095619545422 0 0 0 0 15.23199865717622 3.9028588510655879 0 3.9028588510655879 -3.6801753210436612 0 0 0 0 3489.1823957066299 -3.3679303056667234 0 -3.3679303056667234 0.54959250183387875 0 0 0 0 21.66749556286959 5.056808279724919 0 5.056808279724919 -1.9573907827992798 0 0 0 0 17.193388995656591 2.3218310261240447 0 2.3218310261240447 -1.5895178435852633 0 0 0 0 15.328372601802158 -2.1443677228568525 0 -2.1443677228568525 -6.3005990745314921 0 0 0 0 10.694020034461573 -0.80064256445959359 0 -0.80064256445959359 -5.7900770939071435 0 0 0 0 10.881747358595021 -0.94290533759081541 0 -0.94290533759081541 -6.3324693139419423 0 0 0 0 12.473425122309607 2.2700373605644657 0 2.2700373605644657 -3.3047517070704657 0 0 0 0 31.234417643063352 32.52881323161921 0 32.52881323161921 -46.713310056934006 0 0 0 0 61.317378015766735 -21.817113765638737 0 -21.817113765638737 20.887646770011543 0 0 0 0 7.5697395663985105 -1.852111261603568 0 -1.852111261603568 2.4949751890883238 0 0 0 0 15.695936131334747 -28.335521737316071 0 -28.335521737316071 61.14832338355518 0 0 0 0 3.7930972214493295 -1.6040536828183534 0 -1.6040536828183534 1.2801221722572782 0 0 0 0 3184.2618557886453 645.28050109676303 0 645.28050109676303 90.888311729037241 0 0 0 0 11.385185294864641 -1.2766582053229971 0 -1.2766582053229971 66.094485883894862 0 0 0 0 4.4663831115466905 0.41532074913061479 0 0.41532074913061479 0.045122657278614309 0 0 0 0 3632.6592539391204 1504.9424754180925 0 1504.9424754180925 -68.240881142278496 0 0 0 0 9.3605224369821372 2.7440983051243677 0 2.7440983051243677 -3.4894751338496519 0 0 0 0 5.3534739016994308 3.2336527374702975 0 3.2336527374702975 -0.84297269953484744 0 0 0 0 2433.8909116168725 2013.8356361066599 0 2013.8356361066599 1290.5486088770961 0 0 0 0 10.969799911484102 3.3889992908988944 0 3.3889992908988944 -1.8860754487751614 0 0 0 0 1324.9878163948888 1477.7819800494321 0 1477.7819800494321 1038.2822790645989 0 0 0 0 37.414141737062891 17.952616562168103 0 17.952616562168103 1.7358525694559788 0 0 0 0 30.776817543419384 10.415466977729494 0 10.415466977729494 -1.6460620391899283 0 0 0 0 22.077017999997878 3.5822643238821925 0 3.5822643238821925 -8.7125291512505534 0 0 0 0 22.504856369720073 9.5783984453332778 0 9.5783984453332778 -0.58389168111489198 0 0 0 0 13.820467038446793 6.2485073981486075 0 6.2485073981486075 -2.9913405393015786 0 0 0 0 635.7762309070531 -15.91468744239387 0 -15.91468744239387 -41.224891260260677 0 0 0 0 19.743191268251394 11.345224507096532 0 11.345224507096532 2.760051471261562 0 0 0 0 6.8707635183851039 2.7573731059005269 0 2.7573731059005269 -1.1427772664286264 0 0 0 0 3.7548974249686466 4.0966986305363235 0 4.0966986305363235 1.5669680910339487 0 0 0 0 626.39603313610132 -223.05415355605788 0 -223.05415355605788 85.33074523633644 0 0 0 0 2145.8562987058103 644.09231095564326 0 644.09231095564326 -135.1357747316637 0 0 0 0 70.528857679339126 27.035882097445068 0 27.035882097445068 9.7810530562187523 0 0 0 0 5.4118833415836747 4.3052940419400016 0 4.3052940419400016 0.77422245898688913 0 0 0 0 3.9540219297965962 6.8186936206755036 0 6.8186936206755036 5.2298514068560582 0 0 0 0 26.681645115721039 15.669078513327122 0 15.669078513327122 5.7465247341333452 0 0 0 0 12.92332780237254 2.0442327553540309 0 2.0442327553540309 -1.555558592062247 0 0 0 0 2156.1360438607735 580.54291295645987 0 580.54291295645987 -482.97201432605812 0 0 0 0 3123.799951109555 813.15451204866622 0 813.15451204866622 -504.18863675208598 0 0 0 0 2311.7387205713885 -327.55990733551766 0 -327.55990733551766 -465.89983465519924 0 0 0 0 3502.0422879713515 196.15582930614536 0 196.15582930614536 -587.19450279551427 0 0 0 0 3491.2238162611393 -511.00906783020929 0 -511.00906783020929 -440.78608081386142 0 0 0 0 615.22553367393266 170.01374531320442 0 170.01374531320442 -6.4619786162064017 0 0 0 0 -14.425204732942802 7.922409956754862 0 7.922409956754862 92.829831420408226 0 0 0 0 2277.4398000190067 -79.264943595711387 0 -79.264943595711387 95.950501834190788 0 0 0 0 -0.20686063100083629 1.6436325032894388 0 1.6436325032894388 1.8124444022258848 0 0 0 0 150.63032197087159 64.349716923014626 0 64.349716923014626 18.330603834303474 0 0 0 0 68.292598407919286 59.161637027167671 0 59.161637027167671 40.308980571973734 0 0 0 0 -9.9490089044649608 20.810894790807708 0 20.810894790807708 20.69887696357593 0 0 0 0 4.6893995491040243 7.8236466764342936 0 7.8236466764342936 -2.7928981567583437 0 0 0 0 46.419147167136543 24.003119432899325 0 24.003119432899325 2.4874050360963338 0 0 0 0 11.184237928182483 2.1434862252207267 0 2.1434862252207267 -8.6146980713413974 0 0 0 0 45.301400952215772 22.497266255998511 0 22.497266255998511 6.502357023668992 0 0 0 0 8.0402670234463613 3.0016565406565832 0 3.0016565406565832 1.3051517847749494 0 0 0 0 -5.9550984530919635 13.814610141302396 0 13.814610141302396 14.378306962278682 0 0 0 0 27.838532256311737 15.262901006329372 0 15.262901006329372 13.604080198042404 0 0 0 0 27.786938599285349 10.736765756238007 0 10.736765756238007 -0.57345734107224189 0 0 0 0 24.72483056045894 31.83576318982 0 31.83576318982 -4.9755502925318069 0 0 0 0 -3.0896620083164095 4.6328889588309892 0 4.6328889588309892 -1.3200908266155142 0 0 0 0 93.875380566561944 37.87798833386978 0 37.87798833386978 -9.9257819644869869 0 0 0 0 67.92196505843458 75.657323847154629 0 75.657323847154629 -43.59900765769487 0 0 0 0 6.3652514299016616 -1.5981632137719117 0 -1.5981632137719117 -10.501050146999905 0 0 0 0 68.866035533974355 39.831346307293671 0 39.831346307293671 14.128903747331719 0 0 0 0 153.65536729773157 42.76217270845882 0 42.76217270845882 90.51150364494606 0 0 0 0 184.77917059310857 97.538098486856484 0 97.538098486856484 -79.315384611501941 0 0 0 0 97.580008201461169 101.3727045597368 0 101.3727045597368 131.12965854041749 0 0 0 0 -60.515293387008569 94.539001625626554 0 94.539001625626554 46.854480928636804 0 0 0 0 -4.2256500318835606 231.9379608652838 0 231.9379608652838 343.81006085731337 0 0 0 0 0.56314059524140703 -1.2544373956582575 0 -1.2544373956582575 -1.0020629322267744 0 0 0 0 -12.423996477162817 16.376508200349107 0 16.376508200349107 4.2768836785343645 0 0 0 0 93.434422142367112 74.511651401818312 0 74.511651401818312 65.663197695993404 0 0 0 0 5.5076612193734036 38.832403337386722 0 38.832403337386722 62.496984745984264 0 0 0 0 38.131065634210245 17.84854890377882 0 17.84854890377882 41.261405447542529 0 0 0 0 118.01760252797249 65.712789420623352 0 65.712789420623352 -46.454618370361032 0 0 0 0 109.61946935870219 102.40925178685409 0 102.40925178685409 44.631522343021629 0 0 0 0 55.768886438527261 80.351952081529618 0 80.351952081529618 43.806684100991333 0 0 0 0 173.69891775970427 -127.38189306209594 0 -127.38189306209594 -476.73446366602866 0 0 0 0 34.034195469024212 -13.324262859731625 0 -13.324262859731625 4.0967582888666048 0 0 0 0 15.711999043353728 -4.1498668157959742 0 -4.1498668157959742 2.5168909044546521 0 0 0 0 3494.5269260595087 1803.0210243172905 0 1803.0210243172905 469.89253783616698 0 0 0 0 2050.3332824709505 -1208.6163412839228 0 -1208.6163412839228 272.16380517595718 0 0 0 0 -77.591621399442374 -661.38550128547411 0 -661.38550128547411 584.08953601624603 0 0 0 0 578.21438624206348 239.02986965206617 0 239.02986965206617 -228.54010248157209 0 0 0 0 18.374113713374587 -22.641009921687996 0 -22.641009921687996 12.449399381774047 0 0 0 0 10.212470919124826 -38.979322619973573 0 -38.979322619973573 30.206958417904389 0 0 0 0 3470.4786264033683 -300.85752990478227 0 -300.85752990478227 -296.77392605293784 0 0 0 0 194.84709051024402 230.83804074799096 0 230.83804074799096 381.00693592503137 0 0 0 0 9.6986246285300837 -3.0691509926428431 0 -3.0691509926428431 3.6221972232441342 0 0 0 0 3494.9987337858092 -543.01745995122474 0 -543.01745995122474 86.933629539506143 0 0 0 0 9.502876947135519 -25.935497278107505 0 -25.935497278107505 18.209569538464621 0 0 0 0 4.3377615302954808 -6.626709979446634 0 -6.626709979446634 0.42995229673396373 0 0 0 0 10.127779290465696 -19.327204111920537 0 -19.327204111920537 79.058995000777486 0 0 0 0 -87.800629718351047 63.477550428816812 0 63.477550428816812 114.81964760853293 0 0 0 0 -32.603257836543889 -33.67499593714922 0 -33.67499593714922 -39.283972087530856 0 0 0 0 45.215836702269371 -104.5356400844887 0 -104.5356400844887 56.11934081259335 0 0 0 0 -18.193981095158961 -37.821952396123834 0 -37.821952396123834 -59.091241412169893 0 0 0 0 -3.6343112196763325 -11.363275117767444 0 -11.363275117767444 -25.702909236796714 0 0 0 0 21.252445264182825 -47.870003855621462 0 -47.870003855621462 23.042185265134322 0 0 0 0 18.771308096711437 -34.771906145016374 0 -34.771906145016374 -1.948699369762835 0 0 0 0 -5.9341636135175548 -27.159515930171167 0 -27.159515930171167 -5.2946056817292861 0 0 0 0 -47.876448512535717 -18.023165281405454 0 -18.023165281405454 -51.291130556248845 0 0 0 0 -24.164307536917022 -39.288301320762685 0 -39.288301320762685 -44.656746293334891 0 0 0 0 72.045114904838556 -224.00065566285184 0 -224.00065566285184 -107.9755141454126 0 0 0 0 42.066182405349167 -22.824382835941528 0 -22.824382835941528 1.1061708492855917 0 0 0 0 5.909056598602767 -2.4977841714152422 0 -2.4977841714152422 -5.3843317471750289 0 0 0 0 -136.37714225962372 -109.70450199288689 0 -109.70450199288689 307.74767564310559 0 0 0 0 220.77443328570371 -110.20379066847272 0 -110.20379066847272 151.67918165020819 0 0 0 0 -1.1424542669615505 -6.3023069617700607 0 -6.3023069617700607 3.4570431620561948 0 0 0 0 -193.4904174785479 -40.69695020345489 0 -40.69695020345489 141.4174735343189 0 0 0 0 -6.0317383967139904 50.444060764473988 0 50.444060764473988 -182.73896595092265 0 0 0 0 -6.3101808928622631 -3.6810911504330761 0 -3.6810911504330761 -91.885606139022002 0 0 0 0 87.880440524125163 26.601968024670068 0 26.601968024670068 -28.688378832663425 0 0 0 0 16.836124934874533 30.799760878850066 0 30.799760878850066 214.83328813979915 0 0 0 0 86.358539146902331 -16.755312140534897 0 -16.755312140534897 -159.15973840849892 0 0 0 0 70.016217375250562 45.521522408050942 0 45.521522408050942 -10.650220510296094 0 0 0 0 22.953240578177642 18.961525293042016 0 18.961525293042016 -31.354291706973928 0 0 0 0 45.312075889728021 15.722058675752459 0 15.722058675752459 -18.717615629742717 0 0 0 0 -13.893073763429129 -20.062690647799172 0 -20.062690647799172 155.75073465726291 0 0 0 0 70.631894991689478 -7.9627739426778135 0 -7.9627739426778135 -21.931849667435927 0 0 0 0 21.318461088152162 22.516612603289676 0 22.516612603289676 -4.7866953309347657 0 0 0 0 65.894765994707996 14.002423240782264 0 14.002423240782264 -5.1395221028024025 0 0 0 0 30.937276367385493 10.224835623723493 0 10.224835623723493 -2.879643149025469 0 0 0 0 93.341290738346288 56.834385063590162 0 56.834385063590162 26.143202156932603 0 0 0 0 -44.064857367950026 -41.423153406713482 0 -41.423153406713482 -32.456492107309259 0 0 0 0 -5.8284275942044843 -10.198256691489492 0 -10.198256691489492 -8.4586821231919256 0 0 0 0 34.63966819410777 -26.699639849752664 0 -26.699639849752664 -29.639945531959441 0 0 0 0 32.650454308388362 -13.899786689843495 0 -13.899786689843495 -4.720796345636245 0 0 0 0 -10.684447081279359 0.32898240873601026 0 0.32898240873601026 -8.1114029076934457 0 0 0 0 8.1105576945956557 -2.6687509532715445 0 -2.6687509532715445 -0.50440777213281085 0 0 0 0 6.9897688982710235 7.5339258361769623 0 7.5339258361769623 21.973257415116699 0 0 0 0 3480.6184959942552 14.542763353770837 0 14.542763353770837 54.958874243705793 0 0 0 0 -2.0752583231285087 2.9684992025815546 0 2.9684992025815546 14.956275872392494 0 0 0 0 7.5608169185287579 -13.382722427024909 0 -13.382722427024909 45.543494759586636 0 0 0 0 2043.5629449365515 2457.3715021375369 0 2457.3715021375369 2128.1973556200173 0 0 0 0 2044.4885064938646 1176.0229633099157 0 1176.0229633099157 968.67750206911046 0 0 0 0 3499.8571592647895 1632.6352866722582 0 1632.6352866722582 588.87307871653729 0 0 0 0 2521.5128221072409 977.52215884768941 0 977.52215884768941 334.75999475483923 0 0 0 0 2077.0127024052199 803.90020588561435 0 803.90020588561435 316.32320112695737 0 0 0 0 2203.8811970888928 1402.3821023617249 0 1402.3821023617249 770.13608679513754 0 0 0 0 6.3321986669364634 -11.367794558113779 0 -11.367794558113779 25.000505389814037 0 0 0 0 -149.28219004857237 -122.70235278951077 0 -122.70235278951077 129.5466082158855 0 0 0 0 1755.5906340342044 1151.9253985737569 0 1151.9253985737569 637.50540230961417 0 0 0 0 41.429288605013426 78.015360094961579 0 78.015360094961579 -21.497864702583684 0 0 0 0 1624.2484772090247 956.01399169648346 0 956.01399169648346 873.40925857369359 0 0 0 0 1013.6800907767247 838.77731247791007 0 838.77731247791007 884.3097910358606 0 0 0 0 1410.7169935961065 878.30848857503474 0 878.30848857503474 426.80107374284785 0 0 0 0 3489.1618390380718 575.45130521550232 0 575.45130521550232 -79.30418424698604 0 0 0 0 1810.3661945965723 -328.17964313935852 0 -328.17964313935852 -458.30334766842026 0 0 0 0 3405.3214117954376 -1195.9038846469671 0 -1195.9038846469671 -950.56946318176449 0 0 0 0 -1052.22234534167 -1369.3468335427438 0 -1369.3468335427438 -155.97707742713408 0 0 0 0 3.9241765781163025 -4.2701947652485899 0 -4.2701947652485899 -7.4489663460067188 0 0 0 0 6.1888984407540804 -1.1514840034341489 0 -1.1514840034341489 -1.1655833859210492 0 0 0 0 433.42009660362964 -188.26826296140246 0 -188.26826296140246 443.40813231548861 0 0 0 0 337.29262330299753 114.23283597641921 0 114.23283597641921 -144.51114398749542 0 0 0 0 510.98345619867177 -471.70924458695185 0 -471.70924458695185 -676.57816163975326 0 0 0 0 1430.5135649613803 487.91978470062099 0 487.91978470062099 -166.79018126074561 0 0 0 0 147.78660008271072 407.67339405897195 0 407.67339405897195 686.44003868534219 0 0 0 0 3501.7846877581756 761.62866733026783 0 761.62866733026783 176.70832947230977 0 0 0 0 1839.1923594218824 451.17729553129635 0 451.17729553129635 119.91344966500498 0 0 0 0 6.098698470617947 -3.6208637031675011 0 -3.6208637031675011 -3.6712852641458786 0 0 0 0 -181.61930198607297 66.219118554250144 0 66.219118554250144 -515.69182710268024 0 0 0 0 604.63522606796641 757.36169887285746 0 757.36169887285746 82.923761368994747 0 0 0 0 728.6000262167945 -278.37640146766387 0 -278.37640146766387 144.25287815555581 0 0 0 0 493.45422113592213 305.0615294168183 0 305.0615294168183 -541.80845114831823 0 0 0 0 1457.6438098784492 1562.6369849696798 0 1562.6369849696798 1153.9356166909906 0 0 0 0 596.06467441967379 614.24965448907176 0 614.24965448907176 1515.7343582629569 0 0 0 0 -231.88343391260423 367.44141016426511 0 367.44141016426511 927.26079616792902 0 0 0 0 183.44896245798736 -99.221865919982349 0 -99.221865919982349 646.27846995292612 0 0 0 0 -6.3246004751363216 -500.54854220968764 0 -500.54854220968764 224.17584784057544 0 0 0 0 5.3396702770514963 -4.23601678506936 0 -4.23601678506936 6.6464203934422112 0 0 0 0 -144.41630076939327 324.04543869386362 0 324.04543869386362 211.58286574122172 0 0 0 0 294.58783967151612 271.28737364157132 0 271.28737364157132 28.439995050641301 0 0 0 0 16.185903749226341 4.0263215162507606 0 4.0263215162507606 6.2894797886359939 0 0 0 0 132.19389301055708 -4.056660555133476 0 -4.056660555133476 109.29426700887234 0 0 0 0 54.154773689195281 71.394911118882192 0 71.394911118882192 381.64569338128877 0 0 0 0 144.26014202783378 11.573159272104373 0 11.573159272104373 -20.82046188980171 0 0 0 0 -67.278328758853604 -118.05046326297543 0 -118.05046326297543 -177.36722373264274 0 0 0 0 14.81955104503686 -109.41025232244988 0 -109.41025232244988 -321.8676133132858 0 0 0 0 56.281467692111619 216.14287219974995 0 216.14287219974995 -152.81102632523607 0 0 0 0 207.75925481600643 699.01724005094911 0 699.01724005094911 298.71115915509108 0 0 0 0 -374.78336037306872 439.18353534548214 0 439.18353534548214 756.39514400119242 0 0 0 0 -116.19067956703657 181.42201483132249 0 181.42201483132249 383.51205194796302 0 0 0 0 -230.85867235294427 203.6161059786416 0 203.6161059786416 576.35643962843005 0 0 0 0 -213.63229318080266 387.67350650510298 0 387.67350650510298 280.53014494718241 0 0 0 0 -241.44051015547302 226.18623041971478 0 226.18623041971478 73.019837009717321 0 0 0 0 -385.26388433175453 261.60307501152374 0 261.60307501152374 580.31535077678609 0 0 0 0 -596.40584142523585 98.15575291736468 0 98.15575291736468 274.51048056573654 0 0 0 0 -293.60045356103365 209.36126448942451 0 209.36126448942451 253.42809553090527 0 0 0 0 -576.946556455674 219.139642768741 0 219.139642768741 671.38788840904851 0 0 0 0 -331.74674479964597 345.5565361802328 0 345.5565361802328 221.17236028746947 0 0 0 0 -342.62246072415655 117.33618883307668 0 117.33618883307668 -170.62199131696616 0 0 0 0 -341.23771203051001 128.36863591053975 0 128.36863591053975 -172.65381474004244 0 0 0 0 -342.28105506897555 117.46238250851991 0 117.46238250851991 -185.98596648151761 0 0 0 0 -340.18293859803816 131.3594177048476 0 131.3594177048476 -194.7052476364679 0 0 0 0 23.664846995951223 31.508407379684989 0 31.508407379684989 14.705947010950638 0 0 0 0 11.214230905079347 22.229106602562421 0 22.229106602562421 16.773036870247253 0 0 0 0 -194.95332001175211 688.03493926415433 0 688.03493926415433 -74.315857464850524 0 0 0 0 -55.813648224779172 539.0956547557862 0 539.0956547557862 -589.94972481156719 0 0 0 0 574.29639970359858 790.03505035519993 0 790.03505035519993 1552.9917930590636 0 0 0 0 1748.7574746692044 1038.3714135581286 0 1038.3714135581286 150.09632358641738 0 0 0 0 11.543809897895358 8.1466076735104949 0 8.1466076735104949 5.5861501332376609 0 0 0 0 1213.1332632851554 12.494018387804545 0 12.494018387804545 -161.75717308969729 0 0 0 0 615.2175059117435 919.84894067981156 0 919.84894067981156 1557.1007619893426 0 0 0 0 7.6683134447107761 -0.35893952676362062 0 -0.35893952676362062 8.1280953254259121 0 0 0 0 806.00294597715038 916.01153293503512 0 916.01153293503512 826.73608562537174 0 0 0 0 678.55156445477041 1104.8965266682717 0 1104.8965266682717 622.5372321954701 0 0 0 0 688.84614202592638 443.40804538022712 0 443.40804538022712 -47.054260952033474 0 0 0 0 1326.1405920774123 1252.2328572354381 0 1252.2328572354381 575.25341573107926 0 0 0 0 1433.4795185329144 -402.29507174109597 0 -402.29507174109597 118.98161534363771 0 0 0 0 -254.17459278167371 -59.018404891299838 0 -59.018404891299838 238.78872777861216 0 0 0 0 589.44203222262149 879.75426983969464 0 879.75426983969464 -515.14460275493184 0 0 0 0 182.79497951403732 -137.51416609639136 0 -137.51416609639136 22.848011127289283 0 0 0 0 909.55206992512103 -100.71400258487301 0 -100.71400258487301 -1458.801389274156 0 0 0 0 193.98317271261715 -5.6229316198655184 0 -5.6229316198655184 -17.398672050484869 0 0 0 0 104.65640168232494 -682.00048101034372 0 -682.00048101034372 -647.9180123302267 0 0 0 0 155.60133022021182 -72.632543816164571 0 -72.632543816164571 -530.59172823830795 0 0 0 0 8.3096431038835519 -4.0163520695570014 0 -4.0163520695570014 1.7100757021039872 0 0 0 0 -240.56316098916432 -236.41467703030412 0 -236.41467703030412 317.36138631925223 0 0 0 0 441.3114333251433 114.84001524834912 0 114.84001524834912 -201.32865369836554 0 0 0 0 -356.88244443312215 -901.4397149127833 0 -901.4397149127833 160.3338884059649 0 0 0 0 331.87980368057015 -19.702533854272815 0 -19.702533854272815 -159.88522379182814 0 0 0 0 664.6491141530496 -111.24153031345395 0 -111.24153031345395 -217.12536982441816 0 0 0 0 228.316443263162 30.967841463239665 0 30.967841463239665 -80.900956587856513 0 0 0 0 337.20697156899314 -3.0894159107646146 0 -3.0894159107646146 -108.56603703230257 0 0 0 0 144.59300138905473 -37.301567962915556 0 -37.301567962915556 81.190877470383839 0 0 0 0 24.177611924367739 108.6780712570901 0 108.6780712570901 -107.12895202263485 0 0 0 0 4.8815041142552218 -170.00203464613125 0 -170.00203464613125 -234.96034540395249 0 0 0 0 136.50124588412109 -163.30536822353474 0 -163.30536822353474 -446.32470121692131 0 0 0 0 24.497951584495404 -11.025762298993477 0 -11.025762298993477 3.7740710726594333 0 0 0 0 135.74730283294048 2.9910464926970235 0 2.9910464926970235 -356.53614846876098 0 0 0 0 37.513786781484129 -15.299638887685321 0 -15.299638887685321 6.1609793855836301 0 0 0 0 183.00957774233939 -74.799282752923318 0 -74.799282752923318 -335.49138108044372 0 0 0 0 99.341374144056317 -236.18484221479503 0 -236.18484221479503 -360.43309611599943 0 0 0 0 -180.75568733002001 -145.71672988982959 0 -145.71672988982959 9.4186095602644855 0 0 0 0 119.33900202525547 7.8491514844499761 0 7.8491514844499761 6.1688587183755317 0 0 0 0 64.608403469441328 -231.65989852319262 0 -231.65989852319262 66.995841626694528 0 0 0 0 15.140423053573613 -24.931648978250905 0 -24.931648978250905 -47.223341861536937 0 0 0 0 -36.166269318814557 -196.09276789001206 0 -196.09276789001206 477.50831340065952 0 0 0 0 214.15012517679133 -51.466289188664177 0 -51.466289188664177 -43.801143380865597 0 0 0 0 174.08187633917896 -155.77455577079172 0 -155.77455577079172 -59.338507377775386 0 0 0 0 123.98998132341694 -56.854581801587074 0 -56.854581801587074 -196.99411173775275 0 0 0 0 1.4590451780392897 -0.46656759466853792 0 -0.46656759466853792 0.45812412820059312 0 0 0 0 -14.861011235136175 -46.023941140139186 0 -46.023941140139186 -43.546017628621485 0 0 0 0 -16.211980949081862 -56.778130339481265 0 -56.778130339481265 -49.647663154598376 0 0 0 0 -74.502726494174567 -22.969867589645901 0 -22.969867589645901 -26.769866020516247 0 0 0 0 -29.970731227040233 -41.039745698122715 0 -41.039745698122715 -19.865156127044429 0 0 0 0 -58.89274904438571 -103.18967436317189 0 -103.18967436317189 18.647669848767691 0 0 0 0 74.35717984409348 -96.888746087221136 0 -96.888746087221136 -0.27777052868123064 0 0 0 0 69.174241478962358 -78.334181921518393 0 -78.334181921518393 -44.392514228415848 0 0 0 0 291.2152391968848 -121.74920506893932 0 -121.74920506893932 -53.443584953016625 0 0 0 0 345.43470623384383 -3.6656727630767705 0 -3.6656727630767705 -5.7377718608559007 0 0 0 0 303.44415895393922 -40.085724682852742 0 -40.085724682852742 -19.873453176846851 0 0 0 0 211.44536887192589 -91.061417938810905 0 -91.061417938810905 44.138824107089931 0 0 0 0 346.81932391610735 27.605332377624791 0 27.605332377624791 24.784913948981739 0 0 0 0 313.12088301362019 -8.238088333284395 0 -8.238088333284395 23.037730343885187 0 0 0 0 340.71582645278613 -2.7669725239305762 0 -2.7669725239305762 0.38750934948029681 0 0 0 0 405.47644160235723 72.828016787397701 0 72.828016787397701 43.820341439047695 0 0 0 0 337.00039126724459 91.569227993533218 0 91.569227993533218 85.531630097221068 0 0 0 0 355.37850881581835 135.97968156265483 0 135.97968156265483 171.63176538859443 0 0 0 0 322.20552968236734 63.326054997714436 0 63.326054997714436 100.47199022406448 0 0 0 0 323.35849458036864 63.494434226716066 0 63.494434226716066 240.57313725048471 0 0 0 0 337.07253839055556 102.17532483999071 0 102.17532483999071 151.32828020131547 0 0 0 0 341.48150555773464 13.77451518313319 0 13.77451518313319 63.253048009106806 0 0 0 0 296.8081619647819 57.746374771459614 0 57.746374771459614 154.47039711756477 0 0 0 0 290.63493914383071 24.793109473651384 0 24.793109473651384 115.36357125575478 0 0 0 0 301.84792760505934 -10.936775518858553 0 -10.936775518858553 -33.739364045725779 0 0 0 0 269.65797488945464 38.226475129737082 0 38.226475129737082 55.313134991208017 0 0 0 0 222.17461342375009 33.254302189343321 0 33.254302189343321 -32.68911452055454 0 0 0 0 320.45514347438984 36.183254922228343 0 36.183254922228343 -33.202476459702666 0 0 0 0 216.71593407735236 -9.4023723942241304 0 -9.4023723942241304 -33.766302806301368 0 0 0 0 192.53449180648022 -80.875171193702499 0 -80.875171193702499 -50.360146400921579 0 0 0 0 330.38122609461971 -63.355649047406132 0 -63.355649047406132 -50.568197908017282 0 0 0 0 260.47889458539612 -29.891728354443899 0 -29.891728354443899 16.305651152656083 0 0 0 0 337.5291511817195 -61.062812780848617 0 -61.062812780848617 -71.614442665203228 0 0 0 0 339.06173742120154 6.1882472940621938 0 6.1882472940621938 -46.527336668427324 0 0 0 0 560.77551206730641 -103.03352840104526 0 -103.03352840104526 -196.46533112911084 0 0 0 0 276.10067100682863 -212.18443693671156 0 -212.18443693671156 -68.292982680881323 0 0 0 0 548.29024747232961 -317.34812009846007 0 -317.34812009846007 -48.958956426386976 0 0 0 0 620.00203598403641 569.99354161263932 0 569.99354161263932 155.65340885303613 0 0 0 0 127.00300858552237 11.763851754078928 0 11.763851754078928 -63.822475300800761 0 0 0 0 242.6663589716336 -63.628688748760851 0 -63.628688748760851 -80.341455708820831 0 0 0 0 217.97780389443369 -15.418780234825348 0 -15.418780234825348 -13.897030283634253 0 0 0 0 582.44479268338182 -748.41532698544279 0 -748.41532698544279 -1466.6754866891722 0 0 0 0 365.21100841114458 -192.89352746815166 0 -192.89352746815166 -785.41117506626802 0 0 0 0 168.09885510158347 281.95090967241526 0 281.95090967241526 36.537505862044782 0 0 0 0 21.453502498605303 -478.66584174251187 0 -478.66584174251187 -396.31265536786213 0 0 0 0 -9.8906019071728224 -96.316861173783309 0 -96.316861173783309 311.20309850064473 0 0 0 0 334.49224415648496 73.748108769268583 0 73.748108769268583 293.92815576882458 0 0 0 0 1110.1700288646389 587.61839669220672 0 587.61839669220672 166.14103476855871 0 0 0 0 -52.300447764529963 -339.81896709811622 0 -339.81896709811622 58.162823690240316 0 0 0 0 156.52165373939715 -162.03054492785884 0 -162.03054492785884 -526.80719467965355 0 0 0 0 214.41638834087695 -16.980475247945741 0 -16.980475247945741 -11.640098774412103 0 0 0 0 275.38822322937631 -508.24661356701233 0 -508.24661356701233 -951.77155070349227 0 0 0 0 228.98865652505629 -382.49929638511583 0 -382.49929638511583 -626.46652496261549 0 0 0 0 199.09712361072471 -15.311369653118781 0 -15.311369653118781 -10.972221779577929 0 0 0 0 220.52354676299589 20.296708754399287 0 20.296708754399287 -152.34474822882385 0 0 0 0 220.99852021805418 -80.931434446890989 0 -80.931434446890989 -416.34818581164086 0 0 0 0 202.22087400935743 76.436469087070236 0 76.436469087070236 -187.72157804131439 0 0 0 0 250.36901147966091 -34.42848345596849 0 -34.42848345596849 -129.89186183439324 0 0 0 0 276.05362675043034 21.964497518493772 0 21.964497518493772 -153.39328708817141 0 0 0 0 287.97926224369439 55.822335247463798 0 55.822335247463798 -117.3429310903463 0 0 0 0 261.33188427782443 128.85572588097921 0 128.85572588097921 -51.311167991176262 0 0 0 0 219.52582684976369 77.682468044929919 0 77.682468044929919 -98.11137629355926 0 0 0 0 30.573750448031205 35.349075403644747 0 35.349075403644747 -142.15524896999932 0 0 0 0 234.1835283536584 89.906041528786318 0 89.906041528786318 -132.95796741401409 0 0 0 0 -124.13571839067572 452.63790545940356 0 452.63790545940356 -200.80327168664189 0 0 0 0 252.27930326656497 19.780119698904855 0 19.780119698904855 -224.32914617644474 0 0 0 0 190.98643948978133 31.604156112420242 0 31.604156112420242 -118.86363857664702 0 0 0 0 193.13610405810323 -56.299764103155667 0 -56.299764103155667 -276.36328695059774 0 0 0 0 190.54497428128406 -10.606941455896731 0 -10.606941455896731 -129.52974922507474 0 0 0 0 349.83503187463612 46.422899633661473 0 46.422899633661473 -139.96118116009393 0 0 0 0 180.41211520835986 -6.0566231488432187 0 -6.0566231488432187 -11.195130206341855 0 0 0 0 154.123510455629 -298.64158652624991 0 -298.64158652624991 -138.40442371014615 0 0 0 0 20.570066006452493 -22.318291152946891 0 -22.318291152946891 -14.492738472391025 0 0 0 0 -4.0241872447222704 18.597042502529348 0 18.597042502529348 76.815409664837716 0 0 0 0 90.701753982888476 -6.1285124163769069 0 -6.1285124163769069 -42.781431226154155 0 0 0 0 94.730464598230299 5.6360187560125254 0 5.6360187560125254 -12.382997017753425 0 0 0 0 439.57922826119102 94.761512680449414 0 94.761512680449414 -13.205806278093405 0 0 0 0 248.07757668447448 12.707551173574757 0 12.707551173574757 29.270460738116526 0 0 0 0 -34.002379798710535 -47.196422750637794 0 -47.196422750637794 3.8360636052566406 0 0 0 0 12.34365298808558 -10.761175681609 0 -10.761175681609 -10.248029674280787 0 0 0 0 88.127842777963409 13.104626459051971 0 13.104626459051971 -13.60914685500617 0 0 0 0 101.74998639227124 -26.563440473971561 0 -26.563440473971561 -17.241035897117925 0 0 0 0 78.035057533258325 -46.787524538930363 0 -46.787524538930363 -30.384405335268134 0 0 0 0 122.43398119097722 20.837638658682309 0 20.837638658682309 -17.123485414035436 0 0 0 0 33.564756772655528 -53.040585520572449 0 -53.040585520572449 -77.828373445459192 0 0 0 0 141.47929520378466 -51.400060637070389 0 -51.400060637070389 -56.675267443012174 0 0 0 0 199.73467000315577 153.12185340206088 0 153.12185340206088 53.17990277527133 0 0 0 0 503.56001994412145 -888.46907663388538 0 -888.46907663388538 283.14161745196361 0 0 0 0 22.041403841257747 9.7313855681691983 0 9.7313855681691983 -5.4578860382943404 0 0 0 0 87.700809640706666 724.80055636979409 0 724.80055636979409 138.12762361045316 0 0 0 0 192.25960779262823 533.53445853842641 0 533.53445853842641 341.39007111066894 0 0 0 0 12.548778219575752 -3.7235599020047268 0 -3.7235599020047268 -0.71778040382360508 0 0 0 0 160.83013665090766 -181.62566505569157 0 -181.62566505569157 -67.668029751836684 0 0 0 0 513.14689678863942 -241.33436308322689 0 -241.33436308322689 -69.007189551099174 0 0 0 0 -60.843488142978458 -46.021826676714227 0 -46.021826676714227 8.6014798589808379 0 0 0 0 172.64087980982731 -55.104374175111843 0 -55.104374175111843 8.6509445680276258 0 0 0 0 196.81637401845182 -58.039025899272929 0 -58.039025899272929 -75.196190821010532 0 0 0 0 317.87362805980229 -29.545895754943558 0 -29.545895754943558 -79.370969749361166 0 0 0 0 469.7305111568312 70.409986940025647 0 70.409986940025647 -172.46144939687838 0 0 0 0 185.08142052403491 69.343956456575143 0 69.343956456575143 -14.103563987282541 0 0 0 0 718.31358338906284 534.76092528670415 0 534.76092528670415 -585.6978121617276 0 0 0 0 1084.8571833516289 -26.527142595436089 0 -26.527142595436089 -382.19328498887444 0 0 0 0 431.73199602810928 170.39121721940592 0 170.39121721940592 -359.62182672931692 0 0 0 0 450.42229231533929 232.43898269707188 0 232.43898269707188 -158.95657167528134 0 0 0 0 282.5872277882645 223.44979318355331 0 223.44979318355331 -152.5920547238602 0 0 0 0 370.62092174320242 152.23473148681387 0 152.23473148681387 -151.25356394157825 0 0 0 0 359.24458238497027 146.84142144229554 0 146.84142144229554 -83.821678060179693 0 0 0 0 302.40743904751616 150.40958992997594 0 150.40958992997594 -51.23154512936253 0 0 0 0 249.83452652615051 120.11508285176387 0 120.11508285176387 -9.2358455240901094 0 0 0 0 226.21900586692573 239.53453217848914 0 239.53453217848914 51.892637583696342 0 0 0 0 371.70941649466113 185.74587274883106 0 185.74587274883106 -43.621707839544001 0 0 0 0 67.343913983502716 -110.51052603288645 0 -110.51052603288645 -15.695434061401443 0 0 0 0 406.28457860880917 276.77482729645806 0 276.77482729645806 57.261014110127689 0 0 0 0 3.8730881807826663 1.1890012944232513 0 1.1890012944232513 -0.065830388434017451 0 0 0 0 450.5994794323633 155.95533230666126 0 155.95533230666126 18.659212186227705 0 0 0 0 366.0385128764392 136.1785637584635 0 136.1785637584635 176.18890894105721 0 0 0 0 380.77876629419188 153.10580006662349 0 153.10580006662349 21.107676663077655 0 0 0 0 345.973788403453 188.43612752042145 0 188.43612752042145 12.156983257554202 0 0 0 0 372.54246375713046 159.22651435498847 0 159.22651435498847 -83.673844720641881 0 0 0 0 309.16038805270364 147.03223762546463 0 147.03223762546463 21.407698508111025 0 0 0 0 333.89272515739503 92.234451285710861 0 92.234451285710861 -32.903883338251035 0 0 0 0 342.30030329880719 150.85399439786283 0 150.85399439786283 27.537908745005325 0 0 0 0 349.31512942051813 60.616310999341522 0 60.616310999341522 -27.065026429129261 0 0 0 0 261.91416987742696 71.065154203866769 0 71.065154203866769 -26.228289149528791 0 0 0 0 353.810637656994 101.70230370202449 0 101.70230370202449 74.315194072896247 0 0 0 0 286.31412403512604 58.818063348441569 0 58.818063348441569 68.130803061761071 0 0 0 0 389.67994360673401 190.95256362011514 0 190.95256362011514 94.986016553165712 0 0 0 0 329.50093118943005 123.8677190265671 0 123.8677190265671 103.27882016536023 0 0 0 0 423.06637988146451 203.35427292006963 0 203.35427292006963 91.908088725282596 0 0 0 0 438.27933471116739 17.097582301042848 0 17.097582301042848 157.75827671622892 0 0 0 0 428.94461938584027 11.676899956589978 0 11.676899956589978 354.25020643861171 0 0 0 0 368.5193330687689 108.71549005265547 0 108.71549005265547 198.48363687509277 0 0 0 0 767.51440285731042 118.99989374326685 0 118.99989374326685 111.56194805127507 0 0 0 0 3.5788300838159657 0.46448345272372826 0 0.46448345272372826 -0.093395390758659991 0 0 0 0 461.2516746441579 359.07383677283019 0 359.07383677283019 112.3508613811191 0 0 0 0 62.674335383224388 -137.39138459719618 0 -137.39138459719618 179.19319866418414 0 0 0 0 214.70891508281755 -120.9201569164974 0 -120.9201569164974 -131.05461198469311 0 0 0 0 203.4491742503794 350.52138147889906 0 350.52138147889906 193.42819129050667 0 0 0 0 382.74069989541567 258.34717058504634 0 258.34717058504634 222.89705423904843 0 0 0 0 2.2316717228809608 2.0101996280869621 0 2.0101996280869621 2.8573862579643081 0 0 0 0 505.12483158114082 -150.43832725049867 0 -150.43832725049867 89.612850556455442 0 0 0 0 10.624665495086447 -147.73668661431955 0 -147.73668661431955 386.56417612515236 0 0 0 0 3.4442355551809669 -73.365819246108117 0 -73.365819246108117 164.78820301929224 0 0 0 0 -58.555221906264705 -34.065666532188686 0 -34.065666532188686 296.87131084736382 0 0 0 0 20.706155290956985 118.75827160348479 0 118.75827160348479 253.5792813778628 0 0 0 0 704.74962331712231 135.37377769351474 0 135.37377769351474 286.35159713566622 0 0 0 0 581.72747665501811 -14.498693260304094 0 -14.498693260304094 392.21952964112415 0 0 0 0 370.22968338988539 55.948520916699636 0 55.948520916699636 463.75987455176266 0 0 0 0 308.28558408748495 167.17200601532829 0 167.17200601532829 282.81318426142616 0 0 0 0 287.13374970133736 143.35455654700195 0 143.35455654700195 443.1656512260106 0 0 0 0 449.49356461243588 113.44164654578276 0 113.44164654578276 317.96051301876969 0 0 0 0 543.87685053001042 232.58389004565163 0 232.58389004565163 282.0676603399337 0 0 0 0 291.59653437182351 39.647081367651595 0 39.647081367651595 91.03557138096744 0 0 0 0 219.23073904282137 24.04446802989105 0 24.04446802989105 154.71885794747868 0 0 0 0 348.37535800665773 198.17534363586213 0 198.17534363586213 198.02138415222907 0 0 0 0 78.786443970369874 76.366836932301339 0 76.366836932301339 144.31046011912667 0 0 0 0 142.66984022647193 116.87111669927106 0 116.87111669927106 55.395884050956397 0 0 0 0 -7.0658350433513988 -28.29704575918106 0 -28.29704575918106 -85.317131550375507 0 0 0 0 126.18691514563943 -75.233454464660781 0 -75.233454464660781 16.756456235572159 0 0 0 0 320.24205821413852 -201.46568135990992 0 -201.46568135990992 -10.754888904315862 0 0 0 0 122.12027344211492 -164.17086840279103 0 -164.17086840279103 90.707192894050507 0 0 0 0 249.8835568346185 -177.84613518683398 0 -177.84613518683398 -17.442272697839826 0 0 0 0 0.65343637540354393 42.485411263077083 0 42.485411263077083 124.67488418348978 0 0 0 0 176.21245027950499 41.83171531413052 0 41.83171531413052 -77.175609786757377 0 0 0 0 5.9536927549913514 6.0267722776480426 0 6.0267722776480426 6.674599095787066 0 0 0 0 -63.650249814349081 23.681499387316876 0 23.681499387316876 247.99277813873232 0 0 0 0 373.0957712033196 -10.934226406503399 0 -10.934226406503399 -99.259863915216101 0 0 0 0 433.16293507079922 -92.246039013573949 0 -92.246039013573949 -33.252109090431532 0 0 0 0 148.16237419576828 -165.20720725675255 0 -165.20720725675255 164.00979330659084 0 0 0 0 44.931098474267856 -224.5065422337608 0 -224.5065422337608 21.318371050019664 0 0 0 0 372.91088786640285 184.35028405788026 0 184.35028405788026 61.658063675321984 0 0 0 0 3.7030954439829245 -1.3737491157923305 0 -1.3737491157923305 0.36672780968851582 0 0 0 0 113.94564390249093 52.210425320262964 0 52.210425320262964 1.6746823126234176 0 0 0 0 175.95452695529093 -18.588727017084807 0 -18.588727017084807 -29.445739851386293 0 0 0 0 195.29846478244872 -39.576250481875611 0 -39.576250481875611 -44.277656281771385 0 0 0 0 239.81596531841296 6.5029412850483368 0 6.5029412850483368 -51.822982346708727 0 0 0 0 176.18432837188084 -7.3641249165036697 0 -7.3641249165036697 -54.561387108473184 0 0 0 0 194.58390232661259 48.633432503274378 0 48.633432503274378 -5.2925402895082811 0 0 0 0 143.47304297498158 13.459637848377781 0 13.459637848377781 -27.069041517601477 0 0 0 0 185.75551117068699 11.002277389345778 0 11.002277389345778 -48.479722844853086 0 0 0 0 112.57701687505505 30.921886977696886 0 30.921886977696886 -29.828374955357731 0 0 0 0 168.79338620149792 -13.062462923754993 0 -13.062462923754993 -36.567088180595874 0 0 0 0 180.83069234743562 -16.614092851823898 0 -16.614092851823898 -38.895023753301757 0 0 0 0 30.527734073040847 30.087156570205252 0 30.087156570205252 -2.8182814576948942 0 0 0 0 66.172033202692546 28.007896081443306 0 28.007896081443306 -89.272219098747314 0 0 0 0 94.492930613028875 22.101939887074764 0 22.101939887074764 15.684427327347976 0 0 0 0 86.556852553623685 63.791408382945576 0 63.791408382945576 -66.007187929477482 0 0 0 0 1.4941910818778368 -1.4195675887943668 0 -1.4195675887943668 0.78587479545949468 0 0 0 0 -3.3910091363031825 54.446455001957595 0 54.446455001957595 -66.378659182903334 0 0 0 0 146.2778479021315 0.96322738042714562 0 0.96322738042714562 0.99290753051093361 0 0 0 0 20.686086687951502 -19.710470533690668 0 -19.710470533690668 -111.78474069234699 0 0 0 0 11.075850919972325 -4.131315621789323 0 -4.131315621789323 -0.035678615311324602 0 0 0 0 2.5227009015844288 -1.2900945868388618 0 -1.2900945868388618 -0.72992381969124054 0 0 0 0 31.956424332556708 -35.123078373351206 0 -35.123078373351206 -10.600628513959176 0 0 0 0 32.886237923903536 25.662028487947907 0 25.662028487947907 9.544509856627883 0 0 0 0 114.98623949692632 1.1729937515565532 0 1.1729937515565532 2.6081065640800603 0 0 0 0 8.9994198425773355 -4.1568827912017561 0 -4.1568827912017561 0.7472521709936748 0 0 0 0 53.79726865391234 17.051595704319883 0 17.051595704319883 -79.508978662861864 0 0 0 0 41.504306623332013 -25.319600436037263 0 -25.319600436037263 -131.22247808824181 0 0 0 0 9.8356573662558731 69.39280654112801 0 69.39280654112801 -113.35982540776104 0 0 0 0 272.10406113270074 -2.6137754874000052 0 -2.6137754874000052 12.627531437341361 0 0 0 0 24.372926098283642 -25.312928435516454 0 -25.312928435516454 56.417419271895149 0 0 0 0 26.082836815407063 36.253262504624161 0 36.253262504624161 77.307128131843115 0 0 0 0 198.85805107667056 17.636558016635206 0 17.636558016635206 4.0509196581370048 0 0 0 0 228.86752863198672 124.71978795145543 0 124.71978795145543 45.10577871797922 0 0 0 0 9.6991760055646949 -3.5564536103512552 0 -3.5564536103512552 0.36395456589159592 0 0 0 0 60.109030669307685 -134.28377725194912 0 -134.28377725194912 -183.12825442100166 0 0 0 0 -7.5330504098610618 -25.769114429914282 0 -25.769114429914282 -16.315935994265146 0 0 0 0 613.69943804654758 81.248228208102887 0 81.248228208102887 166.41769224282893 0 0 0 0 586.34595953817188 165.2843490754517 0 165.2843490754517 29.052209504373309 0 0 0 0 4.5918732038990306 -1.2167857625942871 0 -1.2167857625942871 -0.007000945932906788 0 0 0 0 643.5741530010564 288.60938559928604 0 288.60938559928604 106.0729898283264 0 0 0 0 273.33198577943563 180.09415154235401 0 180.09415154235401 84.752297233855984 0 0 0 0 577.40224125507848 202.34621504662078 0 202.34621504662078 -5.1927424206369324 0 0 0 0 589.32658911189174 167.66156519203858 0 167.66156519203858 -16.920253729138551 0 0 0 0 672.80808056480691 134.55617555667223 0 134.55617555667223 -5.2460058072740594 0 0 0 0 349.90293006205138 63.817971864480967 0 63.817971864480967 20.92238929449843 0 0 0 0 538.96453954623757 63.533593643055042 0 63.533593643055042 151.49352249363346 0 0 0 0 417.17702776629858 176.53583977156552 0 176.53583977156552 46.906526499803249 0 0 0 0 582.80695053707791 169.82274664112356 0 169.82274664112356 65.158957120941295 0 0 0 0 517.73878468952898 55.048357660769284 0 55.048357660769284 493.97873721122073 0 0 0 0 573.4302250089986 369.10705690995701 0 369.10705690995701 411.72049141641105 0 0 0 0 430.65666134098683 213.46688198079323 0 213.46688198079323 207.64966428712057 0 0 0 0 357.1186217277027 150.20108333103997 0 150.20108333103997 207.21290837476863 0 0 0 0 -0.18269991556478971 0.40482002532975869 0 0.40482002532975869 0.29249761839488286 0 0 0 0 420.07474445544904 182.63157472704097 0 182.63157472704097 74.293938462030724 0 0 0 0 -100.79045718335874 242.72211046740074 0 242.72211046740074 115.847444463579 0 0 0 0 299.38824427685631 219.84096573826469 0 219.84096573826469 226.30195135418012 0 0 0 0 240.73465928021506 297.26589401030583 0 297.26589401030583 124.37928118359338 0 0 0 0 326.08696458961458 255.6173157580763 0 255.6173157580763 265.35716791064533 0 0 0 0 277.47922771808408 252.58758877343826 0 252.58758877343826 246.42610892181563 0 0 0 0 229.89749649326222 197.83485839955472 0 197.83485839955472 324.09791856005063 0 0 0 0 294.98373347161578 165.58536828312799 0 165.58536828312799 296.62245079062154 0 0 0 0 298.11509585115255 152.46795351428727 0 152.46795351428727 203.15155642744412 0 0 0 0 338.46766227762055 219.2689331499779 0 219.2689331499779 244.89615423823261 0 0 0 0 434.45914071489096 190.4375239620199 0 190.4375239620199 150.35418370043908 0 0 0 0 397.62673598675974 121.55487594414217 0 121.55487594414217 66.866489302707123 0 0 0 0 498.68988170602825 77.668887874898019 0 77.668887874898019 -3.6422498333622855 0 0 0 0 591.42120253009818 238.83820836686033 0 238.83820836686033 114.25554678483968 0 0 0 0 428.87996706377453 212.56979819902131 0 212.56979819902131 254.12362875381109 0 0 0 0 333.10294227285249 200.91057156349461 0 200.91057156349461 190.53894769661156 0 0 0 0 433.20795195923711 248.06170774893303 0 248.06170774893303 209.50579386095228 0 0 0 0 252.47936019377266 -64.954374591630994 0 -64.954374591630994 69.52870536984301 0 0 0 0 569.25320272156944 52.936033468146078 0 52.936033468146078 -20.562115314902258 0 0 0 0 424.27325688995097 54.338755201674417 0 54.338755201674417 36.333052334020522 0 0 0 0 473.60736200854535 -119.80289142945051 0 -119.80289142945051 -52.777904953279631 0 0 0 0 223.10310242708056 -75.412454011835962 0 -75.412454011835962 13.320036320729059 0 0 0 0 37.590693746331453 -169.1781030649081 0 -169.1781030649081 30.245990079584317 0 0 0 0 233.63766672657584 -91.124167591429341 0 -91.124167591429341 -52.280900944951554 0 0 0 0 -204.29609513847572 -28.603305040045825 0 -28.603305040045825 25.591104670249706 0 0 0 0 -50.035081456790977 -50.707858581575465 0 -50.707858581575465 -8.262444331907318 0 0 0 0 -115.8714238365128 -104.00434299570406 0 -104.00434299570406 -15.353837344820477 0 0 0 0 -0.39733088147339224 -1.4209769868962248 0 -1.4209769868962248 -5.7496683847314438 0 0 0 0 -544.87646512574611 34.766138450143444 0 34.766138450143444 122.30629831905844 0 0 0 0 -188.28897923699151 33.666285858777428 0 33.666285858777428 -80.73749546122167 0 0 0 0 240.30805144099577 -184.78926857034776 0 -184.78926857034776 -10.914055266671312 0 0 0 0 25.305375744736011 -61.243351082254321 0 -61.243351082254321 7.5193192333129559 0 0 0 0 -104.61334218085722 -169.04750070570685 0 -169.04750070570685 51.086399676727524 0 0 0 0 -81.870111822991021 -32.286376320460477 0 -32.286376320460477 -2.7180545538064962 0 0 0 0 143.71321260984132 33.661328575027028 0 33.661328575027028 4.8240898112881041 0 0 0 0 -45.569912012431814 -142.13402398732023 0 -142.13402398732023 -75.800773441156252 0 0 0 0 -42.337880993929957 -129.20680238396142 0 -129.20680238396142 121.1327630402875 0 0 0 0 586.3438884443849 -247.8013893711713 0 -247.8013893711713 -407.26672025792641 0 0 0 0 -353.9547592406725 -187.6088323207041 0 -187.6088323207041 59.299572310801523 0 0 0 0 403.95021419713703 -69.92057600383157 0 -69.92057600383157 98.495740979047241 0 0 0 0 45.785181693528102 25.577945290085381 0 25.577945290085381 22.422510460592093 0 0 0 0 92.957654865419499 22.698808407940078 0 22.698808407940078 9.9129771495186105 0 0 0 0 -253.71382466432533 313.680026878744 0 313.680026878744 174.78597096844351 0 0 0 0 10.492521860308038 -4.4119549461042098 0 -4.4119549461042098 -9.7508186178852192 0 0 0 0 24.308701636566024 -3.7365133104501833 0 -3.7365133104501833 -2.1081006556073061 0 0 0 0 124.08754876448984 13.33257287321544 0 13.33257287321544 2.411550793452534 0 0 0 0 64.438191034616011 173.69169558350916 0 173.69169558350916 266.81564952292524 0 0 0 0 480.45292468792741 477.72370387842625 0 477.72370387842625 470.97010866475489 0 0 0 0 8.9450337531650028 0.093213811897248533 0 0.093213811897248533 0.80393564390237482 0 0 0 0 762.28174429067803 -190.92846900729614 0 -190.92846900729614 2.1758373726640912 0 0 0 0 244.30952221809139 -146.40095286675626 0 -146.40095286675626 279.29171160943861 0 0 0 0 911.05092599726049 251.30166582622792 0 251.30166582622792 82.422877390551548 0 0 0 0 868.20431948149962 -20.346313040386576 0 -20.346313040386576 188.4538647648792 0 0 0 0 982.30644965087504 323.14829246162344 0 323.14829246162344 66.640631326667744 0 0 0 0 544.116331879477 213.16669153770965 0 213.16669153770965 50.038585297006875 0 0 0 0 539.36021489134794 318.16578205784242 0 318.16578205784242 46.709615111218682 0 0 0 0 518.45465549107689 284.90181390173967 0 284.90181390173967 -116.50222035880824 0 0 0 0 532.18283879384762 216.98207557743248 0 216.98207557743248 -11.067439433500681 0 0 0 0 654.5153411883748 268.39587306643466 0 268.39587306643466 -22.70800354826531 0 0 0 0 583.38023503057229 188.21640056899312 0 188.21640056899312 26.696637767710683 0 0 0 0 582.61615199791379 186.19501943237759 0 186.19501943237759 52.634931445721691 0 0 0 0 286.98692743818992 286.50288087470597 0 286.50288087470597 147.64799628972673 0 0 0 0 441.39252450407002 242.02444320176787 0 242.02444320176787 107.16485787252401 0 0 0 0 489.50871397713581 273.4682774905483 0 273.4682774905483 -16.438232261126132 0 0 0 0 361.68026773879501 204.84524469649216 0 204.84524469649216 225.38446761158025 0 0 0 0 391.51667290449814 141.095038259962 0 141.095038259962 239.9748069425093 0 0 0 0 586.24736262327315 162.24420040553116 0 162.24420040553116 47.405205184213031 0 0 0 0 100.79232694762504 250.98258824543007 0 250.98258824543007 365.71807404258584 0 0 0 0 169.30041571602851 166.96309361595212 0 166.96309361595212 401.48643796777412 0 0 0 0 268.00024053217112 228.09912774569258 0 228.09912774569258 285.57372653808056 0 0 0 0 205.15004084439988 230.46762983663314 0 230.46762983663314 289.15288313618612 0 0 0 0 236.72500499563193 282.02152770067266 0 282.02152770067266 133.0076919556241 0 0 0 0 184.46782349895193 337.61076950920688 0 337.61076950920688 143.53390069335131 0 0 0 0 300.45915714634793 129.27419304488268 0 129.27419304488268 185.0734233520962 0 0 0 0 -65.394640329757124 85.891294376909372 0 85.891294376909372 179.93753968273074 0 0 0 0 305.08612324695241 175.0834534167692 0 175.0834534167692 -221.78388992257828 0 0 0 0 265.34243629627053 383.42601330379517 0 383.42601330379517 -6.4072954956028525 0 0 0 0 -58.9055379000146 537.21456381327596 0 537.21456381327596 -87.086139254588034 0 0 0 0 315.56623806259722 254.03304586004037 0 254.03304586004037 35.306388493320355 0 0 0 0 -0.32478744690173933 -0.74429158949189755 0 -0.74429158949189755 -3.0085035343020601 0 0 0 0 88.105667820738745 4.4364122856910626 0 4.4364122856910626 22.061293328681359 0 0 0 0 -510.18275799567232 458.88188322800573 0 458.88188322800573 -152.82814504506382 0 0 0 0 264.44168531821606 101.54262379580666 0 101.54262379580666 21.351694757231144 0 0 0 0 65.883256996354248 115.80696811874688 0 115.80696811874688 -117.5804015082324 0 0 0 0 -124.26772546321376 208.45315064520315 0 208.45315064520315 -237.62917260617024 0 0 0 0 97.546874371349077 240.93433415018708 0 240.93433415018708 -232.92355919601175 0 0 0 0 332.52095295583058 -261.35041996711095 0 -261.35041996711095 -595.30762358978245 0 0 0 0 141.68274063511308 249.13395679643884 0 249.13395679643884 -268.4723209789189 0 0 0 0 534.27423020539356 -441.66208605450589 0 -441.66208605450589 224.77159639533147 0 0 0 0 527.39985522541213 126.931346659201 0 126.931346659201 -184.7101450927305 0 0 0 0 256.60300803902555 249.21845275069145 0 249.21845275069145 -293.88596214505134 0 0 0 0 190.48218199539588 5.8575904760378137 0 5.8575904760378137 164.09833716481268 0 0 0 0 266.84751872587435 97.689032319927207 0 97.689032319927207 346.52692026713851 0 0 0 0 882.70216269583261 -10.300150153111247 0 -10.300150153111247 89.247289449728783 0 0 0 0 817.55629200227838 -173.50422666706083 0 -173.50422666706083 63.779223199565422 0 0 0 0 715.42824578108298 158.58530117828209 0 158.58530117828209 271.06784513346071 0 0 0 0 674.15640924212312 103.62661579737653 0 103.62661579737653 299.35236975253162 0 0 0 0 2002.4521138313753 70.820239739500551 0 70.820239739500551 -381.66406435076931 0 0 0 0 1822.3447013453297 -72.445604008599048 0 -72.445604008599048 30.611879497998189 0 0 0 0 3500.6331291890947 -368.23305688691801 0 -368.23305688691801 -605.14639224625535 0 0 0 0 1785.4386424446602 -807.28978833846486 0 -807.28978833846486 -448.86301752585291 0 0 0 0 1761.9991152585008 -309.99912511746038 0 -309.99912511746038 -71.458449578320455 0 0 0 0 545.1547551609201 108.10366504213027 0 108.10366504213027 -149.0482864114415 0 0 0 0 775.63941492642334 -1692.5687674717551 0 -1692.5687674717551 1186.7915395733642 0 0 0 0 3492.8662633454651 -1361.4449436811874 0 -1361.4449436811874 -329.39448279900142 0 0 0 0 17.927398564837262 -3.4186765075528345 0 -3.4186765075528345 1.6310093403561465 0 0 0 0 3493.3539853246748 600.13410762231376 0 600.13410762231376 -714.85190237872439 0 0 0 0 1716.1094089770286 1317.9516798920968 0 1317.9516798920968 224.38021934369942 0 0 0 0 1702.794494807913 20.684314284075924 0 20.684314284075924 -534.92772043021296 0 0 0 0 1580.9953756245814 257.2186990831259 0 257.2186990831259 -28.618073481370971 0 0 0 0 368.50007659334187 -336.05637718617743 0 -336.05637718617743 274.19126430212123 0 0 0 0 318.38544019551045 -352.35676424001105 0 -352.35676424001105 -588.2630888225832 0 0 0 0 -29.725892714832298 -50.04593334356737 0 -50.04593334356737 154.26230280738929 0 0 0 0 39.292468280562197 -6.9211074253400913 0 -6.9211074253400913 0.55803946299255047 0 0 0 0 -108.65931063060634 -196.64061545128342 0 -196.64061545128342 -41.924318602280323 0 0 0 0 -105.4679464532237 -120.858859639961 0 -120.858859639961 63.813766278896878 0 0 0 0 96.026878066529207 129.51729876978379 0 129.51729876978379 -443.11091988481246 0 0 0 0 42.391022689426663 -8.2394019245881314 0 -8.2394019245881314 -3.1517472836194758 0 0 0 0 -97.227857259953453 -162.19318667737531 0 -162.19318667737531 -149.10653483520127 0 0 0 0 -166.16629576265404 -94.49778739466845 0 -94.49778739466845 -35.264554061950662 0 0 0 0 6.7933584530371576 -6.6284230933798227 0 -6.6284230933798227 -9.9167285569539381 0 0 0 0 -173.79301566283175 -108.48779740119247 0 -108.48779740119247 86.624378073710091 0 0 0 0 -179.68903465285621 -17.994842381649775 0 -17.994842381649775 -15.179418067409244 0 0 0 0 -161.98802126481178 -185.94670165814287 0 -185.94670165814287 224.76861723889786 0 0 0 0 258.04763560453648 -94.828459081965121 0 -94.828459081965121 16.846672348786015 0 0 0 0 -9.2361778534504992 15.36551747471249 0 15.36551747471249 62.216636604942806 0 0 0 0 -323.65208349343629 -191.57745581377941 0 -191.57745581377941 32.58159747286436 0 0 0 0 -571.88698792509604 76.640784619795454 0 76.640784619795454 153.60873086341292 0 0 0 0 370.42948678304856 -22.521780461219748 0 -22.521780461219748 45.486485513848947 0 0 0 0 -0.96600403296529791 -0.75594854482639562 0 -0.75594854482639562 -3.9331931722247138 0 0 0 0 -1.7293004745334777 -5.8281516697761866 0 -5.8281516697761866 -16.716509027104703 0 0 0 0 267.13828098775957 -272.04642909538745 0 -272.04642909538745 -221.12647457465687 0 0 0 0 -49.478890507893084 124.02679922580012 0 124.02679922580012 -147.37797606530671 0 0 0 0 -10.226624499055561 24.575267499764479 0 24.575267499764479 -22.580295120166966 0 0 0 0 -19.888587535189799 80.678101103859817 0 80.678101103859817 -245.03757374793463 0 0 0 0 137.46312541386578 141.20343224102533 0 141.20343224102533 -308.86435737023049 0 0 0 0 7.2049824043909823 -5.1793134325962704 0 -5.1793134325962704 6.5115110701625758 0 0 0 0 3509.7678394603827 -566.31920468447356 0 -566.31920468447356 120.31134625930783 0 0 0 0 -103.26032143849716 -279.49512879207612 0 -279.49512879207612 184.81325962567115 0 0 0 0 3501.8661349173822 -556.00565361580823 0 -556.00565361580823 170.51115955882946 0 0 0 0 3409.7691020030616 -295.94087318997066 0 -295.94087318997066 -525.97085513076672 0 0 0 0 831.29513511049299 -778.20343084814385 0 -778.20343084814385 445.11391467046224 0 0 0 0 1293.1888714765228 -1069.549233281361 0 -1069.549233281361 357.62158976382921 0 0 0 0 1296.757126335684 -546.18306062415218 0 -546.18306062415218 247.30577049136156 0 0 0 0 427.96554914853914 -7.4762392046494028 0 -7.4762392046494028 199.41798521700005 0 0 0 0 220.22026816329162 51.232677168984821 0 51.232677168984821 -34.222102601801168 0 0 0 0 131.02199674650001 -251.31347355136802 0 -251.31347355136802 245.21237124208994 0 0 0 0 61.185971141387199 -115.96019048459401 0 -115.96019048459401 208.94249118516365 0 0 0 0 24.081669637901541 16.657727293158196 0 16.657727293158196 55.483178694537798 0 0 0 0 8.1650237617977837 13.964658488946952 0 13.964658488946952 118.65117975224302 0 0 0 0 42.593076588782424 -0.40914164064361103 0 -0.40914164064361103 65.127757859159374 0 0 0 0 15.138984073906613 38.494861849314219 0 38.494861849314219 53.634566861004345 0 0 0 0 20.048157114997593 33.016915504294303 0 33.016915504294303 75.923737473915651 0 0 0 0 15.133038098197403 -11.8374387037152 0 -11.8374387037152 104.83092552473181 0 0 0 0 -47.927772157905565 -65.053441294210643 0 -65.053441294210643 -85.3692244629583 0 0 0 0 -36.12729024919463 -114.41282168229918 0 -114.41282168229918 4.7249894360020335 0 0 0 0 25.600122789843098 -4.663500711194132 0 -4.663500711194132 -0.55455996961263099 0 0 0 0 140.27949013595935 -384.06559982508679 0 -384.06559982508679 -363.19381204727318 0 0 0 0 17.927569251637664 -4.1024311727023601 0 -4.1024311727023601 1.7973099259769709 0 0 0 0 -306.86147829192487 445.99933088951002 0 445.99933088951002 -9.9736542835394175 0 0 0 0 36.61190817086154 5.0333625548307168 0 5.0333625548307168 2.6236027086892153 0 0 0 0 -304.80724362215551 -1065.0361991876771 0 -1065.0361991876771 2241.4609620115098 0 0 0 0 -42.422257291995265 50.050646028781671 0 50.050646028781671 91.915370056964093 0 0 0 0 1367.3878682377544 -1361.5569195557837 0 -1361.5569195557837 -1151.365605643678 0 0 0 0 -10.698728533413682 37.622780979804681 0 37.622780979804681 32.904020158052717 0 0 0 0 15.380400463051046 25.838991557431655 0 25.838991557431655 52.867774096281167 0 0 0 0 14.432594505906657 16.679754789508245 0 16.679754789508245 9.886059544156593 0 0 0 0 12.171551663559512 11.384627897862799 0 11.384627897862799 23.301783812618169 0 0 0 0 10.242335010902025 13.297242983740716 0 13.297242983740716 38.196161511259106 0 0 0 0 24.200249962916132 38.128278852654887 0 38.128278852654887 27.320556959392604 0 0 0 0 24.100420477589068 29.64946518806164 0 29.64946518806164 -1.5632402246312722 0 0 0 0 42.131233620559215 29.114084013822094 0 29.114084013822094 33.518925735518678 0 0 0 0 26.75998869646719 36.717382164099064 0 36.717382164099064 10.664274439615497 0 0 0 0 20.53446476906538 38.992501927273821 0 38.992501927273821 41.442422007799024 0 0 0 0 32.465407271702134 32.240150493275848 0 32.240150493275848 -34.005780949879409 0 0 0 0 34.475492171946826 31.432527128186237 0 31.432527128186237 16.984945561839652 0 0 0 0 19.506196874790476 37.873700442888548 0 37.873700442888548 12.91189740467064 0 0 0 0 27.94349068057636 51.054995638208737 0 51.054995638208737 17.924414869722398 0 0 0 0 21.524498550499629 42.366185154063402 0 42.366185154063402 7.4243662722776662 0 0 0 0 24.12209704710201 19.22555214024063 0 19.22555214024063 6.6850751957043233 0 0 0 0 49.262387243994453 46.459772396153085 0 46.459772396153085 37.605518766898058 0 0 0 0 40.888407739585091 30.334492253944973 0 30.334492253944973 14.57375903377806 0 0 0 0 35.357215496977005 -18.303301274929026 0 -18.303301274929026 19.948169311250354 0 0 0 0 39.43969763320456 -22.750394584968049 0 -22.750394584968049 99.230005931131018 0 0 0 0 -6.581076002392777 2.8866255437808448 0 2.8866255437808448 4.4314792579986282 0 0 0 0 39.698745130635416 -29.516370982343645 0 -29.516370982343645 29.395646073649914 0 0 0 0 34.41272538487101 23.689417548226402 0 23.689417548226402 -29.794277385842861 0 0 0 0 31.549411324559642 7.7921864534075453 0 7.7921864534075453 -5.7994929438361691 0 0 0 0 31.249107165742316 6.2425496662399382 0 6.2425496662399382 -12.014738235608093 0 0 0 0 22.467036726091166 -9.9733763605358092 0 -9.9733763605358092 2.8960078785460652 0 0 0 0 47.778780374417693 -2.171666665568921 0 -2.171666665568921 -108.77979031723999 0 0 0 0 34.421572439066949 75.546895079004116 0 75.546895079004116 31.760675880589361 0 0 0 0 9.721818643437274 1.1468409809053952 0 1.1468409809053952 -1.175997838295022 0 0 0 0 58.73547286813664 48.078195682369767 0 48.078195682369767 -87.661592066046296 0 0 0 0 48.613841213445994 97.179861128224275 0 97.179861128224275 14.359382594507451 0 0 0 0 9.0133812236126687 6.6997571026536207 0 6.6997571026536207 46.290719268550902 0 0 0 0 0.84731125411025232 -2.813035852003086 0 -2.813035852003086 1.8788172505578769 0 0 0 0 163.48436391351424 239.19634694793672 0 239.19634694793672 209.73366719107207 0 0 0 0 377.81919706012559 -36.871142335550189 0 -36.871142335550189 -78.959244021929493 0 0 0 0 94.715576382426661 -163.06393108143396 0 -163.06393108143396 110.00182761176632 0 0 0 0 284.51812088380939 -101.27304063832125 0 -101.27304063832125 -81.203708430523989 0 0 0 0 119.93287085194243 -19.553996552185708 0 -19.553996552185708 63.12678021067137 0 0 0 0 51.620847233526291 -116.86383976228795 0 -116.86383976228795 -127.36919264088203 0 0 0 0 430.79810356511007 72.236191572278926 0 72.236191572278926 -33.913939544586924 0 0 0 0 30.939293918821932 -68.191866206750547 0 -68.191866206750547 -9.7812826671674884 0 0 0 0 -11.335742202740221 -31.251693229253533 0 -31.251693229253533 2.8812654399467874 0 0 0 0 5.6385819104604806 -3.7649211773579303 0 -3.7649211773579303 -14.39111093331258 0 0 0 0 50.034454978031135 -84.445749807719722 0 -84.445749807719722 -17.207175881635806 0 0 0 0 -42.788510552072694 -129.32060742968997 0 -129.32060742968997 67.278232992697667 0 0 0 0 56.582061453016649 -96.81256695596926 0 -96.81256695596926 -19.079305208671258 0 0 0 0 -100.50177015521695 -8.8990805731346541 0 -8.8990805731346541 13.026234171035412 0 0 0 0 4.9940000973833421 -0.067234071574752363 0 -0.067234071574752363 -10.608029773844807 0 0 0 0 -347.05278463337163 303.56324594299303 0 303.56324594299303 -46.656719332857506 0 0 0 0 -200.83325321045231 30.438958421121015 0 30.438958421121015 171.38424716020222 0 0 0 0 -128.64061917686558 -38.455059420574798 0 -38.455059420574798 9.7849392956591998 0 0 0 0 -361.10153917365096 98.234985845250094 0 98.234985845250094 98.22354481275022 0 0 0 0 1.7036621966613268 3.3427643324016216 0 3.3427643324016216 -7.03535338063468 0 0 0 0 -68.240456887777327 -135.28735095079128 0 -135.28735095079128 177.26371493052466 0 0 0 0 -26.658164962631417 -102.24927150953727 0 -102.24927150953727 58.829699226110961 0 0 0 0 337.65979003026951 212.18403184509111 0 212.18403184509111 259.97385660625287 0 0 0 0 734.47613698972418 -38.781937948479026 0 -38.781937948479026 -73.717121012554173 0 0 0 0 868.20479233127844 349.56965788901334 0 349.56965788901334 -109.69946658360573 0 0 0 0 -17.111105241359837 -450.30783991423823 0 -450.30783991423823 229.96167470413729 0 0 0 0 8.6910060849306774 -3.3349165322624721 0 -3.3349165322624721 0.4794232148476168 0 0 0 0 65.983066145170596 -288.11656523762031 0 -288.11656523762031 202.59327692098009 0 0 0 0 106.70861348546431 -28.939362265875559 0 -28.939362265875559 4.477748440732805 0 0 0 0 455.20964075890515 -172.01920138987725 0 -172.01920138987725 -228.24266950451602 0 0 0 0 27.957698549001833 -7.1008192602077571 0 -7.1008192602077571 -5.8584417485095486 0 0 0 0 -121.86656538917669 148.30053737511116 0 148.30053737511116 -97.17378722574631 0 0 0 0 31.580372977048683 178.81349653718689 0 178.81349653718689 -389.61866262911735 0 0 0 0 158.38458782531234 -48.28723281814564 0 -48.28723281814564 -8.3777301920752052 0 0 0 0 30.506701926959309 -16.331249514551374 0 -16.331249514551374 -0.64856977634219115 0 0 0 0 201.34646608702315 -47.081995904749235 0 -47.081995904749235 -13.551191363013888 0 0 0 0 55.770211679886415 -141.5054404584771 0 -141.5054404584771 -95.376932821835908 0 0 0 0 25.993082363906069 -264.13056680432874 0 -264.13056680432874 56.126155034350631 0 0 0 0 65.83289826138207 -112.42774680920002 0 -112.42774680920002 -4.6730068096294417 0 0 0 0 55.466494859803788 -137.53115530737523 0 -137.53115530737523 -22.321718856077041 0 0 0 0 273.64296466423548 27.095175318076599 0 27.095175318076599 -597.89152659467777 0 0 0 0 142.19161750267966 -38.6000940198156 0 -38.6000940198156 8.3891713920588362 0 0 0 0 168.8952809336995 -51.499681810811921 0 -51.499681810811921 15.215325511427077 0 0 0 0 79.799403678469389 -337.76449323078782 0 -337.76449323078782 -338.68853075927564 0 0 0 0 611.98508322632551 -415.40559805457497 0 -415.40559805457497 -923.20688087440863 0 0 0 0 321.74809956974059 1.7632340078066591 0 1.7632340078066591 -325.7845496028408 0 0 0 0 180.54707194963703 134.44640291986036 0 134.44640291986036 -432.45448132449837 0 0 0 0 1159.6853965827356 647.70703733571281 0 647.70703733571281 -45.293173855661735 0 0 0 0 -4.7620897112929441 -1.7859120347979882 0 -1.7859120347979882 1.6192314490944995 0 0 0 0 409.71573744858324 -140.6591824102849 0 -140.6591824102849 28.284831285143163 0 0 0 0 -160.54476649537537 583.78157681082223 0 583.78157681082223 -471.25417910865053 0 0 0 0 324.30523530091887 271.01682187296728 0 271.01682187296728 -405.76811339104273 0 0 0 0 -85.168341003933165 260.86300808870374 0 260.86300808870374 120.99582784646373 0 0 0 0 81.968170090964122 75.083400621226247 0 75.083400621226247 95.767782706757316 0 0 0 0 54.997262812173176 293.01148807214543 0 293.01148807214543 48.213921024094816 0 0 0 0 246.64696362934774 169.34583113135795 0 169.34583113135795 -191.1077126324667 0 0 0 0 241.45523170335491 123.79258961798965 0 123.79258961798965 -36.818406917498578 0 0 0 0 114.33459853458771 88.295271573278569 0 88.295271573278569 72.552505440286041 0 0 0 0 259.47215118034728 61.195983534023014 0 61.195983534023014 -94.733642156668793 0 0 0 0 171.13809444388608 59.958828701796392 0 59.958828701796392 -79.029694756782646 0 0 0 0 339.37067352980375 70.596985154867511 0 70.596985154867511 -128.22675138917558 0 0 0 0 254.87127172498731 57.749811628760057 0 57.749811628760057 -11.064308738606655 0 0 0 0 244.33400171056564 110.36895180106603 0 110.36895180106603 2.6513272272083555 0 0 0 0 140.19358860839566 79.880880223886834 0 79.880880223886834 83.712142815120387 0 0 0 0 237.61467041783271 77.505198194354534 0 77.505198194354534 0.14519850185752148 0 0 0 0 209.70340313932684 104.5506172782259 0 104.5506172782259 -24.470166115572056 0 0 0 0 210.09502715821873 181.05457715377452 0 181.05457715377452 167.3635960255092 0 0 0 0 341.44052737087623 164.58945201831762 0 164.58945201831762 6.9950941890397189 0 0 0 0 60.120901997922829 -15.087359739944706 0 -15.087359739944706 4.388759554658737 0 0 0 0 -11.806815615685082 819.77310357833858 0 819.77310357833858 -5.9075920928016785 0 0 0 0 152.21316386692342 -3.8795694436644226 0 -3.8795694436644226 -537.96508122970852 0 0 0 0 -158.11214774075779 595.89069763013185 0 595.89069763013185 819.21929818863873 0 0 0 0 227.70156651448633 21.976182383377818 0 21.976182383377818 249.97704564134165 0 0 0 0 204.43303121434292 199.10016621801014 0 199.10016621801014 -33.159041784617102 0 0 0 0 51.168799966362712 -85.310902332413434 0 -85.310902332413434 -151.88156605996483 0 0 0 0 229.21040243776224 41.191940989049954 0 41.191940989049954 -146.13282401841207 0 0 0 0 -193.96128901323391 -157.92862744409342 0 -157.92862744409342 -124.88252396788084 0 0 0 0 12.776959365598486 56.183987806824575 0 56.183987806824575 32.279644072992596 0 0 0 0 -1.9258244455651976 37.98914787576512 0 37.98914787576512 23.426363714734894 0 0 0 0 -61.920248235859617 17.305183095980965 0 17.305183095980965 -12.57236305214974 0 0 0 0 8.2567776159190309 3.2814810087144224 0 3.2814810087144224 0.51856520694946084 0 0 0 0 -92.575898456680079 96.376938756849199 0 96.376938756849199 -52.152693054110387 0 0 0 0 -15.974621572790625 6.8780913166439248 0 6.8780913166439248 11.386356344844742 0 0 0 0 26.781683441295172 92.955989782444703 0 92.955989782444703 -52.5785586198499 0 0 0 0 54.929912336330744 53.162186297114204 0 53.162186297114204 -98.394008877692158 0 0 0 0 6.7852719981892733 49.708658403308164 0 49.708658403308164 -57.897452033932495 0 0 0 0 53.410402757872362 50.462084912056525 0 50.462084912056525 17.653034151333486 0 0 0 0 172.44201883228379 40.231729178088244 0 40.231729178088244 -63.144261429328367 0 0 0 0 102.08262917941829 59.152284203334375 0 59.152284203334375 18.96499560797929 0 0 0 0 40.661087088457862 103.55481134030765 0 103.55481134030765 137.04692803232865 0 0 0 0 36.48321200357168 47.007368078297986 0 47.007368078297986 32.894037280981024 0 0 0 0 -27.527896151819732 68.424977198579199 0 68.424977198579199 35.77079124953525 0 0 0 0 12.186303740505537 103.64446470074154 0 103.64446470074154 4.4658275215215326 0 0 0 0 28.13791731181982 89.979115723719076 0 89.979115723719076 1.4579712940949321 0 0 0 0 38.605075041741657 15.818297851372563 0 15.818297851372563 -112.27736506884821 0 0 0 0 -3.5739162701224245 18.842399963611115 0 18.842399963611115 -4.8408964570895838 0 0 0 0 67.577774025965482 72.708586294862471 0 72.708586294862471 -15.476314919618773 0 0 0 0 26.652080082562406 60.406078483619808 0 60.406078483619808 -47.661939644410268 0 0 0 0 53.782981256098864 29.076253167418532 0 29.076253167418532 7.6283634246030942 0 0 0 0 55.615920530079165 62.695437871524518 0 62.695437871524518 -16.02999444390025 0 0 0 0 74.905690849926032 74.571900413683579 0 74.571900413683579 -8.9234794112917371 0 0 0 0 75.72669956930622 54.209058015989285 0 54.209058015989285 16.103130626626807 0 0 0 0 54.839373164693825 52.361437847358502 0 52.361437847358502 -16.442148142183356 0 0 0 0 51.103952262411667 -12.623639675156141 0 -12.623639675156141 -101.65930230410504 0 0 0 0 111.23083950937144 62.967554245819883 0 62.967554245819883 -60.865611005370738 0 0 0 0 29.906080493812624 49.069944930669863 0 49.069944930669863 55.703700059530092 0 0 0 0 52.960243260211428 32.123731079132085 0 32.123731079132085 25.329984330403022 0 0 0 0 31.238026639217424 31.813681902940516 0 31.813681902940516 15.749719094138527 0 0 0 0 19.20772754077349 3.5119448916085076 0 3.5119448916085076 1.345030291481919 0 0 0 0 36.968272121121117 112.83407022615415 0 112.83407022615415 43.088975880207954 0 0 0 0 15.897573456290857 15.183587981514222 0 15.183587981514222 11.236971454696043 0 0 0 0 721.48853181532104 417.00896428588931 0 417.00896428588931 179.8673105646576 0 0 0 0 38.716164692898019 -5.2639514452557705 0 -5.2639514452557705 144.62844457727624 0 0 0 0 780.75795893637132 -82.143129520330376 0 -82.143129520330376 52.556591156086142 0 0 0 0 961.19308486241061 261.38525050163207 0 261.38525050163207 -151.31118495882765 0 0 0 0 223.66025434562107 176.10530728293224 0 176.10530728293224 422.88875167994138 0 0 0 0 734.57382850102658 -247.95275616548861 0 -247.95275616548861 -18.959012054098366 0 0 0 0 5.1913840818383221 -1.5279697645766142 0 -1.5279697645766142 0.62257366387505719 0 0 0 0 127.9299547047267 -264.67236107764438 0 -264.67236107764438 157.10884710657911 0 0 0 0 291.18668304664425 -77.623459539964074 0 -77.623459539964074 13.196244034186748 0 0 0 0 304.40427623461346 -119.87045415295938 0 -119.87045415295938 -4.8660612346029666 0 0 0 0 431.93729615621487 -148.82698362645078 0 -148.82698362645078 -15.567770574093174 0 0 0 0 800.09550355774445 228.01151491842228 0 228.01151491842228 79.206317044770003 0 0 0 0 302.34181153730606 46.241775102248994 0 46.241775102248994 12.827628690193478 0 0 0 0 516.30210513890052 -12.919197438071706 0 -12.919197438071706 -46.425204125257551 0 0 0 0 261.06065478162054 -40.984394500622329 0 -40.984394500622329 -45.9934146277024 0 0 0 0 352.73169263908494 -71.308439219547836 0 -71.308439219547836 -49.628240212652599 0 0 0 0 367.8784054022035 -63.658560671784471 0 -63.658560671784471 -57.596050715320871 0 0 0 0 500.87788044795161 -37.899344759814085 0 -37.899344759814085 -67.941256426553082 0 0 0 0 364.94709423561289 36.910347672693206 0 36.910347672693206 -14.596124909610808 0 0 0 0 287.26318394317059 25.26169389826191 0 25.26169389826191 -16.027189391357751 0 0 0 0 373.42118394802583 -17.236039184432855 0 -17.236039184432855 -26.232108645612243 0 0 0 0 184.65177883737488 26.000027875231353 0 26.000027875231353 11.769481822418129 0 0 0 0 292.639745478642 39.681519841120462 0 39.681519841120462 -3.6117684205664773 0 0 0 0 202.40220295943436 68.190051546884206 0 68.190051546884206 22.762191559277198 0 0 0 0 203.66268112153011 73.931853719728906 0 73.931853719728906 32.305575790065632 0 0 0 0 134.46446989693504 68.53080030442743 0 68.53080030442743 48.681862158648983 0 0 0 0 2.2171827897109324 27.423331887497625 0 27.423331887497625 57.041685909745866 0 0 0 0 100.64821953518549 48.842450466425362 0 48.842450466425362 3.7895052677431522 0 0 0 0 183.88158833665307 39.194616892144467 0 39.194616892144467 16.623136344464001 0 0 0 0 97.634285097839893 59.998378000419507 0 59.998378000419507 44.003181756965205 0 0 0 0 96.488639658549801 60.346473744729337 0 60.346473744729337 23.66843299289053 0 0 0 0 90.213244989936356 49.235461459178396 0 49.235461459178396 22.277804876102891 0 0 0 0 47.220818909896479 85.829059576660256 0 85.829059576660256 18.325860104802132 0 0 0 0 65.35515211209713 73.223179870667082 0 73.223179870667082 18.975338926451514 0 0 0 0 90.611891462045605 73.434215367335128 0 73.434215367335128 8.9956430648699097 0 0 0 0 106.85533675838451 54.001580116188961 0 54.001580116188961 8.04903652185385 0 0 0 0 140.45706399026676 29.953843201910786 0 29.953843201910786 15.378525821591211 0 0 0 0 93.833999802005565 38.139965312267577 0 38.139965312267577 35.75046475732961 0 0 0 0 131.23956873341376 -74.973729537806321 0 -74.973729537806321 116.70655194260053 0 0 0 0 226.02874262208934 -27.9248560877204 0 -27.9248560877204 -9.7377705581125156 0 0 0 0 309.68329773802543 -84.496026613473532 0 -84.496026613473532 14.12843994900868 0 0 0 0 227.21869129819243 22.898042394355798 0 22.898042394355798 2.142525409186419 0 0 0 0 169.91331748652374 7.8233001400822104 0 7.8233001400822104 32.761347415655109 0 0 0 0 52.347460194720043 98.366181463311477 0 98.366181463311477 -45.382148895786486 0 0 0 0 53.480213798444311 78.391287604453282 0 78.391287604453282 10.018931302111014 0 0 0 0 61.59529890169506 53.93539458252144 0 53.93539458252144 11.364573214970733 0 0 0 0 -39.86137277825037 78.807426683679296 0 78.807426683679296 6.6188850467947304 0 0 0 0 119.16040510111634 150.48311168103282 0 150.48311168103282 32.350369782507187 0 0 0 0 40.100996685743596 -5.9759219552110601 0 -5.9759219552110601 6.9101687656386073 0 0 0 0 94.940223268535192 126.66978707786075 0 126.66978707786075 140.35344917260954 0 0 0 0 159.43523210340936 -8.4387690326475422 0 -8.4387690326475422 654.55610021686516 0 0 0 0 23.649167074025058 22.917911610782461 0 22.917911610782461 4.948970240781069 0 0 0 0 -119.73495472309878 107.59428396893782 0 107.59428396893782 125.03405511325036 0 0 0 0 46.40425292024144 -8.4309442570720066 0 -8.4309442570720066 -4.0398613370283272 0 0 0 0 129.67225121779484 37.781535991896817 0 37.781535991896817 -60.713352621845388 0 0 0 0 98.22339535597348 -8.2439553912290648 0 -8.2439553912290648 -59.325974313639563 0 0 0 0 76.157599595593638 29.694067972097855 0 29.694067972097855 19.157631274967116 0 0 0 0 21.447897574941933 18.582138384567237 0 18.582138384567237 9.0350909593732993 0 0 0 0 4.2809412705756102 1.3661076684424813 0 1.3661076684424813 0.22398976667884085 0 0 0 0 102.60470403828003 45.205832577151796 0 45.205832577151796 54.584540380952603 0 0 0 0 122.5249926396682 22.167270261272279 0 22.167270261272279 10.61311472217858 0 0 0 0 7.9242132182657983 1.3522248783813637 0 1.3522248783813637 1.7128001360008724 0 0 0 0 117.08410521188853 63.701708973412678 0 63.701708973412678 -27.858907450793595 0 0 0 0 142.50075536046643 61.63168088140992 0 61.63168088140992 21.445061914094367 0 0 0 0 139.00984625972342 99.205335155940702 0 99.205335155940702 138.55544406056651 0 0 0 0 146.53936731292924 69.097795563510772 0 69.097795563510772 72.211448826885317 0 0 0 0 124.84612814536376 51.382654100340005 0 51.382654100340005 83.622956598218934 0 0 0 0 130.86642859666972 40.042706001105216 0 40.042706001105216 1.6580822061750951 0 0 0 0 105.38743974864656 8.5753491764193086 0 8.5753491764193086 50.090897476820828 0 0 0 0 103.83258409083646 -20.203740612677393 0 -20.203740612677393 6.843741016846252 0 0 0 0 113.71285592072218 23.592112626923836 0 23.592112626923836 55.070733486187237 0 0 0 0 93.890518936430453 -23.563372615255503 0 -23.563372615255503 -22.076137223873957 0 0 0 0 128.49819517838478 14.720435289664238 0 14.720435289664238 25.549606432734436 0 0 0 0 138.2809134132076 124.07956525674672 0 124.07956525674672 151.00960084648841 0 0 0 0 22.490882768422267 -11.012329109707686 0 -11.012329109707686 -4.3847927190314273 0 0 0 0 104.95176070437083 -54.635541294681389 0 -54.635541294681389 -48.663509656827273 0 0 0 0 148.88162457606177 65.422364109595947 0 65.422364109595947 82.905693431121108 0 0 0 0 142.17204054266767 78.09363023833339 0 78.09363023833339 188.82293134407337 0 0 0 0 193.99710100460652 41.049909790963284 0 41.049909790963284 95.948609687536646 0 0 0 0 175.38812217985105 152.87026998837428 0 152.87026998837428 186.29401166608568 0 0 0 0 302.95714369380948 137.2253294862544 0 137.2253294862544 91.705144259834015 0 0 0 0 172.93613893344263 51.178356239314098 0 51.178356239314098 38.611376980270052 0 0 0 0 68.569132799791987 110.16581752308548 0 110.16581752308548 141.9428558674399 0 0 0 0 81.182006076123798 174.36365761132629 0 174.36365761132629 135.79175805050829 0 0 0 0 136.24223222598084 106.23255872464597 0 106.23255872464597 141.51858564845929 0 0 0 0 120.79924519790802 123.94955931037794 0 123.94955931037794 131.00133518769144 0 0 0 0 -32.914358771939078 53.286041738106178 0 53.286041738106178 44.982013325965454 0 0 0 0 0.57793781812436329 -0.88356596190393333 0 -0.88356596190393333 0.2768887168745735 0 0 0 0 291.76115037026102 151.6716688243182 0 151.6716688243182 72.321433496730606 0 0 0 0 157.2320344914815 177.4161255928891 0 177.4161255928891 135.24433022408448 0 0 0 0 143.66334737775605 136.90114155833402 0 136.90114155833402 25.28468661466195 0 0 0 0 159.59455537096801 192.57806289033965 0 192.57806289033965 41.182482317520225 0 0 0 0 127.8314882066079 188.27072961204976 0 188.27072961204976 84.31430217418233 0 0 0 0 133.89737644166962 38.633002929823306 0 38.633002929823306 7.9236293013327668 0 0 0 0 62.917615838963684 132.37084027512174 0 132.37084027512174 98.834728436361729 0 0 0 0 46.770963099159417 44.15455500360531 0 44.15455500360531 7.5773244627580425 0 0 0 0 16.957903014777003 46.406421527976931 0 46.406421527976931 -13.562148350713869 0 0 0 0 124.51254548231736 267.19832300204007 0 267.19832300204007 300.01777010115597 0 0 0 0 161.20753132346726 182.21240655574479 0 182.21240655574479 38.347476166844899 0 0 0 0 31.362848801250948 92.896788309832232 0 92.896788309832232 30.350673458265192 0 0 0 0 100.72771817751709 197.68948416738158 0 197.68948416738158 57.863141585269886 0 0 0 0 102.58408975816201 78.777785849700194 0 78.777785849700194 -171.93252017276745 0 0 0 0 20.167923370754579 -124.99592900511789 0 -124.99592900511789 -257.56238118493945 0 0 0 0 9.8454129913716599 1.2885143094874216 0 1.2885143094874216 -0.64769789648962428 0 0 0 0 47.980632485157003 -10.971015853876963 0 -10.971015853876963 -171.6668600194389 0 0 0 0 7.3433590243657818 139.81199583855141 0 139.81199583855141 -35.356928731659991 0 0 0 0 232.09645965507116 -72.66210164858694 0 -72.66210164858694 -63.147653196294414 0 0 0 0 36.846508002636256 87.753177873474215 0 87.753177873474215 32.564222226544189 0 0 0 0 -88.242683985063195 47.279279647777912 0 47.279279647777912 -100.68820315231051 0 0 0 0 11.333604466225964 1.4689708113516229 0 1.4689708113516229 -0.9164963431443609 0 0 0 0 121.47884936567789 56.593399189521278 0 56.593399189521278 -359.89071059335083 0 0 0 0 210.94975101663294 -13.223681801091971 0 -13.223681801091971 -352.69060077647237 0 0 0 0 224.53437212193558 248.36676362606769 0 248.36676362606769 78.903080840928851 0 0 0 0 146.38716583586029 13.584594114364222 0 13.584594114364222 56.785424947659521 0 0 0 0 -19.833909609598777 137.10663958577732 0 137.10663958577732 58.671447828931832 0 0 0 0 365.01323389935715 28.928130018434899 0 28.928130018434899 53.290752413687869 0 0 0 0 179.00266579676827 39.281671487708536 0 39.281671487708536 77.021802180008308 0 0 0 0 -44.885828067828697 -189.45495529546042 0 -189.45495529546042 -48.812224258559581 0 0 0 0 231.48097337020226 179.76642044877121 0 179.76642044877121 -114.52881292008897 0 0 0 0 2.5479950997014527 0.32861837876120248 0 0.32861837876120248 -0.26249783462805931 0 0 0 0 -97.253171581865899 -62.376067935168749 0 -62.376067935168749 63.491176189902717 0 0 0 0 -27.381106233351602 -17.612926473739662 0 -17.612926473739662 -114.45898373208615 0 0 0 0 216.72266660416699 10.768188102115857 0 10.768188102115857 -18.251535413354986 0 0 0 0 -40.472208541310465 28.93954115399282 0 28.93954115399282 190.91488072451364 0 0 0 0 5.6969271709507083 -0.20415612501272129 0 -0.20415612501272129 -0.24702290699423868 0 0 0 0 10.019279495287265 -18.461370644232716 0 -18.461370644232716 26.851332565573472 0 0 0 0 135.23361033080437 -65.013662021018263 0 -65.013662021018263 -158.12399626255319 0 0 0 0 -33.045979147089838 -34.246412395808875 0 -34.246412395808875 -63.394460634020106 0 0 0 0 276.84150173216767 110.91197909891525 0 110.91197909891525 80.238153604762488 0 0 0 0 301.75239398067788 63.963090116081503 0 63.963090116081503 85.404667667456124 0 0 0 0 274.06613713064144 -18.818485038895687 0 -18.818485038895687 37.197429208079029 0 0 0 0 142.52258468008222 -21.592207283060816 0 -21.592207283060816 93.410360767898055 0 0 0 0 124.45417647395516 49.631824519105066 0 49.631824519105066 -4.8125040595488144 0 0 0 0 110.64508072144235 -41.502822198297054 0 -41.502822198297054 4.7797268077683839 0 0 0 0 -17.679050741957326 66.881621649157751 0 66.881621649157751 53.832704851614835 0 0 0 0 6.18340267358235 24.99253740012756 0 24.99253740012756 11.654189276025591 0 0 0 0 3.5944307356740524 13.095628380425254 0 13.095628380425254 12.684358051843599 0 0 0 0 135.49312484751863 -71.521572154960268 0 -71.521572154960268 -86.932482131955112 0 0 0 0 0.53307190847095853 2.5114383459405332 0 2.5114383459405332 2.1699968215827798 0 0 0 0 108.84444041885581 167.20974436618417 0 167.20974436618417 252.134962247972 0 0 0 0 -2.721250966916557 -1.1658093881455116 0 -1.1658093881455116 2.7196816633716097 0 0 0 0 -71.976654708676506 77.880180502673284 0 77.880180502673284 169.43150843483636 0 0 0 0 311.31811716637458 186.13656182233353 0 186.13656182233353 127.60578469854863 0 0 0 0 -0.10004492478037719 17.397882181840032 0 17.397882181840032 -10.427632389347878 0 0 0 0 -19.548243722856384 13.789371226024056 0 13.789371226024056 15.906071259560482 0 0 0 0 2.288792716091848 80.164280223063543 0 80.164280223063543 60.203422832439173 0 0 0 0 113.29628674054402 94.361306828719535 0 94.361306828719535 76.896857811940208 0 0 0 0 12.473456786050519 63.465406558522318 0 63.465406558522318 87.476570554506907 0 0 0 0 132.52779840235326 141.5588191613266 0 141.5588191613266 116.67177879486917 0 0 0 0 128.96011463376635 115.1471748364529 0 115.1471748364529 84.247978110742224 0 0 0 0 273.99494938593125 65.662086292992171 0 65.662086292992171 20.680171197623167 0 0 0 0 206.80699118568009 110.09555954469215 0 110.09555954469215 52.61694084222836 0 0 0 0 285.86976745253196 86.246400780912609 0 86.246400780912609 55.360946197475641 0 0 0 0 316.42005574838549 64.042009776733721 0 64.042009776733721 54.090935942562282 0 0 0 0 267.81456328399508 95.942047030942376 0 95.942047030942376 83.042730503624625 0 0 0 0 264.6023677867488 85.252568921696366 0 85.252568921696366 58.059560113231328 0 0 0 0 314.61147161530243 82.211006265416472 0 82.211006265416472 99.237773299139008 0 0 0 0 327.62587799777975 74.8364157056767 0 74.8364157056767 90.42468213637494 0 0 0 0 316.57726430523053 75.85576712963632 0 75.85576712963632 94.017855035079265 0 0 0 0 333.28030416828551 94.476054362039577 0 94.476054362039577 97.339253167110655 0 0 0 0 440.43442805453378 90.97401916211993 0 90.97401916211993 11.77309044489175 0 0 0 0 666.09807870043369 -39.071566940142475 0 -39.071566940142475 -191.32600709308508 0 0 0 0 658.8163152418565 155.74492077534387 0 155.74492077534387 -7.5829816239065622 0 0 0 0 444.16104703288875 8.8518621229823111 0 8.8518621229823111 -105.35362016001636 0 0 0 0 459.66191381154022 -143.35699771200848 0 -143.35699771200848 -146.66464481833827 0 0 0 0 5.3488762658712972 1.2897466644920588 0 1.2897466644920588 -0.38145843669061663 0 0 0 0 321.88259781862143 -236.04233137401525 0 -236.04233137401525 -252.98513792963604 0 0 0 0 386.72919764845938 396.51920657461551 0 396.51920657461551 144.0499095278123 0 0 0 0 439.79944964288734 -68.910504757660419 0 -68.910504757660419 205.60297645216184 0 0 0 0 400.44209871631756 185.95692936516411 0 185.95692936516411 229.57640915508182 0 0 0 0 746.66873912661322 127.4846252604309 0 127.4846252604309 -26.054061545901732 0 0 0 0 357.50785930080337 198.18653529081723 0 198.18653529081723 -2.2694683558020188 0 0 0 0 414.62528007023866 186.64674555869215 0 186.64674555869215 -33.326267868959008 0 0 0 0 399.63520990871984 211.10961412763908 0 211.10961412763908 23.307624030759698 0 0 0 0 361.02130831573595 220.6115851049608 0 220.6115851049608 25.962901235086747 0 0 0 0 275.45652216599592 94.020123692490984 0 94.020123692490984 16.497105290443869 0 0 0 0 240.94959006876161 170.20215841762615 0 170.20215841762615 48.329344457788807 0 0 0 0 169.41139011892665 29.974411501062946 0 29.974411501062946 35.63899912071065 0 0 0 0 153.5856505774791 43.75888500653258 0 43.75888500653258 34.405762335826694 0 0 0 0 248.63312741310074 52.047906789322496 0 52.047906789322496 37.334199995555139 0 0 0 0 166.31520479499522 -48.049565867615229 0 -48.049565867615229 64.121190038932582 0 0 0 0 139.51891500641068 12.816188011676786 0 12.816188011676786 86.637675070663136 0 0 0 0 403.99570669534421 -29.036366550563422 0 -29.036366550563422 43.009786875940335 0 0 0 0 19.774776097459835 -41.103813839152281 0 -41.103813839152281 80.704748105889394 0 0 0 0 9.6587690277937686 1.9654111353875763 0 1.9654111353875763 0.67747543424470713 0 0 0 0 102.12651125936827 5.5392716186156576 0 5.5392716186156576 63.438742423945769 0 0 0 0 106.48757925002064 -19.502382837129062 0 -19.502382837129062 31.805986372792631 0 0 0 0 85.514417556711123 -12.362688963040114 0 -12.362688963040114 63.154777599325236 0 0 0 0 103.53073718082487 -20.369363500029891 0 -20.369363500029891 -57.681959175722795 0 0 0 0 17.835632570924645 -20.839051451251919 0 -20.839051451251919 38.690632810669115 0 0 0 0 44.143629394426966 -14.711376838948244 0 -14.711376838948244 4.9934138218414406 0 0 0 0 34.516132830795868 -50.07654553043028 0 -50.07654553043028 48.398911499015867 0 0 0 0 14.120263438212532 -18.977736134285124 0 -18.977736134285124 1.0283102155995039 0 0 0 0 -3.6774489916588209 42.100607830034505 0 42.100607830034505 112.66607139096459 0 0 0 0 73.671161131442204 -28.491668769484605 0 -28.491668769484605 28.532446020929015 0 0 0 0 82.0534439057094 84.540808085987109 0 84.540808085987109 83.979872253911594 0 0 0 0 141.47206754550643 132.93039674076806 0 132.93039674076806 150.29002441444968 0 0 0 0 328.83186895793006 241.42410210917069 0 241.42410210917069 95.788652204196126 0 0 0 0 527.8036617824273 439.77262797942285 0 439.77262797942285 366.6776785647545 0 0 0 0 10.332781731468188 -2.9728142955523529 0 -2.9728142955523529 1.5958794506803882 0 0 0 0 188.04517751246567 102.36972235486542 0 102.36972235486542 41.646484902943939 0 0 0 0 95.128639801264399 -54.395031683353409 0 -54.395031683353409 29.628609071465235 0 0 0 0 28.926753357417496 -9.0989809407126607 0 -9.0989809407126607 3.0653904992112193 0 0 0 0 211.9826807187419 75.824245324323329 0 75.824245324323329 75.487817690123961 0 0 0 0 464.41053784113501 -108.19079603006298 0 -108.19079603006298 12.702678500123625 0 0 0 0 0.074494107655482367 -63.950137083293441 0 -63.950137083293441 14.777948260341191 0 0 0 0 -160.03435353789064 -449.53798974560641 0 -449.53798974560641 279.69660169946434 0 0 0 0 -30.731049114227062 -201.65658182971993 0 -201.65658182971993 552.88115463486406 0 0 0 0 -8.1568493043951094 112.14572357037999 0 112.14572357037999 -67.567499018064638 0 0 0 0 467.00437400400187 229.0269187606381 0 229.0269187606381 11.966524897035924 0 0 0 0 1.1837236477527 -1.3257621027078237 0 -1.3257621027078237 1.5315197748512634 0 0 0 0 165.48882586813852 180.3540116450616 0 180.3540116450616 94.219285750791869 0 0 0 0 263.57651945962789 27.572988961341764 0 27.572988961341764 -2.4883426312572965 0 0 0 0 38.852610375884979 -97.805881316672199 0 -97.805881316672199 -4.6978390826401766 0 0 0 0 69.553231522206261 -54.803785383231016 0 -54.803785383231016 -160.83158026691319 0 0 0 0 50.01551416953771 -146.19608475794712 0 -146.19608475794712 166.75995079131235 0 0 0 0 33.421746492644161 -89.151445238247447 0 -89.151445238247447 -27.212617901870829 0 0 0 0 -47.315844090097016 -67.797566861430411 0 -67.797566861430411 -300.58359829935887 0 0 0 0 -40.023546294461994 -182.34135430778176 0 -182.34135430778176 28.460817330144124 0 0 0 0 -177.75177508417801 -134.79504559750063 0 -134.79504559750063 27.415335813839363 0 0 0 0 9.3190657513673649 -7.2068478504726956 0 -7.2068478504726956 3.3734363035791475 0 0 0 0 -60.592875732631001 -141.28255190257562 0 -141.28255190257562 10.807920758429646 0 0 0 0 -49.685591995942104 -75.622392826660359 0 -75.622392826660359 42.549344898814525 0 0 0 0 -37.810374660619345 -95.91863204237643 0 -95.91863204237643 67.15330794096667 0 0 0 0 -34.497316186392254 -30.588657285578307 0 -30.588657285578307 122.27300403130243 0 0 0 0 5.2627967909938889 -58.396270946745062 0 -58.396270946745062 134.98442155900412 0 0 0 0 -19.539896128502733 -36.429802912999548 0 -36.429802912999548 328.61487566339952 0 0 0 0 274.84158282520548 -221.62337805620712 0 -221.62337805620712 168.70854744583153 0 0 0 0 -118.04970638629311 -121.18827957452231 0 -121.18827957452231 142.17878849264707 0 0 0 0 -59.46353372855333 -27.534709727254125 0 -27.534709727254125 261.39120004677744 0 0 0 0 50.907215512312177 -11.380550522166601 0 -11.380550522166601 205.85954986210359 0 0 0 0 175.1558038673902 71.943895386023485 0 71.943895386023485 219.66694558146429 0 0 0 0 291.22996601299928 -230.34422246079015 0 -230.34422246079015 831.02313274550738 0 0 0 0 441.10927936076041 38.309461348196294 0 38.309461348196294 52.013836686897321 0 0 0 0 140.02986074280761 -172.52307944009803 0 -172.52307944009803 321.54419949894555 0 0 0 0 385.42723754376493 101.19792798381536 0 101.19792798381536 89.746428153025477 0 0 0 0 305.86533678486921 85.168074684023054 0 85.168074684023054 90.648355162703638 0 0 0 0 928.08335697603252 -33.016261283260576 0 -33.016261283260576 98.260936442786658 0 0 0 0 978.99401974780449 -340.03549464481387 0 -340.03549464481387 109.522497219288 0 0 0 0 705.89186788049847 522.86637939461696 0 522.86637939461696 290.85419748826041 0 0 0 0 471.18738627426865 -44.862456430158659 0 -44.862456430158659 -283.96020584986229 0 0 0 0 317.42686282998602 276.65347810790053 0 276.65347810790053 -84.346571735076964 0 0 0 0 367.40822929318165 174.20005707980329 0 174.20005707980329 -68.286075646703864 0 0 0 0 424.77762817909024 218.30734845917135 0 218.30734845917135 -111.85133481489913 0 0 0 0 51.102428840569701 100.0646174617616 0 100.0646174617616 197.48350130746371 0 0 0 0 -0.16803452020273468 -0.41971576740022698 0 -0.41971576740022698 -0.7563749623519177 0 0 0 0 -206.0934360485644 -111.63083483938831 0 -111.63083483938831 380.69442201216089 0 0 0 0 1.665603174319906 1.9209335571777615 0 1.9209335571777615 -4.2834904724503611 0 0 0 0 16.983784127005492 28.752646170813478 0 28.752646170813478 3.0403384425623017 0 0 0 0 75.617490258227917 143.92416306562825 0 143.92416306562825 -2.2963544977069006 0 0 0 0 6.1901363771759961 8.9216364153229026 0 8.9216364153229026 8.5567487549335013 0 0 0 0 -27.649133883762261 135.23292759604496 0 135.23292759604496 16.366128673400908 0 0 0 0 10.899500110364897 -10.266796933291175 0 -10.266796933291175 18.979431929403404 0 0 0 0 38.560638604016276 10.832686525512941 0 10.832686525512941 -33.222071043356962 0 0 0 0 9.2683200581559504 -52.814006597797743 0 -52.814006597797743 62.25026462981873 0 0 0 0 155.41214659427351 -75.306905687009476 0 -75.306905687009476 0.014963592714593688 0 0 0 0 64.490405400843883 -12.829822552977873 0 -12.829822552977873 21.893632199505191 0 0 0 0 41.442351653568039 -47.418949722446541 0 -47.418949722446541 -29.782119703439776 0 0 0 0 1.9376213092355101 -76.578074330539749 0 -76.578074330539749 12.249982492146501 0 0 0 0 -2.2399812297719635 0.63434886009506997 0 0.63434886009506997 0.98889327483398604 0 0 0 0 331.20565310678649 73.617766294227479 0 73.617766294227479 -53.275556268197363 0 0 0 0 359.41547607387474 121.58212325307386 0 121.58212325307386 -42.648490733619838 0 0 0 0 338.84524405442062 66.487072214907357 0 66.487072214907357 -31.22510933427651 0 0 0 0 339.23690380451444 69.258400068990397 0 69.258400068990397 -27.578944406767391 0 0 0 0 426.49164986010874 81.417093251603887 0 81.417093251603887 -52.770950027095012 0 0 0 0 284.10298924097333 40.094698567851367 0 40.094698567851367 40.062817795994533 0 0 0 0 0.386820233803709 6.6473801806082768 0 6.6473801806082768 0.77033587858217567 0 0 0 0 337.90246532503443 70.193184042784736 0 70.193184042784736 -24.37929538266485 0 0 0 0 -62.664499717011495 -40.59398917171378 0 -40.59398917171378 55.257670905033336 0 0 0 0 413.51733715761657 65.742799543997876 0 65.742799543997876 40.44615623011191 0 0 0 0 387.15466430168726 -32.957048326186722 0 -32.957048326186722 27.53301630857095 0 0 0 0 329.72838758930448 180.20775975671947 0 180.20775975671947 76.48575902109792 0 0 0 0 462.26214045794131 106.6419337916402 0 106.6419337916402 -59.989436861464583 0 0 0 0 420.38586988385578 28.764231880842601 0 28.764231880842601 -3.7775181927876247 0 0 0 0 337.77456733558756 67.429730160700529 0 67.429730160700529 -26.2799639060554 0 0 0 0 395.51752553020924 109.40200747977691 0 109.40200747977691 -68.754158405756357 0 0 0 0 293.99585037488851 163.6143247252532 0 163.6143247252532 -86.294301433940007 0 0 0 0 378.1920746592732 119.43862179974778 0 119.43862179974778 -61.637440598204421 0 0 0 0 219.14479566600494 80.771197603950839 0 80.771197603950839 -12.572184684713193 0 0 0 0 4.36276892544155 -3.6605339266414028 0 -3.6605339266414028 1.3965449959662397 0 0 0 0 533.69422667727122 147.64438598257655 0 147.64438598257655 -188.30420586069698 0 0 0 0 361.63021166037652 75.368629718623481 0 75.368629718623481 -178.68812393043655 0 0 0 0 211.02771626435606 -137.03749658912733 0 -137.03749658912733 -165.56963334127553 0 0 0 0 -124.90658001207407 293.48169050300055 0 293.48169050300055 -129.15976672730585 0 0 0 0 27.579014511690048 -490.25390986889454 0 -490.25390986889454 316.17563401656844 0 0 0 0 202.64170537457721 -226.98423609044735 0 -226.98423609044735 -267.97522473950994 0 0 0 0 202.40138035521227 -241.51016351678186 0 -241.51016351678186 -26.519242938309617 0 0 0 0 37.968151985249278 -193.26055841943139 0 -193.26055841943139 84.422188608307408 0 0 0 0 189.37489295237356 -95.250121325701912 0 -95.250121325701912 -92.459233338179047 0 0 0 0 127.65253370058963 -142.79349489027777 0 -142.79349489027777 -118.03723653152224 0 0 0 0 318.91111013189584 -87.881707216249652 0 -87.881707216249652 -200.18249323171767 0 0 0 0 188.05943223552094 -64.013758833934844 0 -64.013758833934844 -163.59809400206996 0 0 0 0 33.017380998866429 11.018579722612913 0 11.018579722612913 -119.1481105284588 0 0 0 0 345.38576156207751 193.70814513952266 0 193.70814513952266 -97.208668505999412 0 0 0 0 2.0054241737074747 -1.6246385797640919 0 -1.6246385797640919 1.317491676480935 0 0 0 0 703.12453822706448 273.31542966641251 0 273.31542966641251 12.75896638111152 0 0 0 0 303.51767854380523 -163.77854614963917 0 -163.77854614963917 257.33388873485092 0 0 0 0 717.07900501428435 -63.406954741938947 0 -63.406954741938947 -83.382299445000172 0 0 0 0 -4.5262965208785904 6.6301939841229363 0 6.6301939841229363 -7.268317100321708 0 0 0 0 356.71666294900388 252.76146239977459 0 252.76146239977459 -135.94965047180813 0 0 0 0 332.89831206566669 -26.534246623224817 0 -26.534246623224817 52.836822239497565 0 0 0 0 346.63121848686387 122.75983230108596 0 122.75983230108596 -267.21339858899955 0 0 0 0 -155.2536957254415 376.55806217705367 0 376.55806217705367 29.835472382124408 0 0 0 0 -0.30343854362833156 0.67015218480621286 0 0.67015218480621286 -2.0695155981421882 0 0 0 0 533.31308001986145 -42.468468105893635 0 -42.468468105893635 9.6797373514609717 0 0 0 0 158.23576090674396 -9.7333276763845333 0 -9.7333276763845333 -38.693102378109302 0 0 0 0 135.37295566032481 20.369218549289428 0 20.369218549289428 -42.564399942496827 0 0 0 0 178.1954111312707 -21.83436111848215 0 -21.83436111848215 -47.042336912264091 0 0 0 0 79.142602302665182 -10.616842930638718 0 -10.616842930638718 -19.552001185971903 0 0 0 0 129.82888235501741 -26.181068321560531 0 -26.181068321560531 -40.535316379156853 0 0 0 0 136.84725252788849 -7.8695195742174064 0 -7.8695195742174064 -41.370245906188757 0 0 0 0 -166.2794128569476 -14.604915205583922 0 -14.604915205583922 -116.27020680424407 0 0 0 0 -164.75893508048995 -139.09842207703718 0 -139.09842207703718 -71.648411051910216 0 0 0 0 -69.071696586110193 -53.348225030003363 0 -53.348225030003363 -101.45820009096022 0 0 0 0 -174.12089866008318 -76.696213244393448 0 -76.696213244393448 -57.500995220958544 0 0 0 0 -57.905281204184575 -63.721540947839912 0 -63.721540947839912 -80.796337661070311 0 0 0 0 -44.640108180767129 -9.7295212675619496 0 -9.7295212675619496 -56.944763879105608 0 0 0 0 -67.951612086391833 -66.957336778381517 0 -66.957336778381517 -72.524891862553204 0 0 0 0 -60.366524009065643 -9.4561535758153781 0 -9.4561535758153781 -43.427075738015446 0 0 0 0 -15.104173708878079 -25.85655497712257 0 -25.85655497712257 -45.719178922215193 0 0 0 0 -7.440800313372165 21.181668086707987 0 21.181668086707987 -18.697310563595124 0 0 0 0 61.634147688368103 54.926023573605789 0 54.926023573605789 -15.141927951344655 0 0 0 0 -4.2482317071307989 26.297999958803899 0 26.297999958803899 17.476643501135868 0 0 0 0 33.299381632952873 72.744772942080402 0 72.744772942080402 82.037435921988731 0 0 0 0 -0.49765837833911064 -50.139339805880752 0 -50.139339805880752 -41.405240335068015 0 0 0 0 8.1642347537836031 -29.510303861165085 0 -29.510303861165085 -112.05687967315146 0 0 0 0 -151.15740180227112 -135.0486771771059 0 -135.0486771771059 -25.125210921448684 0 0 0 0 -82.779220879056993 59.563680420545978 0 59.563680420545978 -68.584760490597773 0 0 0 0 102.21301905782093 -347.25378400791817 0 -347.25378400791817 -308.59214567668397 0 0 0 0 79.320043920422904 31.727421037264548 0 31.727421037264548 -80.954040596533105 0 0 0 0 8.2033443517187976 -6.6778119770654341 0 -6.6778119770654341 3.3672303214907662 0 0 0 0 -30.650792869073484 -304.57402522935126 0 -304.57402522935126 -304.14373373464696 0 0 0 0 -73.510236205471301 -168.15180549923787 0 -168.15180549923787 -185.52706747094271 0 0 0 0 2.5694320122605561 -0.29610231272809884 0 -0.29610231272809884 -1.3691552333124348 0 0 0 0 -112.9448042003205 -172.85929127845401 0 -172.85929127845401 -167.13200270521099 0 0 0 0 -229.36955152581868 -161.35241465607544 0 -161.35241465607544 -138.17553509441177 0 0 0 0 56.148839631769079 -63.376893706826166 0 -63.376893706826166 6.8025749219449949 0 0 0 0 151.79317929494937 -42.730197655485142 0 -42.730197655485142 -268.51455372318628 0 0 0 0 85.620249699059059 35.261637740793105 0 35.261637740793105 -154.31321938621818 0 0 0 0 149.69433501511048 -126.7073636668685 0 -126.7073636668685 -293.84634598918922 0 0 0 0 -117.84046002375999 37.622241965252712 0 37.622241965252712 -267.31724049964976 0 0 0 0 155.98720764973768 10.404051095078785 0 10.404051095078785 -153.30929479405384 0 0 0 0 122.65536811309175 -118.91241804059615 0 -118.91241804059615 -177.48183341064589 0 0 0 0 2.3028577478716059 -2.0567478431419701 0 -2.0567478431419701 1.4783407324522397 0 0 0 0 -7.6824025771711604 -158.63557595184056 0 -158.63557595184056 79.881247544324424 0 0 0 0 -82.263871752735213 -92.988056684014197 0 -92.988056684014197 62.240801930471321 0 0 0 0 -1.1851139281850713 -0.55336625168372677 0 -0.55336625168372677 1.4314696093036099 0 0 0 0 138.49390402214158 -91.340640130791996 0 -91.340640130791996 -356.11415126574587 0 0 0 0 -76.107233132051988 -183.45199784643023 0 -183.45199784643023 -139.09416183437543 0 0 0 0 7.3747248117419275 -4.7522899365890021 0 -4.7522899365890021 2.5518205544733168 0 0 0 0 -45.97758272379815 -91.982638350878347 0 -91.982638350878347 11.394961611399481 0 0 0 0 104.09860577794825 87.978663516042388 0 87.978663516042388 -89.047810043531484 0 0 0 0 -104.6121211147638 -142.85230574506605 0 -142.85230574506605 -98.801919497241897 0 0 0 0 -18.402845422910559 -77.47383208680769 0 -77.47383208680769 -71.670716963986479 0 0 0 0 -64.747998021928652 -125.38929296829224 0 -125.38929296829224 -111.43726042154805 0 0 0 0 -2.632576137464639 -134.47034132927115 0 -134.47034132927115 -175.07832954771152 0 0 0 0 26.265388741445349 -56.444114596712552 0 -56.444114596712552 -85.003239748634314 0 0 0 0 -5.3885907941312325 -87.340335624485078 0 -87.340335624485078 -15.972662589204901 0 0 0 0 22.601919969852133 -40.11338474915658 0 -40.11338474915658 -40.472655014976226 0 0 0 0 -21.736320347761648 -81.47557960133156 0 -81.47557960133156 -64.884676175392656 0 0 0 0 13.025019390050147 -128.26573921248973 0 -128.26573921248973 60.872577465216963 0 0 0 0 28.528298642720983 -101.57322116177284 0 -101.57322116177284 16.559184856310594 0 0 0 0 126.89508156258125 -136.21271006213601 0 -136.21271006213601 -31.620617671528862 0 0 0 0 71.139861569183267 -107.45945134438853 0 -107.45945134438853 -43.807548977849365 0 0 0 0 81.285198550865971 -79.770146638681808 0 -79.770146638681808 -17.249745020871273 0 0 0 0 57.375526920458015 -24.722281769255517 0 -24.722281769255517 -2.3855214686591353 0 0 0 0 48.843930401149919 -62.736580828122896 0 -62.736580828122896 -7.3220729839285923 0 0 0 0 79.174527920560649 2.5870265688063228 0 2.5870265688063228 0.38853980647854769 0 0 0 0 77.278266422363231 -31.615083844955279 0 -31.615083844955279 -3.8467192823627556 0 0 0 0 89.496088601757947 21.873710691957058 0 21.873710691957058 -4.0608371272464865 0 0 0 0 74.950610415864503 -0.36823055672584815 0 -0.36823055672584815 -1.6128983541302659 0 0 0 0 71.24997747433008 23.594183010253346 0 23.594183010253346 0.39587287610993371 0 0 0 0 80.916171773002134 26.719871874309774 0 26.719871874309774 -2.5901716554808445 0 0 0 0 47.870093249595811 22.215956127786967 0 22.215956127786967 1.7379377670777103 0 0 0 0 55.20432171536504 9.4554947049106204 0 9.4554947049106204 -8.1368856743192737 0 0 0 0 -3.9878640823044407 -28.820527330251252 0 -28.820527330251252 -5.9626378718331807 0 0 0 0 48.453041024862614 -31.723654530108433 0 -31.723654530108433 -7.7576173091356395 0 0 0 0 34.564758952947159 1.7854308948180915 0 1.7854308948180915 1.626497575742178 0 0 0 0 -25.483991434542986 -28.565690438490265 0 -28.565690438490265 -22.453897009837476 0 0 0 0 24.83920435798791 -23.889084268794022 0 -23.889084268794022 -30.173690118407649 0 0 0 0 7.4560391052327759 0.018545979640748556 0 0.018545979640748556 -3.479901306975421 0 0 0 0 36.519336537585332 16.565918327258032 0 16.565918327258032 -2.9176099843807606 0 0 0 0 35.878265012810516 19.457782628078576 0 19.457782628078576 -10.817828804470537 0 0 0 0 14.045271858656633 -6.3559766905209472 0 -6.3559766905209472 -18.086396520003746 0 0 0 0 -14.458576317516417 8.6141438842647631 0 8.6141438842647631 -22.276357706365388 0 0 0 0 -26.041882272827934 -28.681362452940959 0 -28.681362452940959 -37.66435501194519 0 0 0 0 -78.771791310663502 -59.897842468919691 0 -59.897842468919691 -41.775067219955645 0 0 0 0 -15.811832738427313 -40.546685645245375 0 -40.546685645245375 -49.454075713169004 0 0 0 0 178.5843892182711 91.889919648064136 0 91.889919648064136 -24.831151981214134 0 0 0 0 71.092251113515886 58.619330562093076 0 58.619330562093076 9.0016647364827804 0 0 0 0 92.013325969501238 22.885343004158472 0 22.885343004158472 -3.1976394995710962 0 0 0 0 18.308082000567083 5.6320227793484037 0 5.6320227793484037 -16.274841878884445 0 0 0 0 29.398954649288498 40.002753505940518 0 40.002753505940518 -8.5435302946235083 0 0 0 0 66.041196904785465 22.115542005651832 0 22.115542005651832 -8.9067440737653669 0 0 0 0 54.708795220967659 42.550559265555421 0 42.550559265555421 3.8258847168253851 0 0 0 0 142.06363098577822 52.842601492066137 0 52.842601492066137 -9.9533611470809547 0 0 0 0 84.155060771110584 45.066721067717026 0 45.066721067717026 9.0580337890019109 0 0 0 0 113.79417416965589 58.807954109635375 0 58.807954109635375 1.1113387630994112 0 0 0 0 67.170600193123391 30.414312505878115 0 30.414312505878115 -4.0018506911369514 0 0 0 0 65.983337746816687 36.137391370988098 0 36.137391370988098 3.9526553262330708 0 0 0 0 84.011694389151671 39.306928709668682 0 39.306928709668682 -6.6554228178774792 0 0 0 0 89.21847893892118 45.928854512714679 0 45.928854512714679 0.44087248745086072 0 0 0 0 76.315638572345051 32.782413981875607 0 32.782413981875607 -0.72431248809698445 0 0 0 0 92.031386892857881 42.173810301884032 0 42.173810301884032 0.47514384606165549 0 0 0 0 101.65760214440525 50.582909233995451 0 50.582909233995451 1.6950381621840052 0 0 0 0 96.326256526175712 38.462348701601513 0 38.462348701601513 -1.0200185781219488 0 0 0 0 95.436394191399813 40.390788748723025 0 40.390788748723025 -4.6206556942524912 0 0 0 0 107.31112644767563 45.277000239232621 0 45.277000239232621 6.5196084026633798 0 0 0 0 111.20940196055653 49.887157618606352 0 49.887157618606352 -9.4168141705304151 0 0 0 0 142.4463727327543 45.625060975451902 0 45.625060975451902 8.4616210285885245 0 0 0 0 215.5251606553993 -50.194869429446953 0 -50.194869429446953 85.943274848835699 0 0 0 0 150.69288431691348 55.865156110912267 0 55.865156110912267 3.8891440590559796 0 0 0 0 133.59487494231234 34.743229695955961 0 34.743229695955961 -1.7632853176382923 0 0 0 0 -0.19743809085706499 0.48857923751930699 0 0.48857923751930699 2.4796781393147964 0 0 0 0 311.55138183020426 9.3219266147541475 0 9.3219266147541475 -50.331473091611798 0 0 0 0 444.94935804876832 -25.156051689042101 0 -25.156051689042101 -56.05358982407688 0 0 0 0 309.50006955089339 -14.295914162866893 0 -14.295914162866893 -38.583338488516233 0 0 0 0 232.52867248963958 16.141669023327552 0 16.141669023327552 -50.287439968179569 0 0 0 0 154.6769358413967 6.5668528147666905 0 6.5668528147666905 34.15846097123881 0 0 0 0 21.590345676662764 -47.363647061974461 0 -47.363647061974461 44.700797754438781 0 0 0 0 -8.6748021462146543 -21.398907920083907 0 -21.398907920083907 -3.2364678188458775 0 0 0 0 0.56771908513371727 -42.701042672135259 0 -42.701042672135259 -8.9675002558533379 0 0 0 0 18.059470743912925 -74.468592765425512 0 -74.468592765425512 46.735552626070216 0 0 0 0 -66.384072761986658 -27.138839869474879 0 -27.138839869474879 21.742987801189543 0 0 0 0 77.459678870343851 -75.715173985785896 0 -75.715173985785896 -2.3561023953175209 0 0 0 0 81.102166584478255 -56.652647914564568 0 -56.652647914564568 -27.551993260174186 0 0 0 0 78.281101272097658 -59.296301898026286 0 -59.296301898026286 -27.564587159389703 0 0 0 0 74.986093118805002 -49.163471263475003 0 -49.163471263475003 -53.13092391212831 0 0 0 0 79.625979478239969 -47.958926110068205 0 -47.958926110068205 -58.348563580878363 0 0 0 0 75.152758060233282 -63.529670900411702 0 -63.529670900411702 -35.088283597417103 0 0 0 0 82.841259008054749 -60.684627928780678 0 -60.684627928780678 -10.727441449486832 0 0 0 0 85.47479451415029 -62.590230389340149 0 -62.590230389340149 -36.047876026762424 0 0 0 0 -8.3452714975567801 -25.434868959392119 0 -25.434868959392119 -16.082714125322866 0 0 0 0 -4.8150737627531317 -4.1885091896031046 0 -4.1885091896031046 2.7287967129773221 0 0 0 0 -8.9344327725266339 -45.149987692584205 0 -45.149987692584205 -11.958847332098117 0 0 0 0 70.856705007151504 -14.449231142861436 0 -14.449231142861436 -33.378791166672272 0 0 0 0 15.975915651695761 -6.2159434227132948 0 -6.2159434227132948 -9.9415109982167156 0 0 0 0 -132.13714407672342 78.596245604646128 0 78.596245604646128 37.830614251297902 0 0 0 0 14.527532035523956 -7.7927850881155205 0 -7.7927850881155205 -15.710615982123581 0 0 0 0 14.326414535700678 -1.2562983166422157 0 -1.2562983166422157 12.170828732052662 0 0 0 0 16.583835961865134 -6.3932733884853405 0 -6.3932733884853405 -9.9304903132933759 0 0 0 0 24.362582482010794 -21.404700799223839 0 -21.404700799223839 -12.723820209387739 0 0 0 0 80.61953672740492 -40.853398620177586 0 -40.853398620177586 -69.262862967530054 0 0 0 0 257.09865006668042 46.246141115371756 0 46.246141115371756 -168.77613276336797 0 0 0 0 73.085994127928558 -12.148324282668634 0 -12.148324282668634 -3.5870497063170781 0 0 0 0 613.49108404788421 18.642096091751569 0 18.642096091751569 -102.99356678267225 0 0 0 0 311.59727982709592 20.069650837841039 0 20.069650837841039 -54.845625580862134 0 0 0 0 268.98772220842511 96.15467152815944 0 96.15467152815944 -28.311504949832795 0 0 0 0 320.57643669598201 14.305347878306534 0 14.305347878306534 -99.31347471291167 0 0 0 0 164.67205232674132 -47.866136808027761 0 -47.866136808027761 -0.77200477609687823 0 0 0 0 93.97009789852973 -150.99527335745944 0 -150.99527335745944 80.029095360714109 0 0 0 0 330.80423424463152 -7.2728447643557956 0 -7.2728447643557956 -54.327230866041567 0 0 0 0 162.4290359315346 -123.97930164431057 0 -123.97930164431057 127.18062242009364 0 0 0 0 5.9495379188838982 -2.190124858928244 0 -2.190124858928244 -2.1181669407940351 0 0 0 0 443.1412090567319 -186.53541433797443 0 -186.53541433797443 21.938392684199243 0 0 0 0 297.41704742142429 170.7334872798632 0 170.7334872798632 54.30022545762381 0 0 0 0 -62.334714992648514 16.606738187260135 0 16.606738187260135 41.08259953161155 0 0 0 0 192.11168347505736 110.28704552322574 0 110.28704552322574 22.814786985983801 0 0 0 0 580.59460939978453 158.61382489923324 0 158.61382489923324 -124.15327651393704 0 0 0 0 68.455201825943732 -58.672146979882086 0 -58.672146979882086 -17.714724460751199 0 0 0 0 198.56570837556683 244.81091030404355 0 244.81091030404355 428.03799646926132 0 0 0 0 40.049785138648076 -314.28394406867642 0 -314.28394406867642 -7.1903304179252245 0 0 0 0 -10.878367967845406 32.302327026090779 0 32.302327026090779 -13.731620521741206 0 0 0 0 -0.22669989363510012 0.71883546627476846 0 0.71883546627476846 -1.0869213042779582 0 0 0 0 -87.243458290167837 -235.83878329360314 0 -235.83878329360314 -63.337154050174377 0 0 0 0 562.01531350303139 213.72239903255115 0 213.72239903255115 -278.58464414641253 0 0 0 0 684.44604258387335 110.80645958159084 0 110.80645958159084 -309.54116952699974 0 0 0 0 172.12852512163954 -180.98901852199299 0 -180.98901852199299 193.60567162295592 0 0 0 0 3.723282838272322 -2.7472174946640768 0 -2.7472174946640768 1.7438393041089486 0 0 0 0 64.668571784150117 -131.18968574364339 0 -131.18968574364339 -35.147364199454046 0 0 0 0 45.378925706751033 -160.2281139309838 0 -160.2281139309838 26.60311334531616 0 0 0 0 99.089377208600126 -114.57372215392093 0 -114.57372215392093 -16.330316159765516 0 0 0 0 284.76671136335244 -192.55200379487815 0 -192.55200379487815 -18.012281374417398 0 0 0 0 4.0526322076184442 -161.51602544936145 0 -161.51602544936145 22.430096218984545 0 0 0 0 108.01090752216805 113.28837236849859 0 113.28837236849859 58.472080830027721 0 0 0 0 162.39649608569744 10.160367241325275 0 10.160367241325275 -53.985288269811008 0 0 0 0 268.7960647576183 38.361264848810606 0 38.361264848810606 -104.64875007913662 0 0 0 0 770.54607474971272 39.869730125889532 0 39.869730125889532 -109.98127653023053 0 0 0 0 473.44090422625777 -391.82185425424723 0 -391.82185425424723 57.160918116252333 0 0 0 0 123.65953071088916 389.64586774740889 0 389.64586774740889 204.01736731905498 0 0 0 0 425.49256584667819 -378.17084981919652 0 -378.17084981919652 -23.281214203077127 0 0 0 0 -247.63377887549632 -77.298353206720776 0 -77.298353206720776 126.94827796417985 0 0 0 0 859.04343476620306 -80.377463277332993 0 -80.377463277332993 -267.20378497827028 0 0 0 0 350.18312840886392 -26.107297637890724 0 -26.107297637890724 -271.6472459890947 0 0 0 0 4.0404452833730691 -1.029943247944308 0 -1.029943247944308 -3.9087752379388876 0 0 0 0 18.424179386466676 2.4608641458339946 0 2.4608641458339946 -49.584571454923321 0 0 0 0 18.967907166263558 6.8206899823721301 0 6.8206899823721301 -46.503189101821135 0 0 0 0 11.677998505584583 7.8455159162839188 0 7.8455159162839188 -41.863648247740002 0 0 0 0 9.9869544824687182 -17.996003207821218 0 -17.996003207821218 -69.937141861231567 0 0 0 0 3.3491098133013004 15.240920999887273 0 15.240920999887273 -22.814070744508779 0 0 0 0 -13.464992869112393 4.6360156175910561 0 4.6360156175910561 -70.135389054213647 0 0 0 0 2.2478087967936524 3.3771380902835544 0 3.3771380902835544 -3.4396464653855645 0 0 0 0 337.99103468985595 -36.566031611384915 0 -36.566031611384915 -31.175327175726125 0 0 0 0 33.792414639996423 -23.727618257665426 0 -23.727618257665426 69.808119606299442 0 0 0 0 215.34846536497571 6.6882450355005858 0 6.6882450355005858 2.6217022304772399 0 0 0 0 1.0436067332223882 -0.30867393003627797 0 -0.30867393003627797 0.53002959326938637 0 0 0 0 218.35880496042591 -13.623280527023326 0 -13.623280527023326 25.214035753758253 0 0 0 0 -18.274618788300359 37.087833031190485 0 37.087833031190485 6.7478842401078509 0 0 0 0 12.419254829425403 8.1480316141408338 0 8.1480316141408338 -19.220951122618885 0 0 0 0 26.575459933410457 -49.843566887187308 0 -49.843566887187308 20.42066323392919 0 0 0 0 -122.79788015817167 4.3420426428703536 0 4.3420426428703536 75.919471632552359 0 0 0 0 -25.206148074612429 -38.604830847911444 0 -38.604830847911444 -54.421118747877927 0 0 0 0 -10.059581580155282 -12.098238535623977 0 -12.098238535623977 -31.328791197901865 0 0 0 0 -17.289821865612225 26.862800686217568 0 26.862800686217568 10.465633586878539 0 0 0 0 56.839837109971995 -9.8917938416693687 0 -9.8917938416693687 41.669574757395651 0 0 0 0 68.912594257571072 136.67085081685286 0 136.67085081685286 -18.700812740138645 0 0 0 0 10.674476803294965 -74.690771205584269 0 -74.690771205584269 19.57218397996678 0 0 0 0 45.801089800741465 -54.013406646339689 0 -54.013406646339689 -73.757035747266798 0 0 0 0 -60.105352985750869 -157.15356493787385 0 -157.15356493787385 213.61296801047183 0 0 0 0 98.20097404430453 73.51359855222745 0 73.51359855222745 -123.16609371713548 0 0 0 0 71.437664656384044 -3.1044107910809293 0 -3.1044107910809293 -4.6328648168227193 0 0 0 0 129.23948211368406 -93.825537212589893 0 -93.825537212589893 -124.55626901405731 0 0 0 0 49.081598883116385 16.283884451499034 0 16.283884451499034 -33.626937961843169 0 0 0 0 6.8894694689208222 -12.507738724729997 0 -12.507738724729997 -5.240190912552162 0 0 0 0 69.729894481959036 -34.70832456095178 0 -34.70832456095178 5.740487325185768 0 0 0 0 77.678029092123325 -16.697895052065178 0 -16.697895052065178 19.004014465599539 0 0 0 0 98.767510386865069 -40.7481733563082 0 -40.7481733563082 -17.984670990488212 0 0 0 0 60.040424504006822 -0.48084109552540255 0 -0.48084109552540255 -11.27133990995107 0 0 0 0 77.435855917108711 18.296081702669881 0 18.296081702669881 -47.657093453914058 0 0 0 0 74.10740214935322 -21.291792664279228 0 -21.291792664279228 -45.878404767426218 0 0 0 0 26.717078184010735 5.7289376131899097 0 5.7289376131899097 -8.6554284980131264 0 0 0 0 45.800329771518165 9.387735282125611 0 9.387735282125611 -9.179052266726611 0 0 0 0 54.357253838934412 -60.526093170235384 0 -60.526093170235384 -15.647183472061784 0 0 0 0 80.245542059959917 -31.547968178801739 0 -31.547968178801739 -28.857644916826075 0 0 0 0 58.364505391709685 -18.9133409207234 0 -18.9133409207234 4.4529349973147214 0 0 0 0 36.852006539445938 -46.124445546796778 0 -46.124445546796778 -17.980000596344325 0 0 0 0 90.247888884287022 -79.994444044934653 0 -79.994444044934653 -9.866811254705226 0 0 0 0 160.70117812933404 -32.075064462510227 0 -32.075064462510227 -48.649619592471026 0 0 0 0 109.32166456581035 8.1399121342924445 0 8.1399121342924445 -53.900078294022435 0 0 0 0 108.55797427255675 7.9799286083703009 0 7.9799286083703009 -50.89794161128475 0 0 0 0 31.626019190797251 -58.798942117820161 0 -58.798942117820161 -31.656299326605676 0 0 0 0 29.530000163949808 -43.220363884795916 0 -43.220363884795916 -35.536534968572141 0 0 0 0 24.428525240917224 -32.421353722430013 0 -32.421353722430013 -90.973421176782267 0 0 0 0 19.790577427956023 -0.33800550626878589 0 -0.33800550626878589 -2.1480073043090617 0 0 0 0 123.4999372016332 -34.254946912436779 0 -34.254946912436779 -135.86831840196737 0 0 0 0 200.0349954150015 39.970003575107512 0 39.970003575107512 -35.631602632173212 0 0 0 0 6.270936394469004 1.9024658462512605 0 1.9024658462512605 -42.946884075502972 0 0 0 0 37.672431579928343 -48.369800025654968 0 -48.369800025654968 -49.244716065485591 0 0 0 0 32.971403797328605 -16.416581423686843 0 -16.416581423686843 0.3488096332769044 0 0 0 0 30.67758524529745 -9.4979487664390945 0 -9.4979487664390945 -19.360343973503404 0 0 0 0 41.783601477843071 -11.585210376511895 0 -11.585210376511895 -0.42095048516924383 0 0 0 0 33.481293413689855 -79.358093998156164 0 -79.358093998156164 -18.663383826364225 0 0 0 0 61.421591054581668 -9.3842818982757628 0 -9.3842818982757628 -0.54251251993539895 0 0 0 0 125.83053596472018 -90.948618871372901 0 -90.948618871372901 -198.67130019681008 0 0 0 0 31.359197710014996 -17.538929457778522 0 -17.538929457778522 -79.01749078771627 0 0 0 0 236.36266101841829 49.430909434936211 0 49.430909434936211 -318.4033097886977 0 0 0 0 277.39946509386209 37.612833651764504 0 37.612833651764504 -317.47832318900385 0 0 0 0 69.007320966579044 -4.767195045641615 0 -4.767195045641615 -1.482875873629109 0 0 0 0 164.54022401820112 129.22859565337399 0 129.22859565337399 -175.56702525799665 0 0 0 0 268.95338937986344 216.54099868642004 0 216.54099868642004 178.27004216320211 0 0 0 0 141.55708416278139 -248.87015406151795 0 -248.87015406151795 143.05828359914017 0 0 0 0 -0.90331112307472239 -1.9755926608387258 0 -1.9755926608387258 -1.843957537428917 0 0 0 0 -36.636129672997413 33.509108750097226 0 33.509108750097226 3.2296021153679249 0 0 0 0 261.61683764994814 -144.47240561418357 0 -144.47240561418357 102.45555778393054 0 0 0 0 247.35106279456522 23.685868140304137 0 23.685868140304137 -11.387680387359069 0 0 0 0 315.42764753939628 -7.256455369682044 0 -7.256455369682044 -90.481239053024183 0 0 0 0 302.07021709159517 134.82609485524023 0 134.82609485524023 -30.949082194783841 0 0 0 0 131.79940048841127 -23.602051325285174 0 -23.602051325285174 11.408941776409847 0 0 0 0 548.07626579905627 234.33084610460355 0 234.33084610460355 89.451258813904133 0 0 0 0 322.07081814687263 -89.223533860296811 0 -89.223533860296811 -19.345615381814355 0 0 0 0 528.43568729765684 -348.98721263700418 0 -348.98721263700418 -15.848054955185944 0 0 0 0 623.23139146568428 -81.781466917186663 0 -81.781466917186663 -59.670439380210155 0 0 0 0 466.46732610808976 -46.893082191694702 0 -46.893082191694702 8.0371062729755067 0 0 0 0 123.61189515895967 128.30966751018877 0 128.30966751018877 -159.08821638186328 0 0 0 0 294.47088529740722 -163.05221849525788 0 -163.05221849525788 71.690339427341314 0 0 0 0 294.76070504995732 -161.25474348680382 0 -161.25474348680382 64.791448672180195 0 0 0 0 -6.1995571240477148 -115.6541220554227 0 -115.6541220554227 -44.683596129189482 0 0 0 0 -249.34333035509189 240.2080000380729 0 240.2080000380729 753.74225074445621 0 0 0 0 94.803571096050291 -79.230603655993264 0 -79.230603655993264 -19.784595099408463 0 0 0 0 56.815155957425304 96.189795590918493 0 96.189795590918493 -81.871376426660447 0 0 0 0 2.3257983213577909 -3.8916687543963775 0 -3.8916687543963775 3.1386763525047723 0 0 0 0 -101.13475725407079 -63.537547403727672 0 -63.537547403727672 118.6611622110222 0 0 0 0 52.418095107044792 -111.80238296145535 0 -111.80238296145535 -133.35069810132609 0 0 0 0 -37.632022360186966 57.874705406044995 0 57.874705406044995 207.95590976876827 0 0 0 0 36.005176572085475 -80.478171795349226 0 -80.478171795349226 12.311659462262469 0 0 0 0 -44.066602705011974 -42.546072127127445 0 -42.546072127127445 34.985228093956721 0 0 0 0 -46.579173365824317 3.5608303009066731 0 3.5608303009066731 1.5529425933036691 0 0 0 0 -20.814268944341165 -29.307422713129199 0 -29.307422713129199 26.49773686219487 0 0 0 0 25.87610605016198 -44.511829381995085 0 -44.511829381995085 31.317981358111865 0 0 0 0 -32.546883503338904 -31.275380972781022 0 -31.275380972781022 41.227579659929688 0 0 0 0 24.642709620398819 -34.664301930883227 0 -34.664301930883227 34.242100985641628 0 0 0 0 98.830018879772979 -32.366506062559893 0 -32.366506062559893 23.561690183879364 0 0 0 0 23.341272078854672 -63.719147829986468 0 -63.719147829986468 37.281362652390726 0 0 0 0 -9.2673772053949506 -22.387117380139898 0 -22.387117380139898 17.389333508304844 0 0 0 0 143.44858688423665 75.243308134100516 0 75.243308134100516 83.935567291660846 0 0 0 0 91.217738376730267 -11.806673341078749 0 -11.806673341078749 93.213799244153961 0 0 0 0 165.27765709612504 65.233844675051841 0 65.233844675051841 15.001004222847769 0 0 0 0 238.46934202214106 42.34859335580586 0 42.34859335580586 16.826494729427395 0 0 0 0 134.60502160525357 -63.070641743502165 0 -63.070641743502165 35.29672975415815 0 0 0 0 108.15131176065188 26.948918080261137 0 26.948918080261137 19.436441726493285 0 0 0 0 122.87726013746942 -34.203389520537712 0 -34.203389520537712 -0.35144085457432084 0 0 0 0 165.36123724855497 6.4079381831452338 0 6.4079381831452338 8.9878260824573317 0 0 0 0 170.31373987683037 45.447463044371034 0 45.447463044371034 1.2740443951352063 0 0 0 0 209.3422318626599 33.388276730403049 0 33.388276730403049 -15.102925431017866 0 0 0 0 66.430936163764272 20.144816672053821 0 20.144816672053821 10.812698416398234 0 0 0 0 266.51281671935794 108.03121072068529 0 108.03121072068529 -33.26313282470619 0 0 0 0 97.913546357732685 -20.097277015846885 0 -20.097277015846885 -38.334059115661148 0 0 0 0 -60.601608551975005 -86.096161079546619 0 -86.096161079546619 -5.43901739601597 0 0 0 0 -30.339259800457512 116.31351723791249 0 116.31351723791249 10.405838948820019 0 0 0 0 27.546765044728545 19.591667857906941 0 19.591667857906941 -98.394314780105105 0 0 0 0 63.213587778798683 -79.142157838472485 0 -79.142157838472485 -194.63642732718745 0 0 0 0 32.236981089699839 -55.463306843131249 0 -55.463306843131249 -35.03385427736157 0 0 0 0 21.724159571367636 -22.418718268530029 0 -22.418718268530029 5.9362949080395992 0 0 0 0 0.96919872529861095 29.118820439669662 0 29.118820439669662 -2.6041614209952968 0 0 0 0 -9.0620871815910817 -29.442481246518767 0 -29.442481246518767 16.073932865582719 0 0 0 0 -25.939281308261343 -19.628305384959845 0 -19.628305384959845 33.627604474666441 0 0 0 0 -4.6004259428755176 -19.496350459349969 0 -19.496350459349969 27.748064107970094 0 0 0 0 117.83000009436228 -121.24512309746797 0 -121.24512309746797 25.639395632288142 0 0 0 0 -9.3440450710140226 -24.863650217250154 0 -24.863650217250154 123.52786910939358 0 0 0 0 75.300329169711858 -65.22187151854996 0 -65.22187151854996 -120.17421973670173 0 0 0 0 182.03862902452465 18.360967992401356 0 18.360967992401356 -62.977464836479612 0 0 0 0 35.607937865902983 -7.1391809636855719 0 -7.1391809636855719 0.66383516819206223 0 0 0 0 40.118251146296643 -107.78576822538639 0 -107.78576822538639 -211.68093824470816 0 0 0 0 1.5478891139873667 -38.77676361574504 0 -38.77676361574504 -25.316770010290838 0 0 0 0 53.06250117923264 -109.9764960351738 0 -109.9764960351738 -1.2831005177091015 0 0 0 0 59.004095818250789 -41.946625717898769 0 -41.946625717898769 -58.370802766790391 0 0 0 0 53.522326375222292 -35.775090103920547 0 -35.775090103920547 -57.099610541612492 0 0 0 0 56.259563548711775 -8.9406727971538658 0 -8.9406727971538658 1.6741818686561798 0 0 0 0 12.668739763912527 -52.543286204954143 0 -52.543286204954143 -74.323330136811819 0 0 0 0 57.168644666815453 -39.103594069598785 0 -39.103594069598785 -128.97643117959421 0 0 0 0 63.706619172869978 -36.958864011315654 0 -36.958864011315654 -69.580092262947346 0 0 0 0 60.284305458537347 -37.061994826532555 0 -37.061994826532555 -62.151061676786412 0 0 0 0 78.866586180080503 -53.576049479394158 0 -53.576049479394158 -62.351349543245306 0 0 0 0 79.525917100225342 -60.889980455574232 0 -60.889980455574232 -32.656462514086797 0 0 0 0 68.254094751029697 -65.095503830118787 0 -65.095503830118787 -33.999759010414891 0 0 0 0 -22.584931378781221 -39.792766231736778 0 -39.792766231736778 -19.006781889827835 0 0 0 0 19.782412706850664 80.156830647047741 0 80.156830647047741 132.37590383618135 0 0 0 0 192.89944479794758 -2.4807952012515671 0 -2.4807952012515671 -27.308890990230907 0 0 0 0 126.49599766948904 -118.30810487606948 0 -118.30810487606948 33.397855964199152 0 0 0 0 39.734546219185177 -87.825479845660539 0 -87.825479845660539 131.53763101956361 0 0 0 0 18.91363534963466 -79.671336721925513 0 -79.671336721925513 91.605934313548914 0 0 0 0 -1.8218283690530299 -0.088414364124613343 0 -0.088414364124613343 1.1561133251060429 0 0 0 0 -35.30421880246962 99.296624993028715 0 99.296624993028715 -25.98341104581732 0 0 0 0 -34.269127821164147 -4.2478313908061409 0 -4.2478313908061409 0.57328179099579302 0 0 0 0 0.7280405245322541 -1.755694514736394 0 -1.755694514736394 -0.17706060300042381 0 0 0 0 -65.997552830339373 24.521080495311196 0 24.521080495311196 17.525235600668566 0 0 0 0 -76.84451700339423 -57.39059401650502 0 -57.39059401650502 16.751286762947529 0 0 0 0 43.362874511141854 31.799901280592167 0 31.799901280592167 24.658873110034392 0 0 0 0 28.299108352611334 -4.3859311811380657 0 -4.3859311811380657 -12.035314077557393 0 0 0 0 -21.033760143352083 -27.005673698422811 0 -27.005673698422811 -32.369653486302013 0 0 0 0 29.190066944507194 -9.1337879553829193 0 -9.1337879553829193 -12.493796391050873 0 0 0 0 -51.068920994428481 -162.91414056895877 0 -162.91414056895877 -34.855258750632601 0 0 0 0 49.275362884812239 11.748990222550447 0 11.748990222550447 30.218140074897747 0 0 0 0 65.990002673219351 41.907398944529007 0 41.907398944529007 -4.939966204832217 0 0 0 0 129.7042181092711 72.337322979347391 0 72.337322979347391 73.479767344057791 0 0 0 0 2.1293492265837273 -2.594984916972324 0 -2.594984916972324 1.5487930310845246 0 0 0 0 229.81161970823177 -9.7688045903983038 0 -9.7688045903983038 -27.292390342945055 0 0 0 0 29.976205021877831 -126.97381069229732 0 -126.97381069229732 148.97647701955719 0 0 0 0 90.21416137212691 -73.866277518493916 0 -73.866277518493916 -26.500516741597508 0 0 0 0 48.873299071124165 -16.975913565353636 0 -16.975913565353636 -102.14563831634484 0 0 0 0 135.1162603971984 25.25241134415495 0 25.25241134415495 -82.762300207231647 0 0 0 0 56.831424814470665 38.963056308987916 0 38.963056308987916 61.32465832313369 0 0 0 0 180.73178170951905 -67.023108254679755 0 -67.023108254679755 80.99411267815276 0 0 0 0 138.93121678762873 -32.749145989437011 0 -32.749145989437011 -114.97387252552502 0 0 0 0 69.933171211204581 11.596508647954984 0 11.596508647954984 -143.04074529108618 0 0 0 0 33.754377500816496 -9.995320193686652 0 -9.995320193686652 -11.411248262152338 0 0 0 0 42.025089406800589 -94.252240407905518 0 -94.252240407905518 -115.42571567226275 0 0 0 0 94.888740795679041 -44.823421841412028 0 -44.823421841412028 -11.984536080949283 0 0 0 0 3.0511413155402636 -4.1191911149299436 0 -4.1191911149299436 -3.6741990142736323 0 0 0 0 27.339193743710936 -0.07058827237423948 0 -0.07058827237423948 -3.849801089187241 0 0 0 0 22.417403093148096 -0.66167229528531379 0 -0.66167229528531379 -21.653997275181268 0 0 0 0 18.858911461500789 -0.090346075441861018 0 -0.090346075441861018 -11.92708891077412 0 0 0 0 46.456524252684176 48.602550886351992 0 48.602550886351992 -6.8862393947947567 0 0 0 0 43.926837480389167 30.410085481510407 0 30.410085481510407 -1.5801754129452092 0 0 0 0 69.037920154460153 33.19764860943269 0 33.19764860943269 -3.5197837349555243 0 0 0 0 96.637233564604685 41.682397027587399 0 41.682397027587399 -16.184741748003717 0 0 0 0 71.652454498209408 47.126747537316987 0 47.126747537316987 -0.97195435345383885 0 0 0 0 60.662810025776707 32.601892181743779 0 32.601892181743779 -7.4071086966778239 0 0 0 0 -3.0492685732388054 34.734541713829458 0 34.734541713829458 2.6504255443596776 0 0 0 0 36.074319982504676 55.466470016052654 0 55.466470016052654 -18.79708301632445 0 0 0 0 36.697624299105883 32.628840150374685 0 32.628840150374685 -14.162918558571164 0 0 0 0 72.202398580982845 47.827591887985761 0 47.827591887985761 -53.96591550263804 0 0 0 0 111.8593381239607 17.637897801301705 0 17.637897801301705 -51.094680815126026 0 0 0 0 136.60778318597841 64.409112454513092 0 64.409112454513092 -37.180162393845876 0 0 0 0 59.446634307778368 83.092564843761977 0 83.092564843761977 -73.655800710339463 0 0 0 0 107.59795930183282 29.582923101323985 0 29.582923101323985 -62.936813057185873 0 0 0 0 222.59606540594177 1.2813614532535667 0 1.2813614532535667 -70.661435805747772 0 0 0 0 180.96506383108863 -56.218268068083944 0 -56.218268068083944 -14.391845340922373 0 0 0 0 134.85052255913979 25.716535313113638 0 25.716535313113638 -73.433167682971913 0 0 0 0 153.5665185836715 -0.98745036551854071 0 -0.98745036551854071 -55.716248597464642 0 0 0 0 149.52391329390775 4.9247777146425165 0 4.9247777146425165 -56.900074325904257 0 0 0 0 114.63494335293581 -2.4072296020138992 0 -2.4072296020138992 -1.5335447539187381 0 0 0 0 67.039229533074831 34.843380829596128 0 34.843380829596128 -24.380195734553624 0 0 0 0 21.597077320981043 1.3252086819114766 0 1.3252086819114766 -9.2565579728396301 0 0 0 0 32.975252297575025 -28.214080524491237 0 -28.214080524491237 -28.129040869217079 0 0 0 0 0.49283855260446785 -5.4150745409197967 0 -5.4150745409197967 -7.2573697364821124 0 0 0 0 13.093939826741007 -21.721457002399013 0 -21.721457002399013 -16.402210053900149 0 0 0 0 85.075593689627567 -11.202200725285024 0 -11.202200725285024 -35.491956198247181 0 0 0 0 72.248784300292755 -40.69570840989411 0 -40.69570840989411 1.9132935617842577 0 0 0 0 0.25596705778634998 -0.73755432397799936 0 -0.73755432397799936 -2.0230495250314373 0 0 0 0 95.177437535341596 -40.428217066632897 0 -40.428217066632897 0.71141028789122629 0 0 0 0 88.262372159541627 -50.853462184963085 0 -50.853462184963085 -264.1241794131065 0 0 0 0 82.767317609032034 367.5074099590629 0 367.5074099590629 -552.5437329033698 0 0 0 0 492.16420573558935 -276.81055944110813 0 -276.81055944110813 -49.087436891026755 0 0 0 0 388.79383196963681 387.95445198499647 0 387.95445198499647 68.672522725378712 0 0 0 0 -79.89223044278333 25.827679190209892 0 25.827679190209892 -206.156511432353 0 0 0 0 -96.054053242620284 606.47819719475228 0 606.47819719475228 -314.01968783607708 0 0 0 0 -0.10905826657533169 0.60031073229239773 0 0.60031073229239773 0.36083318102536666 0 0 0 0 176.69005222929991 138.90911309045555 0 138.90911309045555 74.193990674050838 0 0 0 0 214.2519855044975 187.37710446542542 0 187.37710446542542 41.526943573102471 0 0 0 0 237.68986298591517 13.532218716308535 0 13.532218716308535 -23.144492748919674 0 0 0 0 116.30607052360028 142.52179527419116 0 142.52179527419116 80.343053070590031 0 0 0 0 366.04680357400139 -195.43300022646031 0 -195.43300022646031 93.939155401976222 0 0 0 0 93.256092521326991 -50.140020862287628 0 -50.140020862287628 19.96929407213247 0 0 0 0 444.39247752863594 100.84801380938666 0 100.84801380938666 -30.245290510356881 0 0 0 0 456.35276674880879 -216.57970074833793 0 -216.57970074833793 -87.081037455224759 0 0 0 0 243.82344856283089 -219.39515173974951 0 -219.39515173974951 62.309641338443726 0 0 0 0 158.15371735658846 88.589955785208531 0 88.589955785208531 132.15094178308027 0 0 0 0 458.19059417465178 13.963616801399439 0 13.963616801399439 29.93138529773114 0 0 0 0 167.58741349435877 -85.113996535083061 0 -85.113996535083061 -3.4198221177803134 0 0 0 0 80.816423271335225 -96.302876274493883 0 -96.302876274493883 109.74912957845299 0 0 0 0 270.65171577126966 -175.34169688217116 0 -175.34169688217116 66.380819459383929 0 0 0 0 176.18527361957422 -42.646245842139137 0 -42.646245842139137 139.34240859075908 0 0 0 0 95.295085045494488 -202.17147526638291 0 -202.17147526638291 62.993756075329884 0 0 0 0 66.690114289296616 -213.13857393262174 0 -213.13857393262174 20.832686145520711 0 0 0 0 113.58209726002315 -282.54411532328595 0 -282.54411532328595 42.86062356797288 0 0 0 0 155.53916789111099 -303.89452002651342 0 -303.89452002651342 -52.234355333225039 0 0 0 0 183.96424333901814 -281.74931481137583 0 -281.74931481137583 -42.895032268280829 0 0 0 0 171.75890348450412 -7.2973869510033182 0 -7.2973869510033182 -241.85151222444165 0 0 0 0 -30.825496585464862 -95.493773229367434 0 -95.493773229367434 -204.33211945652829 0 0 0 0 8.9195437668568047 -416.67540008082619 0 -416.67540008082619 -233.32840844606926 0 0 0 0 -0.41132797261376197 0.23966340307308087 0 0.23966340307308087 -0.55849505503650931 0 0 0 0 193.36305151905617 51.828272085753724 0 51.828272085753724 16.550201531509629 0 0 0 0 26.794677070396574 19.559647756638697 0 19.559647756638697 11.759044677301063 0 0 0 0 27.986179315905247 12.923229693655458 0 12.923229693655458 -20.867821822124824 0 0 0 0 56.251532247046271 21.400714986456478 0 21.400714986456478 -343.42191084059186 0 0 0 0 42.448022855704039 -121.72677161675779 0 -121.72677161675779 -259.90578202798906 0 0 0 0 2.785815536536191 1.4548959958648879 0 1.4548959958648879 -5.9937131568770319 0 0 0 0 25.212760218635594 2.138823079448116 0 2.138823079448116 -10.885473197284682 0 0 0 0 17.829913269918521 -4.685735898852684 0 -4.685735898852684 -11.603084028163863 0 0 0 0 15.076515339505804 -0.064515656629712481 0 -0.064515656629712481 -7.7088220919368968 0 0 0 0 21.109027185080777 -1.5601367180361194 0 -1.5601367180361194 -16.93942050565397 0 0 0 0 23.868278397683753 -0.335057745932545 0 -0.335057745932545 -9.138589768879001 0 0 0 0 8.8684871692785237 -28.773532517423291 0 -28.773532517423291 -51.101794375765166 0 0 0 0 4.9617998278765789 -4.9011684685944772 0 -4.9011684685944772 4.9269382357665492 0 0 0 0 285.02414183329529 -44.225450789823753 0 -44.225450789823753 -7.9870676174377877 0 0 0 0 -97.94073957740693 -126.15430858467107 0 -126.15430858467107 48.814989323465852 0 0 0 0 1.1461543640999636 -1.4453798978492074 0 -1.4453798978492074 1.9544058824259416 0 0 0 0 50.993987098961952 18.744423755166281 0 18.744423755166281 -37.654635111977768 0 0 0 0 720.94600918519245 96.016453038329246 0 96.016453038329246 -62.990593553175131 0 0 0 0 385.33613164554845 -267.80271645751759 0 -267.80271645751759 -51.9199586883351 0 0 0 0 198.58838081962313 -102.18602886352392 0 -102.18602886352392 -62.700630340602856 0 0 0 0 261.99355644656316 -13.753725600344751 0 -13.753725600344751 -79.816860472344615 0 0 0 0 281.58836809601416 -57.188206781015651 0 -57.188206781015651 -34.990173666961311 0 0 0 0 326.03985936296885 -30.044235529715479 0 -30.044235529715479 -53.341885313452167 0 0 0 0 301.85929810191737 -178.23875301101839 0 -178.23875301101839 95.238706246506126 0 0 0 0 334.75810387266029 -143.90117666551691 0 -143.90117666551691 36.838064654703089 0 0 0 0 -3.4290141415112885 -6.8363092075970258 0 -6.8363092075970258 4.8516221772465542 0 0 0 0 11.266906797936826 21.255622998507988 0 21.255622998507988 27.829223636857932 0 0 0 0 0.89508175064935358 0.48810718204912007 0 0.48810718204912007 1.8791572489865693 0 0 0 0 62.902342795787263 -7.5905725197295268 0 -7.5905725197295268 -156.44593872574401 0 0 0 0 85.232962637564924 66.03389910292708 0 66.03389910292708 7.6605040069047163 0 0 0 0 43.053444833458343 24.046104027568845 0 24.046104027568845 -30.175483904053181 0 0 0 0 14.877756208434008 6.3551724589659724 0 6.3551724589659724 -0.39414301454399325 0 0 0 0 102.98379625750749 205.36748864994206 0 205.36748864994206 58.04465572780623 0 0 0 0 4.8989006586844681 3.1651625205439258 0 3.1651625205439258 1.6619155477359349 0 0 0 0 321.99898279137778 -341.68421245619243 0 -341.68421245619243 196.27120438887505 0 0 0 0 280.23698321997836 -203.47012676477891 0 -203.47012676477891 71.388189819051604 0 0 0 0 23.848775351189033 2.1374893769550454 0 2.1374893769550454 -12.950191963706857 0 0 0 0 22.54839156597518 2.021466820904493 0 2.021466820904493 -10.586625014667561 0 0 0 0 22.101161647249683 2.0191853799706223 0 2.0191853799706223 -9.7010583536025479 0 0 0 0 6.7321408579532296 1.7948473377435477 0 1.7948473377435477 -6.6014366604365762 0 0 0 0 -224.53364753622554 83.982030453556035 0 83.982030453556035 -13.322138714226298 0 0 0 0 6.0569823095029456 1.2131350777401693 0 1.2131350777401693 -6.5608077601508139 0 0 0 0 30.691246345617401 123.92562729907678 0 123.92562729907678 -137.61033659166026 0 0 0 0 22.441449824348894 3.861378264554979 0 3.861378264554979 -1.0741177437237974 0 0 0 0 -17.972826673823874 74.920672808285872 0 74.920672808285872 -69.025429567257163 0 0 0 0 302.30176380953344 45.61653684629664 0 45.61653684629664 -115.97799207693595 0 0 0 0 8.761307172533634 313.08042166299128 0 313.08042166299128 -90.215936261969546 0 0 0 0 498.61730417278523 -299.5809457709679 0 -299.5809457709679 -121.4057656739931 0 0 0 0 -62.246931586174469 -107.43870359575334 0 -107.43870359575334 -100.94349091848099 0 0 0 0 154.2130058032817 -132.73033905733541 0 -132.73033905733541 -119.41871048860071 0 0 0 0 72.314059383623317 -83.504383238834862 0 -83.504383238834862 -82.848479229103305 0 0 0 0 -325.69484452726101 140.80214515223054 0 140.80214515223054 166.88774857097587 0 0 0 0 61.482061169917614 -8.6852145675467582 0 -8.6852145675467582 0.77782312741139759 0 0 0 0 7.6737681037798797 -2.6500308369428751 0 -2.6500308369428751 2.8895434315660555 0 0 0 0 94.881668330108454 -9.9139913156486852 0 -9.9139913156486852 0.40925133302422756 0 0 0 0 114.22702891715744 131.53469350646378 0 131.53469350646378 -99.353781030246182 0 0 0 0 128.7874983898364 -13.717399337212555 0 -13.717399337212555 -29.499068092314701 0 0 0 0 -0.57308709153930693 -27.022468024650433 0 -27.022468024650433 2.2943464666518127 0 0 0 0 363.82033329294063 292.80824248898034 0 292.80824248898034 -82.908022176248096 0 0 0 0 104.95808003968705 93.547794761029692 0 93.547794761029692 -195.01392724314633 0 0 0 0 11.967827923370351 112.667521884076 0 112.667521884076 -36.170733493759144 0 0 0 0 143.10063260507923 165.57962279654097 0 165.57962279654097 -73.748171204179698 0 0 0 0 14.930174563120943 1.2618183259020017 0 1.2618183259020017 -137.03662997112562 0 0 0 0 213.33429648607853 72.574614544431597 0 72.574614544431597 -114.63739668942844 0 0 0 0 106.72085081469459 -130.86438566609559 0 -130.86438566609559 -18.477491478874299 0 0 0 0 177.42454242991857 63.836917384199978 0 63.836917384199978 -107.03523338062041 0 0 0 0 147.54644613576784 21.034422327088578 0 21.034422327088578 -91.78353623302246 0 0 0 0 181.65929732350014 -11.528101827263527 0 -11.528101827263527 -152.7179420152097 0 0 0 0 82.851810599917371 9.2599273262858333 0 9.2599273262858333 -44.07547105872618 0 0 0 0 153.24555562883324 -1.0105170916685893 0 -1.0105170916685893 -105.07465274757033 0 0 0 0 96.775678149118903 -33.298506696166442 0 -33.298506696166442 -85.976099090903062 0 0 0 0 149.05505306962516 63.40137933662794 0 63.40137933662794 -26.895071532153452 0 0 0 0 120.07051579282052 27.636484857892356 0 27.636484857892356 -55.587335322098625 0 0 0 0 107.33754234495063 44.554245553969849 0 44.554245553969849 -11.721327051516255 0 0 0 0 101.51751885228441 47.238502451038585 0 47.238502451038585 -12.934726851642154 0 0 0 0 111.65243916581676 39.91947314565914 0 39.91947314565914 -5.2252789233002659 0 0 0 0 107.33730681895736 44.569353691942212 0 44.569353691942212 -9.9739628094448562 0 0 0 0 117.06138639588971 40.646461691185323 0 40.646461691185323 -14.6593796381012 0 0 0 0 117.79635051573132 34.180800412420467 0 34.180800412420467 -9.4802496942165817 0 0 0 0 134.17848242262698 38.734640727569058 0 38.734640727569058 -14.140689071355155 0 0 0 0 114.58211417766142 41.564062693693359 0 41.564062693693359 -26.246337352282353 0 0 0 0 114.8878581241097 25.630985562011574 0 25.630985562011574 -27.263194080012909 0 0 0 0 120.45104295004785 34.58287915852452 0 34.58287915852452 -14.098493044089992 0 0 0 0 136.74878289658227 22.989956020250247 0 22.989956020250247 -10.720098490328382 0 0 0 0 156.90374320374394 33.227208389125735 0 33.227208389125735 -7.2552394955891941 0 0 0 0 105.40327940506177 12.422338833383037 0 12.422338833383037 -44.903613303875318 0 0 0 0 92.969791186966177 35.783998832066573 0 35.783998832066573 -18.884716383084196 0 0 0 0 50.265687080456701 -4.1762586701624969 0 -4.1762586701624969 -30.009159490117781 0 0 0 0 -212.03493136404722 221.15351587546775 0 221.15351587546775 -634.48473839940243 0 0 0 0 -93.085024542982865 20.310193774911795 0 20.310193774911795 79.249134890750383 0 0 0 0 340.0032277648279 -73.367159321128497 0 -73.367159321128497 -486.67666420548278 0 0 0 0 82.008340667554876 26.779194765868851 0 26.779194765868851 -21.984137847012789 0 0 0 0 384.25945976296134 -218.08280040277901 0 -218.08280040277901 -427.80019718899985 0 0 0 0 108.15082843539858 26.647489618526379 0 26.647489618526379 -29.08272735128412 0 0 0 0 135.74694612911117 4.8463501061542047 0 4.8463501061542047 -37.325808387908182 0 0 0 0 118.50271922927551 -6.3232394442827369 0 -6.3232394442827369 -8.1343713678677751 0 0 0 0 434.14543261966173 -234.03238111440385 0 -234.03238111440385 -440.26434608272803 0 0 0 0 135.94100104434619 15.753087829327342 0 15.753087829327342 -24.880716864756323 0 0 0 0 136.07711162018086 13.632461449310995 0 13.632461449310995 7.2347783454133605 0 0 0 0 151.5187912354013 14.226389993615157 0 14.226389993615157 1.8184292076030033 0 0 0 0 626.83530567955313 3.1349271620088075 0 3.1349271620088075 -354.60167419312245 0 0 0 0 174.12202088255435 -23.717981261034424 0 -23.717981261034424 -354.11896942603175 0 0 0 0 132.07433687117373 -20.03333583547419 0 -20.03333583547419 -51.564757344497451 0 0 0 0 118.61290906506136 -26.844537458634051 0 -26.844537458634051 -1.2595643140259443 0 0 0 0 155.83765818373649 -47.033306505829387 0 -47.033306505829387 5.6766490018853801 0 0 0 0 142.65765914944132 -65.304677003915458 0 -65.304677003915458 85.380036702190409 0 0 0 0 12.17476208251952 -3.9866368472072811 0 -3.9866368472072811 1.1465468850444065 0 0 0 0 148.97167030163109 18.009442585756915 0 18.009442585756915 84.195799410206405 0 0 0 0 137.55087152810847 -35.875615982451109 0 -35.875615982451109 25.50608093995379 0 0 0 0 160.29253313491972 -5.8080218419670473 0 -5.8080218419670473 63.336601507373416 0 0 0 0 195.55430263396556 33.969208504908238 0 33.969208504908238 9.1789469728064432 0 0 0 0 163.18314124065728 10.784203698745841 0 10.784203698745841 -3.6701992314410745 0 0 0 0 162.55285857443232 22.389460735877947 0 22.389460735877947 -10.30686551749659 0 0 0 0 190.83095635731161 -10.442543038346628 0 -10.442543038346628 -5.1807148967254761 0 0 0 0 127.19584220509569 -3.7390814392229004 0 -3.7390814392229004 -0.2058007891437228 0 0 0 0 157.76229696876544 -13.20728015554414 0 -13.20728015554414 1.5718512356124847 0 0 0 0 135.50556087333825 24.31913261410773 0 24.31913261410773 -12.163887146154593 0 0 0 0 145.75563926060022 16.625456112263691 0 16.625456112263691 -8.0223222237364098 0 0 0 0 124.50531377274456 -0.53414951270315214 0 -0.53414951270315214 -3.9091574316271362 0 0 0 0 127.94008210636093 24.066229523864195 0 24.066229523864195 -7.9128887287242833 0 0 0 0 97.797786580066713 -3.1602858074297728 0 -3.1602858074297728 -0.89213046452277922 0 0 0 0 110.30766145741291 23.649328386942216 0 23.649328386942216 -5.6030911775542336 0 0 0 0 103.76314517563515 28.852091973465349 0 28.852091973465349 -8.6367382810112758 0 0 0 0 96.428899336561699 -29.516282774770389 0 -29.516282774770389 26.568831611418318 0 0 0 0 99.994053726459242 -49.325356408935477 0 -49.325356408935477 -11.811358062965951 0 0 0 0 119.33357985879775 -27.107125492719661 0 -27.107125492719661 13.710677260408374 0 0 0 0 87.058111498541621 -15.538610235409578 0 -15.538610235409578 9.5615952511452633 0 0 0 0 114.87865261346633 -49.128381015255854 0 -49.128381015255854 -2.7288636859043436 0 0 0 0 112.20647263491628 -66.690196047402878 0 -66.690196047402878 -28.214069202149403 0 0 0 0 129.65229330278089 -73.227331903940922 0 -73.227331903940922 -26.37081304970684 0 0 0 0 123.78066211586332 -24.156636782604778 0 -24.156636782604778 0.51844361890682777 0 0 0 0 139.35835370618588 -35.871701176190072 0 -35.871701176190072 -45.403116220220909 0 0 0 0 101.46047984825418 -25.908989933872817 0 -25.908989933872817 46.068837037319554 0 0 0 0 132.30782691482545 -10.981162413147956 0 -10.981162413147956 -32.443355277442606 0 0 0 0 126.90469787289226 -41.588809454721684 0 -41.588809454721684 -7.0220830128137095 0 0 0 0 133.16101636066287 -75.064284459356031 0 -75.064284459356031 24.899248331486888 0 0 0 0 171.47297246899689 -45.672815499028729 0 -45.672815499028729 -10.797665925177625 0 0 0 0 163.34881390667033 -19.373463811932652 0 -19.373463811932652 -6.430064805512302 0 0 0 0 145.58820556539285 -42.046340706326646 0 -42.046340706326646 9.8142166214665849 0 0 0 0 138.32937982471049 -45.337872865639838 0 -45.337872865639838 20.89054055961924 0 0 0 0 92.065616355221209 -21.129920405251141 0 -21.129920405251141 13.598898273413852 0 0 0 0 -3.2284563066048122 -2.6968272586262998 0 -2.6968272586262998 -10.758081821909652 0 0 0 0 236.36111917908147 57.707323321571039 0 57.707323321571039 -159.72076266141357 0 0 0 0 -38.341756773392262 36.552099054595828 0 36.552099054595828 20.265641069437606 0 0 0 0 15.070838376821484 -251.02261959133341 0 -251.02261959133341 684.83539333523368 0 0 0 0 563.85069060273236 -193.54526676832836 0 -193.54526676832836 -193.30326407988002 0 0 0 0 19.943281147578162 -10.784179093665855 0 -10.784179093665855 -22.120366703628171 0 0 0 0 132.69449798284768 -11.376389111179378 0 -11.376389111179378 -26.821689427340061 0 0 0 0 128.04857272875961 -26.746631173053629 0 -26.746631173053629 -3.0330191873526928 0 0 0 0 115.38878620756259 -15.15786273557103 0 -15.15786273557103 -24.519178760232535 0 0 0 0 182.58172764399569 -4.8930568421596945 0 -4.8930568421596945 -60.232384546549838 0 0 0 0 139.89740761854631 -11.248288851546114 0 -11.248288851546114 -3.157420344230411 0 0 0 0 193.12616242754484 11.103630360024908 0 11.103630360024908 -99.060132297572636 0 0 0 0 46.544499626704457 -5.5604737386414698 0 -5.5604737386414698 -1.8289457646136889 0 0 0 0 32.827226673025059 4.7757149720990206 0 4.7757149720990206 -16.862281613562551 0 0 0 0 76.626155878298505 0.9712852619990997 0 0.9712852619990997 46.935705403321663 0 0 0 0 108.33370815986382 39.132477290489874 0 39.132477290489874 61.680356936111821 0 0 0 0 224.65757204749025 48.355145897848843 0 48.355145897848843 -1.1838074678580597 0 0 0 0 374.2300954018865 -105.61438905123708 0 -105.61438905123708 3.0544453768588937 0 0 0 0 39.287312469255028 -12.176304797016577 0 -12.176304797016577 -2.4684307733001987 0 0 0 0 266.36397124979158 -30.361404657857634 0 -30.361404657857634 -2.4018943892078823 0 0 0 0 177.14396045013564 -13.648948403510985 0 -13.648948403510985 -15.357725151185164 0 0 0 0 157.73267848805068 -18.143326485869842 0 -18.143326485869842 -3.0391760040266709 0 0 0 0 183.04994206501578 -42.757311009249861 0 -42.757311009249861 -82.22670149296755 0 0 0 0 153.23897962380943 -56.009445381267142 0 -56.009445381267142 -0.57025739937911624 0 0 0 0 41.334332829684598 2.5196655152733314 0 2.5196655152733314 2.4007055377789293 0 0 0 0 128.77649111123179 -22.275701811172201 0 -22.275701811172201 -0.38005880913400814 0 0 0 0 153.49192717652841 36.501976711469069 0 36.501976711469069 -149.5323575837524 0 0 0 0 170.58733005809609 -10.521994316995915 0 -10.521994316995915 -102.9843438254029 0 0 0 0 134.58071563737758 -38.804347723242699 0 -38.804347723242699 -62.041894082836734 0 0 0 0 148.94107441297274 -24.893334958559763 0 -24.893334958559763 -59.538982559773558 0 0 0 0 127.26218779575584 -84.667600990803123 0 -84.667600990803123 -76.639301615637578 0 0 0 0 124.55809286709155 -42.797354926134176 0 -42.797354926134176 22.75244804860904 0 0 0 0 126.47368502053723 -69.400981935665186 0 -69.400981935665186 23.982672114635804 0 0 0 0 8.146489928589979 13.904029125961795 0 13.904029125961795 -0.86973807518411661 0 0 0 0 35.308235560240064 82.587753330575197 0 82.587753330575197 36.284594917920003 0 0 0 0 86.017428116811061 27.283796112242726 0 27.283796112242726 -14.916707734391821 0 0 0 0 158.67254456739465 14.891553126874442 0 14.891553126874442 -48.838108517255023 0 0 0 0 200.0887332085149 33.061863042999903 0 33.061863042999903 -40.996626331092102 0 0 0 0 211.97470988639179 9.3653565227589297 0 9.3653565227589297 -74.138854885331966 0 0 0 0 338.25362713483628 -9.0160340918068869 0 -9.0160340918068869 -55.902608769548806 0 0 0 0 272.98102310567265 129.56523744159176 0 129.56523744159176 8.0231417985305598 0 0 0 0 234.96799212418955 -20.248946132111087 0 -20.248946132111087 -101.70247596161425 0 0 0 0 203.81398060333959 10.196686299970679 0 10.196686299970679 -54.299600689618103 0 0 0 0 240.98447230374586 31.731905380767785 0 31.731905380767785 43.622913806368615 0 0 0 0 315.33566839910054 30.437733363018879 0 30.437733363018879 -44.058764450277522 0 0 0 0 266.07076193369721 68.255858465303845 0 68.255858465303845 90.561885258678558 0 0 0 0 230.404913508155 -49.000961055879316 0 -49.000961055879316 75.237107490318522 0 0 0 0 2.6279641570464065 0.22400565801984129 0 0.22400565801984129 -0.29379474493863178 0 0 0 0 346.22991189523236 70.770034658288068 0 70.770034658288068 -1.5941371194126077 0 0 0 0 293.08047218661977 -76.299541880915342 0 -76.299541880915342 -5.9018067105844239 0 0 0 0 21.595023861322261 16.546243910678641 0 16.546243910678641 30.203102069619945 0 0 0 0 21.857248412390618 14.969784335149825 0 14.969784335149825 1.5087998266335489 0 0 0 0 48.135728006738645 86.725982846202442 0 86.725982846202442 128.34607879929945 0 0 0 0 16.01680681858852 -14.811683322546173 0 -14.811683322546173 3.0604049262974513 0 0 0 0 -17.782875863620575 5.51517138957729 0 5.51517138957729 1.1945965660552247 0 0 0 0 10.848371713901365 12.817517011822133 0 12.817517011822133 -0.92255503077882395 0 0 0 0 5.064618914988543 1.962345461018554 0 1.962345461018554 0.75322274705259407 0 0 0 0 2.8963071364560165 4.1845222111260227 0 4.1845222111260227 -1.3581062880848549 0 0 0 0 13.456390408383754 13.655860827819886 0 13.655860827819886 -0.92093178277864585 0 0 0 0 5.3513841701787896 10.490740696583089 0 10.490740696583089 -4.397867439149195 0 0 0 0 13.815540388948335 16.51026492399486 0 16.51026492399486 -0.79635800932803491 0 0 0 0 44.499951484627672 18.931050296463468 0 18.931050296463468 -26.296888248360119 0 0 0 0 19.155392100285098 -3.1081381472176872 0 -3.1081381472176872 5.120954396239199 0 0 0 0 28.86450351176245 5.449489473700055 0 5.449489473700055 -26.404079615281262 0 0 0 0 7.0927096597344814 -0.8991111142905126 0 -0.8991111142905126 2.3409712216982106 0 0 0 0 23.887333000446233 12.688743781761332 0 12.688743781761332 14.989837452269057 0 0 0 0 36.662924543034023 28.242525544956209 0 28.242525544956209 -13.045303115984098 0 0 0 0 22.500126572214867 -24.448004967048519 0 -24.448004967048519 -75.674445101420133 0 0 0 0 3.1218086706867325 50.209225976440848 0 50.209225976440848 -22.441484037102782 0 0 0 0 18.943696126421855 -1.9803641561629775 0 -1.9803641561629775 33.960805397500053 0 0 0 0 3.0290804905599629 -2.4988682529711852 0 -2.4988682529711852 1.8500624185363481 0 0 0 0 193.33603703364952 87.351345993612597 0 87.351345993612597 6.4876146435371993 0 0 0 0 173.4085832773635 1.9620442545081005 0 1.9620442545081005 -1.6890028874997824 0 0 0 0 1.0821933916488149 -1.0235751448376362 0 -1.0235751448376362 1.2243651198812149 0 0 0 0 550.66530920935838 232.75815219504966 0 232.75815219504966 64.763380870544097 0 0 0 0 35.419230008425075 -202.80286853554981 0 -202.80286853554981 -43.039365126233633 0 0 0 0 573.21617074861865 -80.520892113875348 0 -80.520892113875348 -107.96418756040293 0 0 0 0 343.29214091608446 -1.9018860753658373 0 -1.9018860753658373 -25.676089107027565 0 0 0 0 366.43964828459502 2.0083219037717299 0 2.0083219037717299 -40.522829163240203 0 0 0 0 149.02517233620711 -64.041817014948037 0 -64.041817014948037 23.601792886658586 0 0 0 0 -91.504802920720977 -56.604298289834787 0 -56.604298289834787 94.222291931568634 0 0 0 0 0.058629143722157551 -1.1267045534820994 0 -1.1267045534820994 -3.0462665398391273 0 0 0 0 115.36208895918935 -38.06883984135743 0 -38.06883984135743 14.235524423499555 0 0 0 0 132.79983331142284 -8.6248689847971036 0 -8.6248689847971036 2.0786488714393272 0 0 0 0 149.73589637585792 -65.375010236153003 0 -65.375010236153003 10.629140571019889 0 0 0 0 149.89501081546769 -19.515229138326731 0 -19.515229138326731 70.448820200763294 0 0 0 0 182.20515675851857 -112.47856020158588 0 -112.47856020158588 92.373992547225612 0 0 0 0 206.9897259219324 -30.857827734117109 0 -30.857827734117109 11.648777475846828 0 0 0 0 38.746914967659905 -34.476209843853212 0 -34.476209843853212 98.717228819767115 0 0 0 0 183.59757260775223 -93.388655773043865 0 -93.388655773043865 31.539544363716459 0 0 0 0 4.9270546296856992 2.0831196816187685 0 2.0831196816187685 0.83660062546623593 0 0 0 0 171.0508658720064 25.472853505900275 0 25.472853505900275 13.9340296313203 0 0 0 0 135.96997144128181 15.535569884781125 0 15.535569884781125 -11.82692871592144 0 0 0 0 -36.281689780109446 18.10384947026796 0 18.10384947026796 14.949278888137997 0 0 0 0 11.277750301578372 6.5470833647112627 0 6.5470833647112627 1.26096493797656 0 0 0 0 232.93291134763058 -109.01372516831054 0 -109.01372516831054 24.964119308662703 0 0 0 0 67.72793332436413 -63.900005382425661 0 -63.900005382425661 25.738265409259853 0 0 0 0 218.97774037269119 -170.78828650161677 0 -170.78828650161677 82.395378679791065 0 0 0 0 -4.346999922348914 -63.82491462290659 0 -63.82491462290659 -43.795373646147709 0 0 0 0 87.835552253818605 46.904486210100913 0 46.904486210100913 9.8507972044071721 0 0 0 0 1.8495062843396681 -0.35717343225887177 0 -0.35717343225887177 -0.7269581606891542 0 0 0 0 17.52246944601373 17.722708046772979 0 17.722708046772979 4.1331328724946985 0 0 0 0 28.654882619350246 22.988203138675203 0 22.988203138675203 -16.480608734156931 0 0 0 0 -65.271346861441998 19.419352591976804 0 19.419352591976804 18.828909927573477 0 0 0 0 -0.92541959598727885 4.2794745286151983 0 4.2794745286151983 1.5158912601845156 0 0 0 0 17.415001780929742 35.001732413168611 0 35.001732413168611 -15.403112726987615 0 0 0 0 262.7506902165369 -46.109624982205787 0 -46.109624982205787 -19.513741124854278 0 0 0 0 128.46958422093303 67.550315028683144 0 67.550315028683144 -41.927167513856787 0 0 0 0 117.89049128644547 45.035530604473024 0 45.035530604473024 53.651833827350401 0 0 0 0 148.35546901499038 -125.45162074342761 0 -125.45162074342761 101.0622259385209 0 0 0 0 109.06605000028139 -112.27976081522502 0 -112.27976081522502 135.34233542235506 0 0 0 0 158.8669838879141 -61.471040926965088 0 -61.471040926965088 103.00798009765094 0 0 0 0 256.08448045454497 -95.115882377802791 0 -95.115882377802791 16.987666165323787 0 0 0 0 -3.727768997214298 -139.40243266435709 0 -139.40243266435709 111.88497280711726 0 0 0 0 -11.792361056035588 -13.680675149767922 0 -13.680675149767922 153.35403947383566 0 0 0 0 141.25695521760554 -115.46126731772108 0 -115.46126731772108 -41.196067079976274 0 0 0 0 80.060369100945536 -92.567620972414261 0 -92.567620972414261 201.18269252240043 0 0 0 0 119.15558692537525 -82.136328311469697 0 -82.136328311469697 138.56553417179339 0 0 0 0 85.246789849177731 -70.317835930075944 0 -70.317835930075944 64.208999082377886 0 0 0 0 -0.57757975231408487 -0.13172453135623385 0 -0.13172453135623385 0.62566942630697753 0 0 0 0 136.34797279294071 -137.07981255150025 0 -137.07981255150025 128.10976537935858 0 0 0 0 -16.846901379065457 -0.081841771733934365 0 -0.081841771733934365 7.8409641680627828 0 0 0 0 -6.363971661757347 -3.4941859716288146 0 -3.4941859716288146 -0.60056647540554842 0 0 0 0 -32.550717610973152 -14.292375340762646 0 -14.292375340762646 18.759075022816432 0 0 0 0 -2.1918305822250428 6.3850505355761769 0 6.3850505355761769 8.5865081882343901 0 0 0 0 29.202542533137603 25.732024054387693 0 25.732024054387693 27.78663450800741 0 0 0 0 48.693165359491104 20.454856997339903 0 20.454856997339903 8.611777491320936 0 0 0 0 16.775746008712304 13.364290739575608 0 13.364290739575608 21.656741798327403 0 0 0 0 72.459840813522533 39.359448077462957 0 39.359448077462957 83.729386617146702 0 0 0 0 1.7622636709661634 0.93025417948054923 0 0.93025417948054923 0.78109623994283517 0 0 0 0 76.810295555529592 -133.86092587259736 0 -133.86092587259736 18.831769924178843 0 0 0 0 -38.387951657507074 -25.511371429015526 0 -25.511371429015526 183.29742048547632 0 0 0 0 -119.90799439164402 124.61871462342924 0 124.61871462342924 245.87479588462884 0 0 0 0 186.25978925735399 -75.981258162894619 0 -75.981258162894619 -108.07512389090516 0 0 0 0 -7.5338452048054023 62.249592991493728 0 62.249592991493728 -6.6926800608152917 0 0 0 0 15.229509820538652 20.648192429257108 0 20.648192429257108 8.5906664436303757 0 0 0 0 24.874041782626591 61.303130606693799 0 61.303130606693799 -13.736023556242515 0 0 0 0 -13.290632581973114 28.344995596224578 0 28.344995596224578 10.012782621359861 0 0 0 0 9.2877072751271896 3.2782571199756561 0 3.2782571199756561 0.038573253061676027 0 0 0 0 15.43574835359022 21.877023932443755 0 21.877023932443755 10.347467307294457 0 0 0 0 -53.931140084867366 83.917949531730628 0 83.917949531730628 10.453716282122599 0 0 0 0 74.812856492360879 53.458214828817972 0 53.458214828817972 -111.46397631671255 0 0 0 0 -43.713142196953413 33.492266887044593 0 33.492266887044593 -13.254410252272692 0 0 0 0 -181.34183086590201 59.768356572788434 0 59.768356572788434 31.447865970757448 0 0 0 0 9.3289221215506544 5.359835871070004 0 5.359835871070004 -0.27275803447989455 0 0 0 0 116.48707594707957 48.794930342540567 0 48.794930342540567 -27.979796357301552 0 0 0 0 2.0849190544049634 97.919752801185666 0 97.919752801185666 17.928932795723085 0 0 0 0 48.550659219625231 8.9265380440356239 0 8.9265380440356239 -16.103942378287456 0 0 0 0 165.82185751345423 145.68348331774939 0 145.68348331774939 77.303409721570233 0 0 0 0 -18.949726384686073 31.546577688098068 0 31.546577688098068 29.691039425048643 0 0 0 0 16.42514346504322 65.779090483492155 0 65.779090483492155 -39.788845501566811 0 0 0 0 -55.017615796459722 105.56957081098898 0 105.56957081098898 -25.857708469527097 0 0 0 0 -31.528071777731384 29.967433189077497 0 29.967433189077497 45.29243799166602 0 0 0 0 6.3409402607558434 18.011872918242581 0 18.011872918242581 10.50853802570764 0 0 0 0 26.627035941717622 13.853345462550067 0 13.853345462550067 9.410394849556269 0 0 0 0 2.7988416354659318 8.3297161740502332 0 8.3297161740502332 8.9113010482154245 0 0 0 0 -17.632197943492429 35.278706441031318 0 35.278706441031318 26.170475138844267 0 0 0 0 -37.406362860798254 14.876922462466382 0 14.876922462466382 41.088191342792015 0 0 0 0 18.390926356838463 56.486983653498555 0 56.486983653498555 51.244309888609678 0 0 0 0 -10.243896527479592 19.863409373283844 0 19.863409373283844 50.498719771657306 0 0 0 0 -8.3832866598809233 9.2611527208792381 0 9.2611527208792381 52.2027932693818 0 0 0 0 -8.8137294054697577 -0.65662005303910576 0 -0.65662005303910576 -11.740154689392512 0 0 0 0 38.966249105047609 8.8230850845773148 0 8.8230850845773148 3.5492532602443134 0 0 0 0 95.702680091788352 50.771959472184733 0 50.771959472184733 -14.797143416620202 0 0 0 0 13.809205137635523 19.7154497304019 0 19.7154497304019 10.345655042668103 0 0 0 0 17.497889385233066 18.532351337091541 0 18.532351337091541 11.547544438901696 0 0 0 0 442.43996616009099 -88.584317844207519 0 -88.584317844207519 153.40749185555762 0 0 0 0 305.29634674147383 -94.455410601043695 0 -94.455410601043695 245.32103088510303 0 0 0 0 487.80201649964874 58.666037236498823 0 58.666037236498823 107.32292422983278 0 0 0 0 0.8520099477115739 1.3950135336284859 0 1.3950135336284859 0.6358433303170008 0 0 0 0 449.64957611364662 78.412928592004619 0 78.412928592004619 180.72069410562835 0 0 0 0 125.5571513543473 -96.961866252261416 0 -96.961866252261416 152.53030811853205 0 0 0 0 119.54640424305762 -2.5024273298382873 0 -2.5024273298382873 40.265236576909274 0 0 0 0 384.06111172920464 -130.50678048996525 0 -130.50678048996525 -29.12104794930292 0 0 0 0 217.36020178723993 -145.89424479043697 0 -145.89424479043697 151.2129913128903 0 0 0 0 200.76137447119982 -98.284681053109068 0 -98.284681053109068 52.644791017025369 0 0 0 0 314.62268544659128 -79.006232898250175 0 -79.006232898250175 93.008846591668544 0 0 0 0 112.95589778343856 -66.13240928737946 0 -66.13240928737946 105.98151107708009 0 0 0 0 98.241190563472628 -26.492298189793473 0 -26.492298189793473 17.366141688964319 0 0 0 0 53.718755624053301 34.697341734464999 0 34.697341734464999 -21.92606738512211 0 0 0 0 38.016766860991993 32.138495720811108 0 32.138495720811108 28.476501132491421 0 0 0 0 124.48626538093231 -9.41079274453881 0 -9.41079274453881 7.5335796496465264 0 0 0 0 179.42305254379608 -43.512872822189081 0 -43.512872822189081 -22.70152867895888 0 0 0 0 90.231733832231839 -22.110073520655703 0 -22.110073520655703 38.528349227213198 0 0 0 0 364.18555492020459 -112.50679512366889 0 -112.50679512366889 0.22257128697657436 0 0 0 0 199.85697507658688 -128.54097967802409 0 -128.54097967802409 80.191533305658311 0 0 0 0 143.55790446625542 -92.5678403990471 0 -92.5678403990471 36.521229136930856 0 0 0 0 235.41968553667539 -136.75971548260532 0 -136.75971548260532 56.854526978080003 0 0 0 0 286.56944482265681 -92.810454740689693 0 -92.810454740689693 -7.9517952866831365 0 0 0 0 231.85416948947386 -77.863780992213009 0 -77.863780992213009 4.022600825352356 0 0 0 0 295.68570912306313 -43.586518631225985 0 -43.586518631225985 -53.363737272213029 0 0 0 0 353.31077647153325 -37.627232575956612 0 -37.627232575956612 -18.076563660942156 0 0 0 0 337.27321377629414 -119.77591948806884 0 -119.77591948806884 53.614276269674519 0 0 0 0 313.4337508356366 -141.82279379181813 0 -141.82279379181813 52.930302526140395 0 0 0 0 343.81099071639983 -163.40601287674008 0 -163.40601287674008 181.48980010541447 0 0 0 0 253.1229081516849 -137.18574312942974 0 -137.18574312942974 -73.976258110207255 0 0 0 0 353.25392527318036 -11.171142165663866 0 -11.171142165663866 -46.239955085696238 0 0 0 0 230.76873343316038 -42.881076634328338 0 -42.881076634328338 -52.199606539007164 0 0 0 0 138.11323666243334 -6.2602111114622403 0 -6.2602111114622403 87.089039459151991 0 0 0 0 -150.56623175168897 -113.64348811792763 0 -113.64348811792763 75.700902655149321 0 0 0 0 137.86228788992594 2.8010627864935032 0 2.8010627864935032 -85.9551112160093 0 0 0 0 187.98980262503574 -154.95973750669248 0 -154.95973750669248 73.422786724953539 0 0 0 0 750.79388504427516 215.66350660337582 0 215.66350660337582 -51.254007973003354 0 0 0 0 2.4863580712941697 -2.0488909289505486 0 -2.0488909289505486 2.6291089834408581 0 0 0 0 413.42971766028859 41.427719222919848 0 41.427719222919848 20.535017878442432 0 0 0 0 308.55997901261071 115.7715320601958 0 115.7715320601958 19.762893296586753 0 0 0 0 249.11936530721869 50.410533339791755 0 50.410533339791755 -13.535266429418243 0 0 0 0 154.0677234833347 100.32193751652926 0 100.32193751652926 66.007315986073323 0 0 0 0 419.16469922979741 216.9474029565547 0 216.9474029565547 62.731195550892153 0 0 0 0 535.40621140105941 382.58958040171433 0 382.58958040171433 23.870128363955054 0 0 0 0 649.03129368183909 -115.25809951252563 0 -115.25809951252563 36.749801799850502 0 0 0 0 -0.12319722084127704 -6.742659770599694 0 -6.742659770599694 7.6505102782316721 0 0 0 0 -265.34845725890409 -19.658901407105532 0 -19.658901407105532 -18.16650522062173 0 0 0 0 85.553703381068772 -158.5416300606289 0 -158.5416300606289 -61.655695844863317 0 0 0 0 380.25469647810314 1.911854963137614 0 1.911854963137614 2.3386788711206918 0 0 0 0 171.06710908944206 132.19338436746898 0 132.19338436746898 -187.71359424881757 0 0 0 0 408.98785773712007 -121.30850200912573 0 -121.30850200912573 -106.01393644323161 0 0 0 0 402.38810432034006 -69.345539894765807 0 -69.345539894765807 -82.399879677803256 0 0 0 0 57.637310639380303 390.29654449678969 0 390.29654449678969 -434.64082228760162 0 0 0 0 1131.1195007713395 -102.96681984433872 0 -102.96681984433872 -853.20392292109409 0 0 0 0 531.17303304581219 -469.74325583557038 0 -469.74325583557038 149.84074744906866 0 0 0 0 366.11122630009777 -126.76565566476484 0 -126.76565566476484 -164.77932012226393 0 0 0 0 212.77736341107084 -76.412360385481861 0 -76.412360385481861 57.022979528589133 0 0 0 0 311.2851848145765 -70.570126456506159 0 -70.570126456506159 -118.68345539281336 0 0 0 0 -1.5830457083785276 -0.11740105379161037 0 -0.11740105379161037 2.5541054729226271 0 0 0 0 -36.02603451765026 -122.76076537637732 0 -122.76076537637732 -59.965985614778219 0 0 0 0 547.87518104168885 159.21320253014028 0 159.21320253014028 -22.322739174215712 0 0 0 0 24.086453377347425 44.047266527269585 0 44.047266527269585 23.243292428230234 0 0 0 0 -17.572449177896488 12.076989182281636 0 12.076989182281636 65.363867278677958 0 0 0 0 -1.8846383625476459 23.507550157218468 0 23.507550157218468 14.841959168761104 0 0 0 0 35.784834200771002 41.91229747011846 0 41.91229747011846 4.1999598212444198 0 0 0 0 61.775638805327617 64.660307078100232 0 64.660307078100232 20.670634391464318 0 0 0 0 26.526259871461662 53.942954766479943 0 53.942954766479943 23.640503112039255 0 0 0 0 28.610469951810956 50.855052431255899 0 50.855052431255899 24.452423552713299 0 0 0 0 35.385158571356442 57.360413085470555 0 57.360413085470555 24.003449913091572 0 0 0 0 44.931149199714127 75.332177871251019 0 75.332177871251019 40.22020984291612 0 0 0 0 1.8670661603136978 28.472625402459926 0 28.472625402459926 19.076695585126799 0 0 0 0 8.7141310827682901 23.07463724568106 0 23.07463724568106 -6.160904086797018 0 0 0 0 10.319177163364657 38.091048395427151 0 38.091048395427151 15.545781183280269 0 0 0 0 20.055430207037716 59.522872143498262 0 59.522872143498262 32.398854099777054 0 0 0 0 135.72630135974396 53.454309374912782 0 53.454309374912782 -24.746939726361688 0 0 0 0 28.613195894322416 28.444598506291925 0 28.444598506291925 19.898006588171029 0 0 0 0 -25.153149975289125 62.261775205402955 0 62.261775205402955 4.3240355729321891 0 0 0 0 -7.1894723482066034 -3.1964644654871606 0 -3.1964644654871606 3.9092375518844102 0 0 0 0 -287.3241659004234 10.004129889164787 0 10.004129889164787 154.90085628783322 0 0 0 0 39.998447478545131 -82.571628857330097 0 -82.571628857330097 -107.08606546039005 0 0 0 0 -0.84649530429124553 1.71401155433567 0 1.71401155433567 0.67775805615917672 0 0 0 0 402.35215761546351 -259.56712031589564 0 -259.56712031589564 161.51235656447341 0 0 0 0 122.55741353720805 96.557367577967398 0 96.557367577967398 6.8140239879439832 0 0 0 0 -0.62207374890567735 -71.135908602383779 0 -71.135908602383779 141.75984248681505 0 0 0 0 208.29796500005796 158.3160107736087 0 158.3160107736087 -1.8782706613851587 0 0 0 0 -0.14496294781091024 0.73288935891180529 0 0.73288935891180529 0.54530517047576854 0 0 0 0 -35.904538896022132 90.208589224967227 0 90.208589224967227 37.517539933909575 0 0 0 0 -323.14528526397044 -41.639946083807104 0 -41.639946083807104 134.45527878797611 0 0 0 0 13.753789720944496 -57.401001574850667 0 -57.401001574850667 14.000516433978646 0 0 0 0 37.630709733304684 -36.56982346010227 0 -36.56982346010227 16.556055244016306 0 0 0 0 27.230432676205965 29.441695924999237 0 29.441695924999237 85.590681422810576 0 0 0 0 289.38288281963833 -38.022135864537631 0 -38.022135864537631 5.3001171882508515 0 0 0 0 52.124140163425182 39.870673578547439 0 39.870673578547439 39.386357852951733 0 0 0 0 126.6991839921684 -29.442854799056022 0 -29.442854799056022 -52.816611448218282 0 0 0 0 176.69119237445921 60.571964920898267 0 60.571964920898267 62.224494233886162 0 0 0 0 11.574268177981139 3.5238838623956781 0 3.5238838623956781 -41.466614969585635 0 0 0 0 58.335994711478179 33.327572168072514 0 33.327572168072514 -10.879971594514529 0 0 0 0 10.705774562454877 5.2060169047308982 0 5.2060169047308982 2.0701731441250155 0 0 0 0 -73.207282429943007 -30.434739852398479 0 -30.434739852398479 38.528508141908787 0 0 0 0 -3.9876754436762525 23.75217733661507 0 23.75217733661507 7.3951155323398039 0 0 0 0 57.345687714519954 2.6748295785880032 0 2.6748295785880032 -67.511489902688595 0 0 0 0 40.002668218836334 23.230418201517352 0 23.230418201517352 11.187204047462444 0 0 0 0 -1.2550496327786504 -0.41770133481912808 0 -0.41770133481912808 2.1876123489640946 0 0 0 0 177.56890129434032 194.7683585239547 0 194.7683585239547 81.897876585803928 0 0 0 0 113.37769708390624 94.048996479106393 0 94.048996479106393 -37.006509856541584 0 0 0 0 13.59622140693682 76.955516219758692 0 76.955516219758692 75.142602668471483 0 0 0 0 100.09949597148989 -10.061947675488284 0 -10.061947675488284 -268.88241975524386 0 0 0 0 31.083311146699174 -5.9015477178342213 0 -5.9015477178342213 0.33431654476458317 0 0 0 0 20.451336947135133 -52.522794900765689 0 -52.522794900765689 -10.633652375966335 0 0 0 0 -67.600428152569293 24.399189004161855 0 24.399189004161855 -24.848506760804241 0 0 0 0 97.049195835068531 0.80939651075698293 0 0.80939651075698293 -30.697285954014774 0 0 0 0 15.040639281796757 71.941972856833672 0 71.941972856833672 21.47707840049884 0 0 0 0 130.68474036341649 81.586261220089568 0 81.586261220089568 4.4820131397088971 0 0 0 0 153.83144216303481 35.196151988735892 0 35.196151988735892 -76.88555306336491 0 0 0 0 57.525884005750413 114.08962042704832 0 114.08962042704832 4.7922403380315473 0 0 0 0 74.229369127428072 88.19559288770597 0 88.19559288770597 24.551706081200791 0 0 0 0 60.099758152788127 70.656258554749115 0 70.656258554749115 2.7951991350203116 0 0 0 0 114.60250470873143 87.281476437085189 0 87.281476437085189 21.133657534973338 0 0 0 0 89.985316111165957 70.18234020849377 0 70.18234020849377 21.456703323984357 0 0 0 0 199.14780083442383 24.396128483132685 0 24.396128483132685 -29.579971090560321 0 0 0 0 183.83384847636989 134.698553637543 0 134.698553637543 54.161314143859727 0 0 0 0 105.53111122059272 78.629712588731763 0 78.629712588731763 22.819219877603018 0 0 0 0 43.458076141523634 72.115190789534608 0 72.115190789534608 59.435876119553313 0 0 0 0 60.162719671367086 70.729002042838147 0 70.729002042838147 24.202923633858774 0 0 0 0 36.452227397858223 51.742319630303882 0 51.742319630303882 31.780360218730266 0 0 0 0 93.939652465694962 96.670099664128202 0 96.670099664128202 39.211910733251898 0 0 0 0 285.71846445787014 140.27077057001179 0 140.27077057001179 -11.545738742492176 0 0 0 0 260.89944717627077 88.71152482642492 0 88.71152482642492 -33.270805301900509 0 0 0 0 233.66817186084518 68.122941377686118 0 68.122941377686118 -40.241262806603515 0 0 0 0 443.26212104122533 90.121817825039329 0 90.121817825039329 -131.29791342658905 0 0 0 0 330.83354161174793 5.2942663247487758 0 5.2942663247487758 -175.60176011862262 0 0 0 0 412.69444244098122 103.76198592923151 0 103.76198592923151 -130.97187185755638 0 0 0 0 541.17317470838498 385.25803468355701 0 385.25803468355701 19.52170749151815 0 0 0 0 729.08137076847925 21.094153899168475 0 21.094153899168475 -193.47231577097375 0 0 0 0 227.03663926309491 -202.06344774671396 0 -202.06344774671396 -245.33088663523321 0 0 0 0 -36.131919779425516 496.85181793071786 0 496.85181793071786 627.17100082569891 0 0 0 0 10.909444830826644 -1.3248989235441915 0 -1.3248989235441915 0.22199001452498124 0 0 0 0 841.1184716374737 -357.45598818162682 0 -357.45598818162682 -505.47344299402562 0 0 0 0 -227.50130552848714 193.09107204642413 0 193.09107204642413 372.35579024019893 0 0 0 0 -343.94588104408103 -221.92038677670013 0 -221.92038677670013 39.506751315745106 0 0 0 0 223.69729433747125 228.56232837177049 0 228.56232837177049 -416.87295664182693 0 0 0 0 61.533463548728051 -25.846805300154614 0 -25.846805300154614 9.218871061246956 0 0 0 0 775.47547697894333 6.0573919015478168 0 6.0573919015478168 -462.66272587102139 0 0 0 0 171.7808310077744 215.29724584034648 0 215.29724584034648 270.16457663023903 0 0 0 0 294.4378901100572 -298.82486376813358 0 -298.82486376813358 -454.52723543048126 0 0 0 0 631.00074568852142 110.1422268752176 0 110.1422268752176 -532.36834329264821 0 0 0 0 -86.680479923448729 -346.094917926493 0 -346.094917926493 -339.3953288744334 0 0 0 0 4.739451585104689 -76.498957328869096 0 -76.498957328869096 -205.45165833451574 0 0 0 0 -59.620199639943166 -94.502604881559478 0 -94.502604881559478 -78.847381971645518 0 0 0 0 123.76937932893634 75.611376388474355 0 75.611376388474355 -30.411507123465299 0 0 0 0 71.235245337076776 136.84393738981242 0 136.84393738981242 -79.120689588146888 0 0 0 0 16.83646257871041 1.8298420406973364 0 1.8298420406973364 -4.7864610287423925 0 0 0 0 19.858530178207729 4.8857820578939481 0 4.8857820578939481 -9.7311008310675788 0 0 0 0 20.009743588077981 7.9296331942941833 0 7.9296331942941833 -2.5413408390222685 0 0 0 0 -6.8219962057337398 217.46490978022393 0 217.46490978022393 -62.06065362546542 0 0 0 0 3.6561375778749579 1.628557159212491 0 1.628557159212491 -2.3422324302345761 0 0 0 0 157.23744707650621 195.83024792931519 0 195.83024792931519 -77.524916767439208 0 0 0 0 15.472228803831968 -100.97589748310747 0 -100.97589748310747 70.510376980616456 0 0 0 0 -282.71993548942555 -45.573195477746594 0 -45.573195477746594 71.989437644176633 0 0 0 0 -62.248878384962154 -171.73899400965718 0 -171.73899400965718 -103.09070182565574 0 0 0 0 111.29985923001368 -45.225641910388276 0 -45.225641910388276 -109.31123969910294 0 0 0 0 -65.342239611847617 -165.00814478293319 0 -165.00814478293319 -116.9119352969858 0 0 0 0 48.742845601326025 -19.477984604802494 0 -19.477984604802494 6.2527517081667146 0 0 0 0 33.636931846987864 9.9387990894281302 0 9.9387990894281302 -3.0713614092246644 0 0 0 0 8.6235498369857737 5.7577542474728034 0 5.7577542474728034 -9.0512149442931342 0 0 0 0 -154.0902130464965 -148.96230525897988 0 -148.96230525897988 -109.05865006800445 0 0 0 0 6.5892057303927523 0.052113451260929367 0 0.052113451260929367 -3.9797781540114903 0 0 0 0 -315.50869195668929 -128.29827951306203 0 -128.29827951306203 -42.004430896339272 0 0 0 0 32.967490778872161 -1.9227136718438942 0 -1.9227136718438942 -2.3577825582128753 0 0 0 0 -34.988295275637938 -178.83142393056369 0 -178.83142393056369 -110.81444304731042 0 0 0 0 83.584625427771243 -168.40294855080083 0 -168.40294855080083 -126.78411458650862 0 0 0 0 -26.88204906003557 -140.12823631024838 0 -140.12823631024838 -97.612748023092081 0 0 0 0 -26.672242689051018 -119.6281623433085 0 -119.6281623433085 -28.771046758722605 0 0 0 0 164.44181488395407 -67.939294137019715 0 -67.939294137019715 -99.672680584749287 0 0 0 0 9.2618131578374232 -237.58989501648611 0 -237.58989501648611 -231.0147953641399 0 0 0 0 -240.86017876235564 -236.88333004419565 0 -236.88333004419565 -83.744794738570135 0 0 0 0 352.26802005171703 160.87996490459028 0 160.87996490459028 -92.770065452430345 0 0 0 0 362.56609554991155 66.202670840373685 0 66.202670840373685 -86.445007792406983 0 0 0 0 110.15331614316165 34.738668777562225 0 34.738668777562225 -81.928919545030112 0 0 0 0 97.013877827605029 -23.870802178066924 0 -23.870802178066924 -54.924313508825435 0 0 0 0 176.44212351997703 -30.895505002122945 0 -30.895505002122945 -107.45632441563328 0 0 0 0 339.80835060501704 18.219065872031479 0 18.219065872031479 -58.079955778504882 0 0 0 0 175.74706074835194 -59.659167072486298 0 -59.659167072486298 -64.382420799396186 0 0 0 0 351.23784123982841 74.948154385760063 0 74.948154385760063 -79.089303349460806 0 0 0 0 540.02558982680421 86.529460498242315 0 86.529460498242315 -78.607840871564207 0 0 0 0 371.82308035923415 -44.682184698805031 0 -44.682184698805031 53.261506843280586 0 0 0 0 355.76176832662532 20.338088697862986 0 20.338088697862986 92.167009266978312 0 0 0 0 398.7718935903049 -140.93934847490823 0 -140.93934847490823 106.65860293991045 0 0 0 0 139.71051229850491 -77.703919870751406 0 -77.703919870751406 91.713361956900371 0 0 0 0 39.543049045183579 13.884666246346569 0 13.884666246346569 394.53056457667344 0 0 0 0 902.7901751681602 -244.619734101831 0 -244.619734101831 220.17721583721595 0 0 0 0 -8.2311473508380004 11.099390146353471 0 11.099390146353471 153.3342930144193 0 0 0 0 -122.70690685852605 51.775236101901555 0 51.775236101901555 -156.50694426875577 0 0 0 0 -39.453449399159581 -131.35896276134986 0 -131.35896276134986 142.74662822059418 0 0 0 0 38.947130530272261 -63.15810392153935 0 -63.15810392153935 434.56615617519219 0 0 0 0 42.425631033273021 -81.260726331418937 0 -81.260726331418937 274.74323557323805 0 0 0 0 59.174283129825199 49.640872406193012 0 49.640872406193012 341.05737695833341 0 0 0 0 21.623356829572003 -133.6765724351917 0 -133.6765724351917 366.41089036657286 0 0 0 0 -3.7062764695947408 -83.317875026305501 0 -83.317875026305501 282.470520081014 0 0 0 0 -160.49880004432634 -165.08647251974958 0 -165.08647251974958 266.21900126485525 0 0 0 0 3.7606802936825261 54.70497059506306 0 54.70497059506306 605.97613092906613 0 0 0 0 -13.752025570453043 -30.029899308451377 0 -30.029899308451377 305.60953812601292 0 0 0 0 9.5380223438132816 5.3975926871579247 0 5.3975926871579247 -4.0802367360537914 0 0 0 0 29.378516456370562 14.090282611120529 0 14.090282611120529 425.29729554093683 0 0 0 0 39.582815894539849 -3.5281795482509608 0 -3.5281795482509608 0.41467298369625194 0 0 0 0 66.596818176316447 -70.539201668811984 0 -70.539201668811984 399.77944775579635 0 0 0 0 52.829508534010529 224.22438460482454 0 224.22438460482454 487.58539741572804 0 0 0 0 179.60125734497205 151.26047971015845 0 151.26047971015845 23.188137735475721 0 0 0 0 143.47743989907394 305.87982713772635 0 305.87982713772635 205.94138881665003 0 0 0 0 168.62268370152537 228.91540944115556 0 228.91540944115556 111.77220918302646 0 0 0 0 155.66432296988933 116.09866370730424 0 116.09866370730424 220.72609428137093 0 0 0 0 499.37661659916557 569.86378177247298 0 569.86378177247298 920.35406882719667 0 0 0 0 189.23276674439694 -231.45681334313485 0 -231.45681334313485 776.56470908245592 0 0 0 0 13.259538964503975 -0.24085201346403906 0 -0.24085201346403906 1.3957875900500794 0 0 0 0 47.313359395989664 43.081382859473763 0 43.081382859473763 425.0372307666803 0 0 0 0 183.4938604654235 -171.64346004935715 0 -171.64346004935715 268.20343773160994 0 0 0 0 977.69108193732245 -492.67405017460032 0 -492.67405017460032 388.46558434220151 0 0 0 0 46.235682407561399 -86.827607526823385 0 -86.827607526823385 949.92764897312372 0 0 0 0 -1.3443478690278425 -172.79505227281015 0 -172.79505227281015 434.30735151180033 0 0 0 0 47.99774023284408 -11.84441656896206 0 -11.84441656896206 230.71799422319464 0 0 0 0 118.77936925605718 -364.53673031877224 0 -364.53673031877224 272.74711811179532 0 0 0 0 251.9974012794155 -174.28525770402121 0 -174.28525770402121 12.115353251099805 0 0 0 0 -3.7166737127299712 -141.34608134643713 0 -141.34608134643713 236.86070300151215 0 0 0 0 95.434035918460722 -258.74965033659191 0 -258.74965033659191 221.32943281095868 0 0 0 0 44.510908028449194 -121.47196355597043 0 -121.47196355597043 167.97488149490709 0 0 0 0 128.2343222847885 -140.40093355375348 0 -140.40093355375348 150.16843144385257 0 0 0 0 -2.4865942509586176 -2.4640097978612951 0 -2.4640097978612951 -1.4720293327251071 0 0 0 0 3.3352458197477972 -12.969027550163446 0 -12.969027550163446 11.251656943952185 0 0 0 0 35.956835064869665 -114.09055276713912 0 -114.09055276713912 164.50638304539825 0 0 0 0 5.6609647267323453 9.189147185503316 0 9.189147185503316 38.707474565114808 0 0 0 0 19.126435582362319 -2.8766938030844358 0 -2.8766938030844358 48.317203298809545 0 0 0 0 15.432945943297341 75.499576639623299 0 75.499576639623299 235.60944731917516 0 0 0 0 8.3359208611186659 49.266516280850539 0 49.266516280850539 107.41162209228241 0 0 0 0 12.72874769063128 28.01744698806624 0 28.01744698806624 24.530115158349417 0 0 0 0 93.600606846208393 82.037471695544355 0 82.037471695544355 53.555880425638406 0 0 0 0 89.732046711554631 90.601993302274309 0 90.601993302274309 86.728422475934622 0 0 0 0 207.39599218513467 135.88960511602954 0 135.88960511602954 97.491099520742409 0 0 0 0 208.06816580997838 152.80469502792494 0 152.80469502792494 153.89798866410479 0 0 0 0 427.98424501100089 232.88453164789939 0 232.88453164789939 48.08476177635157 0 0 0 0 718.55544603674753 431.39925320896515 0 431.39925320896515 302.04042102146559 0 0 0 0 -0.48145616822588977 -0.91050399714655761 0 -0.91050399714655761 -0.43751974452944609 0 0 0 0 -84.319178771362203 -435.28108745098439 0 -435.28108745098439 1151.7939453693934 0 0 0 0 3982.9027572294435 -1464.4464782675136 0 -1464.4464782675136 589.32111086185807 0 0 0 0 19.01745177827037 8.7882493596298108 0 8.7882493596298108 6.5287361495331577 0 0 0 0 441.70527081025284 518.39694854579204 0 518.39694854579204 2432.5374046627257 0 0 0 0 4427.439284236134 -806.70471791525949 0 -806.70471791525949 1017.4493116345398 0 0 0 0 3590.0018715460683 -762.73640723246717 0 -762.73640723246717 1017.8827198572395 0 0 0 0 2550.6656867495694 -2194.2404998932761 0 -2194.2404998932761 1357.2331213408445 0 0 0 0 1.0881470213000597 4.4947660071376889 0 4.4947660071376889 3.9316204218475166 0 0 0 0 2981.576639513074 -748.94940036452022 0 -748.94940036452022 -432.28610657020556 0 0 0 0 3500.1505344360849 -1305.2773174573422 0 -1305.2773174573422 59.936729304072536 0 0 0 0 996.32351974596168 -302.68915718468219 0 -302.68915718468219 -43.720046371811549 0 0 0 0 1058.6935458349653 -1353.0076777329382 0 -1353.0076777329382 1024.5556792264981 0 0 0 0 32.022737082505621 9.012003807038484 0 9.012003807038484 0.45411940517002858 0 0 0 0 -81.361683858787728 3.6905009511881417 0 3.6905009511881417 -18.472073761098727 0 0 0 0 -94.571330304694129 -15.322618413376404 0 -15.322618413376404 184.2958627394446 0 0 0 0 191.78210792327991 90.059338097488876 0 90.059338097488876 -81.808957784557379 0 0 0 0 24.147046283876989 2.3451854359282152 0 2.3451854359282152 37.363455413836022 0 0 0 0 208.11623074151794 86.702431114604565 0 86.702431114604565 -60.288330564943635 0 0 0 0 33.61765033496966 13.837539898694818 0 13.837539898694818 3.0219906681212567 0 0 0 0 3.1806005104764239 6.8737417950683106 0 6.8737417950683106 0.99875709413961999 0 0 0 0 195.34597551435354 54.709248789717549 0 54.709248789717549 -42.199381773796631 0 0 0 0 44.005884209201611 11.553093889910478 0 11.553093889910478 -1.4268092897148472 0 0 0 0 -3.7562711243394915 -8.8799783657195803 0 -8.8799783657195803 -17.402611348602477 0 0 0 0 49.970365274804863 16.36556792503211 0 16.36556792503211 -14.338064870898506 0 0 0 0 18.006848843454193 -8.2804899098154205 0 -8.2804899098154205 -17.949467702019451 0 0 0 0 250.78073144893096 513.7737470479708 0 513.7737470479708 470.71892718446907 0 0 0 0 57.179518780867511 361.86737467184321 0 361.86737467184321 519.7831838399461 0 0 0 0 475.06080936469789 40.152793283677511 0 40.152793283677511 -48.40151494613383 0 0 0 0 929.04925152416763 372.25143335209032 0 372.25143335209032 177.41574226675129 0 0 0 0 1.2655875367054961 0.90273599864993237 0 0.90273599864993237 -2.4456932723585769 0 0 0 0 -2.8406023525076307 -95.831514547958704 0 -95.831514547958704 220.47712718329183 0 0 0 0 25.722777901972087 16.774507673287232 0 16.774507673287232 6.5076225556126204 0 0 0 0 -110.13389921380258 -35.471056103393494 0 -35.471056103393494 230.38463201829927 0 0 0 0 -107.18109857518544 56.993543434195246 0 56.993543434195246 760.01596982769206 0 0 0 0 -311.26121125198915 320.63125053665908 0 320.63125053665908 824.01559048122272 0 0 0 0 -326.04548327664997 236.83481144973643 0 236.83481144973643 898.61593029901451 0 0 0 0 -322.64497977405335 276.98705564252691 0 276.98705564252691 789.29087311292687 0 0 0 0 -223.89506562982569 295.98583353474214 0 295.98583353474214 791.65167071127689 0 0 0 0 -269.36157366663929 332.22683115431619 0 332.22683115431619 628.7179200596961 0 0 0 0 969.64622395227229 675.73611036103966 0 675.73611036103966 319.25103408932864 0 0 0 0 0.85324799193175505 0.30768557605032942 0 0.30768557605032942 1.802252097758716 0 0 0 0 -275.96882798440606 133.91971586451473 0 133.91971586451473 252.06464788802623 0 0 0 0 -318.04884017337827 642.95718399852331 0 642.95718399852331 956.42546466267868 0 0 0 0 615.87789363388129 767.19757138146315 0 767.19757138146315 595.86465768382732 0 0 0 0 414.02646407362317 934.05657173292911 0 934.05657173292911 832.29177636589884 0 0 0 0 10.110636734123428 9.1458617992846101 0 9.1458617992846101 6.4533460844217867 0 0 0 0 908.52311673077133 84.594963568017647 0 84.594963568017647 -463.0024725635144 0 0 0 0 -166.52330619812369 807.33113976061713 0 807.33113976061713 257.44312444403567 0 0 0 0 -772.86607443876528 657.92151019318533 0 657.92151019318533 793.7904722871599 0 0 0 0 -26.846550283151373 259.48665834663927 0 259.48665834663927 -661.31797575427208 0 0 0 0 -9.5385944525241939 1273.0908918921641 0 1273.0908918921641 -808.16947542591356 0 0 0 0 -776.83026940699892 -79.093807793680071 0 -79.093807793680071 510.26561365644676 0 0 0 0 1373.3310844962707 187.83214458244765 0 187.83214458244765 -197.69651485704264 0 0 0 0 55.666069944456467 770.47040901593255 0 770.47040901593255 827.20251937277635 0 0 0 0 -211.35393726099392 71.261852751724746 0 71.261852751724746 882.75175947087791 0 0 0 0 474.77610230631535 719.250601664025 0 719.250601664025 1429.2656986646061 0 0 0 0 4112.8059913942307 1287.283216924156 0 1287.283216924156 262.23924819306256 0 0 0 0 3501.3865599462188 94.802650040854331 0 94.802650040854331 3704.9512570959901 0 0 0 0 2236.9505890418659 1804.30918009066 0 1804.30918009066 2112.2350864355312 0 0 0 0 642.40328840075927 503.50542684886261 0 503.50542684886261 1144.1036866398008 0 0 0 0 2216.7588846514973 1073.392727129828 0 1073.392727129828 280.91320573072954 0 0 0 0 3500.259111867168 356.76295488341651 0 356.76295488341651 -1105.8100352021249 0 0 0 0 2382.2340908744145 295.50016299869782 0 295.50016299869782 -119.1888929793288 0 0 0 0 2370.8335470750371 -384.93662604780513 0 -384.93662604780513 -934.92655487473053 0 0 0 0 -293.60136475082072 242.77779526292466 0 242.77779526292466 -66.451285201730116 0 0 0 0 -515.94499100817256 -107.19377178100555 0 -107.19377178100555 422.90034955535657 0 0 0 0 710.33718926361439 661.87754455359595 0 661.87754455359595 611.19383895372152 0 0 0 0 105.40845890127071 1471.5401256372356 0 1471.5401256372356 961.07889141818714 0 0 0 0 14.766757484476454 9.7442727943106409 0 9.7442727943106409 5.7239164320181786 0 0 0 0 4270.9285501761551 392.0060122821825 0 392.0060122821825 -698.51724959033777 0 0 0 0 3500.356554846448 569.62079013220307 0 569.62079013220307 2062.5279934139853 0 0 0 0 2279.0475795475941 2041.4687200503101 0 2041.4687200503101 756.26304824664044 0 0 0 0 3969.2825892277001 1327.8727449622149 0 1327.8727449622149 -142.85765922489117 0 0 0 0 2219.7784204365207 947.19925959715647 0 947.19925959715647 -138.6099785248868 0 0 0 0 462.22744015594975 898.66919148289321 0 898.66919148289321 566.15262220113391 0 0 0 0 975.26095637471417 524.38133503352185 0 524.38133503352185 335.31936587376913 0 0 0 0 2132.7788823718156 1169.0951999941433 0 1169.0951999941433 449.45434078432481 0 0 0 0 1566.2609087895444 674.53490791964487 0 674.53490791964487 327.52875697210504 0 0 0 0 2435.1226073293337 278.05236340732495 0 278.05236340732495 -331.44722987949638 0 0 0 0 3498.6102505995073 854.60990228366927 0 854.60990228366927 -406.50943349121161 0 0 0 0 288.47601789649093 113.82591147801514 0 113.82591147801514 455.93326037808231 0 0 0 0 452.77474444912741 143.55133854734464 0 143.55133854734464 379.26790259261395 0 0 0 0 437.91504393079208 253.76762187759499 0 253.76762187759499 505.2521534133632 0 0 0 0 1100.2950538965442 228.48914370699794 0 228.48914370699794 281.44292240126254 0 0 0 0 993.69861229368337 466.72426892626203 0 466.72426892626203 503.61674837811768 0 0 0 0 115.2037250981324 227.47140891398953 0 227.47140891398953 610.93803196566864 0 0 0 0 269.19638250283379 18.898851373591384 0 18.898851373591384 431.44280693421337 0 0 0 0 338.75763913703463 -146.04485335583797 0 -146.04485335583797 -167.02487162929083 0 0 0 0 393.4104759510418 67.935426927274762 0 67.935426927274762 180.53800437469317 0 0 0 0 51.731421797280063 88.271232467002619 0 88.271232467002619 179.43165704442816 0 0 0 0 26.117641782593598 18.70919294309622 0 18.70919294309622 9.9308582159137355 0 0 0 0 299.94923650974181 -102.04483278973089 0 -102.04483278973089 -641.36166300453851 0 0 0 0 -137.12666298730096 626.26007227716752 0 626.26007227716752 -703.12857138018285 0 0 0 0 698.69809993805916 181.0588411642666 0 181.0588411642666 -255.18407932359662 0 0 0 0 132.26564612848063 -175.04263940876353 0 -175.04263940876353 -405.60863489025269 0 0 0 0 695.89567906909815 203.05436060404509 0 203.05436060404509 -393.22231231632168 0 0 0 0 746.61681175993681 362.18764854579899 0 362.18764854579899 -34.127900401062163 0 0 0 0 -99.555229789041277 94.418378732616588 0 94.418378732616588 -28.88541850226602 0 0 0 0 -1.8331342863592095 4.3577945214638198 0 4.3577945214638198 -2.0677888869927585 0 0 0 0 888.88526517049195 261.79016936311234 0 261.79016936311234 102.89678646307766 0 0 0 0 -0.21801087933920105 1.4555287055760493 0 1.4555287055760493 -0.87817534621348958 0 0 0 0 -476.0130183557676 29.198535357206481 0 29.198535357206481 172.9858399024256 0 0 0 0 587.09781088593627 63.772341041893924 0 63.772341041893924 6.4606782724912932 0 0 0 0 521.98408194049352 104.33661523077365 0 104.33661523077365 161.99194594242135 0 0 0 0 349.6948095489106 -3.4542677421208055 0 -3.4542677421208055 178.41997491230865 0 0 0 0 472.95705379622791 174.20616588589201 0 174.20616588589201 263.88149451391951 0 0 0 0 192.76320035420349 212.67920485914743 0 212.67920485914743 352.60623602837239 0 0 0 0 162.10575196599279 172.28993287208115 0 172.28993287208115 369.78904660101387 0 0 0 0 252.09737167116373 168.29352486227299 0 168.29352486227299 369.83261605619089 0 0 0 0 301.59888380144952 175.21751067082496 0 175.21751067082496 350.0395165796441 0 0 0 0 545.06040154615494 61.730522922838873 0 61.730522922838873 280.85837130357311 0 0 0 0 270.03856206797172 68.554619121841597 0 68.554619121841597 295.46453985775725 0 0 0 0 745.10619319647776 246.54613181101831 0 246.54613181101831 238.55616444060774 0 0 0 0 292.12660634784652 124.47302069866021 0 124.47302069866021 431.91965764647557 0 0 0 0 443.34111925960224 174.48367877084797 0 174.48367877084797 -13.178533012054913 0 0 0 0 391.76128246257633 -227.17289784355012 0 -227.17289784355012 218.38598434629739 0 0 0 0 260.53735627423339 -15.538530372480636 0 -15.538530372480636 218.89314155349598 0 0 0 0 112.90323313318731 329.79668589919288 0 329.79668589919288 166.07212846146115 0 0 0 0 29.25412722319561 164.54407392988821 0 164.54407392988821 -2.4706125148256888 0 0 0 0 65.496437528668025 59.557787797764774 0 59.557787797764774 -6.1864044684516557 0 0 0 0 197.71376305857962 -276.88368559835448 0 -276.88368559835448 -242.31652725770573 0 0 0 0 65.152026032230424 130.28651295060718 0 130.28651295060718 -80.797855085618494 0 0 0 0 94.501406730702911 93.003123930523998 0 93.003123930523998 112.45016660047088 0 0 0 0 153.99451670540111 45.370921094262712 0 45.370921094262712 -40.800191154194408 0 0 0 0 21.964162280108667 28.484381371215704 0 28.484381371215704 69.483896675919652 0 0 0 0 19.963279727536559 54.78012099756544 0 54.78012099756544 52.846182438462847 0 0 0 0 -8.4251127371881012 -2.0459872631531653 0 -2.0459872631531653 1.9279747094450386 0 0 0 0 -1.758242369011759 0.92552949621719716 0 0.92552949621719716 -0.74311215710014755 0 0 0 0 25.708598388300288 22.538166261209881 0 22.538166261209881 -203.70948621652872 0 0 0 0 5.8739210238852593 43.888235191128047 0 43.888235191128047 -5.8497680427128671 0 0 0 0 1130.3413441698567 468.06055342242576 0 468.06055342242576 -315.26660349915471 0 0 0 0 23.114103379126391 19.405259804488651 0 19.405259804488651 -1.9634109453181736 0 0 0 0 -836.80034115927401 688.60001872211114 0 688.60001872211114 1729.9459080960855 0 0 0 0 2.7621563761278036 6.6505270129938463 0 6.6505270129938463 -5.0060143444642744 0 0 0 0 274.97369416944002 -115.17774001730686 0 -115.17774001730686 -84.257359555113908 0 0 0 0 0.43777988801652645 2.8284176840469826 0 2.8284176840469826 -1.6051775266352912 0 0 0 0 2115.6133002738106 1628.7520521176884 0 1628.7520521176884 156.57438431164564 0 0 0 0 -229.62551482715344 13.921841289937561 0 13.921841289937561 -65.057777348205491 0 0 0 0 48.381572415813935 4.5304145888462699 0 4.5304145888462699 11.069184763797921 0 0 0 0 10.857280580688894 7.5531504108816989 0 7.5531504108816989 -10.545059532850019 0 0 0 0 31.522662064585084 4.28072615174462 0 4.28072615174462 -11.459224389953985 0 0 0 0 29.111231299235289 8.6602487654758864 0 8.6602487654758864 -11.82505080335255 0 0 0 0 13.082187370953783 13.217026487303466 0 13.217026487303466 -14.150818901267137 0 0 0 0 329.87447824033825 80.51364035316692 0 80.51364035316692 -79.928961991446158 0 0 0 0 0.27728306927614454 7.0126773258941624 0 7.0126773258941624 -3.5914465989168987 0 0 0 0 22.137405735023549 25.665763315903973 0 25.665763315903973 -41.049994441338754 0 0 0 0 15.998212743194927 63.184797833416098 0 63.184797833416098 -26.479210036780216 0 0 0 0 30.721506084337307 3.3248204937140144 0 3.3248204937140144 -2.588271885574386 0 0 0 0 33.112280866723928 4.9873071973821013 0 4.9873071973821013 -3.489814033052963 0 0 0 0 43.143973029087647 15.346774907302233 0 15.346774907302233 -34.127711031184617 0 0 0 0 48.572548433713564 5.7891566767759741 0 5.7891566767759741 -24.153476530710122 0 0 0 0 33.533839162468212 13.931357440721513 0 13.931357440721513 -11.333525342393386 0 0 0 0 8.9806640035621967 29.552465085057975 0 29.552465085057975 -7.6386619448253441 0 0 0 0 8.1402022031073376 1.7789884691812983 0 1.7789884691812983 -1.0366148615727546 0 0 0 0 49.619219412469192 3.0352303290603686 0 3.0352303290603686 -24.861947212171344 0 0 0 0 16.279827664786438 4.6682655492857892 0 4.6682655492857892 -10.499371649019594 0 0 0 0 52.442916749711003 8.6524273296799947 0 8.6524273296799947 -41.090244386474296 0 0 0 0 51.062887562013202 4.6103531234314232 0 4.6103531234314232 -24.414261263647063 0 0 0 0 54.938975371795095 67.302568453542335 0 67.302568453542335 -56.327551873888297 0 0 0 0 68.642820635054704 -12.378613309015464 0 -12.378613309015464 -13.00218982691058 0 0 0 0 9.9071990721127818 0.054506796138252156 0 0.054506796138252156 -0.49123697047985537 0 0 0 0 23.749175462689891 -0.91483998315379722 0 -0.91483998315379722 -6.3369294281428665 0 0 0 0 52.792843725792409 -11.009110002254488 0 -11.009110002254488 1.1042319433005758 0 0 0 0 42.974691669731328 -14.412298989112571 0 -14.412298989112571 -11.779811670177878 0 0 0 0 10.930631224562017 -0.20761048869225007 0 -0.20761048869225007 -3.259491157597906 0 0 0 0 11.838910011544746 6.5707725076912595 0 6.5707725076912595 0.15262078484062958 0 0 0 0 27.085281924063835 8.9505814678137483 0 8.9505814678137483 -9.5751690963649843 0 0 0 0 -273.82459140142601 -20.550995257047362 0 -20.550995257047362 175.10333895584336 0 0 0 0 29.500627601762272 4.411442488970259 0 4.411442488970259 -7.520856924751568 0 0 0 0 8.2315147254412295 -8.9754326297626221 0 -8.9754326297626221 -6.8952191089489929 0 0 0 0 26.737535673849237 4.9483748129257874 0 4.9483748129257874 -0.54947599358166299 0 0 0 0 75.250619836864644 -19.561261331610353 0 -19.561261331610353 -122.86175866290587 0 0 0 0 29.04257907567262 -1.0502103371308635 0 -1.0502103371308635 -24.423251245417077 0 0 0 0 0.89985061281547729 -2.3238290411582185 0 -2.3238290411582185 -2.0454540050665027 0 0 0 0 -21.7433327094368 -96.158429649581905 0 -96.158429649581905 -53.943263020998586 0 0 0 0 42.240381337811414 -19.363749745764721 0 -19.363749745764721 -3.0048366276773777 0 0 0 0 42.586952656908949 -49.460317163752713 0 -49.460317163752713 -23.29920433774987 0 0 0 0 59.038080449025529 -28.242222927428486 0 -28.242222927428486 -192.50893923887747 0 0 0 0 -8.4825411302899738 -47.163108575422029 0 -47.163108575422029 -7.6364903041186381 0 0 0 0 -39.721359540197227 -42.428823436057343 0 -42.428823436057343 -1.2904299220958819 0 0 0 0 64.317740963489086 -109.31611513668224 0 -109.31611513668224 -54.478490420288153 0 0 0 0 15.462039497533624 75.255232512913267 0 75.255232512913267 1.4690134903871694 0 0 0 0 67.911084802388814 77.858937428011387 0 77.858937428011387 -113.1875133860807 0 0 0 0 4.9608152444852749 14.509456483814859 0 14.509456483814859 -42.895454975811617 0 0 0 0 28.13933882577269 -2.2338422427028348 0 -2.2338422427028348 -4.1725623907925105 0 0 0 0 28.940858401939295 -6.6608096572430213 0 -6.6608096572430213 -40.374019425728392 0 0 0 0 22.059404932071338 6.2123243896198108 0 6.2123243896198108 -1.8206091043651591 0 0 0 0 12.770054592327142 20.275382206207382 0 20.275382206207382 -9.4720998205766591 0 0 0 0 12.196602819084045 0.25751559154592929 0 0.25751559154592929 0.45600346547382775 0 0 0 0 61.839632260768838 330.50839527580035 0 330.50839527580035 421.72361183469138 0 0 0 0 168.63606156529949 -295.82125197053369 0 -295.82125197053369 246.5771515798815 0 0 0 0 27.450395325548925 -133.97489422696674 0 -133.97489422696674 61.926094582034239 0 0 0 0 127.63471723922703 -18.814173514721006 0 -18.814173514721006 -180.78458093896549 0 0 0 0 34.218031556677573 1.1356759111710564 0 1.1356759111710564 -2.4621894431061859 0 0 0 0 50.593177884805073 14.451439981050513 0 14.451439981050513 -59.471724166009153 0 0 0 0 158.8497946617772 -93.321432147132484 0 -93.321432147132484 -40.948519808742176 0 0 0 0 148.80779674732003 226.74322517253063 0 226.74322517253063 -34.920552550122011 0 0 0 0 431.09486252931129 128.44092405112724 0 128.44092405112724 -338.64158830974065 0 0 0 0 1.2560917445419228 -3.1658387351563517 0 -3.1658387351563517 -0.86306337511715436 0 0 0 0 -133.707754652125 319.37132432811757 0 319.37132432811757 130.30336925818744 0 0 0 0 115.18345521941228 223.50207049576466 0 223.50207049576466 139.77590183547213 0 0 0 0 79.092444293387189 197.63837680473819 0 197.63837680473819 189.40778792520859 0 0 0 0 76.299058323748341 222.27857125666281 0 222.27857125666281 295.83660061957596 0 0 0 0 140.11459436014775 340.59891191659329 0 340.59891191659329 50.999893613424547 0 0 0 0 142.73715966783084 368.10819261020322 0 368.10819261020322 255.65812191254747 0 0 0 0 263.40440775594425 363.61649992323032 0 363.61649992323032 109.17718285190813 0 0 0 0 461.84265105114287 429.30914109647824 0 429.30914109647824 90.537336656586376 0 0 0 0 249.64069647671477 174.64753924249089 0 174.64753924249089 -211.1644957901317 0 0 0 0 71.038446826252454 -1007.4052411099317 0 -1007.4052411099317 305.25766051557059 0 0 0 0 31.068971327547985 -37.918011290143298 0 -37.918011290143298 8.1425887812757303 0 0 0 0 84.017780259335268 -66.67787704788185 0 -66.67787704788185 -50.525218113253914 0 0 0 0 30.320953233569753 -7.5977854754836756 0 -7.5977854754836756 -3.0931984175434746 0 0 0 0 -55.132396184108075 -86.344041980895327 0 -86.344041980895327 16.642741537441907 0 0 0 0 -140.36525500032803 -36.021818391486704 0 -36.021818391486704 8.9363456177152329 0 0 0 0 28.597999709818712 7.8866576407367752 0 7.8866576407367752 11.633409069347328 0 0 0 0 586.53531613348389 802.80381962397598 0 802.80381962397598 -187.92618037563804 0 0 0 0 381.49513046419167 -334.39073285132986 0 -334.39073285132986 2.7170106874458426 0 0 0 0 37.051084808999434 -50.40122861879378 0 -50.40122861879378 5.308005477154186 0 0 0 0 132.71151743200471 -2.9443042147651113 0 -2.9443042147651113 -9.5304941287540714 0 0 0 0 136.6527342780264 7.4918763491320988 0 7.4918763491320988 2.1020272495425161 0 0 0 0 114.41013000391831 -8.0479779089414478 0 -8.0479779089414478 -6.3177706972724081 0 0 0 0 63.975718529056394 3.1127786558095067 0 3.1127786558095067 27.760184938214934 0 0 0 0 52.436193291327072 41.165513410124959 0 41.165513410124959 -13.387072428616648 0 0 0 0 9.151263642092589 11.19785545384123 0 11.19785545384123 6.5758237336572432 0 0 0 0 422.3842153039559 -107.66337746655825 0 -107.66337746655825 -59.570426562001671 0 0 0 0 360.0130389942592 -75.23392632488401 0 -75.23392632488401 73.889316512819278 0 0 0 0 327.1235067442426 -199.0322334937519 0 -199.0322334937519 -122.01247935246872 0 0 0 0 372.95872402892724 -121.24022141085005 0 -121.24022141085005 -42.751191302236265 0 0 0 0 258.27659053715979 -260.00737290582407 0 -260.00737290582407 55.981946607915894 0 0 0 0 146.39804580917098 -136.57904620620965 0 -136.57904620620965 -42.434355575793575 0 0 0 0 318.42835379845155 -257.40974237155666 0 -257.40974237155666 -90.781385111183624 0 0 0 0 105.21989090208353 7.5033296646434451 0 7.5033296646434451 -4.7438028764248088 0 0 0 0 208.2495466153141 -87.060382685554345 0 -87.060382685554345 -45.99213469779383 0 0 0 0 249.7205850069754 -32.433753993916241 0 -32.433753993916241 8.1975325983945595 0 0 0 0 313.43915083519914 20.233506433955995 0 20.233506433955995 -8.9341591731433709 0 0 0 0 308.09866288288595 171.63613669849531 0 171.63613669849531 138.50264889117045 0 0 0 0 -0.009554043248112265 0.21156158205046782 0 0.21156158205046782 -0.24563183933914812 0 0 0 0 456.67487097985031 -22.425242832857975 0 -22.425242832857975 5.9792744442223977 0 0 0 0 515.57958632145437 -365.02230405686453 0 -365.02230405686453 109.35979207304847 0 0 0 0 495.59380884247821 -52.479243784974756 0 -52.479243784974756 -77.276717244264091 0 0 0 0 8.2240940442793615 6.5441136574643437 0 6.5441136574643437 2.6436823386339352 0 0 0 0 -20.348052302954784 1.3075613114592102 0 1.3075613114592102 10.35148977553672 0 0 0 0 -41.054843551397198 81.558707531600731 0 81.558707531600731 -44.292182278887594 0 0 0 0 69.260086863365359 -33.953808469467276 0 -33.953808469467276 -134.54399590445735 0 0 0 0 -84.125701580672285 318.14280869456809 0 318.14280869456809 103.66703280329193 0 0 0 0 1098.6361981942568 -356.21547781720159 0 -356.21547781720159 113.48477420651534 0 0 0 0 2.8516875493243425 1.9990228896214308 0 1.9990228896214308 1.1628423940866952 0 0 0 0 399.21674172682106 391.12003835762903 0 391.12003835762903 102.5336186115793 0 0 0 0 405.72429669345365 -65.41187641198394 0 -65.41187641198394 44.060083513561835 0 0 0 0 -24.81671261150268 -84.359908485953881 0 -84.359908485953881 44.857610339902294 0 0 0 0 123.97690218464868 -179.79446499540541 0 -179.79446499540541 140.91094181596122 0 0 0 0 -96.480262179420606 -160.37090712113854 0 -160.37090712113854 148.18302208366413 0 0 0 0 565.72686778473769 183.10484547548987 0 183.10484547548987 317.81069463206586 0 0 0 0 132.6046912925367 -131.1366458707223 0 -131.1366458707223 110.96735969160841 0 0 0 0 217.9076419261346 20.609627014424404 0 20.609627014424404 -35.711454609141356 0 0 0 0 32.651008609229393 1.7273520441417531 0 1.7273520441417531 -56.125526197484533 0 0 0 0 -18.972726631797741 -120.58495205105498 0 -120.58495205105498 192.38083383156868 0 0 0 0 115.05536211009166 0.26513668971938387 0 0.26513668971938387 157.8938343461283 0 0 0 0 180.2136687387665 -44.660738607082294 0 -44.660738607082294 -15.251654682349397 0 0 0 0 219.4886918436132 -29.144097377599167 0 -29.144097377599167 -13.161100488680859 0 0 0 0 73.12800531130398 -82.278594194691934 0 -82.278594194691934 13.451004663424101 0 0 0 0 66.39783288117178 34.312660292313012 0 34.312660292313012 -30.720048082760741 0 0 0 0 44.286400961573236 -21.877841381907729 0 -21.877841381907729 -5.223337538162923 0 0 0 0 128.59504167692356 -46.232302036539167 0 -46.232302036539167 43.379824171944165 0 0 0 0 130.02662031592263 -3.5242693484358369 0 -3.5242693484358369 -43.477007009415502 0 0 0 0 244.64394871028981 -89.973702424083967 0 -89.973702424083967 4.4554714536106985 0 0 0 0 132.40704550176304 -42.498463257369337 0 -42.498463257369337 110.50221121538289 0 0 0 0 136.00367257517246 -4.2817045869328467 0 -4.2817045869328467 -26.63660324743023 0 0 0 0 -21.036520696447557 -10.664379149040316 0 -10.664379149040316 10.415345504488387 0 0 0 0 128.26810804624239 -126.44444174730543 0 -126.44444174730543 49.070063335641862 0 0 0 0 258.96005984103726 -2.7041128632544655 0 -2.7041128632544655 -8.6841152686502028 0 0 0 0 37.27804167134309 -68.877604292774777 0 -68.877604292774777 -14.984377843550874 0 0 0 0 38.858284191763232 -114.5597146576315 0 -114.5597146576315 -38.45368572101961 0 0 0 0 45.588505833935088 -30.994676865576601 0 -30.994676865576601 6.0182326500978558 0 0 0 0 27.593171595459353 -25.948758829790677 0 -25.948758829790677 7.958190879261565 0 0 0 0 202.74133190835391 -71.861705818414293 0 -71.861705818414293 -5.4530071919307375 0 0 0 0 61.668602706756246 -52.605957919030743 0 -52.605957919030743 5.7209033317658395 0 0 0 0 27.527284871427391 -20.976395876123163 0 -20.976395876123163 9.0954169184037355 0 0 0 0 19.673216074031188 -57.10210534934663 0 -57.10210534934663 100.98823631113351 0 0 0 0 3.0993810777361048 -1.9473414695113966 0 -1.9473414695113966 2.8196005449826189 0 0 0 0 36.622312983034135 61.499502848900192 0 61.499502848900192 209.30975492877511 0 0 0 0 48.751391276990034 -24.490445969372558 0 -24.490445969372558 7.9362210952517103 0 0 0 0 23.708859200351153 -20.817421532348462 0 -20.817421532348462 12.068918682558845 0 0 0 0 64.637730041411942 -24.994533159557648 0 -24.994533159557648 37.068000458520828 0 0 0 0 8.5652895258161319 -3.1516731400856433 0 -3.1516731400856433 -3.4415579984266307 0 0 0 0 32.600619932963127 21.700918634011941 0 21.700918634011941 123.88777795966462 0 0 0 0 56.06798029442416 34.673548960935307 0 34.673548960935307 130.39653543496115 0 0 0 0 60.081259654548603 38.355649923904281 0 38.355649923904281 28.354832962036198 0 0 0 0 104.65552706058315 109.28265437264145 0 109.28265437264145 139.01816810701712 0 0 0 0 95.113793585629537 54.139139020235689 0 54.139139020235689 0.22913315935136325 0 0 0 0 106.18879382437444 -52.837388666749121 0 -52.837388666749121 77.170904195089406 0 0 0 0 27.197180849198624 12.498695075807795 0 12.498695075807795 -11.89764957690295 0 0 0 0 244.44115873477494 -66.433853947324621 0 -66.433853947324621 0.24792019783490105 0 0 0 0 153.80248222868522 -19.569886916030782 0 -19.569886916030782 29.719258706905748 0 0 0 0 86.157946591078144 11.899715614379147 0 11.899715614379147 51.229055156224376 0 0 0 0 88.886474774402814 6.6852873645875661 0 6.6852873645875661 30.718835400785821 0 0 0 0 54.724899313242176 -12.595776594165143 0 -12.595776594165143 2.2271384984739862 0 0 0 0 56.900498124192154 -20.971125360555789 0 -20.971125360555789 -3.6260720986688284 0 0 0 0 72.303921524142794 -17.392966041714839 0 -17.392966041714839 1.3099290904572385 0 0 0 0 263.91437743313327 -19.255939983716416 0 -19.255939983716416 -60.745418623713704 0 0 0 0 142.89959535303933 -26.302340701484354 0 -26.302340701484354 -66.045660198356927 0 0 0 0 205.88558694910716 -55.323745904467842 0 -55.323745904467842 -63.439861554802519 0 0 0 0 139.96597437680612 -70.695289385294018 0 -70.695289385294018 -81.45166226439278 0 0 0 0 71.189553794691165 -30.896228125590369 0 -30.896228125590369 -40.055099960776261 0 0 0 0 179.98767051476534 -87.520721271301227 0 -87.520721271301227 -18.73006922053446 0 0 0 0 227.96884342105477 -14.315123392450005 0 -14.315123392450005 -40.296522642945774 0 0 0 0 0.60890411269224654 1.1050872654522479 0 1.1050872654522479 0.15524667207532516 0 0 0 0 284.34325360826597 -58.324783726950614 0 -58.324783726950614 -1.9110385911321828 0 0 0 0 156.00463285485603 -92.718138854096878 0 -92.718138854096878 -1.8196990025785453 0 0 0 0 214.67814561746127 -5.3992293597571006 0 -5.3992293597571006 2.2728330110760453 0 0 0 0 114.73513259186439 -39.568594658888287 0 -39.568594658888287 40.011761905456297 0 0 0 0 57.335621821694076 -66.90388746341705 0 -66.90388746341705 23.879104543721951 0 0 0 0 104.1422805949569 -93.93220428541639 0 -93.93220428541639 -16.180070486775548 0 0 0 0 -17.455499948668148 -110.46492548705692 0 -110.46492548705692 7.5686157699874457 0 0 0 0 43.841224738893573 -52.399705204355854 0 -52.399705204355854 10.522374173107753 0 0 0 0 47.771970679903461 -96.574858044204348 0 -96.574858044204348 -20.049501440206086 0 0 0 0 -4.7196713671837642 -59.401927049926144 0 -59.401927049926144 20.249173391758632 0 0 0 0 90.797151973189102 -105.56444752852656 0 -105.56444752852656 -4.2274354245028007 0 0 0 0 26.302573978879082 -85.329428656337541 0 -85.329428656337541 30.895419471908326 0 0 0 0 116.24029479693399 -56.065205223954194 0 -56.065205223954194 30.548839180933101 0 0 0 0 -58.110428690401022 -103.00003246467577 0 -103.00003246467577 27.8053893896913 0 0 0 0 25.298257703110721 -71.909031289804716 0 -71.909031289804716 -1.5200033335906937 0 0 0 0 11.772074789958424 -40.474429015541773 0 -40.474429015541773 -23.167677158701707 0 0 0 0 -75.519242189799115 -122.55321607314067 0 -122.55321607314067 3.8079845626120914 0 0 0 0 133.60307673754141 -81.619583762837692 0 -81.619583762837692 13.350376667426303 0 0 0 0 11.623046043347131 -48.401150436619901 0 -48.401150436619901 93.500404667628572 0 0 0 0 270.90077300856501 -87.576365636866853 0 -87.576365636866853 24.413460672512429 0 0 0 0 132.32926290787373 -68.325038233769021 0 -68.325038233769021 27.292895015997601 0 0 0 0 297.0910622447409 -132.53517321348249 0 -132.53517321348249 45.612732604932489 0 0 0 0 337.61651938206705 -23.717890544848274 0 -23.717890544848274 -17.840402741716389 0 0 0 0 336.43438014593266 -36.876291404434596 0 -36.876291404434596 -29.497164824020274 0 0 0 0 277.18840584829377 -5.936604911823224 0 -5.936604911823224 -4.2342932852802733 0 0 0 0 0.94148569939844151 1.4426769089728353 0 1.4426769089728353 0.96468809736636274 0 0 0 0 223.27489495789632 -99.454223172836464 0 -99.454223172836464 6.1085057742955087 0 0 0 0 349.89180330443196 144.233084431424 0 144.233084431424 46.691105830619584 0 0 0 0 274.92911793470194 -209.54099357449047 0 -209.54099357449047 227.0515221696009 0 0 0 0 4.0961456868651283 -1.7347538100601751 0 -1.7347538100601751 0.20496353548829199 0 0 0 0 547.3988390101149 -167.91744121279032 0 -167.91744121279032 133.26764810835851 0 0 0 0 390.04300180878272 -60.7630733924534 0 -60.7630733924534 423.74753261866078 0 0 0 0 517.38813407136331 123.80362832548951 0 123.80362832548951 308.88928363659556 0 0 0 0 493.87448464012732 -168.75906759148702 0 -168.75906759148702 146.12883441471581 0 0 0 0 373.35175613110232 -48.626709020538144 0 -48.626709020538144 109.14158574413341 0 0 0 0 405.98607500195794 -34.182896875359233 0 -34.182896875359233 -17.799477983688348 0 0 0 0 376.39541558489691 -125.35964442813415 0 -125.35964442813415 31.47244624875475 0 0 0 0 204.30851063207047 -197.48099628829107 0 -197.48099628829107 232.96531341467852 0 0 0 0 35.840753303604288 -52.133779654809473 0 -52.133779654809473 142.76924570740633 0 0 0 0 261.98830815789552 -65.705413003028184 0 -65.705413003028184 107.69572419482205 0 0 0 0 31.623942926660675 -5.4347484418104557 0 -5.4347484418104557 56.803810501086588 0 0 0 0 12.690675793877745 -5.8049286378308125 0 -5.8049286378308125 36.478930333580138 0 0 0 0 -43.959223696332629 -25.62400152891604 0 -25.62400152891604 46.912034077653743 0 0 0 0 36.49653369268708 1.5859664826167406 0 1.5859664826167406 -37.340964860130327 0 0 0 0 10.559305560003892 -0.89567167253234647 0 -0.89567167253234647 0.44882331045297086 0 0 0 0 8.2334469388024445 -13.82537663098816 0 -13.82537663098816 72.410652276750255 0 0 0 0 9.4146246906566375 -2.0085887853348368 0 -2.0085887853348368 23.527077693899741 0 0 0 0 16.258976655444712 10.54194563047869 0 10.54194563047869 1.1893208794178545 0 0 0 0 25.215920840162653 8.9758946515877369 0 8.9758946515877369 -0.75104598938696654 0 0 0 0 59.659095136730684 32.593044317001329 0 32.593044317001329 9.1385352935150195 0 0 0 0 37.233899957776885 50.008338887137597 0 50.008338887137597 55.156739665576538 0 0 0 0 142.97937062220808 71.520664868837457 0 71.520664868837457 2.3138953096161003 0 0 0 0 147.36910185795205 10.756628118151411 0 10.756628118151411 -17.489146218736551 0 0 0 0 394.96879474554953 36.632392471194635 0 36.632392471194635 -22.312807878449917 0 0 0 0 97.120035306847058 108.07184539507374 0 108.07184539507374 88.939995873730595 0 0 0 0 478.65807777931877 -47.041100367015531 0 -47.041100367015531 10.805475762794458 0 0 0 0 299.57415506263351 -37.62475821782084 0 -37.62475821782084 19.392790382987243 0 0 0 0 292.03434057663981 -66.5355584702736 0 -66.5355584702736 -31.709441816643903 0 0 0 0 247.73513411539898 51.924687972205675 0 51.924687972205675 -20.830817685019099 0 0 0 0 211.95692649189732 -57.876972528303668 0 -57.876972528303668 -38.771145975884792 0 0 0 0 189.39686723655859 37.736273157020406 0 37.736273157020406 -43.676840672722847 0 0 0 0 135.11807126140457 35.188952168962743 0 35.188952168962743 -92.770267838710424 0 0 0 0 129.76443412234585 9.7552661535023617 0 9.7552661535023617 -52.91930733096342 0 0 0 0 122.3455208966443 41.25087602468875 0 41.25087602468875 -83.435252940069859 0 0 0 0 138.93136939299075 -18.222691634185367 0 -18.222691634185367 -57.247300247560588 0 0 0 0 150.98340936762179 -14.252109551208605 0 -14.252109551208605 -72.997788643442163 0 0 0 0 61.019520983136317 7.8607898356922306 0 7.8607898356922306 -47.016893436977625 0 0 0 0 79.154334529834159 -9.2888817074888266 0 -9.2888817074888266 -64.515535135320533 0 0 0 0 85.5491353989255 18.22256518428253 0 18.22256518428253 -47.351484373850781 0 0 0 0 88.816940919088665 1.2554104094142531 0 1.2554104094142531 -25.459439968146398 0 0 0 0 88.078455868209858 4.8939263173886047 0 4.8939263173886047 -41.979191496254316 0 0 0 0 153.35182936109049 -26.30773429168994 0 -26.30773429168994 -22.242150799005913 0 0 0 0 69.671130645110651 12.96611755393667 0 12.96611755393667 -15.16223839975205 0 0 0 0 96.637279461778235 37.14436880260746 0 37.14436880260746 -36.024359651151372 0 0 0 0 66.082356227126581 9.9754328840263327 0 9.9754328840263327 -16.190065192080922 0 0 0 0 70.518105774786818 -18.6199132626748 0 -18.6199132626748 11.791071976096646 0 0 0 0 224.78158585539677 9.8881283661647501 0 9.8881283661647501 -2.5203459940548782 0 0 0 0 72.330418676923728 -17.741754503557786 0 -17.741754503557786 -39.145070838316087 0 0 0 0 18.600696517709011 -1.2455036801067578 0 -1.2455036801067578 0.22464717088896435 0 0 0 0 83.024614189112981 -3.3416779153700418 0 -3.3416779153700418 -1.4894021804921067 0 0 0 0 155.00291245954577 -9.6603393823584156 0 -9.6603393823584156 -8.1138391097758813 0 0 0 0 71.71885398413724 -0.45835978244326725 0 -0.45835978244326725 7.6592521237978417 0 0 0 0 21.578655326080266 -4.4273740455445676 0 -4.4273740455445676 -5.9578531264991206 0 0 0 0 125.40058612803114 -26.678374793604576 0 -26.678374793604576 -7.6855746227749933 0 0 0 0 93.753187148078723 16.302721701539667 0 16.302721701539667 -29.410494481075602 0 0 0 0 18.032712552437467 -3.8567705145711031 0 -3.8567705145711031 -0.093145322413171527 0 0 0 0 72.502663873426727 9.4517249722632286 0 9.4517249722632286 -22.311679974773625 0 0 0 0 84.954392843093729 2.4546018715906968 0 2.4546018715906968 -17.757420662759614 0 0 0 0 87.881208663649886 19.833208393310429 0 19.833208393310429 -62.785215542721062 0 0 0 0 52.74304417723215 67.143446526370667 0 67.143446526370667 -65.010481267788236 0 0 0 0 50.772370891685568 34.45226365497183 0 34.45226365497183 -11.966247344919111 0 0 0 0 60.68576768845378 48.760191861766486 0 48.760191861766486 -36.855052803689432 0 0 0 0 51.527325372047926 16.306594853123954 0 16.306594853123954 -23.47926033723428 0 0 0 0 62.379372523371785 -1.4697975919898454 0 -1.4697975919898454 -17.46635550044175 0 0 0 0 58.211610016373015 -8.8006331036438041 0 -8.8006331036438041 -27.523364217578091 0 0 0 0 68.869020972713329 1.4743448432034825 0 1.4743448432034825 -25.390266628753722 0 0 0 0 85.894760582377785 -32.126232693260135 0 -32.126232693260135 11.527925096002946 0 0 0 0 132.58724815196911 -29.15048283390297 0 -29.15048283390297 3.6556470987825378 0 0 0 0 68.863842691999309 6.3276993143263347 0 6.3276993143263347 -21.760876731645912 0 0 0 0 97.797389822939294 -1.7404041828058325 0 -1.7404041828058325 -23.869086953138321 0 0 0 0 113.29618406784721 -26.253223241106298 0 -26.253223241106298 -13.46628244910039 0 0 0 0 103.07299720442097 -37.910466219986347 0 -37.910466219986347 7.3488354928510944 0 0 0 0 124.54639874733402 -32.796834391686843 0 -32.796834391686843 -2.6664660820929384 0 0 0 0 -0.23552492106912126 2.5375145158873096 0 2.5375145158873096 -0.97607466502340401 0 0 0 0 88.227446866621904 -34.612786418379983 0 -34.612786418379983 12.475557347230279 0 0 0 0 0.82128543102307816 1.382942300612001 0 1.382942300612001 -0.40140403662460677 0 0 0 0 119.84085394666181 -90.020368087790757 0 -90.020368087790757 125.32374027129026 0 0 0 0 146.08556804861655 -76.89274951241714 0 -76.89274951241714 42.359855792726194 0 0 0 0 24.101361177348736 58.194220324239723 0 58.194220324239723 208.48553344965831 0 0 0 0 2.7377903627281484 1.4377646247093381 0 1.4377646247093381 -0.57947061995059279 0 0 0 0 29.742247903093812 -58.291521288033891 0 -58.291521288033891 250.8268814506107 0 0 0 0 78.775652189673565 -121.21369090561211 0 -121.21369090561211 191.64076719284145 0 0 0 0 139.06283728516428 -58.499803239800485 0 -58.499803239800485 5.4010635048061886 0 0 0 0 175.69955124767148 22.001455942711345 0 22.001455942711345 180.10670838646149 0 0 0 0 92.250481299688545 16.75537822901515 0 16.75537822901515 37.97612784316334 0 0 0 0 290.98962386686617 -75.47964867595374 0 -75.47964867595374 26.752403094059446 0 0 0 0 146.39183398527166 -57.358578510304142 0 -57.358578510304142 33.919490569514892 0 0 0 0 115.42025399744125 -36.940540541425662 0 -36.940540541425662 19.090628706775533 0 0 0 0 179.19925245260674 -25.192847921984139 0 -25.192847921984139 -9.1036795988347876 0 0 0 0 129.72591448274761 -3.261319063098199 0 -3.261319063098199 -11.794114205841993 0 0 0 0 25.994251686938206 -5.72506741494675 0 -5.72506741494675 0.48068314257940159 0 0 0 0 122.40061328565207 -13.285760124200351 0 -13.285760124200351 -6.7887004429671833 0 0 0 0 143.8880565319123 -15.245261637551266 0 -15.245261637551266 -6.8830088757749763 0 0 0 0 109.23657238846083 18.763972413410219 0 18.763972413410219 -18.057872296821472 0 0 0 0 105.88563380020059 27.720014793566179 0 27.720014793566179 -37.22996912216513 0 0 0 0 279.39867904600578 -136.72354017810562 0 -136.72354017810562 -225.36190437515825 0 0 0 0 25.599923032778555 20.27994842426677 0 20.27994842426677 -20.179739168734475 0 0 0 0 -18.14458647918218 -148.61334186780323 0 -148.61334186780323 -503.5997269030704 0 0 0 0 62.449390987414517 15.953014189777605 0 15.953014189777605 -217.50555485006407 0 0 0 0 194.34595393271684 -117.27759684637454 0 -117.27759684637454 184.53917511672535 0 0 0 0 251.05544601049405 -232.9175170137014 0 -232.9175170137014 -158.5672822400395 0 0 0 0 93.626518137101812 -139.69761330517485 0 -139.69761330517485 -126.55678890456693 0 0 0 0 357.49418904791673 -372.10075115377231 0 -372.10075115377231 147.20430331623675 0 0 0 0 235.91322683157705 -79.133658851193104 0 -79.133658851193104 -248.66781708953613 0 0 0 0 13.110020928470465 -18.073625600580797 0 -18.073625600580797 -9.3359582273126502 0 0 0 0 213.90125904261731 -122.77541651857337 0 -122.77541651857337 -82.010809614473601 0 0 0 0 20.37321051415438 -13.450123959233451 0 -13.450123959233451 -9.8399878597583665 0 0 0 0 9.9416973879946582 -4.893633335928012 0 -4.893633335928012 -8.5361056273024065 0 0 0 0 24.60887875899477 -34.104656742613088 0 -34.104656742613088 -15.507224233819692 0 0 0 0 61.422866492129288 -17.133397922218393 0 -17.133397922218393 -17.826381786295087 0 0 0 0 55.241437250542731 -89.292954083257882 0 -89.292954083257882 16.754381508933875 0 0 0 0 183.32434656546684 48.023188015497908 0 48.023188015497908 -31.928035021763208 0 0 0 0 -7.7352588716955175 -3.1435338367383423 0 -3.1435338367383423 -1.0198580475990813 0 0 0 0 359.32347859495712 7.5052108509544269 0 7.5052108509544269 34.586252500654155 0 0 0 0 47.249246117677103 -19.754412601231877 0 -19.754412601231877 -16.780880923896291 0 0 0 0 44.509509354324109 -6.9467712670833066 0 -6.9467712670833066 -11.850849309573562 0 0 0 0 22.388801831095407 -16.562307119710088 0 -16.562307119710088 -14.745183191858978 0 0 0 0 45.057518619483744 -15.164917309968878 0 -15.164917309968878 -20.806501205814595 0 0 0 0 41.607888962407742 -19.66642624699929 0 -19.66642624699929 -24.646586521644192 0 0 0 0 14.789568128322983 -7.4770840610426559 0 -7.4770840610426559 -2.5820712879938013 0 0 0 0 -4.4446123797788459 -38.9826894373914 0 -38.9826894373914 18.148072822967535 0 0 0 0 -35.850309990719779 -70.218493332753027 0 -70.218493332753027 7.2666614128879701 0 0 0 0 0.77908356365514919 -44.267738466807714 0 -44.267738466807714 23.03264189726292 0 0 0 0 79.100722976367479 -45.759067044541439 0 -45.759067044541439 -164.4266256962942 0 0 0 0 34.570083609170332 -30.37048235472162 0 -30.37048235472162 -12.082713948721452 0 0 0 0 189.82419800601838 48.149285488730584 0 48.149285488730584 -242.6471680651573 0 0 0 0 -7.1578551504376264 73.193510686300669 0 73.193510686300669 -34.369520896501854 0 0 0 0 91.322046063070957 141.42767126149738 0 141.42767126149738 -142.06623276879418 0 0 0 0 2.9658042138184459 -1.219099602915346 0 -1.219099602915346 4.0298775754308949 0 0 0 0 343.57694532674259 165.24018819005732 0 165.24018819005732 59.190234883359153 0 0 0 0 349.39826076469399 192.40730395365927 0 192.40730395365927 -85.427696229060984 0 0 0 0 299.57952546485967 78.448654439134486 0 78.448654439134486 -14.810073743502926 0 0 0 0 319.62161101584843 200.29459977236502 0 200.29459977236502 167.07202151756746 0 0 0 0 8.3953292808759201 0.80598847516227501 0 0.80598847516227501 0.54777308382552803 0 0 0 0 92.88294852123181 -247.53465909526039 0 -247.53465909526039 458.7846708364259 0 0 0 0 68.771050667971394 -25.301011181103377 0 -25.301011181103377 -9.4079169994101903 0 0 0 0 37.503442396990728 -7.2938593028675349 0 -7.2938593028675349 -8.3870314519576805 0 0 0 0 -93.272481838093881 -11.832268014504962 0 -11.832268014504962 235.11991837101777 0 0 0 0 -103.95429379247253 248.126378242285 0 248.126378242285 -164.32403543624332 0 0 0 0 -175.8928516078231 86.921504850456131 0 86.921504850456131 650.89813912548152 0 0 0 0 433.96204570989266 167.26469062657327 0 167.26469062657327 41.529131126884522 0 0 0 0 373.73076278903864 -193.11545825920689 0 -193.11545825920689 61.197765535796407 0 0 0 0 33.35835273346936 -16.374123232468278 0 -16.374123232468278 34.900608251886752 0 0 0 0 20.399360321002632 -89.799147611119338 0 -89.799147611119338 43.05625530765883 0 0 0 0 -7.7574846164716291 -65.441160692523681 0 -65.441160692523681 10.768702682928733 0 0 0 0 -7.8124729213195678 -34.601592317253335 0 -34.601592317253335 79.724897295359824 0 0 0 0 -100.91703952175703 42.825870786866062 0 42.825870786866062 53.328169974965022 0 0 0 0 -13.082741693433491 -13.710999383251874 0 -13.710999383251874 6.7672497555445261 0 0 0 0 32.53792148229563 13.435118244178607 0 13.435118244178607 6.5732721024815612 0 0 0 0 41.083771258039633 9.0941887515390931 0 9.0941887515390931 6.1401631756943971 0 0 0 0 29.910017852831515 211.98453774493933 0 211.98453774493933 -72.671094398796626 0 0 0 0 9.7864432437836513 14.545220032861607 0 14.545220032861607 12.409986933629625 0 0 0 0 33.386110609411844 23.929782569822237 0 23.929782569822237 11.71109757884426 0 0 0 0 35.843550592037261 2.6214151444395526 0 2.6214151444395526 5.2826906274239214 0 0 0 0 -135.05417797488553 38.256139673329926 0 38.256139673329926 106.10854038621471 0 0 0 0 6.9906374101224742 3.7374197455742788 0 3.7374197455742788 15.581799530157465 0 0 0 0 -53.664528274468466 -43.190123492214383 0 -43.190123492214383 106.2471922460079 0 0 0 0 38.151256779435812 13.373016896291556 0 13.373016896291556 -0.041232141107720111 0 0 0 0 54.517286604939727 -12.921505644891567 0 -12.921505644891567 17.241364580877416 0 0 0 0 6.5681416083943915 -0.65370206319030899 0 -0.65370206319030899 8.3823295282885812 0 0 0 0 -43.152255283110208 78.827682004078952 0 78.827682004078952 -26.610495891881328 0 0 0 0 132.16511093021109 -27.933099667965507 0 -27.933099667965507 -10.985822541191737 0 0 0 0 53.292300218801756 -6.2309557003884493 0 -6.2309557003884493 11.546188441068807 0 0 0 0 81.313724749514222 -29.962580383801196 0 -29.962580383801196 8.9482623221265385 0 0 0 0 53.421186152059818 -15.269685388903781 0 -15.269685388903781 23.632620102431247 0 0 0 0 97.942659888562048 -31.912081430704347 0 -31.912081430704347 22.596263287719921 0 0 0 0 23.714843448593456 -20.648681022815225 0 -20.648681022815225 -30.790624441237512 0 0 0 0 26.753551245303242 -75.362237068760635 0 -75.362237068760635 35.561731677836178 0 0 0 0 -10.482097478033211 -76.84379907767061 0 -76.84379907767061 47.96939803490244 0 0 0 0 48.128626102896305 -36.746609921624213 0 -36.746609921624213 4.5655632686409717 0 0 0 0 -25.150212102856131 -34.389856429410685 0 -34.389856429410685 71.368508550160868 0 0 0 0 -0.49024254234155507 0.63376914202915913 0 0.63376914202915913 2.528926653190485 0 0 0 0 7.1353285950312433 2.6021297170913655 0 2.6021297170913655 21.021743429312853 0 0 0 0 38.907152822408534 8.6143193859043095 0 8.6143193859043095 73.222201680771832 0 0 0 0 148.98360655846773 22.332490165549643 0 22.332490165549643 -240.89930923990323 0 0 0 0 131.7720992529612 5.732501150470398 0 5.732501150470398 15.725151627211744 0 0 0 0 44.045992547755304 2.7721695206018921 0 2.7721695206018921 31.247893892521461 0 0 0 0 56.764054752064112 -15.625377340082196 0 -15.625377340082196 62.203710376540783 0 0 0 0 -108.71364838826776 142.82064271097079 0 142.82064271097079 537.35312643031648 0 0 0 0 16.00894916437295 -5.5731202558914852 0 -5.5731202558914852 -1.2021321765913662 0 0 0 0 59.781651465624236 5.6064154528162362 0 5.6064154528162362 26.829354336512552 0 0 0 0 61.855913277213403 -22.888410068730082 0 -22.888410068730082 22.191252508345087 0 0 0 0 44.602906259700077 -18.638718664495794 0 -18.638718664495794 10.301442008007763 0 0 0 0 92.384782370034372 25.595464783464195 0 25.595464783464195 61.488381432387001 0 0 0 0 67.213346230844763 -3.6542936718210512 0 -3.6542936718210512 31.647109146726507 0 0 0 0 84.842683101174771 15.695316819310392 0 15.695316819310392 31.99545860448157 0 0 0 0 98.994419675203972 -11.566022908612467 0 -11.566022908612467 12.896155163565709 0 0 0 0 83.639666477611172 3.1746121187879908 0 3.1746121187879908 -2.9587057099515732 0 0 0 0 62.669468069791037 19.990492837557042 0 19.990492837557042 0.27165707081803703 0 0 0 0 46.944705365658137 14.524147980072037 0 14.524147980072037 -2.5997775176980369 0 0 0 0 70.616632078090333 -2.601735488495251 0 -2.601735488495251 11.977537126916218 0 0 0 0 62.573031696705584 -7.0709572095533986 0 -7.0709572095533986 9.7556171308242483 0 0 0 0 175.77607188777392 369.61788086717775 0 369.61788086717775 -488.7917343384388 0 0 0 0 56.187299748296113 8.5741935932149254 0 8.5741935932149254 -1.1370131612124688 0 0 0 0 703.94091144392678 40.296855608509873 0 40.296855608509873 -554.24603688250045 0 0 0 0 63.561813203448665 -11.903808165562076 0 -11.903808165562076 3.8198682482625586 0 0 0 0 47.047296256758273 9.9443359291099114 0 9.9443359291099114 2.9707618130214541 0 0 0 0 123.20309654052699 -8.1682386272038912 0 -8.1682386272038912 -2.3430442150329327 0 0 0 0 72.996477577507903 -19.668296210494191 0 -19.668296210494191 14.681251449937008 0 0 0 0 14.344578115526105 0.10686813763557979 0 0.10686813763557979 3.7300426085084588 0 0 0 0 56.312718521935494 -14.985690420245589 0 -14.985690420245589 12.750266600800387 0 0 0 0 74.036116217554081 -27.810417096638503 0 -27.810417096638503 13.324842253996849 0 0 0 0 56.500354515626896 -16.9269811216937 0 -16.9269811216937 19.796981605317342 0 0 0 0 56.266738738922868 -23.57316572096579 0 -23.57316572096579 7.8046794774795671 0 0 0 0 57.798807152583322 -19.845710054649089 0 -19.845710054649089 16.858724885169067 0 0 0 0 134.60170031182497 -42.544952391481274 0 -42.544952391481274 16.227963897491009 0 0 0 0 3.2995774663462072 3.362364627111802 0 3.362364627111802 1.0987433488037013 0 0 0 0 35.358744717334048 -5.7455968366557499 0 -5.7455968366557499 6.2371160284046709 0 0 0 0 71.364412798742705 -20.412658484813164 0 -20.412658484813164 -5.8187635871072416 0 0 0 0 46.11986992504535 -22.277282558073694 0 -22.277282558073694 16.867945669924666 0 0 0 0 46.608338934849598 -31.87140909205209 0 -31.87140909205209 40.328547957827141 0 0 0 0 -111.07235625399699 -87.031085961551867 0 -87.031085961551867 103.88600885022197 0 0 0 0 64.873819348686084 -57.410310740997375 0 -57.410310740997375 42.530823920974967 0 0 0 0 4.5632717162023084 0.23585577797580015 0 0.23585577797580015 1.1684996000297829 0 0 0 0 28.700002826608397 -44.109515466809228 0 -44.109515466809228 116.1140628703406 0 0 0 0 3.6260618215445461 0.25372410596357042 0 0.25372410596357042 -0.057685694067760807 0 0 0 0 44.427955685703637 -16.306366401524883 0 -16.306366401524883 51.311589076070959 0 0 0 0 64.786768446254428 149.08968263057795 0 149.08968263057795 70.8432327900573 0 0 0 0 87.578300821500306 -45.201726861239194 0 -45.201726861239194 11.528092327701188 0 0 0 0 9.6649915073164028 -12.778800166004572 0 -12.778800166004572 3.3396036113806478 0 0 0 0 102.75292625201837 -27.141692506543876 0 -27.141692506543876 5.9680819394437776 0 0 0 0 51.312724000315939 -7.1218973415771529 0 -7.1218973415771529 -1.1514116457288992 0 0 0 0 128.07744222591282 8.4548651464274371 0 8.4548651464274371 6.4930966738406823 0 0 0 0 116.79884346740437 -17.873451836677873 0 -17.873451836677873 -12.499796790283426 0 0 0 0 29.05921401865794 16.157979741074449 0 16.157979741074449 5.878871556764083 0 0 0 0 51.746693156077527 105.30030228903843 0 105.30030228903843 -17.305513913503091 0 0 0 0 61.354267921895371 9.6232643586936888 0 9.6232643586936888 -27.435501312013059 0 0 0 0 117.30526691919476 -30.667958210647065 0 -30.667958210647065 -27.316869185883661 0 0 0 0 3.564396661662613 -13.454197153089353 0 -13.454197153089353 -16.120011817820341 0 0 0 0 31.940547110658372 10.188783747853449 0 10.188783747853449 0.60526557247976598 0 0 0 0 147.28715037700022 0.8324608995676499 0 0.8324608995676499 -73.221164489575585 0 0 0 0 -24.583837687096093 -22.490072077014702 0 -22.490072077014702 2.6154836989308023 0 0 0 0 -4.696537640460491 2.5576094520835042 0 2.5576094520835042 3.9289451175205823 0 0 0 0 102.60520030939369 27.08054223575698 0 27.08054223575698 9.4465413344714761 0 0 0 0 0.59729787360751274 -1.6641929988893054 0 -1.6641929988893054 10.682847826931116 0 0 0 0 31.211800492572365 -1.0087709573608663 0 -1.0087709573608663 13.174744118191029 0 0 0 0 22.670067311217721 17.11085105222466 0 17.11085105222466 8.019999808945558 0 0 0 0 -28.48261105956044 -17.900978904448266 0 -17.900978904448266 11.961788437111863 0 0 0 0 -0.60573534105787985 -3.3444710344774649 0 -3.3444710344774649 14.148905810837277 0 0 0 0 -19.874643184215529 -11.499579340974378 0 -11.499579340974378 11.798466783355252 0 0 0 0 11.501527368293964 3.0142017014392835 0 3.0142017014392835 0.67099859108760995 0 0 0 0 11.081561001991965 -13.711889046611574 0 -13.711889046611574 7.9542642408610735 0 0 0 0 58.875600240280619 -7.1640127732738392 0 -7.1640127732738392 14.661596679577372 0 0 0 0 112.16220084756787 0.20488481694474103 0 0.20488481694474103 5.2775596240044251 0 0 0 0 31.957927122992146 12.727326007344132 0 12.727326007344132 6.1540384646822517 0 0 0 0 47.766367019023164 -6.3991054174830069 0 -6.3991054174830069 16.93237492505466 0 0 0 0 102.22046719887294 11.378894934941172 0 11.378894934941172 6.6180922985852249 0 0 0 0 50.98492454882944 2.2257985749074578 0 2.2257985749074578 4.5504443541221917 0 0 0 0 45.71073109991994 -27.973961211831238 0 -27.973961211831238 -31.211346389751498 0 0 0 0 26.966008124281871 -3.4971683414519106 0 -3.4971683414519106 2.1830691393519146 0 0 0 0 30.693920607431153 3.4244953229819757 0 3.4244953229819757 3.7031508529149981 0 0 0 0 35.483537878834341 -2.5066367261659082 0 -2.5066367261659082 -0.087880556012351008 0 0 0 0 19.209729716900735 0.1789516192897338 0 0.1789516192897338 2.2079220789528717 0 0 0 0 31.001073286750113 -4.633360758307095 0 -4.633360758307095 1.9057389295763607 0 0 0 0 13.869848284166423 4.3393444269208032 0 4.3393444269208032 6.104376171430772 0 0 0 0 11.326344572114539 -2.7919775185488618 0 -2.7919775185488618 13.415395070438491 0 0 0 0 38.75348793133162 -2.4417041852701686 0 -2.4417041852701686 11.062427953173028 0 0 0 0 60.953063816563372 -20.496408061139846 0 -20.496408061139846 12.765899995492873 0 0 0 0 44.197043059211865 -0.58104910165684487 0 -0.58104910165684487 10.832061217914998 0 0 0 0 68.556962240003486 -1.3882408281593825 0 -1.3882408281593825 -18.504200900347541 0 0 0 0 32.209166543907486 -1.5540459705371177 0 -1.5540459705371177 17.444631682483305 0 0 0 0 30.972984924623702 -7.8331479233539163 0 -7.8331479233539163 12.826816965575555 0 0 0 0 44.039105820912823 -13.363525884451676 0 -13.363525884451676 8.7772665426624528 0 0 0 0 108.62163491199317 -41.324012765483985 0 -41.324012765483985 -65.90614223270768 0 0 0 0 -21.992142801333102 -38.735723085118963 0 -38.735723085118963 17.169311482102785 0 0 0 0 10.614691058263032 -0.94334810659099588 0 -0.94334810659099588 -0.22768653629308488 0 0 0 0 20.55664474729565 -19.171913313199866 0 -19.171913313199866 -29.357889081170924 0 0 0 0 20.55664474729565 -19.171913313195773 0 -19.171913313195773 -29.357889081184794 0 0 0 0 20.556644747324754 -19.171913313199184 0 -19.171913313199184 -29.357889081173653 0 0 0 0 44.037334103163403 -2.1301473405477367 0 -2.1301473405477367 7.2905827474314471 0 0 0 0 49.822585794456245 -48.853611925911878 0 -48.853611925911878 -3.1346528878989375 0 0 0 0 67.33096013946124 -14.823163022702531 0 -14.823163022702531 -9.9550755991980395 0 0 0 0 72.806783120147884 -24.616866816305219 0 -24.616866816305219 -27.522946342301111 0 0 0 0 79.41065900776448 -29.808333472513254 0 -29.808333472513254 -38.989132940917443 0 0 0 0 120.93338265381681 31.736655136343984 0 31.736655136343984 -18.111672438700907 0 0 0 0 112.17943854074838 28.602065733627654 0 28.602065733627654 16.73869996869746 0 0 0 0 72.32839975823299 -35.604190933538575 0 -35.604190933538575 -31.800549390537782 0 0 0 0 42.760342715320803 4.3442209414188255 0 4.3442209414188255 5.3216889340537818 0 0 0 0 71.325336456236982 -20.31699154697418 0 -20.31699154697418 -45.397771367456016 0 0 0 0 53.77562517736267 -6.1356366350459162 0 -6.1356366350459162 -5.6788419972257662 0 0 0 0 55.282536250946578 -29.472988256195094 0 -29.472988256195094 -31.612575715072595 0 0 0 0 44.313866823642456 -26.31017489125361 0 -26.31017489125361 -32.778200085241565 0 0 0 0 61.344656471574126 2.5254027090152817 0 2.5254027090152817 -76.140918905258332 0 0 0 0 12.119082696982431 -8.0511304621159034 0 -8.0511304621159034 -6.3974947871734624 0 0 0 0 52.366088244288221 9.2023720711410419 0 9.2023720711410419 38.437600027782082 0 0 0 0 48.384388578742801 -9.5379315880717854 0 -9.5379315880717854 24.126497459488263 0 0 0 0 65.05143512295399 16.877635394281668 0 16.877635394281668 15.187047610658908 0 0 0 0 34.667596675550158 -16.100823790772807 0 -16.100823790772807 5.5211440849848543 0 0 0 0 52.112939208687749 -2.9354861681924547 0 -2.9354861681924547 9.8650719350657425 0 0 0 0 48.05733283139125 -16.205513234995379 0 -16.205513234995379 7.1097386132276199 0 0 0 0 3481.5666360891919 -857.62923958215072 0 -857.62923958215072 -625.12241324803711 0 0 0 0 13.73856450449054 3.6616479543157112 0 3.6616479543157112 -2.5085190126331929 0 0 0 0 60.092526471213205 1.7533893449464131 0 1.7533893449464131 -22.306322110278586 0 0 0 0 14.674219570231173 3.5275630687075008 0 3.5275630687075008 2.9105787363436235 0 0 0 0 26.029511246175389 -27.779314609360028 0 -27.779314609360028 15.724453695892372 0 0 0 0 11.771592329314444 8.0041969385981702 0 8.0041969385981702 58.283987028788488 0 0 0 0 98.384090574225411 49.086774127327885 0 49.086774127327885 50.686459335443544 0 0 0 0 45.313820882463915 29.462992447293857 0 29.462992447293857 46.207050259077278 0 0 0 0 54.476393049306125 -5.7748119890454568 0 -5.7748119890454568 -7.1224514299127453 0 0 0 0 114.31821134242637 11.603504980578805 0 11.603504980578805 -17.031845957679707 0 0 0 0 2.624785477730768 16.542436291365661 0 16.542436291365661 6.8353463969064325 0 0 0 0 2646.6161045511653 893.73799818642044 0 893.73799818642044 175.17785677091427 0 0 0 0 3496.0109987475844 1700.1729639783775 0 1700.1729639783775 583.61925566850459 0 0 0 0 3243.6675436380465 917.16402969050228 0 917.16402969050228 157.25875257353366 0 0 0 0 120.36186189709588 41.64971524836443 0 41.64971524836443 4.3349552357885841 0 0 0 0 -1.738793965371304 9.4230967857508006 0 9.4230967857508006 3.486990102865732 0 0 0 0 2996.5998615613207 719.55001515258846 0 719.55001515258846 151.72539981414391 0 0 0 0 153.33252861625442 42.575658767542677 0 42.575658767542677 -9.0752049999078395 0 0 0 0 3500.4428467224207 806.44533576174808 0 806.44533576174808 -19.624999556097439 0 0 0 0 3268.9990690666418 683.28927481968935 0 683.28927481968935 13.67444723261074 0 0 0 0 2986.3135005733166 527.62034011520211 0 527.62034011520211 -5.4130277426758919 0 0 0 0 2760.2783522944046 -108.77702162152654 0 -108.77702162152654 -530.54366620236829 0 0 0 0 3499.3859730640143 380.8048497911351 0 380.8048497911351 -291.8361873593135 0 0 0 0 2523.2305808878918 547.23633048122224 0 547.23633048122224 -80.612443702543288 0 0 0 0 2921.5702880709905 454.22198361909977 0 454.22198361909977 -80.767539440943963 0 0 0 0 1.2540251640916296 2.9126420457390836 0 2.9126420457390836 0.76310255300982144 0 0 0 0 151.01049115577189 36.085795922304811 0 36.085795922304811 17.418551008166446 0 0 0 0 126.36853215573137 24.362958772638038 0 24.362958772638038 59.273192456565766 0 0 0 0 239.66978387980635 -43.144998224022032 0 -43.144998224022032 10.654290474549869 0 0 0 0 174.7509045376064 8.4976615844869627 0 8.4976615844869627 -6.8758540234210628 0 0 0 0 75.842603106430033 -61.879222599126777 0 -61.879222599126777 10.248531391715261 0 0 0 0 25.615647647426954 -87.932137863394473 0 -87.932137863394473 137.36164459398532 0 0 0 0 41.176486617361661 1.3874769498456203 0 1.3874769498456203 60.563588905758877 0 0 0 0 163.13209585154254 66.993679815931074 0 66.993679815931074 97.785241932900306 0 0 0 0 645.60468019374821 166.92809182160238 0 166.92809182160238 101.98722860643466 0 0 0 0 1087.8326995078241 133.08444634298462 0 133.08444634298462 -56.866726057681035 0 0 0 0 688.94153114039364 -143.17599748284772 0 -143.17599748284772 111.27252520010205 0 0 0 0 65.778868952565972 -82.77324577060773 0 -82.77324577060773 228.77982560487919 0 0 0 0 22.541176385029075 -49.037779527374582 0 -49.037779527374582 229.6174201881048 0 0 0 0 446.84284906919129 149.72419893011724 0 149.72419893011724 -154.13870632468053 0 0 0 0 634.123877569662 -578.58064776230196 0 -578.58064776230196 326.76078654742014 0 0 0 0 2089.8373785317126 -148.3252707997878 0 -148.3252707997878 -239.58568050671801 0 0 0 0 2270.1170988840895 -700.66510352817659 0 -700.66510352817659 -414.68992123079704 0 0 0 0 3498.9335010306886 -209.95658493968295 0 -209.95658493968295 -672.06034108849803 0 0 0 0 1293.1116425432137 -242.37874885521342 0 -242.37874885521342 -35.694796319269358 0 0 0 0 1151.3571085244184 -233.9402207492617 0 -233.9402207492617 -137.87487631113277 0 0 0 0 43.049607036708039 5.3317656612317705 0 5.3317656612317705 -84.161215566846295 0 0 0 0 22.440091042010465 -10.671974326008723 0 -10.671974326008723 2.7241113034665858 0 0 0 0 861.54115063886275 100.96072380352456 0 100.96072380352456 -241.33888035179723 0 0 0 0 1214.8927955070176 129.35173690351183 0 129.35173690351183 -303.4050564505506 0 0 0 0 3496.3483465707104 1307.6059181631852 0 1307.6059181631852 55.990834388385736 0 0 0 0 -19.334370992524782 -266.4513304081861 0 -266.4513304081861 506.42997941279157 0 0 0 0 10.380292227300004 -3.1323008847481333 0 -3.1323008847481333 2.5315765399122592 0 0 0 0 229.73004943739215 73.943220343426773 0 73.943220343426773 -59.430601815023195 0 0 0 0 278.98156572219159 30.801421666499664 0 30.801421666499664 -84.331037370039667 0 0 0 0 48.718347676331177 118.59182633629644 0 118.59182633629644 -140.91151839589656 0 0 0 0 -129.58229202011717 21.530621409182459 0 21.530621409182459 95.425132117012254 0 0 0 0 75.218359216625686 -4.8426489246541564 0 -4.8426489246541564 -0.16116959819220256 0 0 0 0 30.404715253323992 15.093279019792334 0 15.093279019792334 -11.493839391937147 0 0 0 0 78.902158885350218 0.68956509849087411 0 0.68956509849087411 -6.2475042770657865 0 0 0 0 -0.056301763976692065 0.31056537617197932 0 0.31056537617197932 -0.004989409499245312 0 0 0 0 46.217205014589126 30.159588417060604 0 30.159588417060604 -30.181336688684041 0 0 0 0 166.28683525386441 -18.644678028235148 0 -18.644678028235148 -152.39231648874693 0 0 0 0 261.392881669075 48.091120846308058 0 48.091120846308058 -93.343518667003082 0 0 0 0 174.17227418845869 67.074691922665352 0 67.074691922665352 -52.312632058833969 0 0 0 0 157.54034153511748 58.18041478857549 0 58.18041478857549 9.6613277791061591 0 0 0 0 157.05878000870507 13.231570027335692 0 13.231570027335692 -10.100972286355045 0 0 0 0 188.22683229499671 35.710190144793842 0 35.710190144793842 -18.4431587084282 0 0 0 0 224.38638765829091 5.0558836959273776 0 5.0558836959273776 11.107136517151048 0 0 0 0 180.33272585355735 44.927612322827827 0 44.927612322827827 17.021182697906625 0 0 0 0 167.23403855052311 44.965498293282963 0 44.965498293282963 -0.9915969615094582 0 0 0 0 -55.156363229238195 25.59964756309023 0 25.59964756309023 2.1918342860044504 0 0 0 0 -4.1120928613969614 2.3163747723543509 0 2.3163747723543509 0.15364076700006635 0 0 0 0 73.721669288526755 -3.2268690230388302 0 -3.2268690230388302 -2.6560703394243319 0 0 0 0 8.3485324031572929 2.4033188435035697 0 2.4033188435035697 -6.4887509162533785 0 0 0 0 -73.382878895179601 0.5995144914983257 0 0.5995144914983257 -30.652855489449394 0 0 0 0 8.1530752004192024 20.69303246451453 0 20.69303246451453 -8.3964688448407205 0 0 0 0 29.055136143730749 -2.6816374831857956 0 -2.6816374831857956 -7.5584152990962039 0 0 0 0 56.875442237382231 -4.1452602073926528 0 -4.1452602073926528 -8.38055362236625 0 0 0 0 0.83673663964665224 2.4619595168986592 0 2.4619595168986592 1.0739857840671905 0 0 0 0 -26.179407433490269 22.657226684784433 0 22.657226684784433 -4.51637509170709 0 0 0 0 -10.829398544515271 17.568550641461911 0 17.568550641461911 -3.4760752288722991 0 0 0 0 229.49321668422567 14.008393624136737 0 14.008393624136737 6.0207330953326164 0 0 0 0 199.50019120861543 -50.871259025713016 0 -50.871259025713016 -122.43603728121843 0 0 0 0 226.78258439016645 96.194479744561249 0 96.194479744561249 26.594277212381257 0 0 0 0 4.1188429503847601 1.8990283286173479 0 1.8990283286173479 -2.660911939038161 0 0 0 0 300.19963370963524 10.389805065490918 0 10.389805065490918 -40.479920173686423 0 0 0 0 14.823148184063029 64.651381171566527 0 64.651381171566527 71.530643187471469 0 0 0 0 280.04983764011558 168.91892521726936 0 168.91892521726936 63.700398413035373 0 0 0 0 4.0980948203688854 1.3327838882098053 0 1.3327838882098053 -1.9236123505085763 0 0 0 0 214.88671852793595 23.619534784145117 0 23.619534784145117 -17.457694384775095 0 0 0 0 542.71771782067663 60.003957223904081 0 60.003957223904081 -32.87333197542057 0 0 0 0 -18.576433132085185 16.045967555520026 0 16.045967555520026 -26.97298769338056 0 0 0 0 49.058492751355516 200.8521800671391 0 200.8521800671391 -311.59964892273962 0 0 0 0 0.95479224874290125 14.895222158067625 0 14.895222158067625 -9.3686160466403461 0 0 0 0 301.6845733467344 -219.81871171563822 0 -219.81871171563822 -438.86225265258969 0 0 0 0 35.223779173759596 -3.8553150691771414 0 -3.8553150691771414 -2.6885079460115935 0 0 0 0 -153.20958870220056 253.67016527109482 0 253.67016527109482 114.05064558651789 0 0 0 0 53.462296884841635 -101.24933405608192 0 -101.24933405608192 418.83821530946796 0 0 0 0 -93.615563934203237 311.69982352579621 0 311.69982352579621 -41.292083263047289 0 0 0 0 -62.036430820939131 203.65862399081192 0 203.65862399081192 -273.63000698752944 0 0 0 0 -452.41555748239625 523.93705407029825 0 523.93705407029825 -91.859752456635135 0 0 0 0 -241.02954489135664 12.699653415664763 0 12.699653415664763 435.85803469695838 0 0 0 0 56.131468276289525 12.042973733246527 0 12.042973733246527 106.16367328400611 0 0 0 0 128.79406433342956 -243.23127534385105 0 -243.23127534385105 88.829764172718171 0 0 0 0 6.2373889907225433 -0.8776120236557432 0 -0.8776120236557432 -3.5918989341450671 0 0 0 0 124.20681304659229 -405.96488487521731 0 -405.96488487521731 386.94098511231533 0 0 0 0 741.97080336828367 -32.850243228858801 0 -32.850243228858801 212.37358543834591 0 0 0 0 348.75885082560126 -115.39719457765207 0 -115.39719457765207 317.01127994573801 0 0 0 0 214.45077082884382 318.65479343294601 0 318.65479343294601 81.753766725749074 0 0 0 0 1644.9665575358304 -1083.7011425104708 0 -1083.7011425104708 228.21665750137146 0 0 0 0 3494.3831520987806 -242.28731711496951 0 -242.28731711496951 -527.31119239506563 0 0 0 0 1485.2867680394702 1388.1327875417758 0 1388.1327875417758 599.75655243085498 0 0 0 0 494.03810018189324 -689.80630880248145 0 -689.80630880248145 606.35660201014218 0 0 0 0 15.518266076798 -1.5953876277458825 0 -1.5953876277458825 1.5197986392442631 0 0 0 0 1496.7177102694914 371.87341198323048 0 371.87341198323048 -553.19667580936823 0 0 0 0 3492.8450582094147 677.66095909730632 0 677.66095909730632 -527.60587274169666 0 0 0 0 114.02834701888787 -168.41440029656272 0 -168.41440029656272 -27.164874180008269 0 0 0 0 1494.2972513186396 303.48737371109138 0 303.48737371109138 -79.544294968914983 0 0 0 0 3501.6155835515747 -154.52030520172249 0 -154.52030520172249 -613.13365012743361 0 0 0 0 3492.4653356450872 -1110.0617550614797 0 -1110.0617550614797 -91.84822926186429 0 0 0 0 1483.5904313779029 -406.4408962450135 0 -406.4408962450135 -325.66592847538834 0 0 0 0 29.297508418148936 -3.2108443195743845 0 -3.2108443195743845 400.17021408245921 0 0 0 0 1337.4459770502472 -625.66726454699585 0 -625.66726454699585 322.88305762981298 0 0 0 0 14.709182909442916 -2.5416864633655805 0 -2.5416864633655805 1.5244182070684793 0 0 0 0 725.32343910596683 531.97120416008863 0 531.97120416008863 348.63513918536876 0 0 0 0 1242.2284677336283 -1432.5977362735816 0 -1432.5977362735816 1375.1456893448396 0 0 0 0 47.06333706850026 -2.7804000164862508 0 -2.7804000164862508 -2.1683793986197166 0 0 0 0 60.777472265763208 -6.1092961905724223 0 -6.1092961905724223 -24.574222421978753 0 0 0 0 70.156856219444307 1.9949268325760841 0 1.9949268325760841 -23.632825377589143 0 0 0 0 53.603623659550067 -16.162190281838804 0 -16.162190281838804 -20.034910803144157 0 0 0 0 35.644268037722753 -2.8348049495481877 0 -2.8348049495481877 0.32238967645873867 0 0 0 0 227.62055841387337 8.8202601307263535 0 8.8202601307263535 -65.152792269550503 0 0 0 0 49.588399245869368 -3.2578123245063466 0 -3.2578123245063466 -42.196728632979216 0 0 0 0 -64.079442591042607 -197.70372035486616 0 -197.70372035486616 260.22562421153009 0 0 0 0 -39.246316630655201 35.743784279427217 0 35.743784279427217 269.08975095457754 0 0 0 0 -33.507217260495963 17.172163953355749 0 17.172163953355749 37.457505405536722 0 0 0 0 71.105043067160295 -64.439302993912179 0 -64.439302993912179 101.12268280754688 0 0 0 0 98.959111609845422 -104.3077880847006 0 -104.3077880847006 106.44232452885007 0 0 0 0 -10.21720723000908 -217.53153397070997 0 -217.53153397070997 -0.033149612174696585 0 0 0 0 240.33928675368952 -201.72800970361655 0 -201.72800970361655 -54.188302394512348 0 0 0 0 328.58414029414416 55.694642074956107 0 55.694642074956107 103.27158185029396 0 0 0 0 305.93181902316428 -468.85649554181447 0 -468.85649554181447 56.289533662955648 0 0 0 0 -489.61936994751886 -157.16258961530562 0 -157.16258961530562 170.65636592129556 0 0 0 0 5.9955915538879925 -0.29955437044860389 0 -0.29955437044860389 -3.9949206968566631 0 0 0 0 272.61354885139849 -201.38981726797707 0 -201.38981726797707 154.58348257032094 0 0 0 0 434.65438971175899 -192.49998824002387 0 -192.49998824002387 -71.35707599206421 0 0 0 0 65.614477749091748 -12.284994868352442 0 -12.284994868352442 90.818983226130285 0 0 0 0 284.6340320101408 138.14445498835437 0 138.14445498835437 182.62200785070354 0 0 0 0 7.4847160873088683 14.103906159929295 0 14.103906159929295 6.1262062751722715 0 0 0 0 95.023210618011944 -49.48221328083514 0 -49.48221328083514 3.8673824974843889 0 0 0 0 76.347384435983258 -13.67814430789457 0 -13.67814430789457 9.5941196162229403 0 0 0 0 99.429619274582365 40.722586041884455 0 40.722586041884455 -0.41139170894610899 0 0 0 0 273.69081794579688 19.00767560099392 0 19.00767560099392 -46.751008309559126 0 0 0 0 95.677546834078385 -16.833659364668392 0 -16.833659364668392 9.9169818563786976 0 0 0 0 130.24045465194649 -57.784285074673647 0 -57.784285074673647 51.676809332726862 0 0 0 0 6.2874721467771266 13.019645443519693 0 13.019645443519693 0.32985470774949976 0 0 0 0 105.52158549807064 -10.569784070230241 0 -10.569784070230241 -30.152236050253123 0 0 0 0 123.78778380453696 -19.824160955613806 0 -19.824160955613806 -29.573006532972158 0 0 0 0 88.15440975810634 -8.1686465393254366 0 -8.1686465393254366 -2.0058163289836557 0 0 0 0 71.280852970784593 2.3971545547980098 0 2.3971545547980098 9.0303844141299123 0 0 0 0 3.9810231556806244 -0.013045805913762365 0 -0.013045805913762365 -0.047694178136179488 0 0 0 0 113.67571122960362 -7.0922700105386411 0 -7.0922700105386411 8.0269691051084919 0 0 0 0 -0.5067075138307473 -0.20781227868469898 0 -0.20781227868469898 -0.21227789968839095 0 0 0 0 25.614107383364171 -7.2947724432995074 0 -7.2947724432995074 6.1537748942248527 0 0 0 0 111.78445246352567 -25.047881700999426 0 -25.047881700999426 -27.093087818781896 0 0 0 0 74.795879037759732 -29.076113099513861 0 -29.076113099513861 17.397869547470194 0 0 0 0 97.810536609176779 -56.482041496345289 0 -56.482041496345289 -42.60075656438994 0 0 0 0 160.71080737706507 -2.2109527967741087 0 -2.2109527967741087 -59.847255940815899 0 0 0 0 66.273040287331241 14.309871662268719 0 14.309871662268719 -24.928247012963766 0 0 0 0 76.841468398510187 7.6150047574155906 0 7.6150047574155906 38.026575182569786 0 0 0 0 4.8404361267867237 0.81516449544233183 0 0.81516449544233183 -1.6774971699993251 0 0 0 0 47.276558714787825 23.167816906081583 0 23.167816906081583 9.2278104198693427 0 0 0 0 126.31424583376793 61.134200873279724 0 61.134200873279724 71.241061984686439 0 0 0 0 120.62788335887308 -46.428738335068665 0 -46.428738335068665 26.591840506328481 0 0 0 0 0.29781539115569444 -0.69763313932007764 0 -0.69763313932007764 1.647020606077789 0 0 0 0 -4.7138096645792871 0.78919962640105723 0 0.78919962640105723 -0.04132068071775219 0 0 0 0 -51.688315371779026 14.592750270325269 0 14.592750270325269 -14.433539385368704 0 0 0 0 75.043162041984033 -11.044010628540946 0 -11.044010628540946 -0.76439256649973686 0 0 0 0 92.055670147750789 35.909980685831094 0 35.909980685831094 12.770387567610669 0 0 0 0 165.26179477637925 88.194771561604853 0 88.194771561604853 39.311099601272105 0 0 0 0 18.433397089963073 10.405662234570954 0 10.405662234570954 -3.655137100738219 0 0 0 0 -5.0810555653151823 296.44132614993487 0 296.44132614993487 16.905456765935355 0 0 0 0 -4.8655782783819745 5.5683419102556044 0 5.5683419102556044 3.6516939633423542 0 0 0 0 51.057330108626047 36.306625827515006 0 36.306625827515006 -66.068346668557922 0 0 0 0 52.97323113254788 -152.38045770213961 0 -152.38045770213961 -24.800570515531945 0 0 0 0 32.610231561756734 12.534051240963727 0 12.534051240963727 3.6608155556186941 0 0 0 0 44.471531180373859 57.022497525292238 0 57.022497525292238 -38.069981064222475 0 0 0 0 11.704338892159285 53.280804185961017 0 53.280804185961017 -18.939774060673813 0 0 0 0 27.376123302892665 1.4144246011238693 0 1.4144246011238693 -12.627832682330762 0 0 0 0 45.44129919965053 36.064663352728473 0 36.064663352728473 -10.155317770442423 0 0 0 0 54.793305891776981 19.595101274021147 0 19.595101274021147 -47.437709679751151 0 0 0 0 60.75999601293006 8.8466085234545631 0 8.8466085234545631 -28.986192286685196 0 0 0 0 55.345432388283371 2.9663801998070767 0 2.9663801998070767 -19.832164449686047 0 0 0 0 89.197636645330931 -21.848001589130007 0 -21.848001589130007 -25.491011075435608 0 0 0 0 66.764435151577345 -11.164298366555272 0 -11.164298366555272 -10.138507344775007 0 0 0 0 49.713709823598037 -8.7550137439187097 0 -8.7550137439187097 -29.879515769603643 0 0 0 0 67.30673546656908 -8.4118217789350638 0 -8.4118217789350638 -39.947858091954458 0 0 0 0 38.422370111336932 11.565567613882138 0 11.565567613882138 -53.066615475224467 0 0 0 0 25.303959524506354 8.4799277184646371 0 8.4799277184646371 -43.624730621444087 0 0 0 0 32.681496647332096 7.6621897311723615 0 7.6621897311723615 -53.853011098267764 0 0 0 0 -7.1251191441260744 38.811091274600727 0 38.811091274600727 -54.71683227278379 0 0 0 0 10.596913876579492 32.922571623160025 0 32.922571623160025 -73.833008825579554 0 0 0 0 31.054615365123027 -2.0524412285617473 0 -2.0524412285617473 -64.152253085484176 0 0 0 0 41.280874741991283 -29.617045154997015 0 -29.617045154997015 -37.79911040969958 0 0 0 0 36.058510267539532 4.3825222415096619 0 4.3825222415096619 -56.564555439685819 0 0 0 0 46.882148937758757 -16.162703416979411 0 -16.162703416979411 -39.376785852937928 0 0 0 0 56.139557307316863 -31.895061728384732 0 -31.895061728384732 -19.119964816385391 0 0 0 0 43.198207704794186 -16.064821126083075 0 -16.064821126083075 -14.722364357775973 0 0 0 0 103.2362434254901 -5.7614240280878448 0 -5.7614240280878448 -23.251608339462791 0 0 0 0 85.860195467423182 -0.7913313456360811 0 -0.7913313456360811 -9.5886712266734548 0 0 0 0 49.546599356588558 -6.820564386013757 0 -6.820564386013757 -21.255677125539137 0 0 0 0 62.027118918980705 -19.364074533063842 0 -19.364074533063842 2.3973505061571814 0 0 0 0 65.411229906458175 -24.015035751586026 0 -24.015035751586026 0.31081622521764984 0 0 0 0 60.884522050921078 -14.639736122512488 0 -14.639736122512488 28.70958105077807 0 0 0 0 48.174986705125775 -30.910983940237429 0 -30.910983940237429 7.8854808763251469 0 0 0 0 47.656449700210942 -45.194254071017781 0 -45.194254071017781 -0.52273800724884723 0 0 0 0 41.096501701467787 -29.898996570592146 0 -29.898996570592146 37.748091806029947 0 0 0 0 45.188760388729861 -17.962768039511047 0 -17.962768039511047 36.105948494610359 0 0 0 0 44.76882252348878 -26.127687244979825 0 -26.127687244979825 -59.711580257246169 0 0 0 0 21.930153489651275 -47.996027504773849 0 -47.996027504773849 -18.563498438129727 0 0 0 0 -6.500800986570539 -0.54909800166694822 0 -0.54909800166694822 20.59185153259773 0 0 0 0 32.549912221001961 -9.5402440702080895 0 -9.5402440702080895 4.4670563947832793 0 0 0 0 50.697182166579296 -10.776324870334236 0 -10.776324870334236 35.700245967922399 0 0 0 0 47.393835930062778 -16.61262722280604 0 -16.61262722280604 31.264206110550504 0 0 0 0 163.47160479978629 -187.18074070474086 0 -187.18074070474086 89.09473221087228 0 0 0 0 9.4122947396702443 14.381070194327648 0 14.381070194327648 10.438438113357961 0 0 0 0 305.27233676884498 -239.63549062071138 0 -239.63549062071138 82.888906800386053 0 0 0 0 266.12090454933059 -120.01725517652267 0 -120.01725517652267 -20.481788423393255 0 0 0 0 509.82626023342891 -173.33497649476044 0 -173.33497649476044 -9.0395001510246402 0 0 0 0 291.27147432761558 -94.090463656566953 0 -94.090463656566953 5.2983286746962222 0 0 0 0 267.36487263600793 -127.80113337692552 0 -127.80113337692552 28.20359781861498 0 0 0 0 210.55625838779088 -119.51296189658206 0 -119.51296189658206 35.443965370339129 0 0 0 0 238.85365326651663 -79.227127606077829 0 -79.227127606077829 17.197530536160684 0 0 0 0 125.02409945367617 -67.689968945386113 0 -67.689968945386113 60.731404774247039 0 0 0 0 214.34006450240486 -142.17555001388257 0 -142.17555001388257 96.911335876748126 0 0 0 0 218.12098764016264 -127.93186732050185 0 -127.93186732050185 135.90369302345061 0 0 0 0 376.0556960736867 -55.093259247812057 0 -55.093259247812057 128.44996780165525 0 0 0 0 426.86545067711268 -234.87088542239144 0 -234.87088542239144 234.37733730204855 0 0 0 0 441.04738375300076 -109.91209740976592 0 -109.91209740976592 -47.585613092312997 0 0 0 0 3.5918452415775448 3.5805746716675557 0 3.5805746716675557 0.77304514432601223 0 0 0 0 398.52454857946941 -206.72663468211601 0 -206.72663468211601 53.517689173371764 0 0 0 0 7.2128452603667199 2.7798064965081011 0 2.7798064965081011 3.6527705597727653 0 0 0 0 379.61941959094838 -158.56385635212359 0 -158.56385635212359 116.20813093581637 0 0 0 0 405.19766395607439 -137.13855903280319 0 -137.13855903280319 76.945115815035024 0 0 0 0 234.08628780599247 -77.303244308291937 0 -77.303244308291937 61.047856905889603 0 0 0 0 214.87182022727211 -117.28659777278244 0 -117.28659777278244 119.48104796015923 0 0 0 0 146.80685274770622 -44.767407370764829 0 -44.767407370764829 112.58050748244568 0 0 0 0 178.43296725960681 -184.3341264078208 0 -184.3341264078208 90.183673731316503 0 0 0 0 340.05351641266316 -223.54613649759995 0 -223.54613649759995 74.410692591892257 0 0 0 0 166.00016605347628 710.67095583152877 0 710.67095583152877 345.78069252292516 0 0 0 0 192.20853770935355 -43.647794528776899 0 -43.647794528776899 -2.4839474769310073 0 0 0 0 156.29290171987668 -52.812859733370715 0 -52.812859733370715 49.218990972757183 0 0 0 0 6.0369960784300929 -71.965705392977497 0 -71.965705392977497 -5.4590196727001796 0 0 0 0 103.77095289836143 76.633445762953215 0 76.633445762953215 -85.072625553698344 0 0 0 0 305.80621531407814 -125.65939097063074 0 -125.65939097063074 -417.13357967031243 0 0 0 0 99.071023862889774 -31.650679191441586 0 -31.650679191441586 9.1033085790627872 0 0 0 0 77.611480844672769 -223.88769076864855 0 -223.88769076864855 -226.02906996897207 0 0 0 0 341.76584179839119 -257.75915277995682 0 -257.75915277995682 -431.30242462705917 0 0 0 0 90.30723692946151 -28.7555683128111 0 -28.7555683128111 7.9864392802400221 0 0 0 0 -54.536820859284489 -270.77842385645147 0 -270.77842385645147 -154.09711291095232 0 0 0 0 72.299748650941183 -16.005167399095399 0 -16.005167399095399 -23.006572300773314 0 0 0 0 -426.09788896379177 -243.88388470100017 0 -243.88388470100017 1017.4680846171141 0 0 0 0 147.1532178296693 129.38564625271954 0 129.38564625271954 -159.70252089064479 0 0 0 0 41.494899197314226 68.556795292789843 0 68.556795292789843 -189.68278978290164 0 0 0 0 70.808946691316692 -20.598038881603664 0 -20.598038881603664 5.4778334694696094 0 0 0 0 41.744778930122266 42.189963717561341 0 42.189963717561341 -216.45914983559476 0 0 0 0 -48.953270743862959 131.97084596693094 0 131.97084596693094 -229.02722074865244 0 0 0 0 48.391016559529817 34.436109665126423 0 34.436109665126423 -143.30039671580835 0 0 0 0 46.264966301212553 39.669030549634954 0 39.669030549634954 -155.96359445968483 0 0 0 0 41.128679653920699 15.036312490769888 0 15.036312490769888 -149.06227073639843 0 0 0 0 19.276249668691889 -0.74731118885438264 0 -0.74731118885438264 -88.711845808635644 0 0 0 0 29.211081242989167 47.550071461542302 0 47.550071461542302 -136.10739338820349 0 0 0 0 37.388684770237887 28.374838329749764 0 28.374838329749764 -91.155262720682003 0 0 0 0 27.08913408985245 18.028614183187528 0 18.028614183187528 -90.816458327431334 0 0 0 0 754.00629230227787 192.75267794465253 0 192.75267794465253 643.48894319111787 0 0 0 0 47.554808367161968 -47.293942230799573 0 -47.293942230799573 -15.253372121345819 0 0 0 0 6.8646939041791484 -34.891916785662261 0 -34.891916785662261 14.619633220045216 0 0 0 0 -9.0435948620870477 18.322511983328013 0 18.322511983328013 7.3233864743615413 0 0 0 0 45.842172458236746 -7.3618258780912811 0 -7.3618258780912811 -53.823585102031302 0 0 0 0 15.697100839228369 25.779510050137333 0 25.779510050137333 -59.208737083913547 0 0 0 0 -9.4155741035065148 -1.202820332711326 0 -1.202820332711326 -6.0924490031047753 0 0 0 0 50.06370712791977 -30.326962348201278 0 -30.326962348201278 -100.23748808113987 0 0 0 0 52.900630569085479 -44.562507487808944 0 -44.562507487808944 -26.980688722906745 0 0 0 0 43.59226255296926 17.155038159402924 0 17.155038159402924 -1.0547802643138766 0 0 0 0 48.555066217533749 -14.510389379753128 0 -14.510389379753128 2.440689042827171 0 0 0 0 8.1226337767978407 1.8932547680365985 0 1.8932547680365985 1.8421980167663206 0 0 0 0 949.66585299681174 65.551014792435126 0 65.551014792435126 -257.10709788851364 0 0 0 0 764.75890276767313 -119.3952115174352 0 -119.3952115174352 -325.73358078112824 0 0 0 0 0.21955033085589548 -2.1902095719139183 0 -2.1902095719139183 1.4645338001901718 0 0 0 0 90.675385154499963 -60.755290470707564 0 -60.755290470707564 13.93329391402176 0 0 0 0 191.18946114514983 -226.22286393442926 0 -226.22286393442926 172.37188543087632 0 0 0 0 -7.132301414052165 -17.708985161664486 0 -17.708985161664486 -6.0361010881178281 0 0 0 0 52.215623300231528 -32.945205641103257 0 -32.945205641103257 -19.679524729775494 0 0 0 0 57.045137529814383 -47.5413855170018 0 -47.5413855170018 -8.0340462730946456 0 0 0 0 47.42501885665115 -35.161107334056396 0 -35.161107334056396 -6.4132041814032164 0 0 0 0 54.258111511328025 -47.115226064717717 0 -47.115226064717717 -19.416995226091331 0 0 0 0 44.045835327593522 -28.075430295571266 0 -28.075430295571266 -34.280925026778959 0 0 0 0 46.684510952429264 -60.239994603976129 0 -60.239994603976129 -59.04632115951938 0 0 0 0 33.343614808707571 -7.5980762963384763 0 -7.5980762963384763 109.23898187496059 0 0 0 0 49.546445690438617 -18.26369529445676 0 -18.26369529445676 6.709975454631941 0 0 0 0 35.099972224037629 -21.929707570831397 0 -21.929707570831397 -1.478291212815293 0 0 0 0 59.132346431637416 -59.684403293305763 0 -59.684403293305763 45.379168117835547 0 0 0 0 104.08263261590764 -11.995731428447868 0 -11.995731428447868 -18.753066811373969 0 0 0 0 39.947337845096627 -16.107586618514453 0 -16.107586618514453 4.1755335380680663 0 0 0 0 63.783048116648274 -31.595218621833148 0 -31.595218621833148 8.8099594232744245 0 0 0 0 7.1676819351196173 87.070605848480682 0 87.070605848480682 121.71359142322285 0 0 0 0 -101.24083431888721 -35.658100788181287 0 -35.658100788181287 57.575301357712419 0 0 0 0 -36.213689137468464 -16.301030346307869 0 -16.301030346307869 -107.20367237817413 0 0 0 0 -20.086653225036571 47.861830688723387 0 47.861830688723387 -6.0747207435830433 0 0 0 0 20.29438183662387 -10.122768709935762 0 -10.122768709935762 -72.235335197044151 0 0 0 0 32.298465258572833 39.994865914538764 0 39.994865914538764 -126.51471339888349 0 0 0 0 34.976471117683104 1.082420029878719 0 1.082420029878719 -211.59323199976629 0 0 0 0 29.967647186276736 -40.501807458184146 0 -40.501807458184146 -24.168179785711345 0 0 0 0 26.756775290457881 19.80463913496871 0 19.80463913496871 -22.34684037189416 0 0 0 0 -10.216564408401609 58.878972341906319 0 58.878972341906319 -119.66464084399809 0 0 0 0 28.458865586348111 14.437071058131608 0 14.437071058131608 -104.91650465274938 0 0 0 0 34.195950025252387 -2.5553899202734485 0 -2.5553899202734485 -62.974655321087539 0 0 0 0 15.581085600802908 -8.6595590646110168 0 -8.6595590646110168 -64.4340063552022 0 0 0 0 -9.1559995837160386 10.717691375838086 0 10.717691375838086 -94.162982836686723 0 0 0 0 10.049454360487687 1.4319051387737431 0 1.4319051387737431 -0.8334907152641462 0 0 0 0 60.091705794708105 13.655436127173971 0 13.655436127173971 -46.518526376804061 0 0 0 0 7.8133494021749357 55.668501529633595 0 55.668501529633595 -95.906339476326394 0 0 0 0 20.056886702604913 7.8756628586106494 0 7.8756628586106494 1.9597049089646053 0 0 0 0 17.746037589531625 26.177212967382857 0 26.177212967382857 -104.55464826409855 0 0 0 0 23.841915374185191 20.888568688196358 0 20.888568688196358 -94.382619025471115 0 0 0 0 -58.552672066070954 37.168790952547539 0 37.168790952547539 -87.891358698148082 0 0 0 0 -67.473652309156023 78.594620256664371 0 78.594620256664371 -96.152131506104695 0 0 0 0 106.84222518246679 -74.252257403957145 0 -74.252257403957145 -3.4757033140413967 0 0 0 0 129.20310943943332 11.817544205829883 0 11.817544205829883 -94.537490715847312 0 0 0 0 0.40855854565597838 108.36659076700337 0 108.36659076700337 -195.51971034289468 0 0 0 0 16.304289212221761 2.882211965586972 0 2.882211965586972 -0.12538056144236526 0 0 0 0 4.6990678469855709 1.8901557706680094 0 1.8901557706680094 0.12406990214198882 0 0 0 0 -64.674784936541982 -22.752587184639253 0 -22.752587184639253 33.418724713184567 0 0 0 0 66.012530428833998 -130.87419952063942 0 -130.87419952063942 36.998479695534115 0 0 0 0 99.932466692043818 -133.27406333449676 0 -133.27406333449676 75.773385440999846 0 0 0 0 -37.855559633077064 16.184042086167551 0 16.184042086167551 0.69382847893393773 0 0 0 0 157.74237223026284 74.223969577844855 0 74.223969577844855 -231.3526927718849 0 0 0 0 213.86221715183638 -103.52337401169029 0 -103.52337401169029 19.439259683643741 0 0 0 0 135.96844718327338 42.674978903930423 0 42.674978903930423 5.1463228531497407 0 0 0 0 163.68300956199528 -144.77919833523265 0 -144.77919833523265 -145.30750880202686 0 0 0 0 129.13026207962685 -53.915188056252759 0 -53.915188056252759 31.080304288651405 0 0 0 0 170.44378697259526 -71.530371587200079 0 -71.530371587200079 0.22646536948604989 0 0 0 0 194.28466662208666 -104.8132000577225 0 -104.8132000577225 29.085394885166352 0 0 0 0 98.812101860501571 -103.72313408406148 0 -103.72313408406148 59.34214214592896 0 0 0 0 131.86055108454093 -143.9206974267704 0 -143.9206974267704 74.58618975952686 0 0 0 0 87.246144917451602 -70.538526486177261 0 -70.538526486177261 77.915232197268324 0 0 0 0 126.43562188782016 -142.09120172429448 0 -142.09120172429448 198.24023625317886 0 0 0 0 337.92787054637301 -137.46893557952126 0 -137.46893557952126 25.582114885748979 0 0 0 0 6.2071404484955792 0.72708428350053111 0 0.72708428350053111 0.0083772167482449034 0 0 0 0 319.26187973375636 -358.69373815445971 0 -358.69373815445971 321.64201159514835 0 0 0 0 -330.8275633748126 78.477515987208179 0 78.477515987208179 64.961232285150103 0 0 0 0 523.07850380083255 210.01559592775081 0 210.01559592775081 -349.87798139815726 0 0 0 0 -33.498194206433254 -143.25192286746193 0 -143.25192286746193 130.24102289863976 0 0 0 0 1.6553412611350211 0.63344253738517864 0 0.63344253738517864 -0.0019056796293680511 0 0 0 0 -61.646626075920722 193.95687960838251 0 193.95687960838251 -217.51126811074383 0 0 0 0 219.63198650465347 37.440305305354741 0 37.440305305354741 -236.07962711424494 0 0 0 0 8.1244966666498897 -29.327157657249742 0 -29.327157657249742 -13.435182174830704 0 0 0 0 399.41824703058228 -58.116021858728345 0 -58.116021858728345 -186.09396650401004 0 0 0 0 67.291081183982897 -63.465360243921623 0 -63.465360243921623 20.234495299599985 0 0 0 0 118.93650383810123 -31.808888800265152 0 -31.808888800265152 -0.23081350217913998 0 0 0 0 139.20105048845289 -145.08618381865358 0 -145.08618381865358 -41.736818087433221 0 0 0 0 190.10966565532726 63.97472285820254 0 63.97472285820254 -16.538687266697707 0 0 0 0 172.0510132200925 39.872028767733525 0 39.872028767733525 -41.721848809383573 0 0 0 0 212.31638052035123 54.073387573182572 0 54.073387573182572 -61.438465286672681 0 0 0 0 235.6016043088166 88.284172703156401 0 88.284172703156401 -59.296290428282333 0 0 0 0 152.95276894015842 103.54988777099561 0 103.54988777099561 -57.8149128120819 0 0 0 0 192.54850214628095 186.35002850307808 0 186.35002850307808 105.77945163474669 0 0 0 0 262.744193810242 -31.565920914292292 0 -31.565920914292292 10.864036154253313 0 0 0 0 133.85764669044875 59.09547166354912 0 59.09547166354912 168.80509890432677 0 0 0 0 149.33646134857554 -18.903421756369198 0 -18.903421756369198 9.4852062387963088 0 0 0 0 88.882109239028068 -39.407448229269676 0 -39.407448229269676 -35.773393227233669 0 0 0 0 985.95490870025242 -564.61318880957811 0 -564.61318880957811 176.40885715761698 0 0 0 0 118.1238251984413 -31.729348835842359 0 -31.729348835842359 2.8909895841803239 0 0 0 0 307.78012061472691 238.23800918333825 0 238.23800918333825 -237.11783579100523 0 0 0 0 619.19428936485929 -184.07650254755663 0 -184.07650254755663 -26.325038644721872 0 0 0 0 216.40154581400566 23.984114533145885 0 23.984114533145885 -40.509237024084541 0 0 0 0 73.869291693525156 -47.380824931363691 0 -47.380824931363691 -12.489502605786811 0 0 0 0 114.24486230958851 -25.891522798009106 0 -25.891522798009106 2.3048828771591277 0 0 0 0 -16.174509781354573 -107.06766513516902 0 -107.06766513516902 -35.596512657421044 0 0 0 0 -148.73256411462353 3.9764496574990744 0 3.9764496574990744 64.493956624919974 0 0 0 0 90.382317524548853 52.041838393112812 0 52.041838393112812 46.935372402230996 0 0 0 0 16.776201934222627 -9.8438601570765059 0 -9.8438601570765059 34.376084242307115 0 0 0 0 91.813732028067534 6.309487584279367 0 6.309487584279367 9.4689903415401204 0 0 0 0 160.71463112787751 -2.622515864645834 0 -2.622515864645834 15.696354876663008 0 0 0 0 94.244728846662838 14.601974145361197 0 14.601974145361197 17.931769715199607 0 0 0 0 90.527024208007788 2.9983548226554291 0 2.9983548226554291 -11.873774792824634 0 0 0 0 129.95505474426318 -5.7399799863276257 0 -5.7399799863276257 -11.281380442531372 0 0 0 0 58.123832636171784 -6.1788190400972667 0 -6.1788190400972667 -11.11223443648978 0 0 0 0 85.089286183800425 3.8133163314147325 0 3.8133163314147325 -2.5972421490699631 0 0 0 0 25.723916653030074 2.3594611437501669 0 2.3594611437501669 2.4503649863865995 0 0 0 0 127.07796715661971 -36.37191412067591 0 -36.37191412067591 13.927031879325767 0 0 0 0 86.972209169764028 3.0162384678765193 0 3.0162384678765193 17.246292254602849 0 0 0 0 167.97717612721317 -8.9582576990410416 0 -8.9582576990410416 3.9953826554647094 0 0 0 0 61.637920219197774 15.927916335587298 0 15.927916335587298 5.4525502868998181 0 0 0 0 256.63396700849989 160.5327655430915 0 160.5327655430915 111.34410974337698 0 0 0 0 31.096849963098066 -7.5585185347163133 0 -7.5585185347163133 9.5322130713079787 0 0 0 0 38.770748534349309 -15.449342160251661 0 -15.449342160251661 4.3916484205523236 0 0 0 0 61.227148247660523 -23.075519288492792 0 -23.075519288492792 10.475951390007754 0 0 0 0 211.70432148387772 22.699840719222266 0 22.699840719222266 94.29646970527665 0 0 0 0 111.6287222965758 -17.794394215584205 0 -17.794394215584205 -5.182736065157302 0 0 0 0 105.53141627476725 24.21077431980757 0 24.21077431980757 116.26136417790144 0 0 0 0 -12.182541928676073 -43.601966269049626 0 -43.601966269049626 94.952894619869767 0 0 0 0 53.518431190139381 22.342430168641158 0 22.342430168641158 36.331529719470382 0 0 0 0 8.1365462591091102 -7.3912289122090584 0 -7.3912289122090584 5.3786088075793188 0 0 0 0 -23.265170055732597 -8.1802366634719874 0 -8.1802366634719874 34.739844195177284 0 0 0 0 -142.48933004032006 -312.96764207742854 0 -312.96764207742854 -209.40532647892269 0 0 0 0 -43.66355023952201 -49.231328521664182 0 -49.231328521664182 -111.12313620132227 0 0 0 0 -44.63205717454548 -91.901353561918995 0 -91.901353561918995 -12.182303777561174 0 0 0 0 -17.309344800654799 -41.337738493009965 0 -41.337738493009965 -14.408831548127637 0 0 0 0 -45.574072380099096 -17.545362803180979 0 -17.545362803180979 65.664617968548555 0 0 0 0 -49.344508001580834 -55.987340335159388 0 -55.987340335159388 28.942537406472184 0 0 0 0 -29.57514125702437 -89.122713193618438 0 -89.122713193618438 -75.66834207175998 0 0 0 0 18.790082975072437 54.901935123838484 0 54.901935123838484 126.46168070602926 0 0 0 0 125.22278177272528 29.169772131964237 0 29.169772131964237 81.433212448838276 0 0 0 0 9.1285240962752141 1.8505560860012338 0 1.8505560860012338 94.948065828828476 0 0 0 0 113.2744455646025 38.192080140517646 0 38.192080140517646 69.049233148405619 0 0 0 0 -21.915120920806658 19.027805383637315 0 19.027805383637315 90.528130507940659 0 0 0 0 -43.279605730087496 -61.221862604343187 0 -61.221862604343187 32.572737656911158 0 0 0 0 -9.3990808342350647 -37.794808295564508 0 -37.794808295564508 30.885811872691193 0 0 0 0 -65.152994166637654 -57.559611281105219 0 -57.559611281105219 57.221222089337971 0 0 0 0 -111.8957146051107 -102.87940110333875 0 -102.87940110333875 27.277419165597166 0 0 0 0 -59.784850119409384 -15.635344255432983 0 -15.635344255432983 48.994132868705492 0 0 0 0 -70.818150805193 -109.89909903158878 0 -109.89909903158878 -4.4113943549127725 0 0 0 0 -13.932842237563818 17.100526629106994 0 17.100526629106994 103.08444580653122 0 0 0 0 -14.954341169272084 -40.992752977458622 0 -40.992752977458622 50.647835039432721 0 0 0 0 -46.484748029964976 -28.597254717797568 0 -28.597254717797568 -16.115645465875787 0 0 0 0 -53.696832607733086 -40.837357907260866 0 -40.837357907260866 71.223702209894327 0 0 0 0 -183.46350508456817 -71.660891505634027 0 -71.660891505634027 58.442980481543259 0 0 0 0 -172.7321037327165 -187.71468163097495 0 -187.71468163097495 -24.829677908486701 0 0 0 0 -77.955489362357184 -191.04832993640048 0 -191.04832993640048 -102.53321270704419 0 0 0 0 -64.297492301877355 -144.33219145546627 0 -144.33219145546627 -81.860433015315721 0 0 0 0 -99.056953868333949 -198.94391021880938 0 -198.94391021880938 -129.34943330416718 0 0 0 0 -78.229262491804548 -150.19130157746167 0 -150.19130157746167 -49.087435844905031 0 0 0 0 -78.30678588966839 -112.0899930493124 0 -112.0899930493124 -0.049978285447650705 0 0 0 0 -63.903866359420135 -95.83102959251849 0 -95.83102959251849 -15.747520663371688 0 0 0 0 402.16481824516086 109.3226296098228 0 109.3226296098228 54.682017534521947 0 0 0 0 176.86479572911048 88.918698988469259 0 88.918698988469259 117.19245859682178 0 0 0 0 290.29246541864995 113.07202281624814 0 113.07202281624814 96.120950980715861 0 0 0 0 302.59401809540577 62.369990936438626 0 62.369990936438626 109.02819521019774 0 0 0 0 240.68311700667255 79.25035544972161 0 79.25035544972161 135.19439427659017 0 0 0 0 159.88154155932716 116.33389526933342 0 116.33389526933342 102.33770484235538 0 0 0 0 170.58611225429922 96.936324691274422 0 96.936324691274422 137.00217358314694 0 0 0 0 174.6238033202244 96.457735327516275 0 96.457735327516275 91.907779958297397 0 0 0 0 100.0129662110121 62.202681334532826 0 62.202681334532826 122.96979523048049 0 0 0 0 72.779635283455718 24.353093595255814 0 24.353093595255814 36.229701739212942 0 0 0 0 55.73751135051134 37.321640849645519 0 37.321640849645519 136.68709695361576 0 0 0 0 149.60034369881032 57.311206268542264 0 57.311206268542264 36.501740363968565 0 0 0 0 21.518441690714099 80.022265852663622 0 80.022265852663622 72.1962666870877 0 0 0 0 129.037679769448 73.991950835696343 0 73.991950835696343 157.95258158692377 0 0 0 0 286.18460309322109 192.23053662044049 0 192.23053662044049 118.01887334628555 0 0 0 0 442.75341247289543 285.43052388163039 0 285.43052388163039 126.92634122560594 0 0 0 0 225.35851400454703 226.05335660842309 0 226.05335660842309 288.59680986084368 0 0 0 0 17.922752174935368 3.2622417820388421 0 3.2622417820388421 1.1331024115389754 0 0 0 0 67.378447284747381 -287.08167224178487 0 -287.08167224178487 -254.65924425251353 0 0 0 0 10.706011621014966 -8.0431506668665946 0 -8.0431506668665946 5.2598057376569791 0 0 0 0 104.92964965777355 -72.373564711914241 0 -72.373564711914241 248.95312402456358 0 0 0 0 419.90647477786115 -21.858124293158312 0 -21.858124293158312 -69.831801475947486 0 0 0 0 20.22532905859407 24.077587291182454 0 24.077587291182454 -223.0306803759081 0 0 0 0 151.41115216845355 -115.40447217161079 0 -115.40447217161079 -85.959181849850211 0 0 0 0 -98.655977106740465 -16.715151644885509 0 -16.715151644885509 -22.723238010062346 0 0 0 0 -28.984546308514837 -58.771705009843572 0 -58.771705009843572 -16.141278081670862 0 0 0 0 66.128703955291712 -9.1356691922021582 0 -9.1356691922021582 -43.941965883417652 0 0 0 0 -319.90647731997888 -271.31702787681729 0 -271.31702787681729 -39.64588694955728 0 0 0 0 -304.0816355063871 -26.050755151144585 0 -26.050755151144585 5.9207987862173468 0 0 0 0 -1.0054608756883283 2.9413122987240001 0 2.9413122987240001 -6.2655304444775144 0 0 0 0 237.70157504550298 113.95333875756603 0 113.95333875756603 -1.9991811069767209 0 0 0 0 92.848548689209565 31.607282938237404 0 31.607282938237404 -65.464489728914941 0 0 0 0 204.81315520274802 114.79692070101282 0 114.79692070101282 9.1250791510922227 0 0 0 0 104.20214078018034 -12.775658003628052 0 -12.775658003628052 -18.478128636671954 0 0 0 0 -7.7506850324934931 5.4696126532128346 0 5.4696126532128346 31.070404327319466 0 0 0 0 51.562660077004693 -56.759006251791106 0 -56.759006251791106 -85.184596266999023 0 0 0 0 9.5997717788361854 -6.4045694982337977 0 -6.4045694982337977 3.7712999457371836 0 0 0 0 159.02838889029226 136.68069704141601 0 136.68069704141601 -81.115767126036417 0 0 0 0 572.33687604338047 99.272977566840154 0 99.272977566840154 -67.912866149961019 0 0 0 0 95.820269747870043 130.18336356304667 0 130.18336356304667 171.45598693023794 0 0 0 0 827.90673749081907 268.25007471662411 0 268.25007471662411 -12.005580396123491 0 0 0 0 -5.4563329729135148 -251.2825388175238 0 -251.2825388175238 307.70915355986563 0 0 0 0 4.1508864149689089 -2.420761574622901 0 -2.420761574622901 1.6752168353887527 0 0 0 0 664.95720078643717 111.26557781728752 0 111.26557781728752 32.553295070782951 0 0 0 0 45.191831133601227 -83.206276204460551 0 -83.206276204460551 -178.47175374706967 0 0 0 0 -126.59630772621313 -2.5715358832560469 0 -2.5715358832560469 48.209444716428152 0 0 0 0 269.17148010394885 -6.2468832488498265 0 -6.2468832488498265 16.53156077209178 0 0 0 0 41.88717825445201 1.0159524063690242 0 1.0159524063690242 58.785476962385474 0 0 0 0 202.43314661142358 -125.96476963899568 0 -125.96476963899568 89.387798274780835 0 0 0 0 90.151471171906451 -232.54805869229904 0 -232.54805869229904 -5.9292618200452125 0 0 0 0 450.06154953027726 -220.84902108695405 0 -220.84902108695405 -11.886046626319967 0 0 0 0 130.64692012831802 -644.00984980284557 0 -644.00984980284557 179.97976601634127 0 0 0 0 51.55709521684912 -514.2789888485313 0 -514.2789888485313 345.84153750034102 0 0 0 0 128.18493985736859 -402.06978425947864 0 -402.06978425947864 123.40805043694218 0 0 0 0 269.52546716903453 -389.81088058944897 0 -389.81088058944897 -110.96649972865384 0 0 0 0 200.59822007431649 -580.55467870839402 0 -580.55467870839402 -32.609295537597973 0 0 0 0 -10.949080960512219 123.61703124425935 0 123.61703124425935 -124.14173103010899 0 0 0 0 643.34057534608291 -285.74260133729683 0 -285.74260133729683 -92.03006672222557 0 0 0 0 1.6895184147116424 1.8120356193875296 0 1.8120356193875296 0.5297008067878739 0 0 0 0 -27.021651392584317 57.331924829471063 0 57.331924829471063 -66.286919038490851 0 0 0 0 77.526202890556306 129.12685130356385 0 129.12685130356385 -174.49983432656518 0 0 0 0 63.291328861116199 46.113361974992586 0 46.113361974992586 -136.04824868030951 0 0 0 0 43.433044645411428 68.286559114958891 0 68.286559114958891 -155.42942378199041 0 0 0 0 550.20464141202683 39.522046773578722 0 39.522046773578722 -27.997691455196673 0 0 0 0 388.26555172458757 -2.513145696749234 0 -2.513145696749234 32.447331049751028 0 0 0 0 439.5373147610444 -15.429086854476168 0 -15.429086854476168 14.265652419853723 0 0 0 0 0.12974818565493251 0.5465550451228296 0 0.5465550451228296 -1.6967696532613044 0 0 0 0 54.600665399790159 -100.8677414117908 0 -100.8677414117908 -117.41842547500096 0 0 0 0 104.56031396778417 -25.107023793277904 0 -25.107023793277904 -49.795440354005592 0 0 0 0 74.668903105368372 7.0372916331212991 0 7.0372916331212991 -80.301136325334483 0 0 0 0 193.5537630881081 76.727927030241631 0 76.727927030241631 -67.901297963364868 0 0 0 0 123.0619366861647 62.676762464259582 0 62.676762464259582 -23.125241704524001 0 0 0 0 -0.17882269924865568 1.7862159443265 0 1.7862159443265 -4.7966685479948525 0 0 0 0 2.0051201184925276 -1.0817401306845795 0 -1.0817401306845795 -0.027599805582172898 0 0 0 0 213.40860793049796 50.000986158571322 0 50.000986158571322 34.954135063340573 0 0 0 0 623.40631786573795 224.10321737751497 0 224.10321737751497 -19.968752187338225 0 0 0 0 -57.037868486776347 -21.961733257144179 0 -21.961733257144179 -60.739574478152917 0 0 0 0 142.3115983779735 6.5109904140647785 0 6.5109904140647785 -80.365949562320338 0 0 0 0 4.9695934871548957 -2.5482952896890652 0 -2.5482952896890652 -0.68119022944475471 0 0 0 0 -4.2613025211030617 -127.48920324933749 0 -127.48920324933749 -147.94506710060631 0 0 0 0 135.51085003159824 -18.130906101042342 0 -18.130906101042342 -19.535134512144168 0 0 0 0 254.63420902294456 -55.475269200485968 0 -55.475269200485968 -163.81666503299857 0 0 0 0 339.70109212478565 -148.44432302568441 0 -148.44432302568441 -137.7212352070394 0 0 0 0 358.471855585507 34.546201807414946 0 34.546201807414946 -89.129883681584943 0 0 0 0 426.74467316444861 100.25471809654209 0 100.25471809654209 -29.491823514341377 0 0 0 0 404.39927643403644 -155.91367988103116 0 -155.91367988103116 -170.16655687842638 0 0 0 0 75.058215430326527 24.667057813067686 0 24.667057813067686 -113.58825805576271 0 0 0 0 140.31312766563497 52.916152214887006 0 52.916152214887006 -159.80493895666427 0 0 0 0 119.33964282594388 116.88320098626809 0 116.88320098626809 -180.65263389669985 0 0 0 0 338.51518476306228 73.556672061106383 0 73.556672061106383 -185.70873656157482 0 0 0 0 57.422887135253404 61.14720423077847 0 61.14720423077847 -113.55093560577461 0 0 0 0 129.70111881136836 5.3483875926942801 0 5.3483875926942801 -99.93847446581367 0 0 0 0 90.288036937679863 37.119800388220938 0 37.119800388220938 -103.31554250361296 0 0 0 0 190.50375441114753 -16.711898544995542 0 -16.711898544995542 -101.25334216045121 0 0 0 0 27.187263047875604 10.922445219968495 0 10.922445219968495 -61.751054502793977 0 0 0 0 54.191494672966655 -1.1895559516342473 0 -1.1895559516342473 -55.017766542687923 0 0 0 0 26.986998679465614 46.770795407568926 0 46.770795407568926 -82.35374855385453 0 0 0 0 494.20959101709013 -137.3890017956893 0 -137.3890017956893 -119.15118413829418 0 0 0 0 190.6840526951955 -86.496090169020462 0 -86.496090169020462 -65.841348492419002 0 0 0 0 217.26938490774774 -3.1578025992768062 0 -3.1578025992768062 54.480440348112325 0 0 0 0 0.4435063081447197 -0.083051528903098415 0 -0.083051528903098415 -0.95098710756362248 0 0 0 0 337.81238235691853 -108.28181228299718 0 -108.28181228299718 -54.36249801860049 0 0 0 0 -26.998950300672732 60.865747936023304 0 60.865747936023304 -37.737420819419185 0 0 0 0 111.83414018037001 -47.969771787733464 0 -47.969771787733464 -43.236638513673824 0 0 0 0 19.299292493284156 12.220524634472554 0 12.220524634472554 -72.618577219296185 0 0 0 0 34.56190410561976 28.765382124417101 0 28.765382124417101 -73.037409896048302 0 0 0 0 -24.794349503676585 -18.583850556683249 0 -18.583850556683249 21.567157818184796 0 0 0 0 2.314069097808499 1.5884298722457686 0 1.5884298722457686 -0.024398920527124446 0 0 0 0 33.545809382809239 -0.71515442397361539 0 -0.71515442397361539 17.570968171213281 0 0 0 0 75.957331124343909 -28.432195293773475 0 -28.432195293773475 -16.927653714183634 0 0 0 0 50.756691076414427 34.205245473072637 0 34.205245473072637 -25.780981804376097 0 0 0 0 -0.02618364350141178 -0.58753586402116298 0 -0.58753586402116298 -1.6056880183653828 0 0 0 0 208.16037819135818 -152.55817428823457 0 -152.55817428823457 17.92188070745533 0 0 0 0 246.69990385769051 -164.4899578676966 0 -164.4899578676966 9.7779144268378104 0 0 0 0 205.89137949727592 -217.27557352945848 0 -217.27557352945848 -56.708603447756332 0 0 0 0 -62.031030463505886 -387.31838111035557 0 -387.31838111035557 -206.97024254935332 0 0 0 0 296.06466812844155 -166.33428406806252 0 -166.33428406806252 -132.34635254814771 0 0 0 0 317.23647995541978 -33.529835333749702 0 -33.529835333749702 -87.090115305311201 0 0 0 0 354.35236090130638 -94.385232663666557 0 -94.385232663666557 -1.2658247319828888 0 0 0 0 104.44880701814691 -62.418459431677093 0 -62.418459431677093 4.2372319377132044 0 0 0 0 272.6645697579952 -87.290473858588143 0 -87.290473858588143 33.965974818507448 0 0 0 0 306.85484369586629 -54.110388243583031 0 -54.110388243583031 17.08062220239799 0 0 0 0 408.26414660376031 36.187710171020505 0 36.187710171020505 0.31372446951024957 0 0 0 0 512.68257841218292 14.977635671117383 0 14.977635671117383 36.548802802748696 0 0 0 0 440.70834151147574 -156.34991721848036 0 -156.34991721848036 13.984675956160345 0 0 0 0 294.85535399173386 -138.37727654083079 0 -138.37727654083079 84.906922310468445 0 0 0 0 221.59337147130282 -172.79781649613437 0 -172.79781649613437 46.054526513623273 0 0 0 0 295.78722019927227 -116.06608228534729 0 -116.06608228534729 2.280767382957734 0 0 0 0 83.07570243338705 -18.288684641880877 0 -18.288684641880877 188.96234052773929 0 0 0 0 26.262514537942479 -10.571060233616532 0 -10.571060233616532 -2.7652874159565357 0 0 0 0 1.9654461669851742 -1.5229161570750591 0 -1.5229161570750591 -2.197418656277927 0 0 0 0 906.4898004049719 172.27784543874679 0 172.27784543874679 68.852811780568231 0 0 0 0 4.3873634981442251 -1.285589232538495 0 -1.285589232538495 -0.12735021940124722 0 0 0 0 213.41211058532645 -325.77539826408599 0 -325.77539826408599 277.29818647125853 0 0 0 0 712.79892552034289 -247.56040931063666 0 -247.56040931063666 60.867934362740399 0 0 0 0 1018.1876052758453 59.855221337304656 0 59.855221337304656 -93.622245375858455 0 0 0 0 464.00841699263492 173.03471273510905 0 173.03471273510905 -45.497540798005602 0 0 0 0 460.79413512485917 323.53763259495634 0 323.53763259495634 234.51169692285652 0 0 0 0 3.3197175679590885 -0.46640636166475247 0 -0.46640636166475247 0.49685538883464303 0 0 0 0 3.1873866073502768 -1.028433425543426 0 -1.028433425543426 -0.89498720277682253 0 0 0 0 475.52954729282646 38.51390229311847 0 38.51390229311847 -50.18363202968925 0 0 0 0 8.8199757089714694 -7.0769872672130951 0 -7.0769872672130951 32.463601029400039 0 0 0 0 44.353726573273889 -45.747540522769235 0 -45.747540522769235 59.064180800744964 0 0 0 0 11.874558658532465 -1.4285895552633221 0 -1.4285895552633221 0.1857204763237974 0 0 0 0 5.5257653908629436 0.45192112760070202 0 0.45192112760070202 42.946804062204407 0 0 0 0 0.63922785111935809 15.731818409718457 0 15.731818409718457 48.12681440735966 0 0 0 0 97.012360910048301 -53.36181159364331 0 -53.36181159364331 37.916685444026022 0 0 0 0 3.8197273856494576 29.48428469611482 0 29.48428469611482 24.815494510960782 0 0 0 0 12.743463923427043 11.223418200158164 0 11.223418200158164 34.876514980231121 0 0 0 0 20.025846286262095 11.211109330823909 0 11.211109330823909 4.4199932220768829 0 0 0 0 11.889733655223836 -1.3887075099062436 0 -1.3887075099062436 0.21372158407587713 0 0 0 0 23.620592095161555 -4.482991091396336 0 -4.482991091396336 -6.5050826258064944 0 0 0 0 18.87428994468064 -2.6882018061413646 0 -2.6882018061413646 1.7884117262962604 0 0 0 0 10.417974288386176 2.9706460666017165 0 2.9706460666017165 17.674571668259105 0 0 0 0 10.05809177953779 -11.454701740196704 0 -11.454701740196704 12.909212563602495 0 0 0 0 -5.8549852465803269 -2.3267692007722296 0 -2.3267692007722296 43.914793709422085 0 0 0 0 2.048251923243896 -0.45518021698907773 0 -0.45518021698907773 -0.2410817897640592 0 0 0 0 20.303589487244608 -2.4238826430503684 0 -2.4238826430503684 2.7587180915558847 0 0 0 0 7.9541242996637891 5.6982630436030206 0 5.6982630436030206 -0.81535959102417532 0 0 0 0 20.600488394644344 -3.7479140997904707 0 -3.7479140997904707 2.2501778699122497 0 0 0 0 16.844703043243499 -1.6331360368144203 0 -1.6331360368144203 2.9758303287060244 0 0 0 0 5.6267658306362307 2.0125340138640979 0 2.0125340138640979 0.97534653417084227 0 0 0 0 27.969263356692863 13.213643260117514 0 13.213643260117514 -12.642702145025851 0 0 0 0 16.769132267392706 -3.4148108808529969 0 -3.4148108808529969 4.7708671823168061 0 0 0 0 -9.3698755003715632 43.423820568571387 0 43.423820568571387 -2.4692550627705714 0 0 0 0 -1.8121599607693497 -29.835912220440036 0 -29.835912220440036 15.277011263649456 0 0 0 0 2.9128602416539309 2.4251521279051076 0 2.4251521279051076 0.57907575192768235 0 0 0 0 36.679951426107436 -12.299183514016306 0 -12.299183514016306 1.662548262819314 0 0 0 0 25.151610552209604 2.4121266200502305 0 2.4121266200502305 3.7417985892250272 0 0 0 0 28.730418687686324 -3.2498487962807303 0 -3.2498487962807303 1.658471208458451 0 0 0 0 22.276315591007005 -7.9734327685136464 0 -7.9734327685136464 8.5002498156732713 0 0 0 0 8.5705977980205716 8.1501631742823406 0 8.1501631742823406 0.22320594215647982 0 0 0 0 -158.20963741050218 53.465254985732457 0 53.465254985732457 52.057217389664459 0 0 0 0 -70.908208459717571 80.433161949290579 0 80.433161949290579 39.58614941248706 0 0 0 0 24.181765469838865 0.66041766081389142 0 0.66041766081389142 0.83669018917134963 0 0 0 0 31.377135192014975 -12.188635688308523 0 -12.188635688308523 -13.714896325686368 0 0 0 0 -1.4799095057199168 0.50503440848787307 0 0.50503440848787307 0.61525077910774595 0 0 0 0 -35.769013060373254 3.631565943790406 0 3.631565943790406 -2.474227876222244 0 0 0 0 -56.468444697748055 -35.931321893994067 0 -35.931321893994067 -71.667096759174001 0 0 0 0 89.590399200649699 21.343189669276725 0 21.343189669276725 -25.449883053437745 0 0 0 0 232.08344208209019 22.27190323812026 0 22.27190323812026 67.758624124001187 0 0 0 0 92.563406388886506 79.688587846131895 0 79.688587846131895 36.134938873913597 0 0 0 0 63.332288805278949 80.457328903874782 0 80.457328903874782 -70.335396533353276 0 0 0 0 80.226841236493783 -54.431642343960419 0 -54.431642343960419 54.13786862718046 0 0 0 0 94.563723681816555 -149.35683446896184 0 -149.35683446896184 184.25981885737841 0 0 0 0 104.07212626005639 -68.598807511746116 0 -68.598807511746116 7.0468060459613824 0 0 0 0 145.08347512758337 -58.78348842369607 0 -58.78348842369607 -0.10546723372876257 0 0 0 0 213.95123838215659 -84.333441543157221 0 -84.333441543157221 9.2659422580383985 0 0 0 0 -7.2032801792483951 3.2090960993416964 0 3.2090960993416964 3.2216723998350574 0 0 0 0 67.98097086121561 -68.466613953287634 0 -68.466613953287634 100.53231850693709 0 0 0 0 0.48477082328736287 0.69298787620596869 0 0.69298787620596869 0.13041542027521291 0 0 0 0 273.95278807952127 -119.29659271690105 0 -119.29659271690105 16.638300751349433 0 0 0 0 373.10835351700553 -12.713329787810963 0 -12.713329787810963 -106.61744662196074 0 0 0 0 323.23116231420863 -140.99506215841902 0 -140.99506215841902 10.189638306731709 0 0 0 0 610.65871156303547 -105.88392125532555 0 -105.88392125532555 -92.335724881768385 0 0 0 0 377.65280989991152 -288.1798480531599 0 -288.1798480531599 230.89721229219026 0 0 0 0 296.20040978409816 -145.44110668262596 0 -145.44110668262596 95.678132021726242 0 0 0 0 552.06993298744783 97.862251222606531 0 97.862251222606531 288.46850328519662 0 0 0 0 705.18014044753363 -332.39390279695209 0 -332.39390279695209 73.577596443133089 0 0 0 0 325.77201021894143 -438.71493696067887 0 -438.71493696067887 505.69657346254041 0 0 0 0 265.8154886555858 -88.69737683213458 0 -88.69737683213458 -18.006965895321628 0 0 0 0 481.60779875339358 -137.79432837190436 0 -137.79432837190436 -33.550226772681526 0 0 0 0 375.00422846293077 -187.31453787652254 0 -187.31453787652254 70.530855744368921 0 0 0 0 209.97010440057238 -130.60073189107732 0 -130.60073189107732 27.054646592711833 0 0 0 0 369.28544590909587 -145.66958305608068 0 -145.66958305608068 -24.40629045367973 0 0 0 0 261.3736246804765 -100.20536637073013 0 -100.20536637073013 -44.266313653113002 0 0 0 0 225.74172545636247 -40.479898014880519 0 -40.479898014880519 -32.743053748482964 0 0 0 0 9.939615904147189 5.9497107501889275 0 5.9497107501889275 2.8053279663774529 0 0 0 0 -28.021767764555989 -14.10823901121239 0 -14.10823901121239 51.782293573115226 0 0 0 0 260.58759845761233 15.772726984399924 0 15.772726984399924 101.09404510786703 0 0 0 0 202.79243645977112 -55.903073813089691 0 -55.903073813089691 16.593110507079928 0 0 0 0 48.137274450447876 39.29340322728649 0 39.29340322728649 -47.434936679910606 0 0 0 0 11.245114966628648 8.9692072786876338 0 8.9692072786876338 4.4605229298913702 0 0 0 0 19.116376614489127 133.17598817492774 0 133.17598817492774 -57.281528677891743 0 0 0 0 -10.863760179359815 129.92191188346919 0 129.92191188346919 21.734895333290012 0 0 0 0 62.276612042885972 40.517838964405314 0 40.517838964405314 -13.369939732808234 0 0 0 0 56.407516560953809 -44.95141061975437 0 -44.95141061975437 11.894159373044531 0 0 0 0 2.962392082742042 -0.58409756370494392 0 -0.58409756370494392 -5.8964909911728558 0 0 0 0 23.602174526520685 23.585616255892489 0 23.585616255892489 6.0501443340867809 0 0 0 0 78.306412592923152 -1.8893495576485293 0 -1.8893495576485293 -14.550996126415157 0 0 0 0 14.690808243569336 -28.065799595018348 0 -28.065799595018348 25.039271211900541 0 0 0 0 37.189143686497118 -10.266518044993973 0 -10.266518044993973 -55.223277546925601 0 0 0 0 25.991950612253277 36.658485764408169 0 36.658485764408169 -121.25969749754961 0 0 0 0 34.53160667521297 -89.897820505570166 0 -89.897820505570166 34.810954217775759 0 0 0 0 71.616471560173522 32.868576532087133 0 32.868576532087133 -21.342677180077771 0 0 0 0 -45.999080467707245 14.255653252018419 0 14.255653252018419 -60.60665404145675 0 0 0 0 45.474368760333164 -75.17671991499401 0 -75.17671991499401 -5.3817656945775525 0 0 0 0 91.657564184941293 81.784208844519242 0 81.784208844519242 -45.971989321919864 0 0 0 0 0.48379494905435649 -0.17234490216284826 0 -0.17234490216284826 -3.4324522478322761 0 0 0 0 41.629419529082952 -35.821015434253241 0 -35.821015434253241 -57.316501176769179 0 0 0 0 -21.756187753751874 107.92773370126861 0 107.92773370126861 -118.82575074206579 0 0 0 0 -78.002111859066645 132.22403011435858 0 132.22403011435858 -90.338581747674652 0 0 0 0 -101.20895746188762 70.203134428833891 0 70.203134428833891 -43.007007266234268 0 0 0 0 0.91036520539347521 0.60134817732637202 0 0.60134817732637202 -0.24144465468765564 0 0 0 0 -14.617573499970604 98.822334119153311 0 98.822334119153311 -112.55338548555346 0 0 0 0 -3.089192457991885 98.726879959183862 0 98.726879959183862 -124.74231000416603 0 0 0 0 -11.836537858936936 70.539870773645816 0 70.539870773645816 -89.379526876849923 0 0 0 0 13.292872982419794 73.925515852919034 0 73.925515852919034 -101.13683378723636 0 0 0 0 50.350629184104037 49.939504732170917 0 49.939504732170917 -120.2318856256079 0 0 0 0 13.057600237545557 71.577160167692909 0 71.577160167692909 -131.79519000065011 0 0 0 0 -7.6470196972950362 106.24465678443039 0 106.24465678443039 -135.82259923690981 0 0 0 0 17.685332503533573 76.191724598253359 0 76.191724598253359 -135.40919320802459 0 0 0 0 31.815519039715582 43.220901609939233 0 43.220901609939233 -148.74408729726747 0 0 0 0 47.153470735065639 41.337971313581875 0 41.337971313581875 -152.57603978578936 0 0 0 0 52.922565624001436 50.137031495633664 0 50.137031495633664 -141.79777502192792 0 0 0 0 -198.94741109246388 170.73876980649243 0 170.73876980649243 -140.20827605939758 0 0 0 0 -129.25101901491871 43.618852424418492 0 43.618852424418492 -81.575838256888346 0 0 0 0 38.85916730070312 55.686496595795234 0 55.686496595795234 -182.30133600311274 0 0 0 0 -7.6357638688350562 114.21870300290834 0 114.21870300290834 -190.73174333119459 0 0 0 0 0.2986359649908934 0.053557554321798762 0 0.053557554321798762 -1.3377822723999166 0 0 0 0 165.24421619458008 -101.28967457354338 0 -101.28967457354338 -74.353350838343431 0 0 0 0 62.759579105189914 45.92792608292001 0 45.92792608292001 -126.27228894134646 0 0 0 0 -97.375847054110636 107.53036471463798 0 107.53036471463798 -75.949088651706688 0 0 0 0 4.0735297368331942 2.0505443921354214 0 2.0505443921354214 0.72963329989454895 0 0 0 0 400.60826124448795 -294.48564926192034 0 -294.48564926192034 162.34759482118307 0 0 0 0 41.578672355595813 84.740222774083762 0 84.740222774083762 -48.788199188183626 0 0 0 0 44.761607182968874 -56.541490189848673 0 -56.541490189848673 2.8974524788143299 0 0 0 0 337.59095054068894 -25.430963223034269 0 -25.430963223034269 -6.10079323237278 0 0 0 0 85.431344161901507 -57.802088545328843 0 -57.802088545328843 81.185893277496916 0 0 0 0 460.7151641700184 -169.90273291329174 0 -169.90273291329174 0.24640229701071803 0 0 0 0 -35.821279867210251 -60.650298060262685 0 -60.650298060262685 98.945251785085816 0 0 0 0 -2.2458341471901804 -136.63234837825041 0 -136.63234837825041 25.911863251256591 0 0 0 0 -70.182182229282262 -182.3292858850844 0 -182.3292858850844 73.722917731778125 0 0 0 0 53.392889684284455 -107.67870315056348 0 -107.67870315056348 19.409339857224381 0 0 0 0 55.351827592599875 -132.74863356133216 0 -132.74863356133216 98.968458207785261 0 0 0 0 105.45116768477601 -93.613118320178529 0 -93.613118320178529 103.29872124086775 0 0 0 0 -327.27430275944062 -74.048330273697559 0 -74.048330273697559 64.549482075847891 0 0 0 0 -208.13269588185358 -149.80202918505006 0 -149.80202918505006 107.62225996758349 0 0 0 0 -1.0101253998490165 0.21365140679023398 0 0.21365140679023398 1.5349103586576387 0 0 0 0 170.54791399708847 -80.046717628957424 0 -80.046717628957424 26.089260799574106 0 0 0 0 119.14668414976222 -140.624946028561 0 -140.624946028561 114.23679419176034 0 0 0 0 260.37863168155309 -114.26599667114615 0 -114.26599667114615 67.523668700507756 0 0 0 0 257.47360153224145 -125.73956883452607 0 -125.73956883452607 30.149691782732759 0 0 0 0 336.66809611760618 -182.47984170238274 0 -182.47984170238274 20.290100675055783 0 0 0 0 397.15021634161167 -217.62747025544047 0 -217.62747025544047 24.714234286332157 0 0 0 0 109.27573084968026 -210.14666493765088 0 -210.14666493765088 269.20571874337043 0 0 0 0 185.29480323447206 -12.844687735484648 0 -12.844687735484648 0.21809710258600018 0 0 0 0 117.17035009132087 -69.256909747952875 0 -69.256909747952875 82.769324243081002 0 0 0 0 88.072809982004401 -93.525809362385189 0 -93.525809362385189 64.240841042129091 0 0 0 0 97.155289940128569 3.2476675418185081 0 3.2476675418185081 -282.68680183737035 0 0 0 0 15.919126536516558 -1.7068741423350566 0 -1.7068741423350566 -0.59269679610757597 0 0 0 0 226.61443411638902 178.74607627475029 0 178.74607627475029 -212.20026728316583 0 0 0 0 -1.168959514801827 -66.87978163735572 0 -66.87978163735572 -51.28395068715021 0 0 0 0 6.3477764977500328 -1.0858661578511892 0 -1.0858661578511892 -0.055769915589881314 0 0 0 0 90.644268416588602 25.366577654585797 0 25.366577654585797 -10.601238356646567 0 0 0 0 9.0578170842236432 -243.32109704281561 0 -243.32109704281561 249.35364728984104 0 0 0 0 198.74750384089566 -134.28906466869392 0 -134.28906466869392 -47.414520614515212 0 0 0 0 70.139156076125801 -55.466429557064004 0 -55.466429557064004 -144.84688221846727 0 0 0 0 -7.7771821029309649 -44.907276908184272 0 -44.907276908184272 -46.768955483419859 0 0 0 0 36.608416286922875 12.327445080474035 0 12.327445080474035 33.360735159833901 0 0 0 0 5.5698118646119497 -0.30476115145094695 0 -0.30476115145094695 0.16392094606714325 0 0 0 0 21.369337318958344 -2.4620314910338443 0 -2.4620314910338443 -0.90840769299282342 0 0 0 0 38.805271169701882 -3.0647199715718898 0 -3.0647199715718898 -5.8693833959040376 0 0 0 0 -190.82150016895321 -339.29923549399803 0 -339.29923549399803 133.62862826170436 0 0 0 0 34.533418143808376 -67.756857023852675 0 -67.756857023852675 -467.90356681342746 0 0 0 0 1482.4641596835863 -209.48817464524197 0 -209.48817464524197 -0.054635114484281155 0 0 0 0 19.395994278373962 -3.0494016159870867 0 -3.0494016159870867 -1.085799934684059 0 0 0 0 1434.6971785305577 -1439.7254686469469 0 -1439.7254686469469 896.62872029092534 0 0 0 0 8.9185855404926428 -1.3729939036961021 0 -1.3729939036961021 -0.086098601882701437 0 0 0 0 781.18738744332222 632.71169468542712 0 632.71169468542712 -354.89374302221825 0 0 0 0 270.30903597468932 -431.82699513271632 0 -431.82699513271632 25.831216388195799 0 0 0 0 350.64894929422007 63.456348810666498 0 63.456348810666498 260.67254594339238 0 0 0 0 7.8419842800691697 -1.8631602757760959 0 -1.8631602757760959 0.40916733226329138 0 0 0 0 -34.620970692521951 -114.26359927790438 0 -114.26359927790438 10.321651444479016 0 0 0 0 244.17037765686109 -99.784567094847631 0 -99.784567094847631 40.582366913270874 0 0 0 0 1.3302242996341249 -1.0679601294739598 0 -1.0679601294739598 1.4984884473720546 0 0 0 0 -108.53216742536461 -13.491261777198389 0 -13.491261777198389 70.78108713812307 0 0 0 0 1947.6274860233389 -452.50556497341449 0 -452.50556497341449 -84.601875930669152 0 0 0 0 1841.5767700536053 -587.49726626191205 0 -587.49726626191205 -3.6438002734005295 0 0 0 0 3495.2228539249918 -668.82739131537744 0 -668.82739131537744 -336.20868168823267 0 0 0 0 2954.3588721437118 -373.25985349191183 0 -373.25985349191183 -95.650988155282079 0 0 0 0 2966.1343452600704 -602.39022124836583 0 -602.39022124836583 -188.60061876855201 0 0 0 0 2966.6226551388972 -616.75993026088702 0 -616.75993026088702 -92.873388990655855 0 0 0 0 2809.7170990653976 -890.6383637431037 0 -890.6383637431037 127.19436377471922 0 0 0 0 3497.0299220364504 -1506.2651046913209 0 -1506.2651046913209 -277.88217178684488 0 0 0 0 2550.4540755845701 -2218.2182889817022 0 -2218.2182889817022 743.59338973130718 0 0 0 0 349.16277446143795 -36.741512409073948 0 -36.741512409073948 719.22287563477903 0 0 0 0 1623.9290132111128 -751.08966781097536 0 -751.08966781097536 -70.99616340342476 0 0 0 0 1461.8652058179359 -908.82681826866053 0 -908.82681826866053 -29.811144268440557 0 0 0 0 2272.0796442360443 -1306.9787256410409 0 -1306.9787256410409 40.394115029114005 0 0 0 0 404.30157621046237 -335.88585952917919 0 -335.88585952917919 148.83238771689494 0 0 0 0 2245.2245705051027 -363.47747922415448 0 -363.47747922415448 -275.3551946435702 0 0 0 0 -2.2424660195994619 0.59611030515281982 0 0.59611030515281982 1.1961085517204235 0 0 0 0 -247.1199669251946 -31.779241515900651 0 -31.779241515900651 -112.44783575145107 0 0 0 0 267.03179595682741 -84.98543579838389 0 -84.98543579838389 265.35685134833966 0 0 0 0 -271.76592713894206 -21.135896558680372 0 -21.135896558680372 12.073763589560485 0 0 0 0 -228.2703462465297 12.289623373766197 0 12.289623373766197 37.755508912746109 0 0 0 0 437.97637786545965 -252.55737548249624 0 -252.55737548249624 118.6463890020612 0 0 0 0 252.14657225934207 -226.31854845745357 0 -226.31854845745357 386.40620983904864 0 0 0 0 106.27089226473618 -10.382366502080345 0 -10.382366502080345 -38.039765943384396 0 0 0 0 96.538202211027965 -5.1162357940122547 0 -5.1162357940122547 2.7323247046142569 0 0 0 0 15.58098417630444 -2.6530435104064907 0 -2.6530435104064907 3.2317476804784526 0 0 0 0 10.184077512770973 -0.53618552560666899 0 -0.53618552560666899 -5.122093440015286 0 0 0 0 -81.188811577576416 -46.605073239242181 0 -46.605073239242181 42.605232074971582 0 0 0 0 -19.037318015667552 -66.560558523015857 0 -66.560558523015857 9.8656108267036871 0 0 0 0 -7.2856149119943439 -116.65455327521818 0 -116.65455327521818 -50.723737628645267 0 0 0 0 97.816181638115978 -28.145086918430991 0 -28.145086918430991 6.5755688695221881 0 0 0 0 13.21593487548758 1.9414457720432381 0 1.9414457720432381 1.6756402694170978 0 0 0 0 78.153449906692913 -3.8614286347113307 0 -3.8614286347113307 -3.2200713664044542 0 0 0 0 53.400162372339594 -4.8543739813231497 0 -4.8543739813231497 -1.4669958219699291 0 0 0 0 -79.716721273796793 -30.118236681850089 0 -30.118236681850089 188.80196647645792 0 0 0 0 32.139544328538932 -14.96012494451714 0 -14.96012494451714 6.5858268893281968 0 0 0 0 499.47841112461174 -15.126150390637434 0 -15.126150390637434 -87.497175858629419 0 0 0 0 3483.8137351625605 644.62596541163691 0 644.62596541163691 -493.29493623577167 0 0 0 0 715.61436361040978 -699.87852567703965 0 -699.87852567703965 300.24472047023767 0 0 0 0 96.830323671776569 -1306.5306430331761 0 -1306.5306430331761 2558.4124779526137 0 0 0 0 12.948125787220704 -7.4552548762724768 0 -7.4552548762724768 5.4567022213559113 0 0 0 0 533.13191063700651 -335.20405512584057 0 -335.20405512584057 -114.45060112093938 0 0 0 0 637.99246191714337 -144.44163648438632 0 -144.44163648438632 165.18805052244261 0 0 0 0 108.4348117174377 128.3904722758553 0 128.3904722758553 -124.22022728938889 0 0 0 0 96.222760552213003 133.96140586234947 0 133.96140586234947 42.891231384833269 0 0 0 0 342.03296892590151 2.8709542325845803 0 2.8709542325845803 -448.44445503188558 0 0 0 0 7.6062530041272112 232.60846938268634 0 232.60846938268634 460.81303870402598 0 0 0 0 95.256733363123203 72.934253127296188 0 72.934253127296188 30.970238681439952 0 0 0 0 89.184416045485705 31.823308354397057 0 31.823308354397057 101.05633523254602 0 0 0 0 34.175045192750986 35.905305807313766 0 35.905305807313766 133.01423462943808 0 0 0 0 62.548413110765978 86.988419569743201 0 86.988419569743201 77.769672779912014 0 0 0 0 70.462381325283786 34.235638344013523 0 34.235638344013523 40.953047454855096 0 0 0 0 71.028461443568176 44.449515983350679 0 44.449515983350679 -8.7559472478714042 0 0 0 0 73.217882112345251 64.34124487425413 0 64.34124487425413 -37.461112647083098 0 0 0 0 20.50674615583857 6.846847035123119 0 6.846847035123119 -6.419817743847668 0 0 0 0 68.607311724801548 10.942866412803511 0 10.942866412803511 -76.215927447635224 0 0 0 0 50.955900038187565 14.711515537025669 0 14.711515537025669 -0.32167595766897028 0 0 0 0 70.178162542094469 26.760996703876515 0 26.760996703876515 2.2799359051389843 0 0 0 0 91.414124866169004 62.554574428067411 0 62.554574428067411 -91.602101798047215 0 0 0 0 72.509640346979722 84.980614939159622 0 84.980614939159622 37.212778734894613 0 0 0 0 77.153969345090445 96.573409324572083 0 96.573409324572083 -37.66107755272445 0 0 0 0 45.997506503292243 43.180489737228299 0 43.180489737228299 44.909881770040755 0 0 0 0 27.238164957634581 -22.063447189697854 0 -22.063447189697854 -114.42754070670753 0 0 0 0 128.04528270961964 49.818695821522191 0 49.818695821522191 -204.31563469084875 0 0 0 0 29.246180537389591 -21.753711334142281 0 -21.753711334142281 -30.287141678564694 0 0 0 0 118.61160758244753 -88.354121492605415 0 -88.354121492605415 -54.386145968083909 0 0 0 0 4.5520874537086797 8.6737348977446338 0 8.6737348977446338 -3.8474394540454466 0 0 0 0 86.639323295930808 63.173985096401736 0 63.173985096401736 -21.498323773920426 0 0 0 0 85.190740933030611 15.281479297847909 0 15.281479297847909 -35.851568575541819 0 0 0 0 78.346107729256801 -3.1765021211529785 0 -3.1765021211529785 -9.0974350855817239 0 0 0 0 40.97994305285917 -0.021604600543696506 0 -0.021604600543696506 -11.361547752480387 0 0 0 0 72.191813036602468 15.851832955088405 0 15.851832955088405 -0.088725065615945287 0 0 0 0 74.744425871918793 20.515932322484787 0 20.515932322484787 -9.4215190082155686 0 0 0 0 86.01204668446735 19.737207955169879 0 19.737207955169879 -30.511134857759771 0 0 0 0 96.20821046664787 -8.876660254059459 0 -8.876660254059459 -20.426092374981636 0 0 0 0 86.222282083937898 -12.227294786920538 0 -12.227294786920538 -11.555572692373971 0 0 0 0 60.02095435897354 16.141132325685021 0 16.141132325685021 2.4251217907412865 0 0 0 0 34.614827561948914 9.8411220839625173 0 9.8411220839625173 142.58044646972164 0 0 0 0 19.870751976561934 7.58195252499101 0 7.58195252499101 -8.0509452072768894 0 0 0 0 60.51664999537752 -129.56298644297607 0 -129.56298644297607 2.6146920279055763 0 0 0 0 65.047196265815955 57.169424446094503 0 57.169424446094503 -49.865290479081295 0 0 0 0 58.718758079804786 4.3849093917858255 0 4.3849093917858255 -10.828084658643698 0 0 0 0 -130.44263217936532 -112.83766458244399 0 -112.83766458244399 42.132413563264365 0 0 0 0 73.563203222598531 -8.0253694838147567 0 -8.0253694838147567 -25.977915196276626 0 0 0 0 43.748307812474849 11.755576750486505 0 11.755576750486505 -4.301355909000085 0 0 0 0 67.07055193495799 -2.2955942867757422 0 -2.2955942867757422 -8.4059822234828001 0 0 0 0 53.320756683112847 2.5387651591815441 0 2.5387651591815441 -2.1819982038461161 0 0 0 0 51.548878301984871 -18.450091906315166 0 -18.450091906315166 0.27498029940323221 0 0 0 0 61.091587091665133 -30.936569594333605 0 -30.936569594333605 -29.856776835833216 0 0 0 0 -6.8549346821382642 38.101892322152707 0 38.101892322152707 -294.26832540165378 0 0 0 0 56.40030285793182 -28.838179708405278 0 -28.838179708405278 18.899809521296447 0 0 0 0 72.794434258679757 -11.514453358915034 0 -11.514453358915034 -5.9013119207911586 0 0 0 0 381.80783681047615 130.56889728605501 0 130.56889728605501 67.626686491611963 0 0 0 0 64.221758943400346 -21.112695836482089 0 -21.112695836482089 -0.93949900777238327 0 0 0 0 54.221502262618742 -14.250632841124116 0 -14.250632841124116 22.364623496419881 0 0 0 0 62.270502165047219 -11.989457799339561 0 -11.989457799339561 -5.254535434971956 0 0 0 0 43.483783082272566 -10.112935324143336 0 -10.112935324143336 -4.9757793672933985 0 0 0 0 48.220452462224785 -10.670971967534115 0 -10.670971967534115 -23.475888016153931 0 0 0 0 49.727059732496855 -14.858027896826798 0 -14.858027896826798 -0.25080824388385281 0 0 0 0 55.345062165972195 -20.559903973243991 0 -20.559903973243991 -33.294103564997613 0 0 0 0 -216.86639501801983 -365.70812719794867 0 -365.70812719794867 18.479296271639754 0 0 0 0 5.1771306067346643 -6.0400982564959804 0 -6.0400982564959804 6.6428972686505148 0 0 0 0 -24.135477115640242 -27.247793185782939 0 -27.247793185782939 -17.312395854472925 0 0 0 0 -18.573899656388676 -41.722786293379158 0 -41.722786293379158 18.458855948210839 0 0 0 0 15.712372687843384 -14.958959935107259 0 -14.958959935107259 -11.761437060613854 0 0 0 0 -13.501379270572215 -31.696835663392449 0 -31.696835663392449 -15.532629300673761 0 0 0 0 2.7034866629239787 -2.6588760190166028 0 -2.6588760190166028 1.9966983585534557 0 0 0 0 -35.879342551495938 7.4236350717354753 0 7.4236350717354753 181.54583897090197 0 0 0 0 -31.246931282090372 -28.281119053456223 0 -28.281119053456223 29.406485780975345 0 0 0 0 -98.856307213260152 -238.18168021124143 0 -238.18168021124143 220.49169133872965 0 0 0 0 -58.89307154227572 -276.75617455986139 0 -276.75617455986139 -121.16840609484007 0 0 0 0 -0.60246027374523692 -112.07881699122754 0 -112.07881699122754 134.8731215694861 0 0 0 0 23.918757188435848 -42.87629601215184 0 -42.87629601215184 -102.68442375551194 0 0 0 0 -100.94722281588474 -7.5780139780508762 0 -7.5780139780508762 -86.397545747206095 0 0 0 0 -9.8470624981254105 -20.615142924392824 0 -20.615142924392824 -1.6045098552652313 0 0 0 0 97.674652142027583 -25.477018951290319 0 -25.477018951290319 -21.862735724596817 0 0 0 0 -7.1674206400348339 -66.43855273125746 0 -66.43855273125746 -83.363473546314708 0 0 0 0 -122.88114194629634 -138.1370145962772 0 -138.1370145962772 27.067317230996196 0 0 0 0 39.541379746961155 -25.460917021365063 0 -25.460917021365063 -13.687064909365899 0 0 0 0 113.53786162659526 -243.63724583115345 0 -243.63724583115345 -269.40615615838169 0 0 0 0 65.412464428245585 -26.794949170471682 0 -26.794949170471682 -30.798294293388608 0 0 0 0 65.609375565464489 -22.776811210554087 0 -22.776811210554087 -4.7010229656285869 0 0 0 0 44.224076443657395 -13.749879630673876 0 -13.749879630673876 -2.7801878869851429 0 0 0 0 -2.7584214712260291 52.616600661909615 0 52.616600661909615 -228.07688483800757 0 0 0 0 91.967872245062608 -191.00220012087249 0 -191.00220012087249 -145.83785613774626 0 0 0 0 38.683195973364491 -246.26850121769172 0 -246.26850121769172 -324.7099592663991 0 0 0 0 61.41095321570549 -8.1363316592766601 0 -8.1363316592766601 -1.2954089462561917 0 0 0 0 50.875823872245491 -7.0624078639038181 0 -7.0624078639038181 0.74043570378559309 0 0 0 0 65.01886307500817 -23.654961663979844 0 -23.654961663979844 -5.2263779450911088 0 0 0 0 39.76147459753571 -13.214141422708881 0 -13.214141422708881 -2.9727729134496759 0 0 0 0 91.516451869800221 -166.79169869134694 0 -166.79169869134694 -79.209355159159031 0 0 0 0 -66.53579115766297 -282.66016569968076 0 -282.66016569968076 209.20226766349739 0 0 0 0 -2.1939922214151011 -292.88420543520965 0 -292.88420543520965 -247.64575761830761 0 0 0 0 627.32592537854362 76.142295894683969 0 76.142295894683969 -171.85150657098018 0 0 0 0 109.37085001326341 220.49817553327284 0 220.49817553327284 360.42205528274792 0 0 0 0 -151.48665768494902 -107.30848754976023 0 -107.30848754976023 255.51955807631657 0 0 0 0 92.968343733720758 71.612654713175544 0 71.612654713175544 62.30841214127895 0 0 0 0 -42.706019774501328 47.198025321022158 0 47.198025321022158 445.03771767287299 0 0 0 0 -80.531885523261735 33.833366648751962 0 33.833366648751962 60.081059203944278 0 0 0 0 235.93997917554225 102.4608736342675 0 102.4608736342675 -53.909591963391222 0 0 0 0 420.46432428595654 229.75136920062005 0 229.75136920062005 28.275025267203091 0 0 0 0 235.58525895533967 112.11037788843191 0 112.11037788843191 -40.263163650885872 0 0 0 0 72.596047653616552 -16.046110103490044 0 -16.046110103490044 -4.2332465868197318 0 0 0 0 30.006715974363033 1.5928014192577393 0 1.5928014192577393 20.914839523821456 0 0 0 0 37.729585154998887 -2.265328534938746 0 -2.265328534938746 -12.867439826341471 0 0 0 0 -181.70376224729262 -77.812747996349685 0 -77.812747996349685 78.759136213900547 0 0 0 0 -121.84426513616199 -75.802509685181462 0 -75.802509685181462 -16.180432989240387 0 0 0 0 13.345597071409856 -31.350297033849145 0 -31.350297033849145 1.4146246089452279 0 0 0 0 -166.13191066414583 21.770901369817693 0 21.770901369817693 17.372053239128945 0 0 0 0 -80.56171499956406 30.101702951540901 0 30.101702951540901 -7.2942912464004621 0 0 0 0 -31.192205838844529 10.349150763384841 0 10.349150763384841 6.3193007492100151 0 0 0 0 -40.078012626137934 18.284763746713452 0 18.284763746713452 -21.771326167077177 0 0 0 0 -4.4578640621652426 -3.0726849047761817 0 -3.0726849047761817 1.7487373427900401 0 0 0 0 -72.387106422422221 23.84909956992874 0 23.84909956992874 -8.832305822622402 0 0 0 0 -48.889737349076313 19.695609979108895 0 19.695609979108895 -14.16622876971951 0 0 0 0 -67.076419526390964 32.235200086762234 0 32.235200086762234 -19.205311678317003 0 0 0 0 20.80630379999414 -1.4876128946456504 0 -1.4876128946456504 -14.017515983861784 0 0 0 0 40.849134961645177 -28.205872448162111 0 -28.205872448162111 7.7154027567164576 0 0 0 0 39.200389696226921 -0.34577168407025738 0 -0.34577168407025738 -20.742049230278326 0 0 0 0 17.828265848438775 -19.764325578981129 0 -19.764325578981129 4.7810877826752751 0 0 0 0 -63.846908257626637 -0.5545007555566599 0 -0.5545007555566599 -10.278203142611346 0 0 0 0 1.9136094913410489 -63.034929901125906 0 -63.034929901125906 -21.230145664503652 0 0 0 0 15.203388434597599 -8.0315922412820839 0 -8.0315922412820839 -8.9503258444546159 0 0 0 0 2.3941666802274995 -35.257307647166272 0 -35.257307647166272 7.4206477229672601 0 0 0 0 12.228362441455829 -8.9530718470275588 0 -8.9530718470275588 -5.4447749599712552 0 0 0 0 10.525531968376356 -18.103983352482388 0 -18.103983352482388 -5.4029966391361963 0 0 0 0 13.624451304831673 -3.3790074254654741 0 -3.3790074254654741 -8.5933469788320274 0 0 0 0 16.448135001424816 -7.3186923037110319 0 -7.3186923037110319 -10.797063863718904 0 0 0 0 23.013081519798703 -4.3504137560145821 0 -4.3504137560145821 -5.2231870917206979 0 0 0 0 36.464891667972552 5.1920118679825578 0 5.1920118679825578 -8.7760089933380527 0 0 0 0 16.072641049700906 -5.0816934702847902 0 -5.0816934702847902 -11.527422873696196 0 0 0 0 15.893639041634742 -6.0960810664973906 0 -6.0960810664973906 -7.669533402820889 0 0 0 0 26.033531484394189 -6.8147050720416757 0 -6.8147050720416757 -8.4039941847191244 0 0 0 0 16.492501182976412 -9.8582695738859911 0 -9.8582695738859911 -6.3104939198638021 0 0 0 0 16.549019325932022 -8.2790985565879964 0 -8.2790985565879964 -7.8625009110401152 0 0 0 0 4.1534513529082915 -12.963923350011122 0 -12.963923350011122 -2.8542915141006935 0 0 0 0 11.663072167226346 -11.137586101608576 0 -11.137586101608576 -3.0259074144832994 0 0 0 0 12.961427157530125 -6.0024456424168875 0 -6.0024456424168875 -4.9939248636674165 0 0 0 0 14.598406877164962 -8.4317020680855421 0 -8.4317020680855421 -7.2580707511660876 0 0 0 0 15.594592283159727 -7.3305522193804791 0 -7.3305522193804791 -8.5138256544114483 0 0 0 0 1.9674947509927847 -2.9813384993278547 0 -2.9813384993278547 -3.629597920262678 0 0 0 0 9.9397484331093438 -4.7985162996064901 0 -4.7985162996064901 -1.9881452641902797 0 0 0 0 -5.4070707713835873 -14.790555897001013 0 -14.790555897001013 -7.2478902155212381 0 0 0 0 8.5215941516435123 -7.1638480096296462 0 -7.1638480096296462 -3.3427207712766176 0 0 0 0 14.500810686586192 -8.8809427022706586 0 -8.8809427022706586 3.7775095518954913 0 0 0 0 8.9355188143381383 -4.386944777817007 0 -4.386944777817007 -1.6438258863308874 0 0 0 0 0.83522146311079837 -1.0243208861623714 0 -1.0243208861623714 0.51756129424862074 0 0 0 0 -3.9499223242310109 -0.25575510021644732 0 -0.25575510021644732 -2.329633827771886 0 0 0 0 0.64922542864223942 4.1527883569578989 0 4.1527883569578989 -7.2538390902154788 0 0 0 0 0.23997467866476541 -0.19991192939053093 0 -0.19991192939053093 -0.73683131159694604 0 0 0 0 12.986118749526213 -0.5790148255891836 0 -0.5790148255891836 -14.075949328232127 0 0 0 0 11.683190734980002 -1.3769883160190801 0 -1.3769883160190801 -4.1625463372716744 0 0 0 0 6.6792715454628535 8.3505171805890512 0 8.3505171805890512 -7.1450288087730378 0 0 0 0 10.518168508184317 -2.0923917836389592 0 -2.0923917836389592 -1.7292524576305368 0 0 0 0 15.27986879015225 -2.7838428801260306 0 -2.7838428801260306 -4.186955212276871 0 0 0 0 15.843548911056132 -3.8682357069974387 0 -3.8682357069974387 -8.9027282760412163 0 0 0 0 19.07524619538043 -0.89433786839364871 0 -0.89433786839364871 -4.7830032048545714 0 0 0 0 15.802240891658585 -4.2963965493017895 0 -4.2963965493017895 -9.9347081552787131 0 0 0 0 285.65060582225124 73.924922382061368 0 73.924922382061368 -26.967307391366376 0 0 0 0 152.24831975344568 174.0349615369405 0 174.0349615369405 -58.990666367711128 0 0 0 0 408.21542418420722 168.56439695239033 0 168.56439695239033 -58.231140994650559 0 0 0 0 -17.897338823224345 34.838035072997513 0 34.838035072997513 -40.090639792651018 0 0 0 0 -0.94692122652314481 0.023872996100294586 0 0.023872996100294586 1.4678530317895309 0 0 0 0 7.0098479604057502 7.7795792739493663 0 7.7795792739493663 -38.856265719946123 0 0 0 0 523.35687827845686 57.989960626358879 0 57.989960626358879 -12.338762412026881 0 0 0 0 706.87110607733666 391.40110358688469 0 391.40110358688469 165.10693256835475 0 0 0 0 6.2849600740883318 -2.0241612757373701 0 -2.0241612757373701 -0.24104721180992783 0 0 0 0 812.27515520047746 -9.0910110172571876 0 -9.0910110172571876 -196.63670965424353 0 0 0 0 0.083124911063350737 -3.6216429560222423 0 -3.6216429560222423 -5.7090141670214507 0 0 0 0 323.5421926889685 -21.51754684754269 0 -21.51754684754269 -41.593023997235832 0 0 0 0 1.8681493599465 -0.46042554482783515 0 -0.46042554482783515 -1.7724376978433423 0 0 0 0 160.64553695905488 -79.451064733948442 0 -79.451064733948442 28.740222759175595 0 0 0 0 698.47400427342654 -153.44398219071854 0 -153.44398219071854 -113.97938098164741 0 0 0 0 17.830290648911614 -57.509591158623152 0 -57.509591158623152 403.24894282274545 0 0 0 0 -235.86524686407938 236.09872014918164 0 236.09872014918164 85.330611679581125 0 0 0 0 -334.13163389583133 -150.04448210288797 0 -150.04448210288797 160.33512438218895 0 0 0 0 228.14065015189408 192.628637786544 0 192.628637786544 83.759116752587943 0 0 0 0 115.02062676099013 -29.107834321226392 0 -29.107834321226392 -169.05606359478315 0 0 0 0 60.261651483226061 -25.434962728867486 0 -25.434962728867486 8.9732359702647901 0 0 0 0 -33.114439359149401 -325.4381945540681 0 -325.4381945540681 -455.34627274687136 0 0 0 0 241.21877195761044 198.96858086496843 0 198.96858086496843 1.0391996906531631 0 0 0 0 253.06875856350234 -207.39815287018519 0 -207.39815287018519 -101.4129463156064 0 0 0 0 -184.37145165919901 -337.72027712296347 0 -337.72027712296347 -139.89084258088315 0 0 0 0 355.72681152852601 -416.75827569031753 0 -416.75827569031753 -352.08424353559258 0 0 0 0 41.470053540056938 -16.585912185445792 0 -16.585912185445792 5.811515237678698 0 0 0 0 65.350677088725206 -72.930460137963564 0 -72.930460137963564 -74.86872484195419 0 0 0 0 -85.296846199235006 80.861793144969852 0 80.861793144969852 -217.8362742252541 0 0 0 0 435.31796382040807 -114.43476354443406 0 -114.43476354443406 7.6247811548842037 0 0 0 0 113.08927498610137 20.177356727437768 0 20.177356727437768 -22.493362038315695 0 0 0 0 61.114606416193055 -200.74982136019591 0 -200.74982136019591 61.379171856523499 0 0 0 0 64.132728668570053 -107.94192655776982 0 -107.94192655776982 130.03250150498243 0 0 0 0 139.25034090805639 -186.84978358531504 0 -186.84978358531504 206.17730523560618 0 0 0 0 9.3019944963812122 -0.58478844566807453 0 -0.58478844566807453 0.32552331524586575 0 0 0 0 -83.290103818417265 -200.30633019541423 0 -200.30633019541423 -146.14578739617627 0 0 0 0 7.9287242801089519 0.75338348467086291 0 0.75338348467086291 3.9894741277914587 0 0 0 0 27.619748021428848 -1.3040721813545271 0 -1.3040721813545271 1.4687398593917502 0 0 0 0 73.42540240674839 14.034555347198015 0 14.034555347198015 7.6150372471900027 0 0 0 0 56.187647142542119 1.6951397368356993 0 1.6951397368356993 1.8308844323388982 0 0 0 0 -1.915922767372038 -0.3635385168566927 0 -0.3635385168566927 2.7079578225705649 0 0 0 0 346.69876284435304 -11.061843299052271 0 -11.061843299052271 3.3872672867080382 0 0 0 0 -140.30953529974067 -268.44464986994808 0 -268.44464986994808 11.499780540952088 0 0 0 0 37.23640519145556 -240.03536356217734 0 -240.03536356217734 -133.51284647911757 0 0 0 0 -365.50375638006517 -132.05595198012998 0 -132.05595198012998 16.755756015947782 0 0 0 0 352.45085335357726 557.81411181301723 0 557.81411181301723 537.87505370139672 0 0 0 0 173.74770812662609 144.3264620582562 0 144.3264620582562 375.5046142048522 0 0 0 0 13.851481095868479 -5.5061229775803895 0 -5.5061229775803895 2.653427419665646 0 0 0 0 -362.21146510884137 -150.48252076820609 0 -150.48252076820609 -404.46428050905251 0 0 0 0 235.48874071327009 155.01528035200113 0 155.01528035200113 1.0224966005818032 0 0 0 0 216.28677100779169 154.17645230384653 0 154.17645230384653 61.499699526463019 0 0 0 0 239.61891821929476 213.52658173533686 0 213.52658173533686 53.933146912545681 0 0 0 0 277.49160704000315 217.78765068363293 0 217.78765068363293 -8.0917475339052167 0 0 0 0 142.46798074810067 339.26523293344326 0 339.26523293344326 122.51887678048763 0 0 0 0 47.890652220047528 -7.1086291022746586 0 -7.1086291022746586 1.5847436757211661 0 0 0 0 46.637716921464744 -127.77785092926803 0 -127.77785092926803 86.183411203475316 0 0 0 0 255.2029772066453 -147.42614481636753 0 -147.42614481636753 -244.93555929696697 0 0 0 0 967.0509081505661 160.63713757603477 0 160.63713757603477 -56.644506337026087 0 0 0 0 325.25714010070442 -518.23101722872832 0 -518.23101722872832 459.88682009164768 0 0 0 0 -403.07569718734158 -161.3521318933291 0 -161.3521318933291 58.690279882960795 0 0 0 0 44.916203093391232 17.841129953319275 0 17.841129953319275 1.2318005555775926 0 0 0 0 28.133399337034838 10.505830922496614 0 10.505830922496614 7.4401550629487545 0 0 0 0 41.440355958184227 -5.4676700191305372 0 -5.4676700191305372 -154.4850025485232 0 0 0 0 29.147336163308751 26.089633418014259 0 26.089633418014259 6.3982333862337972 0 0 0 0 88.478193570761505 3.3320756090651003 0 3.3320756090651003 -76.027348294607236 0 0 0 0 35.818535472550366 22.814450909656909 0 22.814450909656909 4.0830590396400206 0 0 0 0 47.910496322147083 23.217748723252782 0 23.217748723252782 5.0041168899487047 0 0 0 0 46.908869124767079 23.221139734277813 0 23.221139734277813 6.4702214408071086 0 0 0 0 9.0728659703101471 20.777983583513041 0 20.777983583513041 4.5182954759269807 0 0 0 0 46.400707593451443 23.643352581060014 0 23.643352581060014 6.5189487920342799 0 0 0 0 24.035740544797591 -2.0261372223288028 0 -2.0261372223288028 -5.9872694864065323 0 0 0 0 26.551203910719778 -32.082612482840773 0 -32.082612482840773 6.6751495642565715 0 0 0 0 14.9522803424843 10.798010594403422 0 10.798010594403422 -38.769876966991319 0 0 0 0 18.977591425483169 7.0925175973969523 0 7.0925175973969523 -3.6818487227048129 0 0 0 0 7.2873552669906445 -2.2704534194793808 0 -2.2704534194793808 -0.3394444230559639 0 0 0 0 33.294542547649442 -5.1932926243551094 0 -5.1932926243551094 -0.23397918038974952 0 0 0 0 45.785917353840745 -1.7030141227471276 0 -1.7030141227471276 1.5349038520282565 0 0 0 0 49.250808068783954 21.61009748445349 0 21.61009748445349 6.685391523889848 0 0 0 0 80.131526035707793 -33.340968684483869 0 -33.340968684483869 -6.9550960999881681 0 0 0 0 60.268772170500597 -31.992701968666324 0 -31.992701968666324 -6.6295460533497135 0 0 0 0 107.69332544273493 -28.934078473744648 0 -28.934078473744648 -13.331550838512157 0 0 0 0 81.921342094479769 -24.431728230614439 0 -24.431728230614439 -8.562272604055579 0 0 0 0 84.159599544145749 -28.835148416632137 0 -28.835148416632137 -13.799087757212192 0 0 0 0 69.878131160839985 -25.013556547676444 0 -25.013556547676444 0.95805652454384926 0 0 0 0 80.803929757414153 -28.857710452981451 0 -28.857710452981451 -1.7357886377184855 0 0 0 0 61.387743014811178 -25.069074959643864 0 -25.069074959643864 -3.236642597764595 0 0 0 0 91.6703017507607 -31.859400932288452 0 -31.859400932288452 -7.6987708119982017 0 0 0 0 100.51471269485774 -32.498225777524794 0 -32.498225777524794 -14.388590956964435 0 0 0 0 96.018367512324403 7.064571719225512 0 7.064571719225512 -23.212199184253222 0 0 0 0 -11.054494760612911 -16.73776150565245 0 -16.73776150565245 7.7069563132700711 0 0 0 0 81.032465885029524 -12.132643550910302 0 -12.132643550910302 5.8427859470739349 0 0 0 0 51.396279234839739 -6.9415271345704959 0 -6.9415271345704959 -3.4820590885761229 0 0 0 0 99.99864853984036 1.9031700589134743 0 1.9031700589134743 3.2182978511946203 0 0 0 0 90.584397910097323 9.6503531022879088 0 9.6503531022879088 8.5008545127316211 0 0 0 0 91.900023421832884 1.0692640900850847 0 1.0692640900850847 4.6657559667055466 0 0 0 0 113.49095347139519 4.3948695510057405 0 4.3948695510057405 -0.8327143779031303 0 0 0 0 116.76974401379994 23.8450364036255 0 23.8450364036255 13.552162970921131 0 0 0 0 109.23523496907001 8.7237474848607235 0 8.7237474848607235 1.4684666053999536 0 0 0 0 137.30332159099635 15.318046659720494 0 15.318046659720494 3.0043949626842732 0 0 0 0 123.3797158003872 -2.1798363809350576 0 -2.1798363809350576 5.7949089035710131 0 0 0 0 135.71990055750939 15.981143479189541 0 15.981143479189541 4.0165948302810648 0 0 0 0 135.64823798409537 32.890568801098262 0 32.890568801098262 -0.14007085469802405 0 0 0 0 111.15213642290473 -23.824192435411248 0 -23.824192435411248 -10.562564630581164 0 0 0 0 104.03456815064419 -8.0901463910722669 0 -8.0901463910722669 2.8883314264267028 0 0 0 0 105.13733992350171 -10.356828340699394 0 -10.356828340699394 -0.55461560851972536 0 0 0 0 130.22763181729533 -10.508293485779632 0 -10.508293485779632 2.3587799376471139 0 0 0 0 106.60995251703571 -18.955442331277709 0 -18.955442331277709 20.372539699060781 0 0 0 0 106.1233045841218 -12.184284154393708 0 -12.184284154393708 3.3247526874165487 0 0 0 0 35.076269160771858 -5.3451039084262391 0 -5.3451039084262391 2.6834623745613762 0 0 0 0 135.47860895103076 -11.822307973228362 0 -11.822307973228362 18.626858577884775 0 0 0 0 105.93063908946249 19.470121842040243 0 19.470121842040243 -10.574061643041491 0 0 0 0 279.03736024753016 -18.677905051081552 0 -18.677905051081552 -26.077259616854235 0 0 0 0 115.42431375883461 28.132121443690721 0 28.132121443690721 24.06667224161356 0 0 0 0 136.18883666793135 17.108903038808762 0 17.108903038808762 11.455339861600805 0 0 0 0 137.0035783862113 26.336908863485405 0 26.336908863485405 43.56268316225578 0 0 0 0 167.50340244415565 -5.8914663913578806 0 -5.8914663913578806 5.145804577958188 0 0 0 0 142.90243702122825 3.5631026364326317 0 3.5631026364326317 50.428493112543038 0 0 0 0 165.41243287995167 28.50240752109039 0 28.50240752109039 7.1743553693381727 0 0 0 0 105.9195563040812 -12.754105907206565 0 -12.754105907206565 20.083646886781935 0 0 0 0 36.438498858603616 -5.5032877157061932 0 -5.5032877157061932 -1.0387490011178606 0 0 0 0 176.34704758183216 -13.445468239568527 0 -13.445468239568527 -24.677679792729577 0 0 0 0 174.28589081743849 67.14653946140379 0 67.14653946140379 20.841266948778866 0 0 0 0 14.998977430281229 28.669615832732433 0 28.669615832732433 9.1046278177914246 0 0 0 0 38.64603029457794 28.301636922760849 0 28.301636922760849 0.9346480760246294 0 0 0 0 62.727701495015936 18.579125024482778 0 18.579125024482778 -6.0079617112223218 0 0 0 0 8.264246095436949 14.176503484886751 0 14.176503484886751 9.1932923966977835 0 0 0 0 38.242284492465842 5.3303773344470073 0 5.3303773344470073 6.8682074603107139 0 0 0 0 -51.150925407062459 270.4755262803061 0 270.4755262803061 -344.39108423568041 0 0 0 0 32.214059546140838 21.927061273184776 0 21.927061273184776 -0.10028440487771761 0 0 0 0 198.66265341362305 6.2898760041111359 0 6.2898760041111359 -213.78498335205609 0 0 0 0 860.86001872821726 260.54614112249328 0 260.54614112249328 -408.33607329974529 0 0 0 0 317.79019622050328 -461.44030729416204 0 -461.44030729416204 -46.406252929159109 0 0 0 0 -565.76508695295342 114.68905223662307 0 114.68905223662307 908.91683352743178 0 0 0 0 -690.40658228498069 543.67982281844945 0 543.67982281844945 406.63550930719839 0 0 0 0 45.516255466104667 28.19536166065609 0 28.19536166065609 5.6190707701052816 0 0 0 0 13.373847326756469 16.145573534839457 0 16.145573534839457 5.9127750008564899 0 0 0 0 17.224975734614674 25.391015181551808 0 25.391015181551808 9.9720162718978891 0 0 0 0 118.07816364770406 26.706974403358345 0 26.706974403358345 5.3003309605551294 0 0 0 0 230.6439262211934 -100.48895494474937 0 -100.48895494474937 3.1908127269680335 0 0 0 0 166.76972454861459 44.984819925049941 0 44.984819925049941 -15.312750185645571 0 0 0 0 308.08179085713346 -37.375778949210826 0 -37.375778949210826 -66.703019888100243 0 0 0 0 180.658645510106 -12.265572912217067 0 -12.265572912217067 94.550941360357427 0 0 0 0 253.64936334066442 -182.15454948690785 0 -182.15454948690785 62.016494806269748 0 0 0 0 -3.4098535879165865 -158.73285011272219 0 -158.73285011272219 118.92379398710636 0 0 0 0 550.56519596470753 -254.92881032577861 0 -254.92881032577861 -6.0093700401357637 0 0 0 0 478.68744822814188 -194.55000366032755 0 -194.55000366032755 0.99959689835668541 0 0 0 0 335.41866912087426 -205.65089239764438 0 -205.65089239764438 -16.631762957993487 0 0 0 0 128.08890232078556 95.481674580959407 0 95.481674580959407 -47.310318905333588 0 0 0 0 92.529408406051516 1.5883058373487984 0 1.5883058373487984 54.295032990656225 0 0 0 0 124.34796691407973 220.92548387915826 0 220.92548387915826 47.328666073487398 0 0 0 0 460.13172419872717 -402.61334014135196 0 -402.61334014135196 484.33115618460852 0 0 0 0 25.960953050513211 15.822555044447395 0 15.822555044447395 -6.3275843005748644 0 0 0 0 34.162107477683662 -0.075710187351077707 0 -0.075710187351077707 1.6115051900963895 0 0 0 0 132.71457972009375 -23.158247441848061 0 -23.158247441848061 17.870273750433626 0 0 0 0 175.11737610975979 -125.09945185379365 0 -125.09945185379365 248.45525242741348 0 0 0 0 269.74673799279844 124.72188078651516 0 124.72188078651516 -28.733754037968083 0 0 0 0 291.367904232 157.6694297104732 0 157.6694297104732 -139.91174985167618 0 0 0 0 40.244673538677688 -10.584455230262989 0 -10.584455230262989 -16.451215245207585 0 0 0 0 219.08294486007071 -56.748333908306449 0 -56.748333908306449 64.020154005786026 0 0 0 0 456.07509715713968 -93.118696899601218 0 -93.118696899601218 -156.82957786725092 0 0 0 0 219.67576748138526 -65.563739925053596 0 -65.563739925053596 -308.81902730360525 0 0 0 0 356.04769077873789 -141.22215017991221 0 -141.22215017991221 -76.2381833299969 0 0 0 0 590.38449059653794 -56.63514765223681 0 -56.63514765223681 -61.192178884954728 0 0 0 0 348.40065482680802 54.384768311401785 0 54.384768311401785 152.36511683695426 0 0 0 0 209.4234428133459 54.409497494235183 0 54.409497494235183 121.76031401127511 0 0 0 0 228.51097907145595 195.82360857939102 0 195.82360857939102 -103.32715744870563 0 0 0 0 171.59239284012853 38.966218664137983 0 38.966218664137983 -11.204365977909429 0 0 0 0 129.17432319434738 132.6162812917155 0 132.6162812917155 94.232370189242374 0 0 0 0 415.91532203490351 67.41828249068385 0 67.41828249068385 -81.226815017511399 0 0 0 0 144.91701760903743 77.943822022451968 0 77.943822022451968 160.65374896616959 0 0 0 0 857.79258470551576 -130.62400929977372 0 -130.62400929977372 -98.602084487640241 0 0 0 0 2.8741197536454663 1.7735450627782896 0 1.7735450627782896 3.5525573258839023 0 0 0 0 35.850589896857855 26.013600656464234 0 26.013600656464234 28.085891711283466 0 0 0 0 83.264272830883783 -29.796081593776989 0 -29.796081593776989 -2.7557866391905463 0 0 0 0 60.791556719843356 -4.946282913950256 0 -4.946282913950256 -24.492230699481127 0 0 0 0 525.69930269555516 -143.60023814396266 0 -143.60023814396266 -59.760251186118694 0 0 0 0 380.23519740370693 -183.66743809678115 0 -183.66743809678115 160.93995214396 0 0 0 0 146.0321910124112 -30.026200478959709 0 -30.026200478959709 128.68341976176293 0 0 0 0 19.671511736238109 1.4534800161015511 0 1.4534800161015511 9.9374793459194812 0 0 0 0 156.01744765431795 43.903767524765271 0 43.903767524765271 -23.868630686674464 0 0 0 0 167.55856135779567 39.754234352789787 0 39.754234352789787 -16.084700683464547 0 0 0 0 357.52398303343944 30.415344395241164 0 30.415344395241164 -99.980813965807101 0 0 0 0 38.349366809477019 -40.479523628955576 0 -40.479523628955576 6.5011913797828793 0 0 0 0 158.01645726100833 -1.8486027123199165 0 -1.8486027123199165 9.8754897199039533 0 0 0 0 117.07235030204174 49.298743795974417 0 49.298743795974417 -22.319061129606553 0 0 0 0 249.14918689224578 -43.994634861051736 0 -43.994634861051736 -4.6649415136961352 0 0 0 0 280.4915065341338 -40.870978098047544 0 -40.870978098047544 -12.411807036550272 0 0 0 0 139.0511005139706 -14.178425643853416 0 -14.178425643853416 64.723563891021968 0 0 0 0 251.82076974135998 -53.812598701163097 0 -53.812598701163097 5.1984829865050415 0 0 0 0 335.29072754087974 120.12369309332325 0 120.12369309332325 129.38798261238026 0 0 0 0 374.57773865983472 -94.869411942527222 0 -94.869411942527222 200.97623223835171 0 0 0 0 485.01632364914985 -31.655975636468611 0 -31.655975636468611 181.49189008102235 0 0 0 0 516.02613365789875 67.53752754522111 0 67.53752754522111 470.70291550404727 0 0 0 0 404.92403580113751 -48.185989771123104 0 -48.185989771123104 88.461503043257835 0 0 0 0 558.93988823381369 -24.600087321382034 0 -24.600087321382034 81.649604397336589 0 0 0 0 284.54833061105455 6.3302225238101073 0 6.3302225238101073 110.3370614067353 0 0 0 0 287.96055830952537 -64.284021961522114 0 -64.284021961522114 42.492200021070857 0 0 0 0 413.74268309443141 -67.728560029645905 0 -67.728560029645905 25.929377942763495 0 0 0 0 389.6864905590337 -15.732635180269426 0 -15.732635180269426 -11.15351628767894 0 0 0 0 376.52482608321588 -16.821679243677409 0 -16.821679243677409 7.3201268168514559 0 0 0 0 543.27294918542611 -5.2866083765707117 0 -5.2866083765707117 7.9480048013355429 0 0 0 0 -0.41549718293973115 3.3573299368146934 0 3.3573299368146934 -6.4211991091249709 0 0 0 0 482.95919195690658 113.59022506013252 0 113.59022506013252 27.355080240382449 0 0 0 0 359.49901641305769 128.09019265308075 0 128.09019265308075 62.565280105233342 0 0 0 0 421.59133688895236 86.500255296114119 0 86.500255296114119 24.35276391271691 0 0 0 0 436.23415865033166 86.209854937324508 0 86.209854937324508 22.972650346167029 0 0 0 0 352.73768422103603 56.920467900665244 0 56.920467900665244 13.838998214862841 0 0 0 0 353.62645476390026 136.18188593866239 0 136.18188593866239 52.297920226334554 0 0 0 0 -63.555100788129494 -182.95054401388188 0 -182.95054401388188 -331.53229344335705 0 0 0 0 -50.00131818302907 -212.01378460852811 0 -212.01378460852811 -302.19343288012897 0 0 0 0 -245.06309409288224 -41.243762340305693 0 -41.243762340305693 -377.50766072556326 0 0 0 0 350.49876296147704 172.15853147442749 0 172.15853147442749 111.36504268550743 0 0 0 0 615.75923030020203 103.43672206415158 0 103.43672206415158 12.113092693821272 0 0 0 0 922.98826455452945 128.40362398228717 0 128.40362398228717 -12.891229798466156 0 0 0 0 598.4310232012358 -89.406756706086981 0 -89.406756706086981 184.74611931386426 0 0 0 0 398.14926530123921 287.29883537346132 0 287.29883537346132 149.00778666729457 0 0 0 0 622.20658672752324 349.2715478259679 0 349.2715478259679 96.613155078392083 0 0 0 0 1095.4753169508767 392.23477893153631 0 392.23477893153631 100.10480307032117 0 0 0 0 -51.449522243987303 -126.25157383630494 0 -126.25157383630494 -224.9525481738383 0 0 0 0 1.5963134455855084 -0.73259526482490855 0 -0.73259526482490855 -1.3730455262308592 0 0 0 0 2.8985053150893521 -0.90774941183201463 0 -0.90774941183201463 -0.89738155313362178 0 0 0 0 -11.757033916190267 -600.07848955514055 0 -600.07848955514055 251.13708440944902 0 0 0 0 -321.30713590650703 -234.97554960362959 0 -234.97554960362959 285.59179745290385 0 0 0 0 1055.4743848161888 -248.24382773181696 0 -248.24382773181696 236.66626471348354 0 0 0 0 1191.4581918420736 -70.262530739757494 0 -70.262530739757494 -4.8845662693765917 0 0 0 0 104.83124224055791 -376.73206087944527 0 -376.73206087944527 158.18895535372212 0 0 0 0 253.62110437414958 -335.27466146959614 0 -335.27466146959614 93.149801759569527 0 0 0 0 649.85716653027339 -748.03997764622 0 -748.03997764622 121.63143650701022 0 0 0 0 69.060399575857446 -164.11697588405423 0 -164.11697588405423 61.582072022796638 0 0 0 0 33.243895847757813 -123.10641571398833 0 -123.10641571398833 55.365085399178497 0 0 0 0 -81.243583036120981 -170.36935480672491 0 -170.36935480672491 98.050594802035448 0 0 0 0 -97.668006112915464 -2.7104650775272603 0 -2.7104650775272603 -44.076844031320434 0 0 0 0 -62.70555882951885 -112.40933104930855 0 -112.40933104930855 -167.1513565613659 0 0 0 0 -64.700291479297448 -91.548291340273863 0 -91.548291340273863 -191.50187406576515 0 0 0 0 -62.388775482075289 -162.5563954221634 0 -162.5563954221634 -324.30913717022486 0 0 0 0 -690.69607447186718 -293.84284139871579 0 -293.84284139871579 -286.43560212223383 0 0 0 0 -233.36969165832852 36.206092945462387 0 36.206092945462387 -153.26818007771726 0 0 0 0 -154.78292220606818 -113.87835674220241 0 -113.87835674220241 -295.84487380791688 0 0 0 0 118.55587247062067 64.524609150408651 0 64.524609150408651 24.284843364861217 0 0 0 0 225.66569455464196 98.269481221685851 0 98.269481221685851 51.16546797298497 0 0 0 0 284.89344435559178 39.472993447739555 0 39.472993447739555 0.9179898697752833 0 0 0 0 297.05783706944203 58.817897482548915 0 58.817897482548915 27.582465867232941 0 0 0 0 190.95292051730576 -103.48333632463834 0 -103.48333632463834 -46.791262100029144 0 0 0 0 328.76625231752405 -46.96684845370828 0 -46.96684845370828 -22.068141154048249 0 0 0 0 307.06710612148163 -45.29952263492828 0 -45.29952263492828 -17.863824570843235 0 0 0 0 318.41991984730703 -102.71525870667199 0 -102.71525870667199 -119.66182141767081 0 0 0 0 306.28564524913963 39.110321407773938 0 39.110321407773938 -22.870605266234861 0 0 0 0 383.17891756076278 -37.913433470632754 0 -37.913433470632754 -83.02583143779475 0 0 0 0 314.89175225147119 -55.649228564278701 0 -55.649228564278701 -68.233495403473171 0 0 0 0 223.59342392886538 17.401147961275967 0 17.401147961275967 -42.643654667956525 0 0 0 0 192.91526590041758 -2.632383417630308 0 -2.632383417630308 -19.670645143447359 0 0 0 0 191.00695390567671 9.7591481380002563 0 9.7591481380002563 -62.701453236232737 0 0 0 0 230.56539532818715 -14.851767222462058 0 -14.851767222462058 44.766945682262985 0 0 0 0 241.46683729799224 33.835377640258372 0 33.835377640258372 -32.035964810601399 0 0 0 0 106.03395937214373 59.718480629248234 0 59.718480629248234 24.604423246824354 0 0 0 0 208.94586709531723 35.191562136916446 0 35.191562136916446 16.666488741054309 0 0 0 0 233.80424819658219 50.865745612884211 0 50.865745612884211 -6.1383996100782952 0 0 0 0 209.99707684676105 71.411450492356153 0 71.411450492356153 -36.747373375828829 0 0 0 0 259.02457718874211 33.684063433947131 0 33.684063433947131 -59.857928495172587 0 0 0 0 288.54459054910694 6.4866378435997376 0 6.4866378435997376 -15.137164076624771 0 0 0 0 357.23395249107125 51.025221352776896 0 51.025221352776896 -50.498475035825777 0 0 0 0 351.45409351067792 24.215444246144898 0 24.215444246144898 -61.637555762125373 0 0 0 0 562.54112280871777 9.0824169262224359 0 9.0824169262224359 -83.561865964398521 0 0 0 0 399.19517273573729 -63.371716074933033 0 -63.371716074933033 -3.1060040281132615 0 0 0 0 -119.13798636612773 -262.48914588808043 0 -262.48914588808043 -142.0324663184411 0 0 0 0 597.19557600455573 258.6757526477457 0 258.6757526477457 57.402653737228547 0 0 0 0 2.2059014993195376 -1.0186301950768524 0 -1.0186301950768524 -0.13699005115236051 0 0 0 0 253.34113000455545 75.519210455515349 0 75.519210455515349 -31.554158314773872 0 0 0 0 4.9809334120121207 -2.5004395074594754 0 -2.5004395074594754 -0.66183704485885331 0 0 0 0 237.51947072082839 13.903513294539948 0 13.903513294539948 -76.252605034607996 0 0 0 0 2.2562989807047416 -134.37353878464171 0 -134.37353878464171 -153.8176883501456 0 0 0 0 106.8887645934301 28.455813329083753 0 28.455813329083753 -131.79303177102315 0 0 0 0 58.522330732317641 28.44115213914688 0 28.44115213914688 -3.7357319568350249 0 0 0 0 61.630261080630589 30.991192037964083 0 30.991192037964083 -5.0378583863989661 0 0 0 0 59.620295531116426 18.387751218610902 0 18.387751218610902 -13.629189707941237 0 0 0 0 27.618921131215757 38.320139097788683 0 38.320139097788683 -6.8820216232653308 0 0 0 0 20.162844729004036 1.1627658624149859 0 1.1627658624149859 -5.8572579443664177 0 0 0 0 48.734262858022703 12.025284711677841 0 12.025284711677841 9.3891159414333742 0 0 0 0 46.498126066786426 33.33194375160334 0 33.33194375160334 6.5607197807407829 0 0 0 0 37.605985111269547 19.52852909020686 0 19.52852909020686 7.0832141409405267 0 0 0 0 18.231892183905714 4.9258011336024765 0 4.9258011336024765 -2.2572832398907838 0 0 0 0 72.14026527205715 24.288511650665896 0 24.288511650665896 -6.650053507805751 0 0 0 0 51.154249474133707 8.6040333889535496 0 8.6040333889535496 -1.7528150822556749 0 0 0 0 14.125594893953803 2.1726583568574114 0 2.1726583568574114 -6.2975094636326645 0 0 0 0 29.772359798268042 16.833766030924966 0 16.833766030924966 0.34949054243373956 0 0 0 0 31.419008592347382 22.353580002858507 0 22.353580002858507 6.0447226870132056 0 0 0 0 36.762360552400025 23.133392987187882 0 23.133392987187882 8.9997300825736737 0 0 0 0 76.174582675721069 0.040477579772471017 0 0.040477579772471017 0.94692908241796481 0 0 0 0 197.72470525049721 30.372324800720918 0 30.372324800720918 0.081513709047214888 0 0 0 0 179.00387764675543 54.426368796288443 0 54.426368796288443 29.11317068682547 0 0 0 0 0.022373607753479519 -2.9880306131455714 0 -2.9880306131455714 2.5117181833046049 0 0 0 0 24.03879620097274 0.74464578591627628 0 0.74464578591627628 -8.7104676489849417 0 0 0 0 88.070736531896387 37.184719667382275 0 37.184719667382275 -9.6347062229285889 0 0 0 0 0.92457274517073529 -27.520838770891544 0 -27.520838770891544 40.558527346222036 0 0 0 0 262.52058062597644 -93.760480345060046 0 -93.760480345060046 113.69666575918905 0 0 0 0 -49.717113299033372 124.40848324446853 0 124.40848324446853 38.155919347343342 0 0 0 0 42.762958037710632 -8.5091099475007468 0 -8.5091099475007468 -2.5290586214348423 0 0 0 0 511.94327014252485 -78.595825045377524 0 -78.595825045377524 -219.60314413964443 0 0 0 0 -3.0290926241657843 1.7427418800576504 0 1.7427418800576504 0.09136282772308757 0 0 0 0 224.27768410224235 17.25425649126214 0 17.25425649126214 -8.8554228573225373 0 0 0 0 14.434926525871504 25.444349910675385 0 25.444349910675385 -3.8629926087500612 0 0 0 0 -1.8686563537921614 1.1958369596520697 0 1.1958369596520697 -3.869592698209793 0 0 0 0 254.44112086015957 47.242907001914489 0 47.242907001914489 20.679729012517555 0 0 0 0 281.11814506083465 182.17348541557556 0 182.17348541557556 209.67864600134999 0 0 0 0 189.98187938780757 67.721601077747437 0 67.721601077747437 -38.447402741555997 0 0 0 0 140.00485311583179 127.35608685421704 0 127.35608685421704 -28.205149128354151 0 0 0 0 265.50088041386334 108.29339262096278 0 108.29339262096278 -26.356114675020763 0 0 0 0 152.90442230242479 5.9686227079638456 0 5.9686227079638456 -40.798836521745251 0 0 0 0 12.934151945577469 68.189521101392188 0 68.189521101392188 12.465510174409246 0 0 0 0 0.52694581334947799 0.11161602529136871 0 0.11161602529136871 -1.1458887417037036 0 0 0 0 307.53611120700953 35.744611440405663 0 35.744611440405663 -8.5300635406150604 0 0 0 0 325.73794138740777 59.517356652837918 0 59.517356652837918 21.236101716603571 0 0 0 0 -8.3487826108481649 23.730490188234057 0 23.730490188234057 17.502195368858001 0 0 0 0 33.269123801670503 12.243943628866873 0 12.243943628866873 4.4908310719761175 0 0 0 0 57.197837626576074 21.122872522654689 0 21.122872522654689 23.441250796133318 0 0 0 0 33.97859990330312 6.9803478813745201 0 6.9803478813745201 -7.8077106255604214 0 0 0 0 21.97611407361029 1.0965790590576177 0 1.0965790590576177 -2.2996692219852681 0 0 0 0 59.508210898187826 23.65740602501424 0 23.65740602501424 13.122034816324231 0 0 0 0 60.742256150479079 22.55290653191696 0 22.55290653191696 -9.5353138169325575 0 0 0 0 60.709778025950072 19.852088903534877 0 19.852088903534877 8.5154866183570448 0 0 0 0 60.844213478601887 28.429822188961225 0 28.429822188961225 -8.247112923459099 0 0 0 0 62.912120858425624 27.20001025509373 0 27.20001025509373 13.294094811906234 0 0 0 0 52.580472606627154 20.555876849677361 0 20.555876849677361 11.839015396451032 0 0 0 0 29.078462347389518 -4.1565441143060156 0 -4.1565441143060156 -3.4376630932053684 0 0 0 0 41.120979194209212 7.9440097385402169 0 7.9440097385402169 10.633790121982202 0 0 0 0 20.318354171038663 -9.2351471977558504 0 -9.2351471977558504 8.2256905153180924 0 0 0 0 23.562220712826047 -4.516602795704344 0 -4.516602795704344 -6.9337630641674082 0 0 0 0 30.292390187021994 -3.242134590506268 0 -3.242134590506268 -5.4720815107842107 0 0 0 0 55.557767998951022 100.14694351435452 0 100.14694351435452 4.3259751335961241 0 0 0 0 84.003012249597305 60.866003894394915 0 60.866003894394915 -18.779959622043723 0 0 0 0 1.6334789008188864 -0.44437432232373197 0 -0.44437432232373197 0.034836967977680225 0 0 0 0 -15.911604458175134 -125.56134928074665 0 -125.56134928074665 32.458396158442824 0 0 0 0 262.86002674212068 -22.057199579501752 0 -22.057199579501752 -10.593588277322041 0 0 0 0 121.51808922726195 -114.26197086272518 0 -114.26197086272518 -37.46158596846459 0 0 0 0 0.21654673684362535 -0.27259356477489405 0 -0.27259356477489405 0.15992877257481891 0 0 0 0 142.66500558466214 -102.14969864426456 0 -102.14969864426456 26.482548883178502 0 0 0 0 71.581502688932233 1.0849810987975221 0 1.0849810987975221 -51.619574388538162 0 0 0 0 -97.119608489156235 -144.01182779853522 0 -144.01182779853522 -32.770391331231927 0 0 0 0 31.447030791416182 17.493960310266402 0 17.493960310266402 18.009479655225277 0 0 0 0 17.664586860607074 -4.4835622675446416 0 -4.4835622675446416 -9.300815099473418 0 0 0 0 40.07146937190555 10.055747808282604 0 10.055747808282604 6.5297769329454241 0 0 0 0 30.984848273306852 18.705524783960755 0 18.705524783960755 11.53967721231902 0 0 0 0 32.071863711753394 19.261893752786818 0 19.261893752786818 15.966455503541511 0 0 0 0 12.553056272088298 13.764931597817935 0 13.764931597817935 11.021430002137645 0 0 0 0 272.70966890909767 111.65447022333376 0 111.65447022333376 -25.615189767604079 0 0 0 0 146.6440386698232 133.14374664564548 0 133.14374664564548 87.549611104252108 0 0 0 0 15.476976292966214 0.053443098276872547 0 0.053443098276872547 -3.5409880863253811 0 0 0 0 172.3378590306711 70.327927740933973 0 70.327927740933973 -28.064448525203716 0 0 0 0 184.24710895391763 127.64635526313691 0 127.64635526313691 -70.781123339087117 0 0 0 0 161.25093257102708 53.07818752029084 0 53.07818752029084 -30.414108500305247 0 0 0 0 201.53215530471061 105.87741366110231 0 105.87741366110231 33.488935740246689 0 0 0 0 128.70558232475014 100.48248780142796 0 100.48248780142796 64.685530041066158 0 0 0 0 271.54605049249949 90.326933478306955 0 90.326933478306955 -43.622772724487277 0 0 0 0 196.14476169843692 84.282358051348183 0 84.282358051348183 11.558943090615685 0 0 0 0 214.56969193954137 168.70336322046205 0 168.70336322046205 116.06791188543127 0 0 0 0 252.31601866131678 122.74551670122236 0 122.74551670122236 37.343984549578636 0 0 0 0 190.65262033691397 120.55653057313521 0 120.55653057313521 66.620832773871371 0 0 0 0 194.21257384761702 125.12486139147086 0 125.12486139147086 71.428694641045126 0 0 0 0 156.22272864705883 101.6183163636847 0 101.6183163636847 65.451669871187732 0 0 0 0 166.75368503662321 133.31025823404673 0 133.31025823404673 81.876873916433397 0 0 0 0 166.52898479282157 137.23507336939269 0 137.23507336939269 104.98605007468541 0 0 0 0 165.75386278954102 150.77124338323802 0 150.77124338323802 122.99286042118592 0 0 0 0 113.64137734420365 122.00453367709224 0 122.00453367709224 108.9769985483058 0 0 0 0 242.05043203633977 143.79596816036292 0 143.79596816036292 71.35518860197476 0 0 0 0 -53.050721075793263 38.29906830890728 0 38.29906830890728 6.3891053944882987 0 0 0 0 33.060019791562809 37.148174101434414 0 37.148174101434414 -0.84766674365034866 0 0 0 0 10.982431797321937 7.7006629408647029 0 7.7006629408647029 8.6961526196021044 0 0 0 0 5.0959269916431822 2.8790500800978265 0 2.8790500800978265 1.0601443671878981 0 0 0 0 177.50944870855892 150.58877267710614 0 150.58877267710614 82.089085605086439 0 0 0 0 173.8786818208755 127.56709509727352 0 127.56709509727352 86.334681534535775 0 0 0 0 25.551454022514008 14.2770374457439 0 14.2770374457439 10.059550762423896 0 0 0 0 14.216181006238713 2.9037102155032954 0 2.9037102155032954 -0.93123471370908595 0 0 0 0 58.923320670670364 11.171511628238477 0 11.171511628238477 10.194724927325069 0 0 0 0 15.03976788163709 -1.2587431806200513 0 -1.2587431806200513 -15.232260188542647 0 0 0 0 -0.28518738825096079 9.444596580836599 0 9.444596580836599 -22.238686345226085 0 0 0 0 183.49826956866309 145.94950571552658 0 145.94950571552658 146.45633268109282 0 0 0 0 7.9094475544968645 -0.30250753466033586 0 -0.30250753466033586 -4.0051467222291368 0 0 0 0 -0.80988142358819459 2.5463252734857269 0 2.5463252734857269 -8.1170728731905442 0 0 0 0 6.3240203048771946 -4.0222352182549344 0 -4.0222352182549344 -8.1536537732128096 0 0 0 0 11.203282328613568 -1.9959593493768892 0 -1.9959593493768892 -8.0671010817940925 0 0 0 0 0.14944262674544007 -3.3533939844461926 0 -3.3533939844461926 -4.606270473514428 0 0 0 0 -0.017218690714798868 -6.8083821546754635 0 -6.8083821546754635 -16.498134827051945 0 0 0 0 2.3673519621852392 -1.0698220962872398 0 -1.0698220962872398 0.13762694622920491 0 0 0 0 0.38247047304034254 0.37917345125288193 0 0.37917345125288193 0.19468577121630273 0 0 0 0 49.360620618550456 -2.5485132110591167 0 -2.5485132110591167 3.915669073950002 0 0 0 0 0.41461359563982114 0.74647758447243007 0 0.74647758447243007 0.48769088470493216 0 0 0 0 4.0863146660121856 -2.2968785997345762 0 -2.2968785997345762 -0.84777917481450515 0 0 0 0 84.336800572913489 -17.17347757420384 0 -17.17347757420384 8.0758916942219727 0 0 0 0 74.157709659819375 -6.5288895063480741 0 -6.5288895063480741 0.10195669270089502 0 0 0 0 72.330614654390956 5.0885113093838505 0 5.0885113093838505 1.2344982058179692 0 0 0 0 84.881033491896233 -28.252537143875958 0 -28.252537143875958 5.8322968241591271 0 0 0 0 63.038774626198574 -14.298686286655508 0 -14.298686286655508 12.455551604377828 0 0 0 0 129.66584928994416 -4.0842553611300119 0 -4.0842553611300119 -2.7637889325472411 0 0 0 0 0.95010903124088486 -0.69666225348547073 0 -0.69666225348547073 0.32270622283742961 0 0 0 0 -19.496780220841174 -40.08068848108082 0 -40.08068848108082 -49.346197328179969 0 0 0 0 220.3539365806937 25.674728812888588 0 25.674728812888588 -41.063599693503988 0 0 0 0 250.6893868141924 16.831923487802328 0 16.831923487802328 -180.98402568330391 0 0 0 0 239.75744041805592 62.109240731445823 0 62.109240731445823 -80.583471487608222 0 0 0 0 278.40027299362555 24.68821634416588 0 24.68821634416588 -96.813358788342612 0 0 0 0 400.14441848144634 76.611991313826138 0 76.611991313826138 -96.350408130805363 0 0 0 0 406.00770460367494 61.993201846917145 0 61.993201846917145 -124.56655885266417 0 0 0 0 395.73928363375308 104.67918136199626 0 104.67918136199626 -53.079675033705826 0 0 0 0 389.51569943756658 88.285587853335471 0 88.285587853335471 -24.022117004832353 0 0 0 0 408.61919877028049 47.89924667131416 0 47.89924667131416 -95.323268852729143 0 0 0 0 383.03330571412516 67.429613245527094 0 67.429613245527094 -101.72127077245727 0 0 0 0 313.3389947420219 77.495817351895596 0 77.495817351895596 -61.273198306632821 0 0 0 0 261.63468785659643 58.561928305837455 0 58.561928305837455 -47.969667765624308 0 0 0 0 331.05192191927927 89.288544757583395 0 89.288544757583395 -34.669319971423192 0 0 0 0 244.2472885843199 92.666983329964268 0 92.666983329964268 6.7763566017615631 0 0 0 0 345.53012797536212 108.24777654910878 0 108.24777654910878 -21.699470527497397 0 0 0 0 384.36766422577784 163.02338704646036 0 163.02338704646036 28.09441273081211 0 0 0 0 325.84131710528163 108.99995238390375 0 108.99995238390375 -21.728100102189813 0 0 0 0 329.46816973201931 139.04792010885581 0 139.04792010885581 27.324133232389727 0 0 0 0 244.36033596351626 149.24243654450856 0 149.24243654450856 83.886453904596692 0 0 0 0 336.32681821750884 209.55637918314551 0 209.55637918314551 215.23113039401937 0 0 0 0 308.3193410130043 198.60935316880227 0 198.60935316880227 127.25289061565627 0 0 0 0 255.16375744791003 150.34709799747361 0 150.34709799747361 83.44935590212981 0 0 0 0 358.71915132597496 155.39690187046961 0 155.39690187046961 31.559600088096886 0 0 0 0 268.1932056065416 157.21362203343415 0 157.21362203343415 153.27063122755635 0 0 0 0 59.029838670510799 318.3757847910374 0 318.3757847910374 358.33349868284677 0 0 0 0 457.21721458475804 289.08577653186603 0 289.08577653186603 243.56865454570743 0 0 0 0 1.5218828055866105 1.2563826325900322 0 1.2563826325900322 -0.051058081323549942 0 0 0 0 8.7344504094508011 -8.4970752648545158 0 -8.4970752648545158 -15.818487939880697 0 0 0 0 1.8823521769372924 0.45486096504029661 0 0.45486096504029661 -5.6260309694504107 0 0 0 0 2.7417997987280103 -1.558317265115079 0 -1.558317265115079 -0.014946313706236669 0 0 0 0 637.76996007440903 208.56106104862761 0 208.56106104862761 31.342805333037518 0 0 0 0 545.97614493336005 413.01627714284149 0 413.01627714284149 265.77108223989927 0 0 0 0 443.81070699229895 212.45912970397046 0 212.45912970397046 116.35324484597754 0 0 0 0 469.6688267325444 155.19983015018207 0 155.19983015018207 -20.71879814471049 0 0 0 0 431.52999239176279 250.13560328957806 0 250.13560328957806 142.36819849457675 0 0 0 0 410.39891949012963 129.44756597493318 0 129.44756597493318 -61.814651198254978 0 0 0 0 423.90916451769317 72.371323696815153 0 72.371323696815153 69.393138045985779 0 0 0 0 481.51043817242316 216.36804333157744 0 216.36804333157744 52.117157825719389 0 0 0 0 397.76860669857706 99.677365809221783 0 99.677365809221783 27.084223606726454 0 0 0 0 478.15448124613613 82.052935622385235 0 82.052935622385235 5.3528438044646691 0 0 0 0 257.00145619534305 4.7289334221790114 0 4.7289334221790114 0.61515147922187907 0 0 0 0 616.33336961243185 153.20567572210325 0 153.20567572210325 379.15928838220191 0 0 0 0 627.15136039356003 195.03200337903735 0 195.03200337903735 73.089186792865107 0 0 0 0 502.20559006551048 28.913121970793213 0 28.913121970793213 18.013742577157757 0 0 0 0 615.70828511015861 144.02799887752354 0 144.02799887752354 29.228519338469596 0 0 0 0 445.98274943471188 197.44535657647495 0 197.44535657647495 89.672861483746487 0 0 0 0 537.98301079268276 248.56983482742493 0 248.56983482742493 114.70193943236109 0 0 0 0 507.79028018226381 226.89118883036062 0 226.89118883036062 139.70853373471064 0 0 0 0 498.99698028309649 258.22811253085018 0 258.22811253085018 29.675650199587722 0 0 0 0 332.44335599371698 244.10931953857636 0 244.10931953857636 123.45592550261023 0 0 0 0 97.072271941171493 134.48797850017456 0 134.48797850017456 102.5616836692233 0 0 0 0 307.96726933143509 64.288177112235076 0 64.288177112235076 -17.526495961064938 0 0 0 0 487.18774087310885 212.93499861539112 0 212.93499861539112 17.407153817843778 0 0 0 0 333.97299370328983 -7.853880701729139 0 -7.853880701729139 -50.938626584310214 0 0 0 0 506.07257764440874 146.32844715271116 0 146.32844715271116 235.8055367781094 0 0 0 0 433.23576751211658 266.5642811256796 0 266.5642811256796 121.09974511472217 0 0 0 0 127.5987398676516 -61.857390667717027 0 -61.857390667717027 -21.116541896966851 0 0 0 0 0.43970337633050605 0.21359234645751712 0 0.21359234645751712 -3.0090212589975569 0 0 0 0 -94.423559716015006 9.8968457364637175 0 9.8968457364637175 87.605565605511458 0 0 0 0 39.58877047484566 63.28865731925481 0 63.28865731925481 35.759811425809517 0 0 0 0 -1.2809528949094897 -0.097563255636913482 0 -0.097563255636913482 -0.25021753333939212 0 0 0 0 79.32859492834541 -59.575701232789278 0 -59.575701232789278 -25.646916449104101 0 0 0 0 -5.7173230130047159 -3.2674107929033576 0 -3.2674107929033576 -5.4954741464861456 0 0 0 0 4.1353492333124322 -1.7404864203937507 0 -1.7404864203937507 -0.52066608370529688 0 0 0 0 4.8936393391340971 -0.46400746594215603 0 -0.46400746594215603 -0.20060636961602674 0 0 0 0 14.286581947584637 -11.244527730611424 0 -11.244527730611424 -3.6211102340608932 0 0 0 0 3.6200590162500248 -1.5506664357056934 0 -1.5506664357056934 -0.33072493110194684 0 0 0 0 4.4118562488665702 -1.2497486088611875 0 -1.2497486088611875 -0.20060636961606892 0 0 0 0 0.84459422430327891 -0.056751997682624733 0 -0.056751997682624733 -0.015284921519896001 0 0 0 0 4.8882389828213491 -1.2643582113873835 0 -1.2643582113873835 0.0014720756342063881 0 0 0 0 6.7602356587012764 -0.97534600167172947 0 -0.97534600167172947 -0.60716947464436455 0 0 0 0 3.0216426632541697 -0.75301967562869132 0 -0.75301967562869132 0.40803518066251954 0 0 0 0 81.71318058110046 -33.193502396314571 0 -33.193502396314571 -46.600179627443566 0 0 0 0 578.47620146492773 92.396728044525929 0 92.396728044525929 218.99220136050772 0 0 0 0 556.0199011292716 193.91621057055576 0 193.91621057055576 2.7870588360981117 0 0 0 0 231.26031786872772 225.84064033623687 0 225.84064033623687 120.5266829641111 0 0 0 0 2.4766477608761761 -0.33055240359230709 0 -0.33055240359230709 -0.13364794182999343 0 0 0 0 713.0465780517552 243.05096289661185 0 243.05096289661185 108.01175536520483 0 0 0 0 2.9339910087473982 -1.5255425817042485 0 -1.5255425817042485 -0.0024098841301708326 0 0 0 0 796.74344929184736 67.457902421675342 0 67.457902421675342 0.918233106635995 0 0 0 0 826.17066264065215 78.914089748670307 0 78.914089748670307 -24.308102458587033 0 0 0 0 746.21457393449964 47.631899333012477 0 47.631899333012477 19.343293414307418 0 0 0 0 858.17176790843951 -116.95405094617297 0 -116.95405094617297 227.76282212373823 0 0 0 0 0.94219179468927905 -0.041350284853597041 0 -0.041350284853597041 -0.41417107076282456 0 0 0 0 1.4028310280409642 0.16741885715439492 0 0.16741885715439492 -0.35478534472475515 0 0 0 0 63.467216342694883 -13.220073404970355 0 -13.220073404970355 0.32021619185704425 0 0 0 0 74.078775938090985 -11.924224879445219 0 -11.924224879445219 0.47732581892876869 0 0 0 0 74.62194070944679 -8.1764408358969956 0 -8.1764408358969956 -3.9951184926196541 0 0 0 0 65.027990005866741 -10.141372577435632 0 -10.141372577435632 -0.63520981285158573 0 0 0 0 0.24168852495186854 0.40448554035134521 0 0.40448554035134521 0.0033885709836666902 0 0 0 0 66.452369937776893 -3.2120484510857028 0 -3.2120484510857028 -2.4512959303504998 0 0 0 0 0.17173994487328059 -0.062291622456626783 0 -0.062291622456626783 0.15101959096730397 0 0 0 0 46.93590465610032 -2.131977623778456 0 -2.131977623778456 2.0230790056474994 0 0 0 0 -0.091561075184628749 -0.089019139677958492 0 -0.089019139677958492 0.075743908667060045 0 0 0 0 8.6516034244632465 -1.9062784266247768 0 -1.9062784266247768 -1.6421659226573695 0 0 0 0 4.8091478342830669 4.2690356088107819 0 4.2690356088107819 -2.5829758917801717 0 0 0 0 10.306095778680174 2.182860946940675 0 2.182860946940675 -2.7080138275101611 0 0 0 0 -3.4239846828131704 -5.030220627368708 0 -5.030220627368708 0.38494875346088975 0 0 0 0 3.8803142351480346 -4.0236726041141369 0 -4.0236726041141369 -4.9133797529078009 0 0 0 0 2.4686330059129205 -1.5446615323652395 0 -1.5446615323652395 0.06190035713588718 0 0 0 0 4.6057017041603103 -7.9803202790447756 0 -7.9803202790447756 -3.460101567086781 0 0 0 0 4.6227368701947853 -1.1617146829068261 0 -1.1617146829068261 -4.5157401445077312 0 0 0 0 6.8205332824090874 -2.5696053511096819 0 -2.5696053511096819 2.2960004409508841 0 0 0 0 6.7807499041955452 -3.040608342251085 0 -3.040608342251085 -1.4897291230169216 0 0 0 0 -0.69894831697655491 -0.38515952536870657 0 -0.38515952536870657 0.12380506577027582 0 0 0 0 -4.5114995225703751 -3.4581190563333939 0 -3.4581190563333939 -5.6205102989449642 0 0 0 0 0.0044582394475582987 -0.67607619847818901 0 -0.67607619847818901 2.1900971794880992 0 0 0 0 0.026660510109678626 -0.033414932309568712 0 -0.033414932309568712 0.040238697759789319 0 0 0 0 15.769671360452776 2.8177412814102771 0 2.8177412814102771 1.5882333758453091 0 0 0 0 11.842816024742206 -4.7822994886213834 0 -4.7822994886213834 -0.40166986619381539 0 0 0 0 3.1535392169607803 -0.340839965115034 0 -0.340839965115034 1.893417071356275 0 0 0 0 7.3284416520036757 -3.9881749262274084 0 -3.9881749262274084 -0.17430122002902237 0 0 0 0 11.871712070831563 -2.3687226302962792 0 -2.3687226302962792 -0.4004794489757626 0 0 0 0 5.4729785971867386 -0.74184453273786244 0 -0.74184453273786244 6.8944752989222922 0 0 0 0 -0.57332179560489749 -0.16570849577759356 0 -0.16570849577759356 2.7697615600334373 0 0 0 0 5.4393689119169721 -1.7181191139637488 0 -1.7181191139637488 -0.70149982143766154 0 0 0 0 -0.016554328804101459 -0.012164198460993703 0 -0.012164198460993703 0.00025240838601010406 0 0 0 0 0.44092177193124371 0.99439852082289137 0 0.99439852082289137 1.484781690086421 0 0 0 0 6.49368933068763 -0.92223812787548487 0 -0.92223812787548487 -0.0039081356318765954 0 0 0 0 5.5038845899834996 -1.6742587077435298 0 -1.6742587077435298 -0.4605209918601274 0 0 0 0 1.9489380913582863 -1.5188059213239329 0 -1.5188059213239329 1.1473826647012855 0 0 0 0 5.0237398746648978 -1.2403370430351601 0 -1.2403370430351601 0.0013671903214627968 0 0 0 0 0.72441430379694793 0.23253588858166041 0 0.23253588858166041 1.5394525339805685 0 0 0 0 0.28454874303911026 0.27780680823826742 0 0.27780680823826742 -0.022291592004851733 0 0 0 0 3.0635687618050724 -3.5026193458534483 0 -3.5026193458534483 3.7066597810079429 0 0 0 0 2.5828826222295902 -0.21129370984352236 0 -0.21129370984352236 0.17855374726818063 0 0 0 0 75.983475974833709 -14.187081345035951 0 -14.187081345035951 3.1511936894744741 0 0 0 0 105.43327104768105 -19.617673917455718 0 -19.617673917455718 1.088042046590596 0 0 0 0 0.17912541263473258 0.086505150188571633 0 0.086505150188571633 -0.014925916042983262 0 0 0 0 84.634840156868449 -3.8245691765827132 0 -3.8245691765827132 0.022966207754624327 0 0 0 0 78.591184681317827 -10.729958017285712 0 -10.729958017285712 1.9693410216174962 0 0 0 0 68.191888531931909 -2.6832344657050418 0 -2.6832344657050418 0.0045073489332199566 0 0 0 0 0.18413376756895161 0.044365306455262044 0 0.044365306455262044 0.035670860530400549 0 0 0 0 79.27253913563618 -4.4642662532523483 0 -4.4642662532523483 -1.184479415116686 0 0 0 0 99.183193767355988 8.5509743337360664 0 8.5509743337360664 0.016759160468690946 0 0 0 0 102.74520473017037 -0.89483346385286655 0 -0.89483346385286655 10.262778656642684 0 0 0 0 88.659031493283692 7.7957072304307697 0 7.7957072304307697 13.044205288927273 0 0 0 0 107.84311115197124 -0.61699174171295279 0 -0.61699174171295279 1.4993818193178843 0 0 0 0 98.94399041266297 4.7094481144075901 0 4.7094481144075901 3.6375654727112465 0 0 0 0 91.937243458742159 -4.8139176451972929 0 -4.8139176451972929 0.44827487711512504 0 0 0 0 91.537354192405473 4.3300809068913004 0 4.3300809068913004 6.7529167581215006 0 0 0 0 97.901600702214637 5.0587657710361187 0 5.0587657710361187 5.5205669973433942 0 0 0 0 83.500355454263627 5.3223296414529617 0 5.3223296414529617 -3.0025532663843304 0 0 0 0 92.299807023714493 0.33028936750050963 0 0.33028936750050963 -0.17857098471923294 0 0 0 0 86.649388215811996 -4.3027479353011158 0 -4.3027479353011158 -2.4752748334197001 0 0 0 0 85.658978394203587 -2.4420580496148716 0 -2.4420580496148716 0.27785951416198174 0 0 0 0 75.201917603451875 0.51724256692879322 0 0.51724256692879322 -4.4702416817138815 0 0 0 0 85.103643686219584 3.1518870103251118 0 3.1518870103251118 -9.1905890243148196 0 0 0 0 81.917485634054174 1.8357807061277702 0 1.8357807061277702 -7.7000979563768439 0 0 0 0 74.557149006941472 -7.365451223218006 0 -7.365451223218006 -0.083409062575145132 0 0 0 0 72.710370578366565 -5.905054225240205 0 -5.905054225240205 -0.94431937390310916 0 0 0 0 0.18270257644149979 0.10837512750953238 0 0.10837512750953238 0.075290213010627188 0 0 0 0 71.382455608441887 4.0599594115647424 0 4.0599594115647424 -5.9691235416686581 0 0 0 0 0.16786498322737486 0.11991311078503486 0 0.11991311078503486 0.097267703677503314 0 0 0 0 73.273185858459328 -8.7473092803851404 0 -8.7473092803851404 -1.1788241505785861 0 0 0 0 75.059076978961457 -11.581176674215392 0 -11.581176674215392 1.2723984960955512 0 0 0 0 64.992110671300907 -8.4968746687842192 0 -8.4968746687842192 26.80881782696104 0 0 0 0 0.092865993196681984 0.057380046934241591 0 0.057380046934241591 0.058163360529724283 0 0 0 0 72.725518148392439 -2.269913035148825 0 -2.269913035148825 9.3464972329618643 0 0 0 0 29.47022631100117 14.912840557429361 0 14.912840557429361 5.8692606853456937 0 0 0 0 84.369945577374892 4.875296612387837 0 4.875296612387837 -13.204142500557388 0 0 0 0 76.804314735258231 13.380128572708543 0 13.380128572708543 -10.438370079540494 0 0 0 0 69.637314590931055 0.650653746090331 0 0.650653746090331 -6.7938841747690235 0 0 0 0 88.558780166233191 -2.9364655817633598 0 -2.9364655817633598 -12.915850973995475 0 0 0 0 76.525865397634334 -2.6844452534821475 0 -2.6844452534821475 -11.065814967631644 0 0 0 0 91.817089211399434 5.2556653110095617 0 5.2556653110095617 -13.283866155819284 0 0 0 0 85.178448814695003 -4.8485139089212268 0 -4.8485139089212268 -13.978011420282247 0 0 0 0 132.36768905611825 -12.072440354021309 0 -12.072440354021309 -13.5009564280099 0 0 0 0 95.666586885548895 12.330575137499595 0 12.330575137499595 -1.9035468236824507 0 0 0 0 67.411720738236909 25.722435649196857 0 25.722435649196857 -0.33338320474617156 0 0 0 0 91.611964890427771 6.3678995194976409 0 6.3678995194976409 -10.33455541128693 0 0 0 0 92.821272156874329 19.31445928846027 0 19.31445928846027 -0.37497553733401601 0 0 0 0 90.303620509948814 16.036026466493453 0 16.036026466493453 1.6342041068683617 0 0 0 0 163.16480416950071 -27.722337734786073 0 -27.722337734786073 -23.827177011721083 0 0 0 0 146.17217823659303 7.7501753339928445 0 7.7501753339928445 -5.5679587715684669 0 0 0 0 162.62465030445128 -61.147175890763521 0 -61.147175890763521 13.71217319745341 0 0 0 0 206.03706912657071 -39.389315756171627 0 -39.389315756171627 -74.606483880974281 0 0 0 0 44.680481360521583 6.954700108134702 0 6.954700108134702 -11.90611554377409 0 0 0 0 123.77895791157789 -75.52592469121916 0 -75.52592469121916 -62.76639091019014 0 0 0 0 244.47750076180091 21.098888816230037 0 21.098888816230037 -47.37031538848214 0 0 0 0 111.56795988315935 62.722715713924813 0 62.722715713924813 -8.3849072906550504 0 0 0 0 1.5183147606203988 -0.4433603430858426 0 -0.4433603430858426 0.097962236628543753 0 0 0 0 153.06577158694563 66.59123652578154 0 66.59123652578154 -8.0632486581029212 0 0 0 0 150.02938213702873 2.0993874182492362 0 2.0993874182492362 -51.18103021744281 0 0 0 0 -24.296668030845467 2.826992355091587 0 2.826992355091587 -10.401798162012279 0 0 0 0 3.2020055864853134 -0.8351032915719685 0 -0.8351032915719685 -0.0095393236260832293 0 0 0 0 41.622906279982999 -18.692091434551358 0 -18.692091434551358 -106.81357107407601 0 0 0 0 114.89378603725345 -53.86128529534615 0 -53.86128529534615 -122.69129328124389 0 0 0 0 62.961212389413959 -38.439571293903775 0 -38.439571293903775 -69.148944583082653 0 0 0 0 -12.544717888915329 44.715224382044418 0 44.715224382044418 -42.402721592369801 0 0 0 0 -2.0249148950460949 -6.7721727187136018 0 -6.7721727187136018 28.665931881338299 0 0 0 0 53.614774518093327 45.616789134239532 0 45.616789134239532 -20.86328352751114 0 0 0 0 -165.41679732562625 -74.846388406604547 0 -74.846388406604547 43.770229113752862 0 0 0 0 -192.97095448664913 -38.334800872122969 0 -38.334800872122969 -4.112921522238139 0 0 0 0 -80.87314658073592 -2.1997792050975704 0 -2.1997792050975704 -10.801357419320539 0 0 0 0 170.54815349607816 34.696258923598151 0 34.696258923598151 -5.1012011218024327 0 0 0 0 30.647586264967686 111.28676605535713 0 111.28676605535713 69.488457087809138 0 0 0 0 -135.40059024750371 36.591073259999803 0 36.591073259999803 143.77047356903995 0 0 0 0 -111.66498458344722 -61.343413199619704 0 -61.343413199619704 85.99730536994366 0 0 0 0 -100.05325881432509 36.125590639999928 0 36.125590639999928 -9.2459927085719755 0 0 0 0 -2.1463330385304289 -6.9562528116427416 0 -6.9562528116427416 -10.886675133768676 0 0 0 0 -0.55743758944379351 -8.2239937746676759 0 -8.2239937746676759 11.31494163037708 0 0 0 0 -31.069433946926438 -27.929503157090494 0 -27.929503157090494 -4.4143997801347723 0 0 0 0 -265.73813354078902 -132.61853598920209 0 -132.61853598920209 35.562957214080825 0 0 0 0 -253.32072494878958 5.3545321744152261 0 5.3545321744152261 70.115013465913762 0 0 0 0 62.08350120758405 -20.101556542899743 0 -20.101556542899743 13.93173585466775 0 0 0 0 11.970398312739462 -20.153012932014548 0 -20.153012932014548 0.28871719125520556 0 0 0 0 64.224528736929642 -17.834856439415489 0 -17.834856439415489 14.723265175496635 0 0 0 0 58.797629573076847 -27.601290686857737 0 -27.601290686857737 27.235356966504014 0 0 0 0 42.232639646044845 -0.88858689532898438 0 -0.88858689532898438 -12.761450070546443 0 0 0 0 -5.6714979644530104 54.168249237440051 0 54.168249237440051 -32.55820604519846 0 0 0 0 -13.302947148637031 54.481329159992512 0 54.481329159992512 5.6781711257506036 0 0 0 0 -9.9660637046326883 25.114907504519181 0 25.114907504519181 11.692178735057379 0 0 0 0 -4.9062961022864329 26.572615159597792 0 26.572615159597792 -36.69815230273867 0 0 0 0 2.0142341896280413 33.890807668518903 0 33.890807668518903 -25.247252292338771 0 0 0 0 19.474755417177221 4.3470109147247626 0 4.3470109147247626 -6.8605431290363583 0 0 0 0 0.27592045176055535 0.29306306968464924 0 0.29306306968464924 0.49438646634433647 0 0 0 0 -87.535306855163071 36.011145005967592 0 36.011145005967592 -21.847724588585606 0 0 0 0 13.551734675748889 -15.506202012855084 0 -15.506202012855084 0.57024408161499807 0 0 0 0 8.0418070263694972 -11.233806764067594 0 -11.233806764067594 -8.2399291265828651 0 0 0 0 22.543195036458485 -17.336029089146123 0 -17.336029089146123 0.88487252823586737 0 0 0 0 19.159204038682958 -27.781898835408526 0 -27.781898835408526 1.8086915512651238 0 0 0 0 7.679285852683762 -0.11976903095634839 0 -0.11976903095634839 -5.305054741114863 0 0 0 0 -32.138968637678772 16.420225932687885 0 16.420225932687885 -24.505605410358271 0 0 0 0 20.776932786815451 -5.7848484286499655 0 -5.7848484286499655 5.7945911750284864 0 0 0 0 -59.894984688784461 -80.183811951765506 0 -80.183811951765506 -23.312354100894709 0 0 0 0 4.5009897129192495 -3.708328872721637 0 -3.708328872721637 -0.51411299887644502 0 0 0 0 4.5705700300005958 -3.4871978154211263 0 -3.4871978154211263 -4.3091485018134552 0 0 0 0 -28.516551787652133 -17.913756676419993 0 -17.913756676419993 -19.403672130405198 0 0 0 0 23.780204704700736 12.574936563203771 0 12.574936563203771 -31.135542885451912 0 0 0 0 -87.026688717334764 -1.3675975806448832 0 -1.3675975806448832 16.520482859796971 0 0 0 0 60.244061238568975 -8.2123154667006144 0 -8.2123154667006144 -0.6649141799837297 0 0 0 0 73.750459131988464 -34.293594490530111 0 -34.293594490530111 12.420334003960877 0 0 0 0 43.928834715865378 -16.961881445731844 0 -16.961881445731844 8.8118478963807902 0 0 0 0 -6.946286819409579 -28.854258224671213 0 -28.854258224671213 6.6524555398941629 0 0 0 0 2.1400280996662673 0.73313038786891127 0 0.73313038786891127 0.68560624310877261 0 0 0 0 46.777945249574259 -0.63615087404494375 0 -0.63615087404494375 3.077380795725837 0 0 0 0 76.345997638010886 -22.427535033576312 0 -22.427535033576312 2.7344160442680607 0 0 0 0 45.718757824783097 -8.2653557914288047 0 -8.2653557914288047 1.7134114371896692 0 0 0 0 -0.95019973317761242 -0.80776642308507007 0 -0.80776642308507007 -0.84615291417857219 0 0 0 0 -0.26518399635824608 -1.0261486951254049 0 -1.0261486951254049 -5.7329285238872165 0 0 0 0 0.080048761059444473 -0.38002858409191731 0 -0.38002858409191731 -0.18553835084892706 0 0 0 0 -60.021335604178603 44.822854651277254 0 44.822854651277254 10.233440935694432 0 0 0 0 -53.189897345002464 5.972353882295165 0 5.972353882295165 25.813402025251634 0 0 0 0 -82.129108455432288 71.784536950523432 0 71.784536950523432 37.520053791351074 0 0 0 0 46.689940335527353 15.857559461683522 0 15.857559461683522 -3.7210331296042227 0 0 0 0 -131.36224379016494 -19.161425815983449 0 -19.161425815983449 24.206698646327482 0 0 0 0 71.051009623435675 60.813916085568223 0 60.813916085568223 35.163635612749886 0 0 0 0 85.39135059007458 8.1061158673750366 0 8.1061158673750366 22.584564151034868 0 0 0 0 59.008659143102705 97.036328999814231 0 97.036328999814231 -39.137651188383892 0 0 0 0 -5.2708492779929657 14.461752961347035 0 14.461752961347035 36.247530239411311 0 0 0 0 -0.6090352269168875 -0.1468616951516708 0 -0.1468616951516708 0.21128483550760566 0 0 0 0 44.226367863375344 46.189891664383779 0 46.189891664383779 29.236287243041875 0 0 0 0 71.046339869215444 30.673100105382609 0 30.673100105382609 25.547798232603093 0 0 0 0 139.29809560198919 114.77000119079165 0 114.77000119079165 18.380547145742369 0 0 0 0 81.145810541081119 8.7028240151779119 0 8.7028240151779119 -5.4374225268616261 0 0 0 0 67.97382465370174 7.5839968321673865 0 7.5839968321673865 -5.3899839970657091 0 0 0 0 12.933869244865491 -5.1961658107465638 0 -5.1961658107465638 -4.4332902193560741 0 0 0 0 20.961523150806897 3.7973879052263371 0 3.7973879052263371 9.1428495252092219 0 0 0 0 -6.1377592295684735 4.1543467802391021 0 4.1543467802391021 19.179919497000199 0 0 0 0 0.27622967792018471 -0.38277917164407427 0 -0.38277917164407427 0.029561743473964154 0 0 0 0 77.650616989325499 7.3959016845802239 0 7.3959016845802239 -1.777907605301893 0 0 0 0 90.269097486483588 16.866829108627716 0 16.866829108627716 4.3201796086516957 0 0 0 0 115.76874769762799 10.731600391966019 0 10.731600391966019 0.47849936632152712 0 0 0 0 8.3182675938660395 17.796684464244592 0 17.796684464244592 20.588140898877526 0 0 0 0 0.14474941812574116 -0.10712176210935809 0 -0.10712176210935809 0.075241755088041387 0 0 0 0 31.287997290914063 35.36072364325652 0 35.36072364325652 22.992634181922661 0 0 0 0 60.051195951193222 40.404213756362985 0 40.404213756362985 8.2328752410393236 0 0 0 0 43.406250564963557 21.320508249587782 0 21.320508249587782 5.6038728742693671 0 0 0 0 79.572667350614211 18.780979759559084 0 18.780979759559084 -0.00039171766611893223 0 0 0 0 135.1723445229436 81.562294295889913 0 81.562294295889913 25.940482595562859 0 0 0 0 68.361684816591151 29.333021354959609 0 29.333021354959609 0.069587538249156519 0 0 0 0 137.96737426907202 74.346316752238621 0 74.346316752238621 24.099108783975879 0 0 0 0 226.04492283629952 55.191209511439006 0 55.191209511439006 -0.0085026888776143922 0 0 0 0 244.54873172446969 107.22458449410337 0 107.22458449410337 21.319742757066933 0 0 0 0 371.57985701026064 145.52792122275108 0 145.52792122275108 32.339645361564806 0 0 0 0 265.40448690738413 72.677593599807267 0 72.677593599807267 -6.6196760763207791 0 0 0 0 262.45261006380315 83.821323425254604 0 83.821323425254604 -9.442369042637381 0 0 0 0 255.16673989545143 13.793140693218353 0 13.793140693218353 -21.485288687289511 0 0 0 0 303.0413945340988 49.356297005691204 0 49.356297005691204 -0.082286291556869021 0 0 0 0 250.4786097271699 -35.997143782221251 0 -35.997143782221251 -40.4891045238248 0 0 0 0 56.908092826852226 -110.14793586576096 0 -110.14793586576096 48.081767194584302 0 0 0 0 305.63541041880308 -15.643370059335943 0 -15.643370059335943 -39.975000506129284 0 0 0 0 300.78909165454388 35.127642794196589 0 35.127642794196589 -17.6256576530903 0 0 0 0 384.23230692167635 5.7895297357410342 0 5.7895297357410342 -23.396760120862893 0 0 0 0 575.54590030114923 69.84343783669982 0 69.84343783669982 -5.2843214843648525 0 0 0 0 448.92980461135448 -128.65760407806732 0 -128.65760407806732 44.412199588149406 0 0 0 0 3.0618070755593294 2.5959861240115885 0 2.5959861240115885 2.372956532118041 0 0 0 0 1.182674767174035 1.6481540807210564 0 1.6481540807210564 1.1613168763042152 0 0 0 0 93.161473732077866 167.98200933178441 0 167.98200933178441 284.02388657177897 0 0 0 0 15.093645530330832 -3.656126022587614 0 -3.656126022587614 314.99544640716078 0 0 0 0 354.99101391444856 158.80232333069117 0 158.80232333069117 265.00169518787544 0 0 0 0 259.30223001384002 70.537923589709735 0 70.537923589709735 -10.951016378739155 0 0 0 0 156.07721839926671 82.436489280128583 0 82.436489280128583 74.896492744769574 0 0 0 0 170.95429235981283 62.403751215525894 0 62.403751215525894 73.899366018624477 0 0 0 0 260.99303887402493 37.500356726249073 0 37.500356726249073 108.47831914566976 0 0 0 0 932.83897913640976 393.24103664480828 0 393.24103664480828 -0.42342000256835222 0 0 0 0 3.2858568789873743 1.3389864329096923 0 1.3389864329096923 0.44236106522194707 0 0 0 0 946.85157830382377 369.26879644028418 0 369.26879644028418 18.375858902872551 0 0 0 0 662.08305642986306 -89.013113548838703 0 -89.013113548838703 13.005285776221172 0 0 0 0 252.74328755239549 182.07275082998228 0 182.07275082998228 1.2039888998839103 0 0 0 0 38.489246585144429 -113.59982925156044 0 -113.59982925156044 74.651670367320321 0 0 0 0 -54.608625263907015 33.091912341805596 0 33.091912341805596 2.6315633162996619 0 0 0 0 -71.742627710998931 6.2337393474886085 0 6.2337393474886085 62.147498882411583 0 0 0 0 -15.694984387213481 24.395059820799641 0 24.395059820799641 0.004167466851431283 0 0 0 0 25.320660973811755 -30.264771729000522 0 -30.264771729000522 4.4283500130914248 0 0 0 0 122.59094670017657 21.426161982700009 0 21.426161982700009 0.0095860404975663567 0 0 0 0 58.469118183071259 44.033302990629807 0 44.033302990629807 -8.5853892697440308 0 0 0 0 6.1685700233185798 3.4772900156691833 0 3.4772900156691833 1.6389987676809119 0 0 0 0 5.6625306079367874 -4.4524577480443099 0 -4.4524577480443099 101.93605760099285 0 0 0 0 9.8329075461369939 -31.829376306172847 0 -31.829376306172847 172.75569052894298 0 0 0 0 -32.076291435019812 52.079767170001503 0 52.079767170001503 220.34774507129467 0 0 0 0 -1.1312740748981014 36.465240436344516 0 36.465240436344516 136.98624988499591 0 0 0 0 -29.612964796950109 63.84461100284669 0 63.84461100284669 114.18780345573143 0 0 0 0 16.493014352519822 55.012714783708731 0 55.012714783708731 91.390674550537483 0 0 0 0 6.0675483168869278 0.90547171735640575 0 0.90547171735640575 0.5363535424591106 0 0 0 0 -16.099349323514616 -20.347612855852049 0 -20.347612855852049 -18.023838913184136 0 0 0 0 22.452221138926689 -67.795405223008515 0 -67.795405223008515 35.978834283716424 0 0 0 0 306.70916683624091 -25.373222855073777 0 -25.373222855073777 -42.512546625787991 0 0 0 0 60.174858935948578 47.581910771949254 0 47.581910771949254 0.4092718572414924 0 0 0 0 39.536987011277233 -1.3414115362570556 0 -1.3414115362570556 -34.000707054716941 0 0 0 0 13.592417834334583 -2.8783246056078866 0 -2.8783246056078866 -0.22606037094304687 0 0 0 0 12.828803980934026 56.335441955977956 0 56.335441955977956 96.133724491165367 0 0 0 0 2.5277262362706381 2.1187509428517615 0 2.1187509428517615 -1.8188755875752673 0 0 0 0 42.231998012342956 37.063692218060737 0 37.063692218060737 83.059608799295347 0 0 0 0 63.356792761318502 41.123142813371302 0 41.123142813371302 55.460708547568629 0 0 0 0 3.0563096902851044 -0.92232020959411898 0 -0.92232020959411898 -1.0488662724818152 0 0 0 0 20.584405493782214 4.6277740231175528 0 4.6277740231175528 3.3427218953017714 0 0 0 0 257.69687149865786 -182.35434784554707 0 -182.35434784554707 95.839050272637678 0 0 0 0 29.263362110126764 -10.213891435973437 0 -10.213891435973437 -26.305331043560727 0 0 0 0 62.94244072030051 43.110595763457127 0 43.110595763457127 46.828520925367457 0 0 0 0 1093.4898356816848 534.3549081681042 0 534.3549081681042 24.535231232815249 0 0 0 0 249.38320671509246 463.93611338861439 0 463.93611338861439 321.67903774470824 0 0 0 0 604.96622823599319 472.95080113364156 0 472.95080113364156 46.1129735491877 0 0 0 0 1194.2900776161696 12.285360276329811 0 12.285360276329811 242.88323335864868 0 0 0 0 591.60655843508721 541.03185787445125 0 541.03185787445125 635.22128674347186 0 0 0 0 190.22515016536636 -201.94913214482585 0 -201.94913214482585 130.99394689540372 0 0 0 0 69.316343315709673 48.546632176166895 0 48.546632176166895 29.335044956765159 0 0 0 0 67.399118356654071 43.991265308873835 0 43.991265308873835 -11.568033091002235 0 0 0 0 61.946491340229841 43.034174842468893 0 43.034174842468893 11.316894532930064 0 0 0 0 63.220761671836954 53.619164385207057 0 53.619164385207057 16.266915587296836 0 0 0 0 68.57403719847207 37.251831519707594 0 37.251831519707594 6.6359547250606283 0 0 0 0 83.067785493480187 57.078856244937668 0 57.078856244937668 14.071684915180867 0 0 0 0 77.887972673328477 42.873610413042172 0 42.873610413042172 22.959289339055886 0 0 0 0 70.294088896109315 41.442302862000034 0 41.442302862000034 47.14706004278105 0 0 0 0 68.286783001298318 46.616011365053012 0 46.616011365053012 40.293472813701669 0 0 0 0 56.091158843366429 53.32252355513053 0 53.32252355513053 42.448504057073023 0 0 0 0 55.397939468093682 50.758163620024447 0 50.758163620024447 51.845688961324356 0 0 0 0 58.151261010698363 48.340650243142292 0 48.340650243142292 41.818055369321996 0 0 0 0 60.358207810873864 56.197698205180814 0 56.197698205180814 29.182267380146982 0 0 0 0 48.45145888501429 61.67364519927132 0 61.67364519927132 24.158956022072587 0 0 0 0 46.69570352442679 53.026982255261252 0 53.026982255261252 32.277196744380376 0 0 0 0 25.179069199104561 67.294355440100688 0 67.294355440100688 54.234512987126124 0 0 0 0 31.431227676337585 55.121070645937465 0 55.121070645937465 74.215306849415427 0 0 0 0 25.491264498908095 73.490512356748297 0 73.490512356748297 33.155965872968324 0 0 0 0 37.811465888546081 68.717646704636195 0 68.717646704636195 10.564217227062727 0 0 0 0 35.757361387346464 68.193797327230612 0 68.193797327230612 33.318273738653289 0 0 0 0 53.43686697242083 41.02619435579436 0 41.02619435579436 -19.454603456516793 0 0 0 0 52.142033429758158 46.858970686463408 0 46.858970686463408 11.640302597690834 0 0 0 0 59.065887081538676 39.473733767752151 0 39.473733767752151 -20.447571408068143 0 0 0 0 73.23822013001336 40.61396508204075 0 40.61396508204075 -114.17978614585718 0 0 0 0 58.534498198656365 33.821479481121287 0 33.821479481121287 -63.202999038854045 0 0 0 0 75.879734181224194 34.686592093062472 0 34.686592093062472 -177.71853296571908 0 0 0 0 87.442551548359916 -16.321197492955889 0 -16.321197492955889 -155.00057167051955 0 0 0 0 34.172387938815518 80.11098215139377 0 80.11098215139377 -40.923883943441069 0 0 0 0 47.073570794484112 113.16633077403912 0 113.16633077403912 -82.82260025517121 0 0 0 0 36.140521392866503 88.315207898204093 0 88.315207898204093 -19.477900059505799 0 0 0 0 -8.2171428284782451 81.764178652521906 0 81.764178652521906 88.803336666631793 0 0 0 0 -3.3519240715213527 66.837182174166529 0 66.837182174166529 112.14621396358291 0 0 0 0 -28.016382727510063 139.27512035575131 0 139.27512035575131 44.509224652142791 0 0 0 0 -16.823418873880655 51.167048092184771 0 51.167048092184771 91.733801201362724 0 0 0 0 72.465988824071246 98.323381330534687 0 98.323381330534687 116.53800653277148 0 0 0 0 -110.51181051736785 164.30987429569717 0 164.30987429569717 23.969834739582893 0 0 0 0 17.670335214439547 -49.203811722302135 0 -49.203811722302135 -200.68170728622249 0 0 0 0 43.618889460529317 140.45071362255538 0 140.45071362255538 -294.05930864870561 0 0 0 0 -87.771120975747181 134.89108313366393 0 134.89108313366393 -91.536761645597153 0 0 0 0 27.529497529303967 13.76125980684602 0 13.76125980684602 5.8008871053628397 0 0 0 0 11.487270906240383 6.3376397857759912 0 6.3376397857759912 0.94038989058099309 0 0 0 0 46.475256216675916 156.92440267050807 0 156.92440267050807 149.80746343630017 0 0 0 0 182.90513186960015 219.92285759424078 0 219.92285759424078 65.565600776583778 0 0 0 0 8.8601140016710929 0.98915973895604736 0 0.98915973895604736 2.7460397675391759 0 0 0 0 173.53051442663605 -169.78667366479496 0 -169.78667366479496 49.983146188879346 0 0 0 0 56.492449397701421 46.145731377659104 0 46.145731377659104 6.1596730858899207 0 0 0 0 47.195400985161541 18.985362952802461 0 18.985362952802461 32.21759021769526 0 0 0 0 64.985583205358125 24.741732736496488 0 24.741732736496488 -8.1818910584279365 0 0 0 0 22.035173663898604 -5.1120735107817268 0 -5.1120735107817268 -28.528527252602544 0 0 0 0 39.891142852889118 16.678309828994358 0 16.678309828994358 2.2574747690479926 0 0 0 0 3.8495613832005802 7.7152093228975858 0 7.7152093228975858 -0.36187714996446152 0 0 0 0 42.937445360585116 -22.210179212747619 0 -22.210179212747619 -66.27520022293902 0 0 0 0 35.610156429847848 17.021393699284971 0 17.021393699284971 -94.542426134375546 0 0 0 0 4.9337241897483182 -6.3884167737621738 0 -6.3884167737621738 -5.5614044912544625 0 0 0 0 45.779766016809845 8.8299899570815015 0 8.8299899570815015 -3.7675152147890052 0 0 0 0 56.430738794493664 30.565478354929382 0 30.565478354929382 -10.591078209045008 0 0 0 0 59.702185022906633 -6.4367808693764346 0 -6.4367808693764346 -47.515183376471668 0 0 0 0 53.836968874631566 2.2610871650422268 0 2.2610871650422268 -55.475087050243246 0 0 0 0 56.623976445756853 45.955985173066864 0 45.955985173066864 -15.777675068800278 0 0 0 0 67.242815792720648 35.968425712905173 0 35.968425712905173 -8.2925066582738509 0 0 0 0 81.805450904677855 55.584661674457607 0 55.584661674457607 -16.986824777847744 0 0 0 0 47.729392842928064 4.7055784164076613 0 4.7055784164076613 -25.649045700718261 0 0 0 0 66.921679053819389 -6.5789060947273583 0 -6.5789060947273583 -42.624453788067967 0 0 0 0 114.56560262729181 5.326669554456771 0 5.326669554456771 -34.022868756098006 0 0 0 0 79.513041120015259 33.168419514156767 0 33.168419514156767 -13.747706765885141 0 0 0 0 52.800214053284492 8.1899229236207702 0 8.1899229236207702 -8.0466444904077523 0 0 0 0 45.190977534104604 18.231317865287338 0 18.231317865287338 4.7726517560824959 0 0 0 0 507.27808223456668 1.318194018204224 0 1.318194018204224 -58.65508284222966 0 0 0 0 257.6049248007912 -17.101463811917881 0 -17.101463811917881 -3.8130691961221999 0 0 0 0 292.7404765648098 7.3152397078157492 0 7.3152397078157492 -43.160629639111107 0 0 0 0 565.68027487736981 -2.8189368573254825 0 -2.8189368573254825 -40.858807244908945 0 0 0 0 412.89988551555143 -132.49310232264034 0 -132.49310232264034 119.40308136173655 0 0 0 0 177.20721886577667 -10.89239518981833 0 -10.89239518981833 -208.84509110992394 0 0 0 0 158.77713226695778 -9.9504848925265037 0 -9.9504848925265037 -31.263162983907762 0 0 0 0 445.57219825512584 -95.64241585660136 0 -95.64241585660136 -103.40647509500138 0 0 0 0 40.451357656645996 -21.751995696260821 0 -21.751995696260821 -58.209630016945312 0 0 0 0 88.305888217670145 99.934073565658082 0 99.934073565658082 -87.530856959170762 0 0 0 0 -30.584127703667036 79.799614075870466 0 79.799614075870466 165.27622847580324 0 0 0 0 -121.72377724543912 167.99626401710429 0 167.99626401710429 162.00600627642302 0 0 0 0 521.30744818912353 -171.4531452706313 0 -171.4531452706313 -36.385202469810281 0 0 0 0 -63.392940212113899 105.02112374033095 0 105.02112374033095 773.92630746949999 0 0 0 0 9.1762931178559484 5.2867396076475188 0 5.2867396076475188 3.1760286205884531 0 0 0 0 719.98604586823785 261.41867476292759 0 261.41867476292759 39.660551506664831 0 0 0 0 227.92582279365888 82.946318930936599 0 82.946318930936599 -16.275899982127385 0 0 0 0 -29.278934587906406 41.763981355468516 0 41.763981355468516 488.64511646659548 0 0 0 0 -8.7506500111412606 -23.797855698177386 0 -23.797855698177386 -138.59075141703306 0 0 0 0 444.57927336775174 -435.31696048251865 0 -435.31696048251865 207.89986022799144 0 0 0 0 824.29795223277688 -76.121963771216429 0 -76.121963771216429 -176.14858649375947 0 0 0 0 502.89843992509122 386.062875942245 0 386.062875942245 142.44465828673674 0 0 0 0 343.36958393135865 91.951022559587273 0 91.951022559587273 -256.19962369075074 0 0 0 0 205.07879883941496 -92.791440677837727 0 -92.791440677837727 -173.59946728397199 0 0 0 0 345.95899912934692 -283.29143505065394 0 -283.29143505065394 -181.43871147109382 0 0 0 0 373.30060229803712 -221.84577593167921 0 -221.84577593167921 -152.66623730684387 0 0 0 0 41.366187415420427 129.8002186709723 0 129.8002186709723 10.021512242208246 0 0 0 0 90.024257381177449 158.2895119627608 0 158.2895119627608 -404.6213916573779 0 0 0 0 28.680728044573357 9.0133735897709641 0 9.0133735897709641 -0.69905346463831464 0 0 0 0 23.570266677692416 4.2391673913953127 0 4.2391673913953127 -7.9642750856155544 0 0 0 0 9.5335904538392242 -8.4596332279042201 0 -8.4596332279042201 -4.6374985095887844 0 0 0 0 29.716798864228167 18.505706998008577 0 18.505706998008577 -0.61641191177772292 0 0 0 0 50.964714857641809 2.502333909057306 0 2.502333909057306 -3.3771232671203144 0 0 0 0 361.63283872583997 -115.85754705061481 0 -115.85754705061481 -470.70630709850047 0 0 0 0 47.72540735838993 -17.985843492150654 0 -17.985843492150654 -30.793502723942858 0 0 0 0 119.47000931724324 16.521640242327067 0 16.521640242327067 -80.77356514556277 0 0 0 0 179.63966650294606 -52.319666624573983 0 -52.319666624573983 -24.683975575716431 0 0 0 0 69.162241510886815 -65.492215478319395 0 -65.492215478319395 -42.772818625840046 0 0 0 0 38.4460356363561 -31.134492016514741 0 -31.134492016514741 26.779650313063485 0 0 0 0 -185.81161490389786 102.30554616458176 0 102.30554616458176 -84.000933684953452 0 0 0 0 131.0919424261956 -98.247055652481322 0 -98.247055652481322 56.104624026474539 0 0 0 0 8.2145890343494159 5.997654914172756 0 5.997654914172756 5.1461590710804259 0 0 0 0 -2.4558229879858686 3.0498196692554416 0 3.0498196692554416 4.6108870780743345 0 0 0 0 23.038866944407346 26.237425868682294 0 26.237425868682294 9.185354578325132 0 0 0 0 -114.26850882048893 463.36737973284016 0 463.36737973284016 -313.85233338987291 0 0 0 0 156.24414970434736 -163.52350558016951 0 -163.52350558016951 128.95548525322738 0 0 0 0 115.33586601247407 -37.278111545119032 0 -37.278111545119032 4.1750582049226068 0 0 0 0 -0.18473323318065127 0.5431711694345438 0 0.5431711694345438 1.2233836721065678 0 0 0 0 322.45757898787269 -209.61236448832369 0 -209.61236448832369 116.99603375551396 0 0 0 0 -136.00381907129486 -73.612335419122246 0 -73.612335419122246 103.82381116924262 0 0 0 0 472.77901653706795 -197.52765487860415 0 -197.52765487860415 116.67975971316559 0 0 0 0 79.485674673996982 138.75602413784713 0 138.75602413784713 -367.46074967719801 0 0 0 0 24.528420936199836 112.17892493835552 0 112.17892493835552 -12.908659257285308 0 0 0 0 -369.8853034266358 130.52863282659587 0 130.52863282659587 239.25985253355657 0 0 0 0 -293.69400949296687 417.21452407410266 0 417.21452407410266 79.422429144301987 0 0 0 0 49.634454464016017 292.12517243420416 0 292.12517243420416 87.449557633872246 0 0 0 0 1.5207841420234729 3.1141045551324567 0 3.1141045551324567 4.0830580119467612 0 0 0 0 642.48273432921269 -79.940549972863664 0 -79.940549972863664 77.053150795809415 0 0 0 0 607.40914214012446 228.19801443319193 0 228.19801443319193 84.064745429548566 0 0 0 0 168.18266534173745 374.36314540325429 0 374.36314540325429 232.35560044761519 0 0 0 0 -36.889099191539572 183.86620882770922 0 183.86620882770922 289.15896176990373 0 0 0 0 174.17757808709757 125.50547886294915 0 125.50547886294915 130.2099909344106 0 0 0 0 177.86573213625888 198.19455124346129 0 198.19455124346129 143.32237798428832 0 0 0 0 89.141345854863175 152.63528703292968 0 152.63528703292968 126.26061253673015 0 0 0 0 291.33246353991854 123.13133859105756 0 123.13133859105756 76.078452378303155 0 0 0 0 524.70507357674069 -189.02056429120785 0 -189.02056429120785 116.34210695328511 0 0 0 0 213.58637531285058 -39.406383963254484 0 -39.406383963254484 124.35692529269727 0 0 0 0 246.95199070926174 -86.688427481422877 0 -86.688427481422877 134.10579494140302 0 0 0 0 298.04915364988847 -69.287614936222781 0 -69.287614936222781 29.267854403620731 0 0 0 0 405.97298943274654 -204.79918105494835 0 -204.79918105494835 168.92159766099439 0 0 0 0 331.82424460267066 -27.166987198042989 0 -27.166987198042989 73.524986781509142 0 0 0 0 57.998614955839003 -51.479197134557126 0 -51.479197134557126 7.1162769584316266 0 0 0 0 58.567520769374823 -7.0730571197801382 0 -7.0730571197801382 -20.414295387193818 0 0 0 0 172.66140308797185 -30.974274641113652 0 -30.974274641113652 -26.585424820011667 0 0 0 0 2.2111304374896008 -3.4595975861705313 0 -3.4595975861705313 2.1055538072761522 0 0 0 0 158.36185562040191 71.646482043721107 0 71.646482043721107 -17.986549423254957 0 0 0 0 27.23441467853263 -28.524853100463588 0 -28.524853100463588 203.23638138773322 0 0 0 0 -23.581274081163428 86.662515472884252 0 86.662515472884252 189.87184438643362 0 0 0 0 94.213948317745235 143.55985383727329 0 143.55985383727329 116.61204648650255 0 0 0 0 85.125053186959121 49.388158598507289 0 49.388158598507289 -3.7412262400951022 0 0 0 0 124.68471818784928 271.95857567888595 0 271.95857567888595 201.0525625886994 0 0 0 0 2.5209678542943834 1.9611083453077747 0 1.9611083453077747 -0.99120168287970056 0 0 0 0 255.04522320747219 241.82172716442034 0 241.82172716442034 52.909050441450745 0 0 0 0 30.677842618417344 39.587050020220431 0 39.587050020220431 17.746282146113117 0 0 0 0 3.1810166352533713 -1.7069244039481219 0 -1.7069244039481219 -0.50506074260525224 0 0 0 0 158.42018493941578 92.529020057394519 0 92.529020057394519 14.215031304787317 0 0 0 0 232.42732352179701 109.82989731219368 0 109.82989731219368 59.473934147306863 0 0 0 0 134.87018753672601 164.37216152231031 0 164.37216152231031 35.959941694118243 0 0 0 0 146.90463802419981 138.65420846318079 0 138.65420846318079 -39.760124775570148 0 0 0 0 90.72705758313532 8.1213844055018853 0 8.1213844055018853 -49.832511159120259 0 0 0 0 131.08546443653904 122.48005461405182 0 122.48005461405182 -18.005886087350518 0 0 0 0 89.37143243860919 -0.37959619197317807 0 -0.37959619197317807 -28.920849624693801 0 0 0 0 121.8508848069323 15.384449612579374 0 15.384449612579374 -77.25158975038903 0 0 0 0 132.90744233069472 215.6010566893907 0 215.6010566893907 135.74418626152328 0 0 0 0 17.703847702345229 40.015929072328163 0 40.015929072328163 142.54724937410356 0 0 0 0 129.99676443178032 -97.245398792113065 0 -97.245398792113065 -79.962550138156075 0 0 0 0 223.26219348286395 7.0963676277999639 0 7.0963676277999639 35.397489932649478 0 0 0 0 -19.195263015120872 159.62497909699323 0 159.62497909699323 10.881906254683599 0 0 0 0 123.29802644955635 69.131320902411062 0 69.131320902411062 65.223750055153687 0 0 0 0 81.984149844924104 191.56108442769073 0 191.56108442769073 87.704036637144782 0 0 0 0 97.090224911007681 85.278644276530031 0 85.278644276530031 -4.3082566271223186 0 0 0 0 142.25469141921349 98.621488581870381 0 98.621488581870381 -250.27079665269048 0 0 0 0 -8.4564598301803926 -90.845280717779133 0 -90.845280717779133 -139.059373953668 0 0 0 0 1.7505092222328074 0.13026614218566124 0 0.13026614218566124 -3.1122794419910207 0 0 0 0 44.448840016208123 148.32731513850649 0 148.32731513850649 -46.89820438012066 0 0 0 0 158.56246898746758 57.988408163684653 0 57.988408163684653 -203.02465160057727 0 0 0 0 72.003395444535272 56.806251755226583 0 56.806251755226583 0.65009825158722379 0 0 0 0 37.417387653241548 15.986694537635561 0 15.986694537635561 -4.1498323622005788 0 0 0 0 86.570263758650981 65.405371565443488 0 65.405371565443488 23.797679365779913 0 0 0 0 82.977601591701386 38.308918564301166 0 38.308918564301166 -18.703538911362557 0 0 0 0 20.678405512543691 12.51263982028253 0 12.51263982028253 0.10608555200978032 0 0 0 0 52.894420093223744 31.282734556021907 0 31.282734556021907 6.7069119368471348 0 0 0 0 45.239143475609893 26.461662834967989 0 26.461662834967989 4.0240798382686425 0 0 0 0 34.597873718172593 16.246657375277511 0 16.246657375277511 -1.5150958359154818 0 0 0 0 46.702060167182935 45.848569371522899 0 45.848569371522899 -28.662097670474395 0 0 0 0 54.989530784672752 4.9841314683054101 0 4.9841314683054101 3.0071337672687548 0 0 0 0 49.615968685605537 7.7284949795810718 0 7.7284949795810718 -2.2801153560077578 0 0 0 0 -86.554053318366641 77.96967845973694 0 77.96967845973694 71.913583447957535 0 0 0 0 13.030242903900216 176.29831597326913 0 176.29831597326913 -33.463967229607647 0 0 0 0 100.5420009358786 38.599822346303881 0 38.599822346303881 -91.589078776921269 0 0 0 0 83.132604835456732 38.071121068733746 0 38.071121068733746 11.92599593617477 0 0 0 0 64.084692377276951 15.773824273605896 0 15.773824273605896 -49.712343706842077 0 0 0 0 66.026797055776115 28.630164460144485 0 28.630164460144485 27.046713394032622 0 0 0 0 14.061302841489947 33.040911758400149 0 33.040911758400149 13.750847204873757 0 0 0 0 30.806551821995527 21.097226486887394 0 21.097226486887394 -0.10897162521087012 0 0 0 0 -3.587106641692742 6.3211205491853093 0 6.3211205491853093 4.9729123322958104 0 0 0 0 -7.084772227900487 6.0214513483712615 0 6.0214513483712615 4.3283598052059382 0 0 0 0 8.8701945318025537 17.621546424876783 0 17.621546424876783 17.861617362076657 0 0 0 0 -35.781093136116397 151.65056074156803 0 151.65056074156803 134.37738249100863 0 0 0 0 64.209672962562763 97.65624258330314 0 97.65624258330314 71.549585616069066 0 0 0 0 0.2087009942097211 8.9364473029794524 0 8.9364473029794524 10.194493167819246 0 0 0 0 0.29848325538162612 6.1155178698153634 0 6.1155178698153634 1.9918752349070781 0 0 0 0 7.7413477614318253 9.4577693286323807 0 9.4577693286323807 10.008694987843803 0 0 0 0 38.421464177925372 22.32769686085792 0 22.32769686085792 7.5850105293001775 0 0 0 0 29.417384863456391 18.351314346408159 0 18.351314346408159 6.4480945058274415 0 0 0 0 27.762151912029367 16.037942013419354 0 16.037942013419354 3.3394318819370596 0 0 0 0 31.841020865045721 20.141107959093006 0 20.141107959093006 4.0983703619217522 0 0 0 0 31.002236419393739 18.773023744847137 0 18.773023744847137 2.441677361787896 0 0 0 0 24.463462461282461 8.853530513022676 0 8.853530513022676 2.7223818396209447 0 0 0 0 62.950558434065897 37.604088364230051 0 37.604088364230051 297.69821649925018 0 0 0 0 3.9229401608987473 -1.3036055351289093 0 -1.3036055351289093 7.4281702540321604 0 0 0 0 43.146574523692834 9.7507728789177222 0 9.7507728789177222 1.2336068304920929 0 0 0 0 41.365275277701585 7.5049690970267875 0 7.5049690970267875 -1.5595639201445124 0 0 0 0 34.558761322194187 5.498686479581238 0 5.498686479581238 -0.27285750773600626 0 0 0 0 36.264309213046062 7.5132247694587306 0 7.5132247694587306 0.34901492117928706 0 0 0 0 38.038384088496969 0.28708336743496332 0 0.28708336743496332 1.7538935673615441 0 0 0 0 45.564232109747536 7.2019387901760794 0 7.2019387901760794 -3.0251812490384786 0 0 0 0 35.736411762409261 -0.22464797128805003 0 -0.22464797128805003 -7.2196515044671798 0 0 0 0 31.072012078824628 5.3271786984026335 0 5.3271786984026335 -1.746307393962752 0 0 0 0 24.851123507054382 -3.6094769646267437 0 -3.6094769646267437 -4.025601180051317 0 0 0 0 44.037156764090469 -0.30431664876209652 0 -0.30431664876209652 -8.7126307778551109 0 0 0 0 28.462192195673111 0.17723912486756177 0 0.17723912486756177 -4.6465195751237083 0 0 0 0 13.316104706242438 -1.2654211654485437 0 -1.2654211654485437 -6.9101814215369544 0 0 0 0 34.646689350789529 -4.5005808104635889 0 -4.5005808104635889 -13.585974481941321 0 0 0 0 46.952445375085517 -1.5025480393956627 0 -1.5025480393956627 -10.285980384946015 0 0 0 0 44.201404119783547 -1.2485688192355155 0 -1.2485688192355155 -3.3207999434844169 0 0 0 0 44.339007668881095 -15.603670191418246 0 -15.603670191418246 -23.323979857248446 0 0 0 0 40.715783332045248 3.8908702246463349 0 3.8908702246463349 -14.112017949213737 0 0 0 0 10.123772426979109 2.1420761291123966 0 2.1420761291123966 -0.76785935424823348 0 0 0 0 16.506117089040345 -2.9426914248733738 0 -2.9426914248733738 -10.588094338895189 0 0 0 0 37.456062730801378 -0.47372229956265244 0 -0.47372229956265244 -12.125800718149982 0 0 0 0 37.856199464717065 -4.2922830623643335 0 -4.2922830623643335 3.2209565867421475 0 0 0 0 30.953235909126221 -0.5896903839300407 0 -0.5896903839300407 -10.930894763343774 0 0 0 0 19.039288246975048 -0.61976895323945769 0 -0.61976895323945769 -14.059380559062447 0 0 0 0 26.401858196592627 -2.9257577121580951 0 -2.9257577121580951 -4.8829547150492534 0 0 0 0 28.941536290745972 -0.47795567748135426 0 -0.47795567748135426 -2.768475243345236 0 0 0 0 45.999004793877248 -1.9127132894452643 0 -1.9127132894452643 -34.695990655573951 0 0 0 0 27.280576623856177 -4.8096424787593079 0 -4.8096424787593079 -11.053963786236011 0 0 0 0 59.122150748502463 -8.7754693149743161 0 -8.7754693149743161 -33.888614784248432 0 0 0 0 48.93272664732649 -16.143387077984073 0 -16.143387077984073 -27.562196077109775 0 0 0 0 58.189296177049982 -25.344743915906747 0 -25.344743915906747 -20.685089817732635 0 0 0 0 40.846518894250039 4.7794751379881291 0 4.7794751379881291 -2.1714653388710303 0 0 0 0 53.249698191415519 -17.228670762956256 0 -17.228670762956256 8.8728828356422582 0 0 0 0 37.139913087537934 10.794131234581485 0 10.794131234581485 -3.7176323366259414 0 0 0 0 62.993466026309761 -19.068159087916229 0 -19.068159087916229 -16.826038354559387 0 0 0 0 32.339020864661705 -4.8214645622937411 0 -4.8214645622937411 -14.913181578434564 0 0 0 0 54.672050301986019 15.359570756899188 0 15.359570756899188 37.643693850372983 0 0 0 0 71.778774975282431 -20.497240929181885 0 -20.497240929181885 10.545877039290644 0 0 0 0 64.109874202229634 -0.57691538751386773 0 -0.57691538751386773 -5.6359824361237711 0 0 0 0 66.665580503031379 -4.9414955177313686 0 -4.9414955177313686 -6.464305393001041 0 0 0 0 61.380976587315672 -4.9542553824831543 0 -4.9542553824831543 -88.643566189974081 0 0 0 0 47.608422238205549 2.2222618814030213 0 2.2222618814030213 -7.2434298767076069 0 0 0 0 45.11307863543334 37.803407016719461 0 37.803407016719461 33.0364355996727 0 0 0 0 60.305140224707429 31.964993357643721 0 31.964993357643721 -56.067255646440117 0 0 0 0 26.430034167397025 -8.3738140388817328 0 -8.3738140388817328 -6.1496325005118706 0 0 0 0 23.570947470761894 11.900724786847491 0 11.900724786847491 -7.7639762170438189 0 0 0 0 -13.703087771807304 -77.846980241646904 0 -77.846980241646904 636.07029346954209 0 0 0 0 322.04315955618222 -258.27832435142682 0 -258.27832435142682 386.70540455212131 0 0 0 0 -9.1026296243144316 -177.43042453681113 0 -177.43042453681113 395.47936919533038 0 0 0 0 203.62454915653507 -256.60403309624257 0 -256.60403309624257 343.88155402152847 0 0 0 0 364.32115766963398 11.219315811021261 0 11.219315811021261 484.72987688779835 0 0 0 0 159.77008621393179 -81.248755751190629 0 -81.248755751190629 591.12562549593019 0 0 0 0 449.52514161485306 -731.84606259799489 0 -731.84606259799489 979.41755707197558 0 0 0 0 2112.3255666850091 -198.4647001962268 0 -198.4647001962268 42.387977831674561 0 0 0 0 1287.8474235457397 -78.24761642895146 0 -78.24761642895146 42.163637818915035 0 0 0 0 618.33892026449939 309.30282833233076 0 309.30282833233076 53.854123891196195 0 0 0 0 403.53845759368414 64.168991461384394 0 64.168991461384394 48.463650346982483 0 0 0 0 1677.4522839118545 495.26974335860768 0 495.26974335860768 -347.74964385821067 0 0 0 0 1033.608096220938 211.03729573682222 0 211.03729573682222 -157.00025254926391 0 0 0 0 1108.4510584353229 766.02059518802457 0 766.02059518802457 -0.63531643820806494 0 0 0 0 323.66619327695662 259.78467249612459 0 259.78467249612459 -422.59196991432145 0 0 0 0 -1236.9814195537911 -455.38128821980808 0 -455.38128821980808 74.326163084128211 0 0 0 0 325.56408015370107 44.419178231665228 0 44.419178231665228 -219.92733627732969 0 0 0 0 -404.70391179108992 7.2115275169785491 0 7.2115275169785491 302.58481252030469 0 0 0 0 -87.470277171429188 -281.9949258370608 0 -281.9949258370608 345.13658733394573 0 0 0 0 -154.82273268928475 -461.3308471716914 0 -461.3308471716914 46.458929850474306 0 0 0 0 81.816723119853123 -178.71338524328894 0 -178.71338524328894 -5.034290398019948 0 0 0 0 100.30152071078192 -168.00799190978341 0 -168.00799190978341 -370.64262935089846 0 0 0 0 58.920272087794729 -39.671169454511983 0 -39.671169454511983 -164.55097093415884 0 0 0 0 47.461666690671336 -108.19886096554262 0 -108.19886096554262 81.702411565576767 0 0 0 0 35.629574971389957 -130.90269099396255 0 -130.90269099396255 73.340153881888455 0 0 0 0 42.837628623237833 66.648392302819047 0 66.648392302819047 -219.60016617674137 0 0 0 0 -131.26352925509855 -18.563932367210327 0 -18.563932367210327 229.89195461482632 0 0 0 0 15.262331476329251 -8.1297845087295073 0 -8.1297845087295073 5.2096168488000414 0 0 0 0 142.90760200944351 -496.92321137787803 0 -496.92321137787803 760.71863719584758 0 0 0 0 -68.564240274965414 -278.56135233857367 0 -278.56135233857367 519.23549405413269 0 0 0 0 237.56358697141695 -493.0341608869237 0 -493.0341608869237 382.50404574376444 0 0 0 0 537.86427841484692 -786.97403031253089 0 -786.97403031253089 503.44796462295926 0 0 0 0 272.94473291574104 -463.71634086150698 0 -463.71634086150698 371.09118988591126 0 0 0 0 53.470355050638318 -400.31612046588248 0 -400.31612046588248 374.38297556915109 0 0 0 0 114.63840248502675 -328.79883643131154 0 -328.79883643131154 181.08593805481874 0 0 0 0 -3.2863987008313416 -138.87467030687731 0 -138.87467030687731 171.99358214634867 0 0 0 0 566.18129971415328 -968.23685959434647 0 -968.23685959434647 816.47951535952234 0 0 0 0 630.09840493299271 -846.65885422119277 0 -846.65885422119277 267.20104945989158 0 0 0 0 908.25572866768925 -876.39340223854197 0 -876.39340223854197 524.78004408730794 0 0 0 0 1333.6225193535847 -1184.3387010167944 0 -1184.3387010167944 -804.15259829717797 0 0 0 0 867.77967498863291 -576.24539151888575 0 -576.24539151888575 206.66405066560947 0 0 0 0 970.97896521826624 -551.55820477464385 0 -551.55820477464385 205.22024432557919 0 0 0 0 668.92839567628107 -551.36743874611966 0 -551.36743874611966 234.39836581335373 0 0 0 0 978.5687779081054 -440.17752496702633 0 -440.17752496702633 160.79223776173535 0 0 0 0 1104.039969720252 -341.25912111954199 0 -341.25912111954199 192.70830954570556 0 0 0 0 1332.5006299384695 -540.90309377018457 0 -540.90309377018457 -123.88237869741351 0 0 0 0 1193.2747030044266 -183.87415752854758 0 -183.87415752854758 57.820780887296678 0 0 0 0 2412.7739766034647 135.99204021303194 0 135.99204021303194 138.44171782841164 0 0 0 0 1185.6815022678929 -206.81392387946562 0 -206.81392387946562 126.9633609401555 0 0 0 0 1342.1665892975871 902.87228812599369 0 902.87228812599369 540.42367568990312 0 0 0 0 2065.7991664830406 1288.5743794752882 0 1288.5743794752882 707.72161330162453 0 0 0 0 0.94616113532069335 -1.0963301111892747 0 -1.0963301111892747 1.4851275070038543 0 0 0 0 1383.7960084206134 -743.90896686463043 0 -743.90896686463043 92.273849642397181 0 0 0 0 1211.0123518613109 -856.89015624361764 0 -856.89015624361764 359.35372069244659 0 0 0 0 701.29911264229304 299.23689399618524 0 299.23689399618524 -213.01188444073557 0 0 0 0 4.0459773389738984 4.1234223488545325 0 4.1234223488545325 9.743221808193141 0 0 0 0 1.9630349506596758 3.1753036687551273 0 3.1753036687551273 9.5289643515532703 0 0 0 0 3.7207522421934129 4.5477660109344598 0 4.5477660109344598 6.3724905111744761 0 0 0 0 -1.4058121223915521 -2.0320239459252676 0 -2.0320239459252676 2.3134707860850998 0 0 0 0 536.35999862651806 492.89169463620237 0 492.89169463620237 1251.1084108710397 0 0 0 0 182.8943315991346 183.21717362200673 0 183.21717362200673 302.0619841040135 0 0 0 0 46.347142087644897 128.16559548738343 0 128.16559548738343 280.03437711263621 0 0 0 0 532.53059735809802 147.38144336875575 0 147.38144336875575 118.31681165271925 0 0 0 0 323.00699194445042 77.42612955084428 0 77.42612955084428 262.05252088089583 0 0 0 0 210.73834725886991 90.75175731265881 0 90.75175731265881 121.88518445690022 0 0 0 0 249.88976914183877 71.152448661705478 0 71.152448661705478 -97.832180311940874 0 0 0 0 634.76576570014004 -105.04828982391905 0 -105.04828982391905 2.0062283766875453 0 0 0 0 474.74663254550251 -30.116967606441648 0 -30.116967606441648 75.520585685424066 0 0 0 0 1027.5910110051482 153.78672068022979 0 153.78672068022979 106.78783835638751 0 0 0 0 390.7569920187816 296.64899117044411 0 296.64899117044411 366.83552019649233 0 0 0 0 757.95892308661132 -170.85461847287343 0 -170.85461847287343 71.480001540193257 0 0 0 0 868.63425940855086 -333.92588028670025 0 -333.92588028670025 111.36685908670779 0 0 0 0 843.90814254115685 -339.45588962343095 0 -339.45588962343095 112.94578997978078 0 0 0 0 576.18033196651231 -415.89300442289476 0 -415.89300442289476 168.98826460132818 0 0 0 0 495.58617811929435 -233.90450383636875 0 -233.90450383636875 86.891873103900167 0 0 0 0 278.27058048141043 -271.21839375633306 0 -271.21839375633306 98.809926749035185 0 0 0 0 33.115879625562229 -161.12621810797964 0 -161.12621810797964 -23.101421339520357 0 0 0 0 415.63658133767967 -97.093679991691943 0 -97.093679991691943 -48.077993461816959 0 0 0 0 407.82200266249129 -153.40274588762077 0 -153.40274588762077 3.513459579733194 0 0 0 0 96.841131138804485 216.11596373247971 0 216.11596373247971 -17.060558639287478 0 0 0 0 65.526448610092757 25.61041265878854 0 25.61041265878854 10.023108807580499 0 0 0 0 194.05983474315872 164.77400996594361 0 164.77400996594361 -307.01663030401551 0 0 0 0 148.64239549751073 -317.70637124532203 0 -317.70637124532203 304.89059451563469 0 0 0 0 239.36720813639113 -419.94051808999484 0 -419.94051808999484 268.06991785442483 0 0 0 0 284.09011542625376 -458.75274307231945 0 -458.75274307231945 292.729052331199 0 0 0 0 379.91520246777509 -572.09059296135763 0 -572.09059296135763 356.05789202560362 0 0 0 0 540.68208950453845 -413.92083268482236 0 -413.92083268482236 182.29528336806686 0 0 0 0 188.7546243028919 -145.84188171413143 0 -145.84188171413143 54.139447872869823 0 0 0 0 357.31653293053387 -378.55312994940772 0 -378.55312994940772 176.8720279068018 0 0 0 0 418.76930970122339 -248.1988049144029 0 -248.1988049144029 226.06638667479638 0 0 0 0 283.25276784308153 -291.49892884311987 0 -291.49892884311987 254.06003107345214 0 0 0 0 981.85749922423565 -384.21917398947267 0 -384.21917398947267 247.62790508799299 0 0 0 0 -33.552005197881954 271.56553711366269 0 271.56553711366269 -53.261112633782432 0 0 0 0 -251.56684285233496 -258.2762970494789 0 -258.2762970494789 541.29925573898186 0 0 0 0 3.1390454004773005 2.7862315615364928 0 2.7862315615364928 -1.4272978174388582 0 0 0 0 1799.0018973257684 -56.32077817184063 0 -56.32077817184063 -907.61377216873552 0 0 0 0 13.707153593558246 4.2969719812387837 0 4.2969719812387837 2.2230389391722545 0 0 0 0 -41.538032835611375 81.709844619882006 0 81.709844619882006 99.208713224383246 0 0 0 0 168.25185184268048 167.93602992311571 0 167.93602992311571 -22.226963329621867 0 0 0 0 -42.689404100121465 36.088020016200517 0 36.088020016200517 309.67445345553824 0 0 0 0 40.05508425089954 15.707889590554949 0 15.707889590554949 6.4203081865429699 0 0 0 0 309.36476278799455 -86.756995567097988 0 -86.756995567097988 -145.08066842449762 0 0 0 0 -86.560524701977556 257.01613256656037 0 257.01613256656037 129.7138223637412 0 0 0 0 11.335868362904876 35.731112108858952 0 35.731112108858952 -27.204103217836291 0 0 0 0 14.897417570486141 101.78688765148672 0 101.78688765148672 44.295140580411498 0 0 0 0 31.496291534233023 66.90154674922951 0 66.90154674922951 42.641628944135391 0 0 0 0 40.72424088823027 88.787781679146974 0 88.787781679146974 22.412449982763064 0 0 0 0 89.384995276993322 99.212156305677183 0 99.212156305677183 21.683396710879606 0 0 0 0 50.76142416257062 121.54148811248933 0 121.54148811248933 42.731475751661037 0 0 0 0 6.3458980716617646 2.8757730606340566 0 2.8757730606340566 -3.9754568443732952 0 0 0 0 62.130912056542002 124.27855926201869 0 124.27855926201869 -282.65072342263875 0 0 0 0 3.4535063513537807 6.9125551843096211 0 6.9125551843096211 -3.9106279860765634 0 0 0 0 140.27055995397677 95.116161731978536 0 95.116161731978536 39.919662812859769 0 0 0 0 19.906551436070004 3.5013705802814457 0 3.5013705802814457 -8.5047247082393369 0 0 0 0 41.232986432936741 33.161977555062776 0 33.161977555062776 1.4937038908046816 0 0 0 0 180.53916709820624 -64.868844825847418 0 -64.868844825847418 17.240290544690652 0 0 0 0 9.4157580949686235 6.6519072398325356 0 6.6519072398325356 -18.453082150621068 0 0 0 0 0.3249546696961616 2.5602370613277827 0 2.5602370613277827 -12.291175775994258 0 0 0 0 60.067006174473136 -14.94065329890214 0 -14.94065329890214 -12.92682501738755 0 0 0 0 0.24418849237554241 8.7008495121567542 0 8.7008495121567542 0.67317353012457914 0 0 0 0 149.59868185817322 609.42188926533299 0 609.42188926533299 587.74842525543272 0 0 0 0 172.03753390884958 73.009767378754987 0 73.009767378754987 66.581944867971288 0 0 0 0 191.19842190967393 90.346074190098193 0 90.346074190098193 -106.50825299709504 0 0 0 0 439.45484656965709 -132.6638215236444 0 -132.6638215236444 -83.84084598695199 0 0 0 0 216.86091543275688 -6.7410540344785659 0 -6.7410540344785659 -139.80756601416579 0 0 0 0 452.57699350229814 149.92045648762769 0 149.92045648762769 -479.46088656502138 0 0 0 0 -31.903807183072786 273.30074970008764 0 273.30074970008764 -122.75154511452502 0 0 0 0 619.80316036593285 717.68404647399495 0 717.68404647399495 795.75118295086008 0 0 0 0 615.07524473249214 674.2026912719341 0 674.2026912719341 809.90989307565621 0 0 0 0 42.86122048973013 -29.409550167912258 0 -29.409550167912258 14.426677212765744 0 0 0 0 -38.273807026723517 -558.01792926195481 0 -558.01792926195481 -558.77059582406946 0 0 0 0 595.0494162079849 705.35065744253507 0 705.35065744253507 822.77819493219613 0 0 0 0 624.40950850899389 684.93090064291709 0 684.93090064291709 814.78231281521232 0 0 0 0 600.98460784663621 729.17656665455354 0 729.17656665455354 765.28554487525525 0 0 0 0 864.522828055422 403.2353299712928 0 403.2353299712928 615.89315178065272 0 0 0 0 600.73311357399507 674.24673615293739 0 674.24673615293739 846.93870698881483 0 0 0 0 1204.5942063549883 213.73170276196561 0 213.73170276196561 -823.30194419473833 0 0 0 0 -267.63005886325845 24.819038249486766 0 24.819038249486766 608.56100777542815 0 0 0 0 -462.73996448587422 -164.65113085481357 0 -164.65113085481357 858.32351074861799 0 0 0 0 -244.72073060195544 -83.161341607876238 0 -83.161341607876238 1109.6652116224313 0 0 0 0 -382.65237132346101 -603.48867237136619 0 -603.48867237136619 -289.39920868455374 0 0 0 0 31.99898866119122 -25.258591944185611 0 -25.258591944185611 18.060312025815719 0 0 0 0 -51.440450690039143 32.259595507604445 0 32.259595507604445 729.36330275845694 0 0 0 0 -277.05192365308176 303.0501045350195 0 303.0501045350195 443.26504580290475 0 0 0 0 338.48465329444298 74.364449263744746 0 74.364449263744746 183.97620250722048 0 0 0 0 700.17465914896457 597.21151933674696 0 597.21151933674696 831.07059278199347 0 0 0 0 -35.968700216024445 237.41772006405137 0 237.41772006405137 371.82020068028351 0 0 0 0 2275.4386041973376 -18.366280893168948 0 -18.366280893168948 554.84994783658044 0 0 0 0 2525.4117777218125 783.60761176994788 0 783.60761176994788 351.39041227635823 0 0 0 0 -318.69621762802126 -311.68238142563723 0 -311.68238142563723 930.12529341823131 0 0 0 0 12.728647518794673 -9.4534342583888247 0 -9.4534342583888247 9.0081255587683415 0 0 0 0 1411.2947616331221 668.9193089913515 0 668.9193089913515 361.21986263704582 0 0 0 0 1965.3058960811495 329.94943288130963 0 329.94943288130963 526.1085492510083 0 0 0 0 869.16012561928801 509.50811720959723 0 509.50811720959723 866.9539664827762 0 0 0 0 1315.5359455006328 199.55474434775806 0 199.55474434775806 1008.7180501414418 0 0 0 0 905.82707774361552 449.31590502358455 0 449.31590502358455 666.8623533017701 0 0 0 0 1047.4209036143147 713.32363911309267 0 713.32363911309267 1036.8750289124469 0 0 0 0 1861.2944224291714 615.60243712395572 0 615.60243712395572 552.90730497015397 0 0 0 0 2213.5456188862299 -325.80626228224429 0 -325.80626228224429 176.90089312759255 0 0 0 0 1297.7004372792144 -84.580347401790391 0 -84.580347401790391 72.445505496982378 0 0 0 0 718.12659480275761 211.13924266902711 0 211.13924266902711 409.96029800127064 0 0 0 0 844.27453363346285 -383.61832121754264 0 -383.61832121754264 180.61554765552273 0 0 0 0 746.70717698374392 -29.123476075509984 0 -29.123476075509984 69.877680850484921 0 0 0 0 564.12655613657262 -128.41860527484494 0 -128.41860527484494 16.190446644704252 0 0 0 0 397.11821610936022 408.55832247985973 0 408.55832247985973 214.98182830980602 0 0 0 0 695.17277134433971 -38.018014324102978 0 -38.018014324102978 -208.08306076460008 0 0 0 0 436.41609857087315 261.84142939982553 0 261.84142939982553 316.02431303970093 0 0 0 0 883.23956742330483 610.63292393247229 0 610.63292393247229 585.30159700587092 0 0 0 0 629.38128597136529 703.63736013761218 0 703.63736013761218 689.38791474357504 0 0 0 0 567.72604784938449 643.33752577486916 0 643.33752577486916 697.82746308079084 0 0 0 0 525.58821577273011 927.65574675253583 0 927.65574675253583 520.83061642032112 0 0 0 0 1.9607093384256586 463.23621115444007 0 463.23621115444007 349.03467272010755 0 0 0 0 767.16961816915864 1016.866492393503 0 1016.866492393503 -40.40885303625214 0 0 0 0 471.78966177663824 800.27532982929472 0 800.27532982929472 494.64419623318861 0 0 0 0 -458.94383764422673 35.444038650330185 0 35.444038650330185 -288.60194798075986 0 0 0 0 228.86834666908908 568.51419784014138 0 568.51419784014138 44.060310110696946 0 0 0 0 -124.1879232023839 1012.4046146335928 0 1012.4046146335928 -27.907992321283473 0 0 0 0 12.263104322326569 3.4910767434780894 0 3.4910767434780894 0.40222042053525175 0 0 0 0 -35.310472594574094 -259.05255696049483 0 -259.05255696049483 574.08825254101703 0 0 0 0 725.08183908204956 -800.44212119438123 0 -800.44212119438123 829.32085328560981 0 0 0 0 34.707327984659457 9.8973340676191555 0 9.8973340676191555 -2.0815125982964227 0 0 0 0 -41.312679256589036 732.76892683490894 0 732.76892683490894 -1074.3275592378866 0 0 0 0 206.22164083225653 231.97146222008485 0 231.97146222008485 -1130.8085099282387 0 0 0 0 -13.139614714324125 194.61424473952093 0 194.61424473952093 -422.0724494121655 0 0 0 0 173.40125155897113 325.49046980428591 0 325.49046980428591 -743.49899291163558 0 0 0 0 319.26346393689164 139.50454811588259 0 139.50454811588259 -464.33517911111835 0 0 0 0 22.665189134226239 -11.245739872526968 0 -11.245739872526968 -487.13224564937741 0 0 0 0 -354.58505504138884 -31.83281915363348 0 -31.83281915363348 -428.5053075112595 0 0 0 0 -516.65634727364522 450.58404243289868 0 450.58404243289868 -484.55026125344489 0 0 0 0 209.2754915759142 122.16976626537053 0 122.16976626537053 -584.49547188607403 0 0 0 0 503.39457705029054 22.144428312563605 0 22.144428312563605 -626.06801839594061 0 0 0 0 508.3883900617293 24.014309820096571 0 24.014309820096571 -583.34025710014134 0 0 0 0 277.31372498819837 -85.838268837948249 0 -85.838268837948249 -586.54093624575944 0 0 0 0 653.40959625429241 24.575154297747588 0 24.575154297747588 -562.66876833817901 0 0 0 0 645.84679528337438 42.68544817322163 0 42.68544817322163 -604.59586685020031 0 0 0 0 550.20999857140123 -49.535139938379189 0 -49.535139938379189 -551.92731206833651 0 0 0 0 596.03899843438558 -97.560612630069627 0 -97.560612630069627 -452.62481036047132 0 0 0 0 623.86790215203655 16.76403156690975 0 16.76403156690975 -500.82716748508983 0 0 0 0 518.96313599569839 8.3506438552681175 0 8.3506438552681175 -405.99231257405472 0 0 0 0 380.42876061802963 -105.94278621470971 0 -105.94278621470971 -492.01792570239513 0 0 0 0 554.43661768370657 -134.71855282776096 0 -134.71855282776096 -373.31809056904012 0 0 0 0 558.84373785405478 -68.694278845075019 0 -68.694278845075019 -209.37585107427981 0 0 0 0 731.12040545858326 -107.40688188423962 0 -107.40688188423962 -218.05209052390455 0 0 0 0 401.52234691072226 78.150852691800935 0 78.150852691800935 -204.63321869579045 0 0 0 0 9.2969318107825529 55.5239711088999 0 55.5239711088999 -76.457802880750251 0 0 0 0 319.8919070174743 305.56882852914919 0 305.56882852914919 -391.88068692546085 0 0 0 0 278.81043429864803 -66.749563599364819 0 -66.749563599364819 -370.78636735171864 0 0 0 0 57.05289026882383 47.611298792140815 0 47.611298792140815 26.623815723826283 0 0 0 0 96.34860137742362 17.896027342202274 0 17.896027342202274 -0.8531698310137017 0 0 0 0 -0.048512261272833257 20.116145233611491 0 20.116145233611491 12.192665465223275 0 0 0 0 20.003124221519101 -0.77430746127220118 0 -0.77430746127220118 -17.351602627686134 0 0 0 0 10.473312967976867 5.5505003261666843 0 5.5505003261666843 -13.732165070633847 0 0 0 0 33.380808395158965 41.697255160600434 0 41.697255160600434 -46.405915731237656 0 0 0 0 15.099858926164075 6.1184567288945502 0 6.1184567288945502 -1.4718462893556863 0 0 0 0 26.193154420529027 23.35199136066808 0 23.35199136066808 0.96063540710025563 0 0 0 0 -5.8042556806176435 -3.9290767987449726 0 -3.9290767987449726 10.561027631603082 0 0 0 0 110.07356660423102 14.122504488818322 0 14.122504488818322 -31.183538569331176 0 0 0 0 184.79508762389014 70.729787143834443 0 70.729787143834443 -70.795315721188103 0 0 0 0 112.01910997560481 99.911749907286094 0 99.911749907286094 75.506272510765143 0 0 0 0 45.090336982539441 -19.843988900967801 0 -19.843988900967801 -7.7682505305982845 0 0 0 0 798.85632353913388 611.86562947769198 0 611.86562947769198 827.11892662797402 0 0 0 0 799.83685179792519 622.37075758394371 0 622.37075758394371 680.49385645752636 0 0 0 0 -259.232946128599 257.69519602266837 0 257.69519602266837 409.35204863242143 0 0 0 0 145.82883989232505 -133.47070421665376 0 -133.47070421665376 44.797962922600618 0 0 0 0 4.2319461582485758 0.81768774468701722 0 0.81768774468701722 -0.42654017215166995 0 0 0 0 918.41099170982488 856.11948658153005 0 856.11948658153005 493.683751839259 0 0 0 0 469.3770564533188 -352.94651233514014 0 -352.94651233514014 183.56551069103807 0 0 0 0 946.76910390805278 696.3953839780288 0 696.3953839780288 642.40711844570524 0 0 0 0 46.677764550388559 -26.046056615258976 0 -26.046056615258976 4.5151341538365131 0 0 0 0 1193.7635846809717 574.06648685773962 0 574.06648685773962 405.58205612760116 0 0 0 0 926.98364446593041 889.60918128585945 0 889.60918128585945 271.07597536317894 0 0 0 0 1098.7233729555446 646.3899773581785 0 646.3899773581785 594.5299561220553 0 0 0 0 999.85297381841519 352.02844084770129 0 352.02844084770129 1026.3103000486844 0 0 0 0 831.50874770744122 805.82908109960556 0 805.82908109960556 1134.055229023686 0 0 0 0 977.23791994537169 231.5745787028892 0 231.5745787028892 155.26210942157957 0 0 0 0 87.509351274260553 350.7745960213349 0 350.7745960213349 139.29375746970399 0 0 0 0 1660.0846272244889 602.4428326512716 0 602.4428326512716 349.31390770416533 0 0 0 0 625.23164688771067 571.3418765950446 0 571.3418765950446 107.34039477588487 0 0 0 0 681.21222557068177 893.82533985802627 0 893.82533985802627 621.87433437226696 0 0 0 0 609.16869520949695 767.87246850326767 0 767.87246850326767 780.90636974658889 0 0 0 0 798.86717096679786 656.2425717498852 0 656.2425717498852 663.74590836920538 0 0 0 0 110.05712973674228 25.258439973145549 0 25.258439973145549 24.722476674588506 0 0 0 0 896.73957883064577 741.92330134240308 0 741.92330134240308 512.74119981624676 0 0 0 0 575.56389641396527 954.14341132617756 0 954.14341132617756 373.54819205132873 0 0 0 0 94.606971791254182 47.249900754526891 0 47.249900754526891 18.043970349059464 0 0 0 0 872.75619371580251 833.97131657906846 0 833.97131657906846 383.07997079123027 0 0 0 0 1095.855649825884 632.7840327445515 0 632.7840327445515 437.8301472091901 0 0 0 0 42.72263038633568 -10.889896254577437 0 -10.889896254577437 -18.989685997143095 0 0 0 0 -2.8255337234078794 18.462194792775676 0 18.462194792775676 24.787266910264893 0 0 0 0 3.6901276537483199 2.9834612163912198 0 2.9834612163912198 0.49311322462262597 0 0 0 0 552.8857112692931 -371.59334460257395 0 -371.59334460257395 -572.03737955441193 0 0 0 0 1008.3027205478284 196.77616906944502 0 196.77616906944502 131.14795683214106 0 0 0 0 98.893021623021923 61.219249994745951 0 61.219249994745951 33.636458672296612 0 0 0 0 1668.2029296607361 518.59489250876402 0 518.59489250876402 -60.453852449506485 0 0 0 0 1620.7441791886049 704.99011965469629 0 704.99011965469629 18.88689992463992 0 0 0 0 1236.9649168104806 365.31210254419238 0 365.31210254419238 -1.5737630978470065 0 0 0 0 1381.0939443748794 758.10454666907799 0 758.10454666907799 -21.673818001008726 0 0 0 0 1332.0624046711018 565.53038311128012 0 565.53038311128012 -299.61929552512873 0 0 0 0 1360.1552393086458 609.17917557758199 0 609.17917557758199 170.33322997329356 0 0 0 0 1209.809494728659 839.77063122137417 0 839.77063122137417 315.18555811888291 0 0 0 0 951.28644347845693 766.94948896759729 0 766.94948896759729 359.82171759335785 0 0 0 0 244.28806664145668 692.80926668043287 0 692.80926668043287 383.23069174767363 0 0 0 0 932.3305873182635 884.42640269562401 0 884.42640269562401 169.68838263674411 0 0 0 0 13.437342608570077 0.79924756809194264 0 0.79924756809194264 -0.38058073185395025 0 0 0 0 543.50738799231476 -193.79393158818658 0 -193.79393158818658 -484.46666152320313 0 0 0 0 994.3738956259549 1022.836205971544 0 1022.836205971544 440.04753601463813 0 0 0 0 27.944935103654643 -137.13679751506018 0 -137.13679751506018 -483.95666920057897 0 0 0 0 766.43923435022589 681.7724055791457 0 681.7724055791457 -19.355628575795834 0 0 0 0 544.56708176928805 70.326498888066538 0 70.326498888066538 -1112.4578287413165 0 0 0 0 333.14315387664828 112.41013997235308 0 112.41013997235308 -268.29298840344154 0 0 0 0 339.59755413839594 306.33320597037704 0 306.33320597037704 -810.53631067942888 0 0 0 0 422.78754363983171 391.95300444696784 0 391.95300444696784 -327.55698204602845 0 0 0 0 -74.135505056357943 107.45999947903999 0 107.45999947903999 -443.04191739053431 0 0 0 0 -312.04648327035829 -572.91312949394921 0 -572.91312949394921 -1558.5975926824976 0 0 0 0 -17.3291347080376 425.12702537362526 0 425.12702537362526 -835.00365886078862 0 0 0 0 -402.69772449330776 309.75749556059412 0 309.75749556059412 -566.07076374038877 0 0 0 0 6.1758959157960049 0.53959811219871767 0 0.53959811219871767 -2.5855911626447403 0 0 0 0 27.684122812948772 106.4526401404195 0 106.4526401404195 -244.42138785048212 0 0 0 0 -55.993248675702489 118.04260004289652 0 118.04260004289652 -74.571636807680079 0 0 0 0 29.335770264116775 -2.7877310393831785 0 -2.7877310393831785 -2.1580438370770252 0 0 0 0 -90.150793801727559 102.33002877090793 0 102.33002877090793 -75.178669740842452 0 0 0 0 -16.825599535244692 209.9960309173857 0 209.9960309173857 0.098777788335891861 0 0 0 0 250.05832441349048 15.564166353433166 0 15.564166353433166 -68.304368441786607 0 0 0 0 -35.547308821252955 123.33928182890156 0 123.33928182890156 -88.35639783204283 0 0 0 0 515.41665767121594 252.57103820024943 0 252.57103820024943 -0.066344735249266498 0 0 0 0 688.53315757367818 152.63377819693284 0 152.63377819693284 -215.27835200542103 0 0 0 0 1416.5022933742803 429.56728141415431 0 429.56728141415431 -199.35669394318938 0 0 0 0 1470.401738144632 269.83315565390353 0 269.83315565390353 170.94680566733348 0 0 0 0 1177.6544338222593 -220.1426669866014 0 -220.1426669866014 219.36459484841464 0 0 0 0 706.91182152472902 -19.469823213196491 0 -19.469823213196491 87.457740678669154 0 0 0 0 968.89095229507075 142.5572397535268 0 142.5572397535268 -21.465743066785322 0 0 0 0 839.50508222723147 -185.60990589440178 0 -185.60990589440178 119.07762296048918 0 0 0 0 940.51976428349735 -230.32426793392037 0 -230.32426793392037 -17.13362299401976 0 0 0 0 184.99447607784532 -204.17767655412433 0 -204.17767655412433 198.98312269874503 0 0 0 0 636.88687207255134 -567.6050815820538 0 -567.6050815820538 407.08851088624681 0 0 0 0 859.46783532068366 -659.45764120086199 0 -659.45764120086199 430.10546588842033 0 0 0 0 1466.0637870394858 -321.89961734997809 0 -321.89961734997809 106.54421980262762 0 0 0 0 624.58221810823306 -14.675586741605002 0 -14.675586741605002 -522.06686729191938 0 0 0 0 -2485.4922820607026 2748.8285291038578 0 2748.8285291038578 -1997.2249078093782 0 0 0 0 1539.6319921451504 -659.37373549719314 0 -659.37373549719314 368.95303401746332 0 0 0 0 854.78807626842172 2529.3092323576971 0 2529.3092323576971 -3105.7835819670613 0 0 0 0 19.187243374294781 8.7441385371365072 0 8.7441385371365072 -0.78139443692576682 0 0 0 0 12.655545370523441 6.6818323562659714 0 6.6818323562659714 -1.5122832137196816 0 0 0 0 406.58258908122662 -73.13270161265163 0 -73.13270161265163 -537.42993133884625 0 0 0 0 770.02396754809888 70.091735264640647 0 70.091735264640647 -557.52526951784102 0 0 0 0 663.26623513780214 54.050754489804319 0 54.050754489804319 -561.44741156627697 0 0 0 0 673.81105836632196 69.905023278702572 0 69.905023278702572 -553.0483876674034 0 0 0 0 693.38182135924581 43.069469961668204 0 43.069469961668204 -593.62171443613965 0 0 0 0 510.73340244815336 -2.5160328910534417 0 -2.5160328910534417 -568.48254969582536 0 0 0 0 675.81147121643153 24.226202522808336 0 24.226202522808336 -602.3113042597065 0 0 0 0 122.77242918033153 -130.18120324231592 0 -130.18120324231592 -541.968952877883 0 0 0 0 471.67513537194463 -870.37651932090421 0 -870.37651932090421 -880.16505508828095 0 0 0 0 -3735.0117054389266 2705.6389531756531 0 2705.6389531756531 784.8577927363358 0 0 0 0 1617.4821279403113 912.02429311960941 0 912.02429311960941 1384.7316205042353 0 0 0 0 2175.978879119968 35.61689704938675 0 35.61689704938675 249.68306554633432 0 0 0 0 528.93575198587496 -49.079760308121649 0 -49.079760308121649 565.68541823203918 0 0 0 0 153.46925596668734 -690.54692992060995 0 -690.54692992060995 -246.55127293789633 0 0 0 0 9.4242422704759292 -2.5750768090276033 0 -2.5750768090276033 0.056408442706827322 0 0 0 0 569.77026140798625 -55.297538984953036 0 -55.297538984953036 -117.09838669342298 0 0 0 0 284.29359593070694 -570.43562222798118 0 -570.43562222798118 -1233.0586799194925 0 0 0 0 25.326105389362624 -2.5472726075912107 0 -2.5472726075912107 -1.7418101667536579 0 0 0 0 274.01296025617194 -39.851716858651528 0 -39.851716858651528 -630.62432214063938 0 0 0 0 448.81349914397197 -269.61630054146281 0 -269.61630054146281 -537.99021278588566 0 0 0 0 -483.24399247521796 -417.7858173972171 0 -417.7858173972171 -547.84524199810141 0 0 0 0 47.243672565811721 -105.23698753924724 0 -105.23698753924724 -2145.2618316803109 0 0 0 0 5.7437277058512848 -1.1690784138348818 0 -1.1690784138348818 -3.4660405189129291 0 0 0 0 30.515082682657521 -67.627495560167688 0 -67.627495560167688 -65.672324308366342 0 0 0 0 -24.684814843654749 12.474450606424764 0 12.474450606424764 56.96319348040835 0 0 0 0 429.15528889407142 272.6401672659033 0 272.6401672659033 88.738195089144938 0 0 0 0 -3.2845522907591658 34.268179630284749 0 34.268179630284749 92.287713158674933 0 0 0 0 343.17266030979226 196.48549496959961 0 196.48549496959961 100.34318663691215 0 0 0 0 83.362733984700753 -60.789276016608383 0 -60.789276016608383 -5.3122019255971082 0 0 0 0 -0.18922261644212313 0.49137661310777503 0 0.49137661310777503 -0.91283149704133082 0 0 0 0 -206.9199874222686 171.77473743668088 0 171.77473743668088 -0.12180160732384586 0 0 0 0 441.76867872955336 -4.9517336053882746 0 -4.9517336053882746 -0.16867283765515556 0 0 0 0 304.44402462949802 93.6156859349217 0 93.6156859349217 6.0539061834186345 0 0 0 0 338.05074506488018 21.638048860953567 0 21.638048860953567 30.417495138005567 0 0 0 0 570.99463836548966 20.770766072960576 0 20.770766072960576 -50.309713386676421 0 0 0 0 543.25259038380318 -56.01105916075268 0 -56.01105916075268 -65.858187809271598 0 0 0 0 438.06360653250158 102.77238659244736 0 102.77238659244736 -36.085294123220734 0 0 0 0 553.22065897611901 52.481288552006617 0 52.481288552006617 -50.642228877463843 0 0 0 0 557.71934869831603 67.210757900250684 0 67.210757900250684 -9.548906851686894 0 0 0 0 819.58562937282841 -71.643878517687511 0 -71.643878517687511 -70.29309330987148 0 0 0 0 606.63207689836963 -253.48301619134469 0 -253.48301619134469 68.044772645046834 0 0 0 0 624.21155324534629 -145.5690034670634 0 -145.5690034670634 -37.676997928022722 0 0 0 0 514.8733799090478 -58.957263896836984 0 -58.957263896836984 -0.093185005767069645 0 0 0 0 409.04122548029409 -159.87476797534583 0 -159.87476797534583 -0.26641050947277733 0 0 0 0 159.91582465203828 -74.777303800965569 0 -74.777303800965569 24.231512526490732 0 0 0 0 222.13772498944309 -59.166830068110244 0 -59.166830068110244 0.047967737128267407 0 0 0 0 42.031186076419544 -48.182809827259462 0 -48.182809827259462 -298.14592444927445 0 0 0 0 115.15934927427952 -14.394971455628648 0 -14.394971455628648 31.840309328712685 0 0 0 0 31.660483101925621 4.0063994617350858 0 4.0063994617350858 -9.8940723609529062 0 0 0 0 250.66638397259521 -105.94174280539661 0 -105.94174280539661 96.04769395884486 0 0 0 0 303.12858458707342 -132.22024215110503 0 -132.22024215110503 32.960372381300232 0 0 0 0 190.22729228386743 -186.45321681096883 0 -186.45321681096883 90.625725058732797 0 0 0 0 136.57619017043908 551.14705921160839 0 551.14705921160839 -1073.588776362044 0 0 0 0 1312.7066197596287 -1056.7416472058869 0 -1056.7416472058869 -970.47095982504788 0 0 0 0 30.57992785568689 9.7739132484958162 0 9.7739132484958162 -7.5542309012154014 0 0 0 0 476.04896061558975 387.21784617397952 0 387.21784617397952 -83.434739987650573 0 0 0 0 31.511811888043667 -29.524424691502702 0 -29.524424691502702 -300.73337064120278 0 0 0 0 100.21211756503908 -74.921044396695606 0 -74.921044396695606 -421.63245302271275 0 0 0 0 131.53735147393309 110.93298585475088 0 110.93298585475088 -227.92096462457084 0 0 0 0 262.55953016374406 -118.63160566999977 0 -118.63160566999977 -410.11339755232029 0 0 0 0 325.43551131294225 -31.059738257239815 0 -31.059738257239815 -343.16613320889383 0 0 0 0 378.90792147998218 119.87560488985933 0 119.87560488985933 -319.88258393273782 0 0 0 0 352.99864990182687 -49.876188170029081 0 -49.876188170029081 -333.15414010765608 0 0 0 0 593.54138453947962 97.378742818426417 0 97.378742818426417 -347.42314209576102 0 0 0 0 595.22695350094 101.1031532790293 0 101.1031532790293 -433.19732900308327 0 0 0 0 641.38708670026972 185.22325093863219 0 185.22325093863219 -434.50099599055073 0 0 0 0 657.43224046810064 131.24012000222478 0 131.24012000222478 -429.29356279388753 0 0 0 0 657.14301790785976 119.01916679120359 0 119.01916679120359 -520.78673785163983 0 0 0 0 748.7005671292427 89.772135813761452 0 89.772135813761452 -574.23173817140537 0 0 0 0 734.75148885576709 168.56327605051291 0 168.56327605051291 -489.28784058578185 0 0 0 0 655.69618880774942 200.98761142732656 0 200.98761142732656 -502.3817957237161 0 0 0 0 910.68049772753147 144.14645722228079 0 144.14645722228079 -522.29125735425896 0 0 0 0 840.35030283263768 275.07759494807419 0 275.07759494807419 -476.43784848780388 0 0 0 0 961.9554366437078 321.46973988362248 0 321.46973988362248 -474.17656904300793 0 0 0 0 538.51895431167213 219.23702500805143 0 219.23702500805143 -260.07971026184578 0 0 0 0 -189.25355502973252 -187.66711413669236 0 -187.66711413669236 -363.48689924618469 0 0 0 0 72.471136317510172 -376.15600605191742 0 -376.15600605191742 -271.1087696070681 0 0 0 0 106.2645831816335 -161.57877797375681 0 -161.57877797375681 -279.98193055735237 0 0 0 0 215.37108712609916 -150.39964739346215 0 -150.39964739346215 -317.43168009460283 0 0 0 0 263.76355016492016 -200.01356717426643 0 -200.01356717426643 -450.28774819140858 0 0 0 0 97.132363591095782 -130.77488801092454 0 -130.77488801092454 -265.35297529010722 0 0 0 0 -53.288593905846938 -245.07362727378882 0 -245.07362727378882 -341.90310514567682 0 0 0 0 -76.645746170446728 -438.65223381524288 0 -438.65223381524288 -529.61372046460474 0 0 0 0 14.593404495009167 -13.215416694445125 0 -13.215416694445125 8.3839965505235003 0 0 0 0 76.783654901909358 -71.400175342268753 0 -71.400175342268753 62.141657481436766 0 0 0 0 21.779235330513984 -18.189635946152833 0 -18.189635946152833 11.332037628492582 0 0 0 0 74.416184870453435 -47.024280018688614 0 -47.024280018688614 22.016732259626622 0 0 0 0 36.949196066096192 -71.595661452350214 0 -71.595661452350214 -283.97895876853715 0 0 0 0 19.9124010276646 -6.2169972950415735 0 -6.2169972950415735 0.0039709257566018256 0 0 0 0 52.901388505080831 8.8765471512278449 0 8.8765471512278449 -3.291043013806489 0 0 0 0 4.3544731748082199 -3.9978185472524927 0 -3.9978185472524927 2.1723586947553217 0 0 0 0 7.2131359596862694 1.109776462321804 0 1.109776462321804 -2.266986046917725 0 0 0 0 55.845796422658168 -18.508030868697432 0 -18.508030868697432 58.96160932649309 0 0 0 0 318.85999182884552 -123.82108389092343 0 -123.82108389092343 -0.016994919770134412 0 0 0 0 601.29055802687071 -51.240538280927126 0 -51.240538280927126 -108.02936665150651 0 0 0 0 597.71767552298752 -91.945622654723792 0 -91.945622654723792 -21.461900211019554 0 0 0 0 331.65043679644441 62.533904648992745 0 62.533904648992745 3.6159300157195275 0 0 0 0 883.21070701743884 -236.98766327544573 0 -236.98766327544573 -34.678473690258386 0 0 0 0 748.76705005706754 -189.48804486742833 0 -189.48804486742833 -0.013853723184762639 0 0 0 0 885.04595406347653 -163.39378337452854 0 -163.39378337452854 -91.614326920264489 0 0 0 0 815.25342279449978 -142.76174781203395 0 -142.76174781203395 -97.097740618507203 0 0 0 0 1250.0562907554267 -253.30456629204923 0 -253.30456629204923 -210.20992475022285 0 0 0 0 1254.8303762097567 -216.83717889799493 0 -216.83717889799493 -273.89189414332259 0 0 0 0 1022.7824772666954 -283.95604440955941 0 -283.95604440955941 -189.46596279186679 0 0 0 0 1038.3220960546423 -144.30071115269118 0 -144.30071115269118 -131.43679903221641 0 0 0 0 1343.6754376912431 -19.173264602375184 0 -19.173264602375184 -162.05287916020438 0 0 0 0 922.4379511627485 -83.216267187329663 0 -83.216267187329663 -163.03464810215974 0 0 0 0 765.51654718787177 -108.6594679017652 0 -108.6594679017652 -25.728256231011073 0 0 0 0 888.83712325982196 -44.135857701397271 0 -44.135857701397271 -24.32572930266042 0 0 0 0 541.16116029147088 60.794883055839534 0 60.794883055839534 -27.980932332448219 0 0 0 0 505.26755207061069 56.162214371594246 0 56.162214371594246 -23.547496421827702 0 0 0 0 793.35255549190333 -34.451106412460376 0 -34.451106412460376 -21.771614635863699 0 0 0 0 1387.1702182280715 130.041007618207 0 130.041007618207 -229.25827573940091 0 0 0 0 880.96718254152074 180.54132724910454 0 180.54132724910454 -128.58335694892048 0 0 0 0 652.47820934922493 463.01719280721602 0 463.01719280721602 -373.12483825398022 0 0 0 0 1540.1688583874493 266.40314753311804 0 266.40314753311804 -981.15588217715413 0 0 0 0 1478.830132910196 246.01683505851281 0 246.01683505851281 -381.68983766533802 0 0 0 0 2266.7941605548549 -551.17959819313455 0 -551.17959819313455 -64.158455029609286 0 0 0 0 2112.9691014488344 -307.38258684889536 0 -307.38258684889536 -348.56340106061839 0 0 0 0 706.46365444600451 193.14265256374603 0 193.14265256374603 42.247338338504733 0 0 0 0 420.3340970386198 -22.364221183298241 0 -22.364221183298241 12.778211423729687 0 0 0 0 910.5986013795191 -221.04986652809373 0 -221.04986652809373 -26.121842291933604 0 0 0 0 764.03686883862247 -126.86888338830892 0 -126.86888338830892 -85.505816567956913 0 0 0 0 458.17334963679968 -274.78063296966252 0 -274.78063296966252 42.5354066287357 0 0 0 0 1384.841140511242 -381.68173114986871 0 -381.68173114986871 -155.1829416871675 0 0 0 0 -608.1826595323073 -852.26333725788857 0 -852.26333725788857 -207.82375612485748 0 0 0 0 1668.8093137802643 333.5060901364476 0 333.5060901364476 -70.45046968264063 0 0 0 0 5.7505576226354265 -5.075584081319704 0 -5.075584081319704 3.3631104398189779 0 0 0 0 240.80284882368869 -738.98361478161291 0 -738.98361478161291 -240.64124530643335 0 0 0 0 715.2372815386334 -572.07681287791183 0 -572.07681287791183 -254.14465960808764 0 0 0 0 923.87920786493851 44.434267319680501 0 44.434267319680501 -674.2161732363802 0 0 0 0 -141.65244182628521 -470.13176816719147 0 -470.13176816719147 152.15661010537872 0 0 0 0 32.590902280171207 6.0695608090480704 0 6.0695608090480704 -6.2103720537284151 0 0 0 0 432.72193865038207 257.69696839817141 0 257.69696839817141 -597.37020625317996 0 0 0 0 1028.2719207069749 -43.658867624866389 0 -43.658867624866389 -278.73062546965275 0 0 0 0 2590.9835601311061 -658.59030366677757 0 -658.59030366677757 -413.2529295451464 0 0 0 0 57.631017459105351 -434.82642661768409 0 -434.82642661768409 317.00991778377124 0 0 0 0 157.70197719326825 -449.82759197400287 0 -449.82759197400287 101.38395089550568 0 0 0 0 98.26259211548313 -265.84313755087248 0 -265.84313755087248 11.19297092182164 0 0 0 0 197.57526516536018 -491.89405333523558 0 -491.89405333523558 -266.11452189375819 0 0 0 0 1952.3571954375802 -1821.1162283928279 0 -1821.1162283928279 1004.6351682746645 0 0 0 0 1335.3375570561911 -914.85357271725616 0 -914.85357271725616 1263.0632442100964 0 0 0 0 2890.7336999277322 -1127.2132588892066 0 -1127.2132588892066 303.35688090475605 0 0 0 0 1463.0324411356123 -589.24041591629248 0 -589.24041591629248 247.06499569576943 0 0 0 0 15.706341380351034 2.2974371244998935 0 2.2974371244998935 -2.2994123802540765 0 0 0 0 1616.1312636868679 -1583.0243372904154 0 -1583.0243372904154 1127.7335624467682 0 0 0 0 519.15578507811006 995.27202990304363 0 995.27202990304363 -1028.8598741803169 0 0 0 0 -364.67139514538576 611.98510821469597 0 611.98510821469597 -180.43000150037219 0 0 0 0 778.68792631628457 -1047.4306569883897 0 -1047.4306569883897 970.08511048254991 0 0 0 0 524.9122641969152 -686.38534479634882 0 -686.38534479634882 477.50664440598052 0 0 0 0 804.4728929088742 -872.68402965000485 0 -872.68402965000485 470.0888278641537 0 0 0 0 1170.5253864972183 -557.65708795282887 0 -557.65708795282887 398.48359673042097 0 0 0 0 1497.3395163554233 -717.70738829084621 0 -717.70738829084621 210.47132584526076 0 0 0 0 8.0685048736486351 -167.55830067135662 0 -167.55830067135662 59.708130382963986 0 0 0 0 889.10280324796622 -251.32169261122215 0 -251.32169261122215 -32.287256387556681 0 0 0 0 581.89293045474915 -434.36225308768871 0 -434.36225308768871 162.44421542596018 0 0 0 0 935.92037899194111 -782.34026122382193 0 -782.34026122382193 177.41953025659882 0 0 0 0 883.82473589263827 -881.9878913953977 0 -881.9878913953977 320.74305027122614 0 0 0 0 940.47779823205201 -694.8470790262013 0 -694.8470790262013 394.7611683388775 0 0 0 0 737.18952743642149 -790.65290694965665 0 -790.65290694965665 379.93613839805062 0 0 0 0 193.83262356811611 -387.55241122322798 0 -387.55241122322798 374.72969278246728 0 0 0 0 583.53061428510409 -184.43104703830863 0 -184.43104703830863 -378.46903902293161 0 0 0 0 46.274432965194194 4.8326890076924442 0 4.8326890076924442 -0.72002315882931534 0 0 0 0 11.985292388943265 2.3074642916915735 0 2.3074642916915735 -1.1467138396941552 0 0 0 0 -138.78811534160923 681.36725162339735 0 681.36725162339735 -1064.3436926768691 0 0 0 0 24.9609428582134 4.6453330997816806 0 4.6453330997816806 -5.3891105082683302 0 0 0 0 -1197.3932535978747 398.48594251418677 0 398.48594251418677 -267.61500796146555 0 0 0 0 1453.4494781039903 -630.44155169479154 0 -630.44155169479154 48.831186545769924 0 0 0 0 1397.9506227545789 -674.77979240985155 0 -674.77979240985155 163.27926211327213 0 0 0 0 929.41249802531092 -516.44783731209645 0 -516.44783731209645 462.39595356283985 0 0 0 0 750.4286884223111 -586.29331957099976 0 -586.29331957099976 489.68474788452124 0 0 0 0 1054.4907830904267 -1273.108246650077 0 -1273.108246650077 1053.5603934023261 0 0 0 0 2042.4864319948538 -909.83024786712076 0 -909.83024786712076 19.2175418870454 0 0 0 0 1946.7496088270127 -298.114231891293 0 -298.114231891293 -1.7681441887157234 0 0 0 0 523.62056808336638 -650.52344100931782 0 -650.52344100931782 154.8352302714452 0 0 0 0 424.12965701695066 -88.176178587812956 0 -88.176178587812956 -189.35190064678568 0 0 0 0 25.946991103280368 8.6744043059611045 0 8.6744043059611045 -0.45252088679041513 0 0 0 0 323.52766977692954 -454.85524184619771 0 -454.85524184619771 415.06851741383184 0 0 0 0 -333.33626137681131 776.2663711114817 0 776.2663711114817 -1095.7138783230509 0 0 0 0 250.39687533628603 345.72069823254424 0 345.72069823254424 -589.17994523843481 0 0 0 0 -212.83109285302635 112.20104964356346 0 112.20104964356346 395.89228987946018 0 0 0 0 -58.338398386476911 428.4923513765923 0 428.4923513765923 -1.371155621113644 0 0 0 0 250.47162014048081 -465.76742467058898 0 -465.76742467058898 310.00065175792042 0 0 0 0 378.84200667376717 -255.44280632829543 0 -255.44280632829543 560.08959322158626 0 0 0 0 504.09173400039435 -436.39982858414987 0 -436.39982858414987 342.01270283487383 0 0 0 0 398.29920392807981 -321.27109248101362 0 -321.27109248101362 348.43282403815374 0 0 0 0 443.42245459949481 -596.63984976740539 0 -596.63984976740539 916.07365022355884 0 0 0 0 716.46480935634463 -376.19503399719838 0 -376.19503399719838 277.24760136475652 0 0 0 0 553.56142860214459 -359.56696994982076 0 -359.56696994982076 464.72509605975301 0 0 0 0 471.82375063846121 -308.3776461939417 0 -308.3776461939417 367.16609304116832 0 0 0 0 635.57744770322461 -448.53915899517142 0 -448.53915899517142 422.00338386495582 0 0 0 0 356.20961356945918 -370.78097770600607 0 -370.78097770600607 817.13051198643734 0 0 0 0 700.09396751865279 -364.0038921686305 0 -364.0038921686305 401.53369798235417 0 0 0 0 854.22873261052882 -555.04694147507007 0 -555.04694147507007 480.8297513811433 0 0 0 0 8.7318269783421556 0.7483158221018158 0 0.7483158221018158 -2.6372800676847064 0 0 0 0 -1192.4347102367901 510.95104716616379 0 510.95104716616379 -793.48194181633426 0 0 0 0 1322.0311853956373 -537.06226988148455 0 -537.06226988148455 299.37659390049157 0 0 0 0 839.60717057940201 -868.76538963472012 0 -868.76538963472012 787.89470337834223 0 0 0 0 97.004853159742197 -286.62114450770878 0 -286.62114450770878 -409.89550961484656 0 0 0 0 28.821899887898667 9.8543253950745111 0 9.8543253950745111 0.92956129547048949 0 0 0 0 1797.337513972132 144.88763934407643 0 144.88763934407643 -983.25614685685628 0 0 0 0 217.90089589523268 270.32093046683167 0 270.32093046683167 137.61928959106217 0 0 0 0 429.58646861364832 -374.17171435868249 0 -374.17171435868249 369.90837172476677 0 0 0 0 1149.7500582643552 -143.5985483232721 0 -143.5985483232721 319.81007735885169 0 0 0 0 772.5930539109977 -90.757245394447636 0 -90.757245394447636 387.22438099256851 0 0 0 0 974.28058811079245 -535.33672114351248 0 -535.33672114351248 422.17026152026756 0 0 0 0 425.1274947108468 -263.74794044649025 0 -263.74794044649025 424.23442798200449 0 0 0 0 -213.47942607913865 -486.61809868419641 0 -486.61809868419641 633.18012655906841 0 0 0 0 655.12132226512767 -540.60068871145859 0 -540.60068871145859 492.47439679941658 0 0 0 0 827.7723388041486 -379.40096674648953 0 -379.40096674648953 210.86873928648629 0 0 0 0 664.69294655497652 -321.37446522104688 0 -321.37446522104688 230.19166289771124 0 0 0 0 689.55364201385237 -359.30166139337427 0 -359.30166139337427 190.50623237860691 0 0 0 0 628.94923593749991 -240.17703270228344 0 -240.17703270228344 56.28580365145217 0 0 0 0 607.93983956467127 -194.07971375882335 0 -194.07971375882335 64.254240473753441 0 0 0 0 817.37032313537929 -285.9336874833399 0 -285.9336874833399 -26.511843713522467 0 0 0 0 637.04549230920384 -202.15528147114674 0 -202.15528147114674 -0.32691682565564406 0 0 0 0 790.61499515440664 -354.21511697163487 0 -354.21511697163487 328.46784887099147 0 0 0 0 585.13222772080917 -187.57118306894336 0 -187.57118306894336 407.80771057991785 0 0 0 0 553.16043256566627 -350.78127135505019 0 -350.78127135505019 370.66686223700106 0 0 0 0 514.3970773484034 -292.88288731503098 0 -292.88288731503098 286.24605338184301 0 0 0 0 609.60050725531983 -288.99648785521231 0 -288.99648785521231 286.09206931964309 0 0 0 0 628.67250863055233 -200.94887551453098 0 -200.94887551453098 103.07091110643114 0 0 0 0 604.81637767676148 -234.07439764119249 0 -234.07439764119249 298.83195801218608 0 0 0 0 629.54054036847083 -283.21036684849628 0 -283.21036684849628 186.20398918395404 0 0 0 0 568.38685948327475 -180.40925603810513 0 -180.40925603810513 128.08913327166147 0 0 0 0 628.82291987455392 -195.82956684626004 0 -195.82956684626004 -33.069691491958793 0 0 0 0 624.77343912314245 -158.63543108144961 0 -158.63543108144961 -39.310798931777754 0 0 0 0 596.2266921303235 -214.51083657989375 0 -214.51083657989375 97.549776411530615 0 0 0 0 642.24339459983457 -120.13260619401569 0 -120.13260619401569 -210.02592070660296 0 0 0 0 546.8340550964931 -133.48241030790575 0 -133.48241030790575 -46.845738979655714 0 0 0 0 595.57200104113144 -179.43397192058075 0 -179.43397192058075 -119.72600307976802 0 0 0 0 675.66904871231236 -143.79942702607718 0 -143.79942702607718 -171.80418823807599 0 0 0 0 648.7745566520025 -222.51846895635708 0 -222.51846895635708 -25.656892133866222 0 0 0 0 667.45172424230259 -198.2469900636296 0 -198.2469900636296 -124.93696362895162 0 0 0 0 594.56946325094032 -99.054524891307608 0 -99.054524891307608 -145.06068572427648 0 0 0 0 661.73670236370526 -118.48144799194711 0 -118.48144799194711 -266.35695076171083 0 0 0 0 633.23433558951365 -153.30736432844333 0 -153.30736432844333 -173.0206894596754 0 0 0 0 643.76464943904284 -66.177740219479716 0 -66.177740219479716 -282.13189785291343 0 0 0 0 647.12499791197479 -95.457299734496928 0 -95.457299734496928 -321.29704093944792 0 0 0 0 626.51573404209921 -34.477413359911907 0 -34.477413359911907 -349.64070280833488 0 0 0 0 675.69357868446968 -130.37136946932139 0 -130.37136946932139 -336.92594696142464 0 0 0 0 657.20077887148364 -23.708314732188882 0 -23.708314732188882 -415.29513260688123 0 0 0 0 647.52524423343129 -11.998632322408696 0 -11.998632322408696 -405.8902495227353 0 0 0 0 620.83510209320229 -44.38987588770533 0 -44.38987588770533 -279.80375888159557 0 0 0 0 639.33360883583373 49.950241325595982 0 49.950241325595982 -414.35773323705212 0 0 0 0 580.20216178418195 10.713278686362713 0 10.713278686362713 -330.22692151933234 0 0 0 0 648.46533016537433 50.756440963049613 0 50.756440963049613 -458.03980496604595 0 0 0 0 678.17003417358501 69.496884010061251 0 69.496884010061251 -483.54550878669897 0 0 0 0 690.16960058611585 61.548696873953233 0 61.548696873953233 -547.00709489700057 0 0 0 0 655.48754896587343 -14.377177877633017 0 -14.377177877633017 -499.86980121690215 0 0 0 0 441.47262278493145 -116.02465397605863 0 -116.02465397605863 -136.61096085294639 0 0 0 0 570.17241054950864 -88.503407802294419 0 -88.503407802294419 -267.07276693476922 0 0 0 0 536.01755475398386 -68.180844086124239 0 -68.180844086124239 -205.97130008913035 0 0 0 0 622.15792989516922 -26.88405450999241 0 -26.88405450999241 -346.78728209104952 0 0 0 0 505.74767342122504 -19.967374908740851 0 -19.967374908740851 -329.6767238482675 0 0 0 0 493.20114465657389 59.749887010026271 0 59.749887010026271 -352.68145427723516 0 0 0 0 399.16234519981663 -55.582999900236246 0 -55.582999900236246 -270.60034134946955 0 0 0 0 297.82880609029962 -134.06647867189241 0 -134.06647867189241 -211.59535000755204 0 0 0 0 442.0157663457212 -111.25298166762843 0 -111.25298166762843 -325.54157246503507 0 0 0 0 493.29094284746679 -192.89396203465481 0 -192.89396203465481 -193.89296615351324 0 0 0 0 405.79151294118492 -321.6552680827341 0 -321.6552680827341 -84.96894351626122 0 0 0 0 338.27149816828023 -258.7744362738265 0 -258.7744362738265 -253.27898822892394 0 0 0 0 221.42830723460065 -271.93059598401652 0 -271.93059598401652 -238.73797679947916 0 0 0 0 -90.679396059553255 -433.06086849090087 0 -433.06086849090087 -4.3743499556278209 0 0 0 0 174.08842360504786 -242.00396787476271 0 -242.00396787476271 -112.34668268177484 0 0 0 0 269.17217207868362 -269.61352879880673 0 -269.61352879880673 33.954384895079102 0 0 0 0 268.07577207902796 -438.97998436102932 0 -438.97998436102932 -4.4548547711524691 0 0 0 0 253.42681870833621 -479.09033844974488 0 -479.09033844974488 95.218087012293381 0 0 0 0 259.70751084692893 -457.01100547790725 0 -457.01100547790725 101.76322839798868 0 0 0 0 254.85303503078376 -388.67455216168219 0 -388.67455216168219 165.73896571489786 0 0 0 0 382.2768114799801 -315.02629661783982 0 -315.02629661783982 240.02511853396618 0 0 0 0 471.08164581356687 -393.74439750455849 0 -393.74439750455849 109.58971370516952 0 0 0 0 355.64835384010803 -472.06842527931531 0 -472.06842527931531 229.07989157994211 0 0 0 0 420.24334970422206 -242.64347897983953 0 -242.64347897983953 127.23101672862668 0 0 0 0 601.21455415090895 -360.69587500103842 0 -360.69587500103842 189.08262505337029 0 0 0 0 526.34146457456518 -237.63633073872256 0 -237.63633073872256 221.37521647524557 0 0 0 0 628.75809156416653 -262.66087266184553 0 -262.66087266184553 65.742728664311926 0 0 0 0 481.0693379585573 -174.07054509932919 0 -174.07054509932919 36.153523675173801 0 0 0 0 541.37584115161735 -275.53235364605382 0 -275.53235364605382 -20.175856985147448 0 0 0 0 342.34950462996494 -191.18798177767979 0 -191.18798177767979 -52.131734655983223 0 0 0 0 3468.1520206154964 -1396.7073252418979 0 -1396.7073252418979 172.2639351642579 0 0 0 0 15.396485061789861 1.2370140956551623 0 1.2370140956551623 0.52914092054317674 0 0 0 0 252.17633936230686 -344.33126112861692 0 -344.33126112861692 389.88198300233898 0 0 0 0 224.41655769835052 -208.00927890727183 0 -208.00927890727183 424.71385129572798 0 0 0 0 1502.2696793469804 -648.67798789504729 0 -648.67798789504729 -186.33471702197085 0 0 0 0 539.3130259624013 1686.0881026070829 0 1686.0881026070829 820.05323399597694 0 0 0 0 1793.8940473264265 69.892639244301478 0 69.892639244301478 0.82101440670775994 0 0 0 0 3491.1026586044622 963.41922247810294 0 963.41922247810294 -156.70493013884899 0 0 0 0 -278.57720167201478 -170.39673495130035 0 -170.39673495130035 340.69973991862742 0 0 0 0 5.4818297913134302 -1.164189124774893 0 -1.164189124774893 0.65347491080719033 0 0 0 0 417.7420019487472 709.612303196781 0 709.612303196781 595.44371700239913 0 0 0 0 -268.22649699408794 -185.21370017212351 0 -185.21370017212351 332.86756003728499 0 0 0 0 11.417220048029378 -2.3862460753561834 0 -2.3862460753561834 -0.094708536073639216 0 0 0 0 669.37150398879385 105.00647430708396 0 105.00647430708396 -66.444284013645586 0 0 0 0 669.38144174190529 -192.9510422891818 0 -192.9510422891818 -259.15451498244681 0 0 0 0 427.1051308719907 255.34680004700593 0 255.34680004700593 -27.801274823488839 0 0 0 0 927.4053240561625 -21.849897719491054 0 -21.849897719491054 11.125421512225671 0 0 0 0 1352.6461739210354 -750.09573084196631 0 -750.09573084196631 -789.50725134345998 0 0 0 0 1349.9957248796709 -158.8939141268495 0 -158.8939141268495 -558.44805614503321 0 0 0 0 2861.9240623787628 -168.92432176791638 0 -168.92432176791638 -700.00816805517547 0 0 0 0 741.74893378917477 71.188967065727212 0 71.188967065727212 63.353393849244235 0 0 0 0 572.17731311898024 -335.76706384881282 0 -335.76706384881282 326.82734711476974 0 0 0 0 275.83879817760317 356.40184740065718 0 356.40184740065718 -1006.492663887371 0 0 0 0 -140.60878921757103 -746.91970505833206 0 -746.91970505833206 91.481483516495857 0 0 0 0 891.76467741906526 -512.64904063718984 0 -512.64904063718984 -748.87444979746033 0 0 0 0 30.916713570208572 0.91047196271271247 0 0.91047196271271247 -1.458557136124472 0 0 0 0 -64.47667523205746 498.12355826959282 0 498.12355826959282 307.94677817529362 0 0 0 0 15.681391171118378 0.81812868768828473 0 0.81812868768828473 -0.95473642900823863 0 0 0 0 1734.9019305287948 980.36054070212742 0 980.36054070212742 -197.92928546430346 0 0 0 0 3.7067256451905628 7.7678683936345863 0 7.7678683936345863 3.0597516699158538 0 0 0 0 -102.08265129128995 126.15750259785523 0 126.15750259785523 -116.6531884860085 0 0 0 0 1643.4512106153779 974.42374165152944 0 974.42374165152944 255.557433372378 0 0 0 0 656.56494255119469 -517.03810587868679 0 -517.03810587868679 978.99936509913425 0 0 0 0 -60.679346866687411 135.8839045286835 0 135.8839045286835 -135.57502873557542 0 0 0 0 39.206723654468078 193.31188313681918 0 193.31188313681918 -172.55663933233984 0 0 0 0 -52.820980777760269 82.697313984833613 0 82.697313984833613 -20.941272437729594 0 0 0 0 179.66764580039307 96.371854805997884 0 96.371854805997884 -98.635820868069914 0 0 0 0 -26.713734469160954 107.61786866006864 0 107.61786866006864 -43.410136548339779 0 0 0 0 0.86733557643740244 3.9000191872824814 0 3.9000191872824814 4.5012852933101088 0 0 0 0 -756.36629787352285 335.24074045151212 0 335.24074045151212 224.14392378319837 0 0 0 0 2441.6395397290908 725.98381155368725 0 725.98381155368725 -561.65868913512679 0 0 0 0 -37.622793556516626 18.83857398547832 0 18.83857398547832 -95.128778522362154 0 0 0 0 2943.377559167071 1094.0519186965039 0 1094.0519186965039 -391.37913850287066 0 0 0 0 0.22428340296028182 -49.681315717515012 0 -49.681315717515012 -0.0097099954504899708 0 0 0 0 1246.2354301387895 862.82559117610833 0 862.82559117610833 425.9843153607643 0 0 0 0 2376.0328780597629 736.47495734682639 0 736.47495734682639 -263.87993634675456 0 0 0 0 141.30113933730172 223.8120907225823 0 223.8120907225823 495.357399018308 0 0 0 0 963.57812558875594 984.12629056470917 0 984.12629056470917 519.84205979358001 0 0 0 0 7.0135419039572184 -0.040608665434632485 0 -0.040608665434632485 -0.26440468429617808 0 0 0 0 1164.9473910433517 -165.90781056177738 0 -165.90781056177738 -38.337054443967645 0 0 0 0 1440.4007479330467 715.96819527058165 0 715.96819527058165 -6.0868935535094124 0 0 0 0 -0.50097690410620999 614.19058614297569 0 614.19058614297569 -8.0333430468898541 0 0 0 0 680.41542192350607 -45.665176389666101 0 -45.665176389666101 -118.79145016530924 0 0 0 0 562.36590375173546 -89.016600617584345 0 -89.016600617584345 -19.139478089075112 0 0 0 0 728.81305579369655 -352.75989927311753 0 -352.75989927311753 -51.29049583753374 0 0 0 0 883.60754347749753 -263.57021597574095 0 -263.57021597574095 1.9963090548015106 0 0 0 0 868.92234143932001 -244.49822727780082 0 -244.49822727780082 -21.371447076784104 0 0 0 0 851.19931452299352 -251.99266531135231 0 -251.99266531135231 -0.58845596848078363 0 0 0 0 1017.2308497279882 -304.4609824626142 0 -304.4609824626142 -123.58811170902686 0 0 0 0 843.51915826412733 -276.08409495825515 0 -276.08409495825515 -11.798692363427193 0 0 0 0 876.28175654356892 -276.71895607077903 0 -276.71895607077903 -127.20755723250943 0 0 0 0 1214.0654834544403 -538.31189342837308 0 -538.31189342837308 -112.34197569533899 0 0 0 0 805.0977297341451 -407.98271843152907 0 -407.98271843152907 -112.6733755438313 0 0 0 0 813.46470674855118 -336.2689242454145 0 -336.2689242454145 -81.208835577860555 0 0 0 0 320.60830183330108 -294.12611038312616 0 -294.12611038312616 27.980798358011725 0 0 0 0 382.15882519636943 -215.6051079355355 0 -215.6051079355355 86.983931254152594 0 0 0 0 -137.07029146954301 106.46045217833557 0 106.46045217833557 8.8254581048873604 0 0 0 0 -17.536399349046405 -291.8700459606207 0 -291.8700459606207 324.09269545286804 0 0 0 0 1405.1345178098418 -818.12162599425119 0 -818.12162599425119 144.50416179289164 0 0 0 0 559.8122270705644 -578.07363254645304 0 -578.07363254645304 398.06159543375736 0 0 0 0 3.0400878520028414 -2.6716516130292867 0 -2.6716516130292867 0.65460624144546853 0 0 0 0 793.69337980076671 -553.51024672619963 0 -553.51024672619963 30.405763646736432 0 0 0 0 753.84070517562213 -420.82244791037249 0 -420.82244791037249 52.617923703334782 0 0 0 0 1113.8523037260311 -55.598689446979051 0 -55.598689446979051 -159.84444185096504 0 0 0 0 669.52295053066337 123.10615863556887 0 123.10615863556887 431.59687496272795 0 0 0 0 2080.3816365003586 -51.007192132122213 0 -51.007192132122213 135.39167975617966 0 0 0 0 -220.50434750474597 -60.806601308901321 0 -60.806601308901321 114.87627919353883 0 0 0 0 -107.48636352518224 382.54888985516436 0 382.54888985516436 292.03856913747131 0 0 0 0 645.9300378577027 1.6334083158695876 0 1.6334083158695876 145.47352932511058 0 0 0 0 391.26357785263099 302.27355049832022 0 302.27355049832022 72.486610092606412 0 0 0 0 1268.4848074897418 -111.17404043279146 0 -111.17404043279146 56.11648794093685 0 0 0 0 454.92948956158943 -227.02137082767842 0 -227.02137082767842 190.71880344591227 0 0 0 0 264.41582969589763 340.93452651140262 0 340.93452651140262 -450.49925483345214 0 0 0 0 61.294987533192568 9.3205324758226524 0 9.3205324758226524 0.73707463253811767 0 0 0 0 55.424099874773674 3.1468615479876689 0 3.1468615479876689 -37.033439527994233 0 0 0 0 80.056705310504185 6.4302843927880531 0 6.4302843927880531 -134.83422918035353 0 0 0 0 -64.895163191893516 208.36636379825228 0 208.36636379825228 73.590433381432945 0 0 0 0 14.750351022266841 70.886166219011443 0 70.886166219011443 -47.926290868945216 0 0 0 0 -33.929528097447474 166.5346381371964 0 166.5346381371964 -141.97470191672775 0 0 0 0 68.722978472493367 15.428798618446709 0 15.428798618446709 -1.380189860199974 0 0 0 0 65.95024277511402 -10.328276993969666 0 -10.328276993969666 -44.783380462082278 0 0 0 0 85.308098931855056 0.70199457705848545 0 0.70199457705848545 -57.976372911391081 0 0 0 0 8.659029870527613 -6.6421516007173693 0 -6.6421516007173693 -13.542578059687067 0 0 0 0 302.71128477084858 79.816471275925949 0 79.816471275925949 -29.595351148390819 0 0 0 0 203.37618145163287 -10.272080946929691 0 -10.272080946929691 168.23015653227026 0 0 0 0 87.095019644963031 6.5995957348818592 0 6.5995957348818592 -46.178472263190088 0 0 0 0 224.19056902941207 158.36709309733379 0 158.36709309733379 86.967561682557971 0 0 0 0 10.743939342608044 30.117974633521271 0 30.117974633521271 -2.4280910728250231 0 0 0 0 -2.257422675571604 4.9728961731884951 0 4.9728961731884951 0.48335550005181238 0 0 0 0 687.07685211542412 -242.65097087268293 0 -242.65097087268293 -187.33471902930773 0 0 0 0 -2.8826183930931393 59.305511936456902 0 59.305511936456902 7.2641541947098176 0 0 0 0 5.5273494126791274 29.179370625597244 0 29.179370625597244 -2.8587555489243455 0 0 0 0 188.0662838603094 99.110918226563513 0 99.110918226563513 3.4641134637907385 0 0 0 0 835.66792635861202 -383.75952498155311 0 -383.75952498155311 128.08679340341746 0 0 0 0 -29.421294398038299 15.840003782150916 0 15.840003782150916 21.048386384012133 0 0 0 0 -143.51457152797957 73.923515897533605 0 73.923515897533605 202.23692550020741 0 0 0 0 -140.79739971579693 43.645148122818341 0 43.645148122818341 19.735480816365509 0 0 0 0 -98.936519253795268 -60.08968679805605 0 -60.08968679805605 -50.999665353901946 0 0 0 0 -8.7990488680661656 105.57207122280568 0 105.57207122280568 -241.43310432527358 0 0 0 0 3.257409507676357 1.6713364613409496 0 1.6713364613409496 0.68545562774273916 0 0 0 0 19.537444622632506 4.603334364350534 0 4.603334364350534 -1.8156320013577987 0 0 0 0 1311.1687542124128 1203.5881279486998 0 1203.5881279486998 650.17408976499496 0 0 0 0 1120.3705285386677 -620.77786087708114 0 -620.77786087708114 214.17405252126332 0 0 0 0 2743.9750117585791 391.095648528742 0 391.095648528742 291.65014853853677 0 0 0 0 297.9799655383249 49.801644872782731 0 49.801644872782731 1362.5197271572831 0 0 0 0 1661.1506964872933 700.13681409147762 0 700.13681409147762 486.33308576285458 0 0 0 0 2067.6713610648003 169.68142250521237 0 169.68142250521237 -362.35781924491926 0 0 0 0 1273.7158500517835 82.284636681133321 0 82.284636681133321 -256.76384070141671 0 0 0 0 1399.8967426949239 -49.643729231684858 0 -49.643729231684858 -200.49755862416217 0 0 0 0 1502.5592591463064 -72.145186401228102 0 -72.145186401228102 -260.64478476206142 0 0 0 0 975.24268905057397 384.21919315226449 0 384.21919315226449 83.538239746990257 0 0 0 0 252.79264673130456 214.62441858825733 0 214.62441858825733 124.57894429562225 0 0 0 0 3123.0467769745737 -326.79043877216486 0 -326.79043877216486 -223.83738411224084 0 0 0 0 7.3984477549422536 4.9958848562079368 0 4.9958848562079368 1.1468031357516164 0 0 0 0 1409.8869135129717 -107.63115246535212 0 -107.63115246535212 -72.739184611389987 0 0 0 0 1436.7453333309531 -4.0273770808115898 0 -4.0273770808115898 -146.42244631466156 0 0 0 0 1010.039855674353 164.99456403975952 0 164.99456403975952 50.541075246704622 0 0 0 0 1647.4930803298776 292.4209722164108 0 292.4209722164108 -490.68632652599098 0 0 0 0 14.738222720344709 9.8193403439265126 0 9.8193403439265126 0.82506748464416557 0 0 0 0 1483.9736880932978 53.169507228069108 0 53.169507228069108 -787.09979779680225 0 0 0 0 2720.4454364950652 -44.867743247206079 0 -44.867743247206079 -878.08983923741505 0 0 0 0 3498.9537375219297 -566.90877845523653 0 -566.90877845523653 -941.90700943981869 0 0 0 0 1979.1107056225301 -810.95911796477799 0 -810.95911796477799 -43.186541896034271 0 0 0 0 3498.0976032584076 -1560.2028120133698 0 -1560.2028120133698 300.17571403889315 0 0 0 0 279.15640377558884 -355.21857907265371 0 -355.21857907265371 440.56409946740212 0 0 0 0 1029.5089943167914 33.664094438119008 0 33.664094438119008 71.644910599068112 0 0 0 0 593.39183538188081 -193.88626807386902 0 -193.88626807386902 385.07332649986483 0 0 0 0 10.143646115791938 3.4157769965498801 0 3.4157769965498801 0.34381620309799743 0 0 0 0 223.40613166723415 -254.83764887683853 0 -254.83764887683853 423.84488433864323 0 0 0 0 3388.3332639354921 1824.2650523928162 0 1824.2650523928162 -616.49906044658144 0 0 0 0 3388.3332639355212 1824.2650523928148 0 1824.2650523928148 -616.49906044657769 0 0 0 0 3388.3332639354776 1824.2650523928185 0 1824.2650523928185 -616.49906044657655 0 0 0 0 29.498598917746904 11.858893381066437 0 11.858893381066437 2.8564394514179829 0 0 0 0 27.238787792099174 73.538194216352849 0 73.538194216352849 0.7282558399707284 0 0 0 0 22.367776486133153 61.811300314787076 0 61.811300314787076 46.500982175609352 0 0 0 0 37.593451480895965 29.420012041742552 0 29.420012041742552 47.444425875626393 0 0 0 0 31.691325241481536 48.93593643542539 0 48.93593643542539 3.9042685318193975 0 0 0 0 -15.37494239144047 8.5231342818900657 0 8.5231342818900657 0.27005799337196712 0 0 0 0 2801.0656309762271 2438.7898541928103 0 2438.7898541928103 1570.5062840973414 0 0 0 0 3550.925955712155 2015.6296720758662 0 2015.6296720758662 947.49413061942369 0 0 0 0 2661.6154086952592 957.25256770744863 0 957.25256770744863 -203.46721115004598 0 0 0 0 3499.3560829117541 1153.825788294411 0 1153.825788294411 -508.0371246420454 0 0 0 0 578.70044121185492 1586.2272002542848 0 1586.2272002542848 -177.71874639134558 0 0 0 0 1301.6432507519348 1813.0285347028646 0 1813.0285347028646 1613.2189311365678 0 0 0 0 840.69547691098342 649.87588976114375 0 649.87588976114375 140.33563045944715 0 0 0 0 -1.4772636686866463 3.3824790208374225 0 3.3824790208374225 -1.8660533976224287 0 0 0 0 608.72427735241945 267.54243011164783 0 267.54243011164783 138.99944351244812 0 0 0 0 1195.3762113904086 435.34236589973369 0 435.34236589973369 -179.67855386774599 0 0 0 0 1189.1580333396996 839.76051259764563 0 839.76051259764563 233.61796377746941 0 0 0 0 1643.4979737604735 615.72405801041475 0 615.72405801041475 -145.97956093786871 0 0 0 0 1374.5996277044396 456.78526206288234 0 456.78526206288234 541.12838534381819 0 0 0 0 1.0749986765272688 1.2062759360489963 0 1.2062759360489963 -1.465233857376592 0 0 0 0 107.36201260474627 97.201008851927725 0 97.201008851927725 44.798094467240617 0 0 0 0 808.81961174769094 -108.97826440617328 0 -108.97826440617328 142.17388508520565 0 0 0 0 191.86943588503004 3.8675488180906825 0 3.8675488180906825 -20.1756164096264 0 0 0 0 1.2796635663764135 3.1221467342450069 0 3.1221467342450069 -5.4522723804129036 0 0 0 0 839.58869977110589 58.371523756326212 0 58.371523756326212 -306.66348386777111 0 0 0 0 799.32594481969863 90.839789935586481 0 90.839789935586481 49.867793074474321 0 0 0 0 446.54239274667634 253.98540440940792 0 253.98540440940792 139.30983219597411 0 0 0 0 528.75941097996838 52.919321230903279 0 52.919321230903279 45.435810947137838 0 0 0 0 520.75395174187724 -67.196701481434502 0 -67.196701481434502 -41.668129137746746 0 0 0 0 -0.84049860705943669 4.0960319368500109 0 4.0960319368500109 -9.4114840336091241 0 0 0 0 910.97864417107485 -121.25059112076315 0 -121.25059112076315 -489.27061937110153 0 0 0 0 444.26626398562075 236.66982586760662 0 236.66982586760662 -178.06843909500833 0 0 0 0 177.27403204408392 -8.147570637873482 0 -8.147570637873482 -16.664219446569405 0 0 0 0 751.44925195683754 127.83412802621854 0 127.83412802621854 -475.89294606491831 0 0 0 0 166.4387460382568 1.8925435492417364 0 1.8925435492417364 -14.670702737012618 0 0 0 0 131.84233824456169 -8.6999797399143972 0 -8.6999797399143972 -11.056997972674651 0 0 0 0 81.375506560318172 -20.591635996275727 0 -20.591635996275727 -11.760062899511922 0 0 0 0 64.300849503924837 -11.101021709167981 0 -11.101021709167981 -5.8455714441353166 0 0 0 0 70.304533394315513 6.1376054738111634 0 6.1376054738111634 -9.7262455712944984 0 0 0 0 74.996336059004534 4.350824376659375 0 4.350824376659375 14.709159974476279 0 0 0 0 64.853425659399363 -6.1711984697865319 0 -6.1711984697865319 -7.7487148693389827 0 0 0 0 71.272792527117417 -17.719239858156698 0 -17.719239858156698 12.515225437679874 0 0 0 0 145.17542867912687 -6.2799728255932932 0 -6.2799728255932932 -2.1965205197971045 0 0 0 0 51.367583167724661 -8.0687197361937706 0 -8.0687197361937706 7.6006070569037547 0 0 0 0 -1.4868375537648926 -7.7888141459920917 0 -7.7888141459920917 -11.231950786769838 0 0 0 0 158.57382303777558 -19.203086560753945 0 -19.203086560753945 -1.931546135961753 0 0 0 0 79.441772489882226 -23.332107481133317 0 -23.332107481133317 -15.844790661170919 0 0 0 0 -0.55991805996858091 -8.4058173550080255 0 -8.4058173550080255 -12.091978474102131 0 0 0 0 159.82663760729338 -17.778525479042287 0 -17.778525479042287 -25.115202807997662 0 0 0 0 209.88644918597856 14.761085667378325 0 14.761085667378325 -69.910498037756724 0 0 0 0 74.419970166432904 4.6599704399995971 0 4.6599704399995971 -21.701083137579189 0 0 0 0 74.791578605159884 -23.972742374650352 0 -23.972742374650352 -14.326197218210496 0 0 0 0 70.046212762201321 -12.542911220152149 0 -12.542911220152149 4.6028085655980249 0 0 0 0 72.553036610566778 -24.12360656428973 0 -24.12360656428973 -10.635272797995697 0 0 0 0 62.890714163215307 -31.139115472028152 0 -31.139115472028152 -14.140087332076291 0 0 0 0 71.303304473973185 -9.795737857939173 0 -9.795737857939173 -44.24503869678847 0 0 0 0 40.968076998811739 -31.792778093987181 0 -31.792778093987181 -32.067664751755729 0 0 0 0 85.928389772903756 9.5361272728171116 0 9.5361272728171116 6.3894948964516516 0 0 0 0 64.077753422749879 14.106969087691606 0 14.106969087691606 6.6442489132841729 0 0 0 0 122.36316495854408 45.606599565392571 0 45.606599565392571 32.221572694754286 0 0 0 0 94.059225413788226 -4.9587090714371698 0 -4.9587090714371698 0.42633164315429894 0 0 0 0 91.57997139737563 -5.8892682178729956 0 -5.8892682178729956 7.8077162875420072 0 0 0 0 170.32868113928998 52.974578646006194 0 52.974578646006194 30.548945373251172 0 0 0 0 114.68082952696568 -13.968398976707022 0 -13.968398976707022 -14.053572866993818 0 0 0 0 123.01083318264136 90.11835156557845 0 90.11835156557845 59.996262482870407 0 0 0 0 125.1414711289035 28.816682118334484 0 28.816682118334484 67.127952865497264 0 0 0 0 115.65138803469745 91.638891124325141 0 91.638891124325141 121.76048765420001 0 0 0 0 182.3222644662078 -99.383286962713967 0 -99.383286962713967 -261.45571896309684 0 0 0 0 161.23018638031499 76.409774356025991 0 76.409774356025991 57.722963882570696 0 0 0 0 11.711079682117003 5.4787367482733345 0 5.4787367482733345 1.8396317051117368 0 0 0 0 282.00962310239993 41.914754600956826 0 41.914754600956826 -178.38292220841959 0 0 0 0 189.1908829383101 154.19496700590116 0 154.19496700590116 36.716274768128642 0 0 0 0 151.45553487049125 8.326099745356796 0 8.326099745356796 -8.4753782295970641 0 0 0 0 174.38657080563644 -100.27017325459474 0 -100.27017325459474 -305.31429841858153 0 0 0 0 170.83541033507208 -61.573411990983004 0 -61.573411990983004 -325.47635496455541 0 0 0 0 3.2816144193078287 -33.317260657979567 0 -33.317260657979567 -7.8840270091641873 0 0 0 0 133.5517629716137 -95.34655818439586 0 -95.34655818439586 -149.77319251562585 0 0 0 0 139.45255976743283 -47.33698228570438 0 -47.33698228570438 -175.90088768400892 0 0 0 0 147.60299292688433 -33.483945032607153 0 -33.483945032607153 -222.1398098531397 0 0 0 0 134.97653718454239 -118.92515799860848 0 -118.92515799860848 -248.59174258690837 0 0 0 0 175.84751230363327 -70.651102117507435 0 -70.651102117507435 -228.5338418182946 0 0 0 0 177.71762894677522 -115.13817148861563 0 -115.13817148861563 -275.48325686141834 0 0 0 0 169.64850381584984 -42.728591009557704 0 -42.728591009557704 -344.47022664675387 0 0 0 0 162.99769758756884 -136.22760518741234 0 -136.22760518741234 -299.81304213155636 0 0 0 0 228.02598416521505 -179.6616695258972 0 -179.6616695258972 -275.95992641933481 0 0 0 0 231.68512492687114 -164.37347479041 0 -164.37347479041 -391.4599516151975 0 0 0 0 389.06905470366473 -220.16263978248026 0 -220.16263978248026 -383.63550744756219 0 0 0 0 276.77413715947478 -350.25486821424374 0 -350.25486821424374 -348.1512991636082 0 0 0 0 -61.685326922422973 -359.87748489331898 0 -359.87748489331898 -217.67768504598416 0 0 0 0 114.89726173185772 -284.38325281240122 0 -284.38325281240122 -185.62404752298244 0 0 0 0 124.92428669502988 -280.64072509170728 0 -280.64072509170728 -275.46885845370707 0 0 0 0 166.95643657260371 -224.76395003346624 0 -224.76395003346624 -264.38080477644553 0 0 0 0 56.414989804059587 -247.64143748864944 0 -247.64143748864944 -204.75226963892237 0 0 0 0 129.02874198531208 -161.17182272728678 0 -161.17182272728678 -216.14889960069081 0 0 0 0 118.67747670257086 -203.46140969299722 0 -203.46140969299722 -211.54533104217626 0 0 0 0 164.58430735344518 -147.14945547417665 0 -147.14945547417665 -224.67898037998748 0 0 0 0 81.740396472054272 -134.47733120871453 0 -134.47733120871453 -176.83081869424132 0 0 0 0 86.557779127178947 -117.88018612483029 0 -117.88018612483029 -122.06078200489401 0 0 0 0 45.275426976419112 -87.689778620801917 0 -87.689778620801917 -85.550474429193855 0 0 0 0 -4.2872028526653594 -108.23020264974275 0 -108.23020264974275 -78.634212819906679 0 0 0 0 44.711257359478623 -102.77421138797808 0 -102.77421138797808 -122.6998039723112 0 0 0 0 -34.471415728534339 -182.37006385598852 0 -182.37006385598852 -136.50320822671188 0 0 0 0 -260.70021061039733 -155.22465931587794 0 -155.22465931587794 -51.532971297322661 0 0 0 0 7.2236894512352592 -95.339416916911432 0 -95.339416916911432 -64.941404522900484 0 0 0 0 143.43956542805245 22.322895742796504 0 22.322895742796504 6.2507947567751216 0 0 0 0 176.66831958625698 -25.694168704685808 0 -25.694168704685808 -99.385976402094457 0 0 0 0 20.554886672540096 -6.0800642350270948 0 -6.0800642350270948 -32.972923279888789 0 0 0 0 165.10999940194597 -15.600199433515172 0 -15.600199433515172 8.1241719647330228 0 0 0 0 180.06630539990147 -14.396721488076651 0 -14.396721488076651 -62.439262067766776 0 0 0 0 4.3558242965009413 -88.162503936311623 0 -88.162503936311623 -78.767471119334004 0 0 0 0 139.66270832195733 32.935232834442104 0 32.935232834442104 -85.14738246687557 0 0 0 0 18.637167067313158 -12.139953942071569 0 -12.139953942071569 -11.597392942283491 0 0 0 0 32.904571455746918 -57.746282871640233 0 -57.746282871640233 -52.323993655580125 0 0 0 0 96.509875160671072 -92.128306195465257 0 -92.128306195465257 -19.349318882066655 0 0 0 0 58.707035808746483 -37.426186495886299 0 -37.426186495886299 -9.6376092704806062 0 0 0 0 13.942003275529714 -17.95427773223156 0 -17.95427773223156 -12.684222222747245 0 0 0 0 0.11328125808262257 -2.7782271105902652 0 -2.7782271105902652 -2.7155013916490267 0 0 0 0 28.751157558566774 -89.889830137310696 0 -89.889830137310696 117.25365695626988 0 0 0 0 77.771146022059838 95.577457650096676 0 95.577457650096676 76.134783470141087 0 0 0 0 2.6227925197454169 -5.5836506581838421 0 -5.5836506581838421 2.6734783812086107 0 0 0 0 151.67981547453383 51.548772949685599 0 51.548772949685599 -115.50772020207589 0 0 0 0 83.98003346281223 -1.3142742985921112 0 -1.3142742985921112 -11.920115681226084 0 0 0 0 133.40402840099705 -4.4503236416957179 0 -4.4503236416957179 -17.678216938877313 0 0 0 0 56.830225789744844 -0.27869240043985455 0 -0.27869240043985455 -8.2363120270980925 0 0 0 0 61.369512494522496 14.711862449263663 0 14.711862449263663 -17.177921946088247 0 0 0 0 37.913544077943016 -5.2560118648145071 0 -5.2560118648145071 -11.676538241837989 0 0 0 0 39.51891545523506 -15.45021489621111 0 -15.45021489621111 -14.085208710140256 0 0 0 0 54.159319395704301 -10.802331365312211 0 -10.802331365312211 -31.379492137914895 0 0 0 0 60.170560773263631 -6.9174653527761549 0 -6.9174653527761549 -19.991470362356843 0 0 0 0 93.36963144478068 1.0183172409506369 0 1.0183172409506369 -55.357063389808332 0 0 0 0 65.997127640854316 3.6706997951900746 0 3.6706997951900746 -13.355633845200236 0 0 0 0 68.859094703175202 -8.8662118893345223 0 -8.8662118893345223 -15.485736508870339 0 0 0 0 99.215680843903101 -51.96136706377365 0 -51.96136706377365 -115.02700021633245 0 0 0 0 99.031354260922853 -56.261388502666364 0 -56.261388502666364 -119.06413204117052 0 0 0 0 83.216528537287331 2.6961182200224272 0 2.6961182200224272 -12.138016128465853 0 0 0 0 53.56776281807106 -25.969883045127062 0 -25.969883045127062 -102.18956828369846 0 0 0 0 79.611265003819312 -14.659172494361149 0 -14.659172494361149 -8.2939715223813355 0 0 0 0 66.870510067732539 -12.89640034599779 0 -12.89640034599779 -37.100663048922797 0 0 0 0 90.438835020584065 37.289462112101958 0 37.289462112101958 -13.498834473494401 0 0 0 0 52.004763767285127 9.2535550160792646 0 9.2535550160792646 -11.211163787122132 0 0 0 0 51.973457017898909 -19.315336428882347 0 -19.315336428882347 -11.733473119507835 0 0 0 0 15.75566823668659 -7.6332984356834572 0 -7.6332984356834572 -10.809068957334695 0 0 0 0 69.698153254615477 8.4107485046462109 0 8.4107485046462109 -16.818168877356584 0 0 0 0 129.75224214411924 -6.2600193911579014 0 -6.2600193911579014 -12.92764461761908 0 0 0 0 63.855345100833802 3.5837895245031177 0 3.5837895245031177 -10.310416833151066 0 0 0 0 -381.01076463553909 76.861475912371361 0 76.861475912371361 1269.714789610387 0 0 0 0 135.83901399241586 -7.1251690602572353 0 -7.1251690602572353 -15.585073654778853 0 0 0 0 1038.6625995113936 239.85639391633731 0 239.85639391633731 -1079.9721870187959 0 0 0 0 17.821023801893727 2.9708282355405231 0 2.9708282355405231 -17.412818205356221 0 0 0 0 726.00063195123221 -336.45601413084546 0 -336.45601413084546 -15.590328092024293 0 0 0 0 11.886905006585494 7.6419664344467009 0 7.6419664344467009 4.3549785997811066 0 0 0 0 -210.62187389930477 635.86486326180011 0 635.86486326180011 345.82248023276043 0 0 0 0 35.272938813802853 29.534623904685287 0 29.534623904685287 -19.473618029256158 0 0 0 0 33.235458369231765 16.556848119736571 0 16.556848119736571 4.3636478173169309 0 0 0 0 36.842378108552737 7.0102251428571378 0 7.0102251428571378 -1.1821798408692614 0 0 0 0 34.583683510235119 2.9686132743612053 0 2.9686132743612053 0.20196591869944314 0 0 0 0 164.47661088124732 -6.2903311937938042 0 -6.2903311937938042 214.34593409875379 0 0 0 0 33.014829349880713 -3.5281954740479335 0 -3.5281954740479335 -6.9110129838968106 0 0 0 0 66.400531063016388 9.3658643393823127 0 9.3658643393823127 -14.496661740325465 0 0 0 0 56.073226572155193 8.9405486059731221 0 8.9405486059731221 -4.2666199188731957 0 0 0 0 186.66323926090263 115.86889707734127 0 115.86889707734127 -47.143011601672697 0 0 0 0 193.02527987408394 -165.15668846492827 0 -165.15668846492827 -50.873443653711092 0 0 0 0 36.125056975644412 8.8197984023811316 0 8.8197984023811316 0.11730607967906448 0 0 0 0 89.578788694866489 -18.969869147482981 0 -18.969869147482981 -168.47913419314818 0 0 0 0 -278.39707720242495 30.025629799701562 0 30.025629799701562 169.6573935727591 0 0 0 0 41.445356539042429 -13.017665299721259 0 -13.017665299721259 1.1620237165948828 0 0 0 0 50.5327780853695 -14.700680284794771 0 -14.700680284794771 -16.924277373579116 0 0 0 0 122.40747571569773 -54.866591508186417 0 -54.866591508186417 -123.2421206410695 0 0 0 0 56.134546498282674 -7.1616093426259155 0 -7.1616093426259155 -9.3279205250126491 0 0 0 0 44.89379154850711 -17.16631313345335 0 -17.16631313345335 -17.458378046996618 0 0 0 0 11.305635713413343 -2.5153394619648211 0 -2.5153394619648211 -33.45452222293661 0 0 0 0 143.77640277392493 15.884803420746493 0 15.884803420746493 -78.354658986689572 0 0 0 0 33.887777111853381 -32.763815024229991 0 -32.763815024229991 23.732104930296217 0 0 0 0 372.52567157313024 -210.63822078079946 0 -210.63822078079946 -10.154991536629074 0 0 0 0 281.69230872917251 67.612594835277918 0 67.612594835277918 278.78851155204757 0 0 0 0 -28.066460322777402 -92.963289301363488 0 -92.963289301363488 303.79900526355323 0 0 0 0 29.780422002004343 281.68206472942404 0 281.68206472942404 -83.464418335380572 0 0 0 0 1930.7590700475776 -246.21901246630799 0 -246.21901246630799 5.9317632368094024 0 0 0 0 3501.7841894392186 -747.12957080399838 0 -747.12957080399838 -366.97214901768183 0 0 0 0 2286.3378317411371 -1115.3944976587816 0 -1115.3944976587816 -182.48352832315226 0 0 0 0 2609.2326334587415 -1105.599609199641 0 -1105.599609199641 -200.85625563625237 0 0 0 0 12.545897495675007 -0.75641161157082148 0 -0.75641161157082148 3.0661545408396602 0 0 0 0 1835.0044975614146 -1906.4848442457039 0 -1906.4848442457039 1603.6654102112154 0 0 0 0 3493.6215633261891 -1799.8165646506618 0 -1799.8165646506618 176.69384627821805 0 0 0 0 581.69806580281147 -1105.946445446627 0 -1105.946445446627 1151.0483729169084 0 0 0 0 486.58070651341404 205.24380517396628 0 205.24380517396628 -224.71285861426543 0 0 0 0 -310.40857135846215 -443.66295385436337 0 -443.66295385436337 813.2968477018278 0 0 0 0 -335.31541581529746 558.92106235859865 0 558.92106235859865 362.31952561349863 0 0 0 0 3462.0322522390488 27.388506124334352 0 27.388506124334352 24.374423717290693 0 0 0 0 15.086623297169382 6.9103624206802365 0 6.9103624206802365 7.4213143371162769 0 0 0 0 593.13387292143307 -276.49830723115679 0 -276.49830723115679 425.92110646175308 0 0 0 0 1399.4247460121696 -1094.1234825739746 0 -1094.1234825739746 662.93112970420316 0 0 0 0 2088.8877990609035 131.20584089261615 0 131.20584089261615 518.42516860231137 0 0 0 0 857.87313388985058 443.77489403828656 0 443.77489403828656 995.87020379814703 0 0 0 0 572.9085515668412 221.5188652405343 0 221.5188652405343 986.4262154811513 0 0 0 0 1123.3152383676716 -236.12171310667247 0 -236.12171310667247 1037.5531316047018 0 0 0 0 1000.9181168447831 405.7392082935587 0 405.7392082935587 471.35282295059119 0 0 0 0 747.52661797050678 89.778837768930771 0 89.778837768930771 956.94298072080255 0 0 0 0 961.95010724755412 171.97307814121177 0 171.97307814121177 669.72868386579603 0 0 0 0 237.08248824081238 -218.66622049644241 0 -218.66622049644241 540.56059820351493 0 0 0 0 988.02552190568531 839.49666667280258 0 839.49666667280258 278.04589419197509 0 0 0 0 1969.7242568771521 387.25466280652927 0 387.25466280652927 368.34314424733475 0 0 0 0 1260.7429247503096 -1126.6278690617623 0 -1126.6278690617623 701.4242923279985 0 0 0 0 -249.86272951529827 704.20457108577375 0 704.20457108577375 319.08166513225842 0 0 0 0 13.825070843255588 4.1541974519783622 0 4.1541974519783622 1.499278084321646 0 0 0 0 321.26794872569371 -375.77190087287329 0 -375.77190087287329 -164.58009259740993 0 0 0 0 203.53198905699537 253.2244656826656 0 253.2244656826656 -694.97698245713389 0 0 0 0 38.843917610938661 495.67780533879795 0 495.67780533879795 -663.58762450576614 0 0 0 0 269.69738603889709 -252.96186683993892 0 -252.96186683993892 -124.28657191393103 0 0 0 0 -427.55657657718257 158.93171628959681 0 158.93171628959681 -169.11699299929296 0 0 0 0 204.14165753840643 -144.05072282294577 0 -144.05072282294577 85.640173358600805 0 0 0 0 222.90290828222351 75.806824464955525 0 75.806824464955525 277.52226313975166 0 0 0 0 620.40084015121829 -396.45829761459822 0 -396.45829761459822 155.42430290773245 0 0 0 0 1086.7300799320865 -796.68117501057259 0 -796.68117501057259 186.39072435525577 0 0 0 0 1121.9244688636536 -464.21878981344162 0 -464.21878981344162 334.86342393713539 0 0 0 0 404.52944660186768 -580.92602619978516 0 -580.92602619978516 393.84749699348777 0 0 0 0 594.37501939103822 -414.82885791697231 0 -414.82885791697231 208.80553513545692 0 0 0 0 117.53841413317423 -106.39864233700337 0 -106.39864233700337 206.54542845647302 0 0 0 0 374.07865252888223 -576.7245228698547 0 -576.7245228698547 112.52092075521796 0 0 0 0 624.41123887060667 -863.64608344070257 0 -863.64608344070257 903.42139122906337 0 0 0 0 1687.7169654621539 -986.9709962585714 0 -986.9709962585714 201.88459583547001 0 0 0 0 788.14333827839437 -58.867061861203865 0 -58.867061861203865 726.86314405593248 0 0 0 0 1177.4241899390727 -49.332532730477396 0 -49.332532730477396 -5.766718393408155 0 0 0 0 198.2847971086303 322.05723661886191 0 322.05723661886191 -111.98506813561949 0 0 0 0 18.783466442882968 -0.087989466179589471 0 -0.087989466179589471 -0.1971335278175852 0 0 0 0 176.78895612142514 139.63685006090145 0 139.63685006090145 144.39950622193646 0 0 0 0 920.23966112062044 -678.28716334485625 0 -678.28716334485625 135.51601361112557 0 0 0 0 76.101274640459451 0.53078956012245726 0 0.53078956012245726 -215.08216924540397 0 0 0 0 35.833029899624307 -136.50449747859875 0 -136.50449747859875 130.08424593860855 0 0 0 0 80.562625882717839 12.355012444280192 0 12.355012444280192 228.74619180801801 0 0 0 0 18.653322700585704 102.01992365528235 0 102.01992365528235 117.24071584460509 0 0 0 0 27.54873300320105 90.726340406030772 0 90.726340406030772 51.002699283790207 0 0 0 0 183.46595322436769 112.85833119933568 0 112.85833119933568 53.140948616655663 0 0 0 0 63.199866183946142 170.9457856764875 0 170.9457856764875 141.51692321975997 0 0 0 0 -140.97863763807982 126.8700456880847 0 126.8700456880847 161.13652675888989 0 0 0 0 -144.96560714533553 454.09764950436465 0 454.09764950436465 -232.80861307757641 0 0 0 0 -154.65336362397647 267.47686004051548 0 267.47686004051548 -31.485343370079136 0 0 0 0 -509.55126217097859 201.8213913256277 0 201.8213913256277 -29.240485484822329 0 0 0 0 69.061289310211578 279.56258133462484 0 279.56258133462484 -181.91821739705847 0 0 0 0 628.16804273289745 -659.10778207200042 0 -659.10778207200042 316.72369498692842 0 0 0 0 820.87506196477625 -787.03958009201119 0 -787.03958009201119 376.99299293395143 0 0 0 0 461.84978407381277 -472.78692817197907 0 -472.78692817197907 345.74696150840259 0 0 0 0 762.88727415350149 -101.26506833245662 0 -101.26506833245662 85.316902212163768 0 0 0 0 45.138431957358989 -189.81373775591317 0 -189.81373775591317 264.19506372092928 0 0 0 0 88.375525126728462 -79.267699337808153 0 -79.267699337808153 195.83414652597276 0 0 0 0 424.36432093317126 -539.21118686594514 0 -539.21118686594514 231.13896135363666 0 0 0 0 -357.75299416275811 -122.90739740808021 0 -122.90739740808021 266.11706823291297 0 0 0 0 -120.5278388398583 62.800007227512651 0 62.800007227512651 -41.159662223417399 0 0 0 0 -412.03803324682303 242.61091615918986 0 242.61091615918986 -561.71249572927991 0 0 0 0 -518.91138724805205 -198.58726536072481 0 -198.58726536072481 -212.61111394006912 0 0 0 0 -60.312171220954042 -290.93972065701291 0 -290.93972065701291 397.78030774815761 0 0 0 0 71.598400631468394 281.91235408848479 0 281.91235408848479 -197.08932493922157 0 0 0 0 55.844949865752142 -275.48177692497751 0 -275.48177692497751 1394.9066614663443 0 0 0 0 -793.0670018290366 -646.09246866839044 0 -646.09246866839044 -230.64278293022471 0 0 0 0 270.56177890008257 1461.2328543845606 0 1461.2328543845606 -688.39904575814307 0 0 0 0 -60.032889022448217 0.65399811880206471 0 0.65399811880206471 -453.84124702844929 0 0 0 0 71.65248296290099 38.597253077900163 0 38.597253077900163 15.983952405426054 0 0 0 0 -771.84388099203352 238.5069275946953 0 238.5069275946953 -460.06259149234791 0 0 0 0 -842.13740174064878 248.61359522643761 0 248.61359522643761 -369.45048054145627 0 0 0 0 -1390.2040390128968 1008.1018037357744 0 1008.1018037357744 -1005.1886251582728 0 0 0 0 83.896780861949139 5.9624705285852002 0 5.9624705285852002 -38.567958963038024 0 0 0 0 54.071487911976874 24.689373962744867 0 24.689373962744867 -75.210163272029604 0 0 0 0 107.93070049743201 -15.886672400999657 0 -15.886672400999657 -70.02595787448054 0 0 0 0 58.910631671425563 44.2551290664926 0 44.2551290664926 23.373796687559874 0 0 0 0 82.431535916177381 -91.936592831459166 0 -91.936592831459166 -207.39094733743241 0 0 0 0 30.313043233056376 12.66138230857932 0 12.66138230857932 -6.0708290928740212 0 0 0 0 82.036925668329786 -51.529600471189497 0 -51.529600471189497 -10.490558577273987 0 0 0 0 32.638935435090389 205.64203989232192 0 205.64203989232192 -303.89967882664678 0 0 0 0 386.8439187095064 102.44434993292384 0 102.44434993292384 -102.69674286252257 0 0 0 0 139.83799049050344 5.3017572895142777 0 5.3017572895142777 -8.6054812363084903 0 0 0 0 127.66874298179755 -2.6575949717552021 0 -2.6575949717552021 -110.00900808424194 0 0 0 0 -19.34099363203859 182.09625509660327 0 182.09625509660327 -454.82805865496994 0 0 0 0 74.532298171092407 54.08927698415755 0 54.08927698415755 -85.461070855984872 0 0 0 0 113.92450231472321 -204.52680368996744 0 -204.52680368996744 27.990896730536861 0 0 0 0 9.543866647029887 -4.457956608139817 0 -4.457956608139817 -4.2775783910689853 0 0 0 0 128.65322757448777 8.3796517002538238 0 8.3796517002538238 -15.368983009099292 0 0 0 0 18.249923412120637 3.1559524159074783 0 3.1559524159074783 -8.4835916117505121 0 0 0 0 179.7495682035842 80.718401028235348 0 80.718401028235348 -378.71096485924681 0 0 0 0 90.207530990068335 94.030829888819426 0 94.030829888819426 -171.6105351344122 0 0 0 0 194.98334306503966 -7.52598472524096 0 -7.52598472524096 -304.53219835673781 0 0 0 0 184.54043272530907 14.394019855493752 0 14.394019855493752 -260.87557845764059 0 0 0 0 324.54462689851789 -80.258377388225199 0 -80.258377388225199 -338.07323383398034 0 0 0 0 276.7623822508358 8.0888402438908997 0 8.0888402438908997 -488.8615445152991 0 0 0 0 209.29799258579988 137.28315010340566 0 137.28315010340566 -429.00551608616297 0 0 0 0 282.32541506926646 40.706444009777442 0 40.706444009777442 -371.95353742330644 0 0 0 0 421.58429078691915 137.42867756305759 0 137.42867756305759 -637.45473757412765 0 0 0 0 198.69988423410541 171.28198598099516 0 171.28198598099516 -453.73085862859034 0 0 0 0 585.90383738113451 -86.440992925186038 0 -86.440992925186038 -477.02692879206859 0 0 0 0 414.07705710597656 -225.9734899210016 0 -225.9734899210016 -466.71334810969984 0 0 0 0 918.95721806949223 325.45310240137678 0 325.45310240137678 231.50492144531017 0 0 0 0 -35.304783529456472 -131.25906019343711 0 -131.25906019343711 109.4264101852641 0 0 0 0 191.11772501364612 152.67310219716182 0 152.67310219716182 -413.83934206993126 0 0 0 0 196.10103741920648 123.00267252183494 0 123.00267252183494 -383.48086775613774 0 0 0 0 -367.66276637412375 806.87559326604037 0 806.87559326604037 -618.8414988368595 0 0 0 0 9.6833789546469404 13.461107591940149 0 13.461107591940149 3.2157094723200004 0 0 0 0 1609.0593074646167 362.22856621383471 0 362.22856621383471 -406.92461571669264 0 0 0 0 806.97843558024397 593.92757612476498 0 593.92757612476498 29.104885413453303 0 0 0 0 1122.2171263628479 -528.01624748324139 0 -528.01624748324139 -741.52111437305439 0 0 0 0 2147.4312428252979 -72.9250897099962 0 -72.9250897099962 -1046.2135712946547 0 0 0 0 499.76599901403915 1071.2866667692101 0 1071.2866667692101 925.26061442571336 0 0 0 0 847.30497074382583 -1180.3564698723803 0 -1180.3564698723803 5764.8576985608961 0 0 0 0 1839.5277948797957 519.85599361374307 0 519.85599361374307 -457.80504564439616 0 0 0 0 2756.3304637986439 908.69470564425319 0 908.69470564425319 -707.19228124939764 0 0 0 0 1889.1721858245728 1169.4997831577293 0 1169.4997831577293 329.78641097149102 0 0 0 0 33.102446656662266 12.928213772657063 0 12.928213772657063 5.7509922493370418 0 0 0 0 529.03819857764756 747.72899469776621 0 747.72899469776621 696.19254481932239 0 0 0 0 3557.1330168002169 -792.18508847194335 0 -792.18508847194335 -359.80685984653337 0 0 0 0 3255.3533105553797 -1550.5442001092715 0 -1550.5442001092715 -2039.1368138593098 0 0 0 0 13.971826883560382 14.651698245981194 0 14.651698245981194 14.340414888763902 0 0 0 0 3689.1881728170847 -703.33284370629394 0 -703.33284370629394 -1158.3429395618364 0 0 0 0 -561.47072200022376 68.486211270920194 0 68.486211270920194 658.6226501365727 0 0 0 0 329.49860828823876 618.65007507795337 0 618.65007507795337 997.95285058337583 0 0 0 0 3533.9065560059826 953.43588871755924 0 953.43588871755924 265.82097811860945 0 0 0 0 1422.1027790677545 705.03700941626232 0 705.03700941626232 1182.4966107729595 0 0 0 0 951.71256579483452 27.551491018814431 0 27.551491018814431 392.78138467970507 0 0 0 0 910.88548874741173 -112.37813672035196 0 -112.37813672035196 -85.651449310935277 0 0 0 0 809.41620394469282 137.7466401948713 0 137.7466401948713 289.41785444232119 0 0 0 0 847.60808196752623 140.68259980430548 0 140.68259980430548 -442.48680194476628 0 0 0 0 1359.7495781605685 523.33797380294777 0 523.33797380294777 219.75877510143448 0 0 0 0 1179.9778603563464 207.99614687049825 0 207.99614687049825 -175.164158101878 0 0 0 0 1776.7253539539088 421.84794076968001 0 421.84794076968001 -353.94464012721971 0 0 0 0 19.509452416462352 25.907248735000962 0 25.907248735000962 29.478834797658109 0 0 0 0 634.50660126169532 212.14191051339844 0 212.14191051339844 -41.881615821083642 0 0 0 0 555.9377718051328 557.01174912610009 0 557.01174912610009 -108.05416344841547 0 0 0 0 8.7587017411172212 10.732868717961338 0 10.732868717961338 14.792162840064975 0 0 0 0 3317.6237587528667 -62.731483372502225 0 -62.731483372502225 -298.41056258744334 0 0 0 0 1490.4774681617127 -52.57834787249476 0 -52.57834787249476 -180.05608378047054 0 0 0 0 508.82723749436263 18.653505161958037 0 18.653505161958037 1438.9311199528461 0 0 0 0 2047.7325585065628 1346.7298307939816 0 1346.7298307939816 737.8023066163878 0 0 0 0 -300.13094508098584 837.19918313402218 0 837.19918313402218 850.08706248683211 0 0 0 0 827.10931217802863 967.66196088995366 0 967.66196088995366 859.92316044214385 0 0 0 0 2208.3303616336561 109.07853153101587 0 109.07853153101587 71.844965300525018 0 0 0 0 814.30038639085251 320.98796983570764 0 320.98796983570764 130.29383816667223 0 0 0 0 465.5248641860162 -12.945590870923525 0 -12.945590870923525 -17.577139243570059 0 0 0 0 828.10317196710821 278.04920544035065 0 278.04920544035065 -138.8421076910895 0 0 0 0 338.39296101194486 -173.14143675586911 0 -173.14143675586911 -289.0453294098063 0 0 0 0 669.03680542189977 -99.566097194147119 0 -99.566097194147119 -290.37097481325873 0 0 0 0 204.23007862392114 -199.07275903751633 0 -199.07275903751633 -234.44942096853038 0 0 0 0 350.4456465208641 -128.69287259754151 0 -128.69287259754151 -209.34245465469451 0 0 0 0 -31.036651145652286 502.51754357372874 0 502.51754357372874 940.48347702283593 0 0 0 0 58.172891916699882 269.6732912309235 0 269.6732912309235 246.79842053131688 0 0 0 0 621.97776118803085 656.80849339094652 0 656.80849339094652 492.3008671197183 0 0 0 0 589.13687967423721 733.12458176003622 0 733.12458176003622 391.89860883506253 0 0 0 0 1011.9003942906729 1339.7929175565778 0 1339.7929175565778 711.52205990482776 0 0 0 0 1426.3859081262781 -27.355800647251726 0 -27.355800647251726 -146.88874198056601 0 0 0 0 3290.5145312618697 369.32218723382675 0 369.32218723382675 -110.09454873130198 0 0 0 0 817.25776080446667 901.34965226445593 0 901.34965226445593 609.77815706226966 0 0 0 0 4.8311673108869826 5.1742983886246492 0 5.1742983886246492 3.5986906317502338 0 0 0 0 875.37094341190095 1389.1317978412637 0 1389.1317978412637 -23.814183852810629 0 0 0 0 -1418.1780945102473 1110.6256327234728 0 1110.6256327234728 -18.12868505899587 0 0 0 0 603.19778830064752 464.14724463087487 0 464.14724463087487 -646.56722125548254 0 0 0 0 448.05962827100848 233.29549331046758 0 233.29549331046758 -474.08562029199948 0 0 0 0 620.96075915324036 143.89066524124723 0 143.89066524124723 107.0188288846266 0 0 0 0 605.14066003166954 -132.65808760884056 0 -132.65808760884056 -421.8716445847117 0 0 0 0 699.9343218475442 -249.82178613571318 0 -249.82178613571318 -464.92003591919092 0 0 0 0 875.79507683784323 -24.936112319967833 0 -24.936112319967833 -594.40666636730612 0 0 0 0 1156.8579842545441 226.17291996933727 0 226.17291996933727 -478.82674341080769 0 0 0 0 1186.8017956955009 -390.68012263396872 0 -390.68012263396872 -309.05291423422477 0 0 0 0 719.24774398090813 -122.64107631696675 0 -122.64107631696675 197.56181373824211 0 0 0 0 2035.3580195875302 630.2427446800034 0 630.2427446800034 195.54316562787244 0 0 0 0 1481.3455835176082 -720.27708603662859 0 -720.27708603662859 663.87002450731279 0 0 0 0 545.06569655437124 337.09050462124651 0 337.09050462124651 1109.3565392235603 0 0 0 0 1683.712188379679 1060.9588915899089 0 1060.9588915899089 108.63928570989185 0 0 0 0 944.76008677111895 762.94748297191825 0 762.94748297191825 817.83242511458309 0 0 0 0 4032.9001402621725 733.05801574973339 0 733.05801574973339 813.7792158680171 0 0 0 0 1595.6816767191194 -907.95758137445932 0 -907.95758137445932 571.67821737208078 0 0 0 0 33.31162162031049 6.3452265210503427 0 6.3452265210503427 2.7496405036693981 0 0 0 0 816.35786017866121 1617.5003448964544 0 1617.5003448964544 2397.4048090885631 0 0 0 0 2859.2512641921985 1836.7366119692297 0 1836.7366119692297 960.48150495667369 0 0 0 0 1533.3801793286984 60.524034740509933 0 60.524034740509933 -75.676162684122815 0 0 0 0 3577.9780621078198 249.17630432544561 0 249.17630432544561 -168.85125269485843 0 0 0 0 938.79044894711114 -441.31565445769155 0 -441.31565445769155 258.24529206483203 0 0 0 0 91.729391907083482 -131.18686721265294 0 -131.18686721265294 653.49822803537563 0 0 0 0 1555.8512641712223 402.28960298353377 0 402.28960298353377 2935.2135182888987 0 0 0 0 4.8222722695778089 -1.8786425018038244 0 -1.8786425018038244 2.1480600631859348 0 0 0 0 1549.1863963399046 196.23288787350339 0 196.23288787350339 550.95256261916347 0 0 0 0 1867.2550113789548 917.23207391455594 0 917.23207391455594 171.03260898122187 0 0 0 0 1390.4805045742178 1522.0615034006551 0 1522.0615034006551 1042.3866430249134 0 0 0 0 984.64086032554405 877.83867210641426 0 877.83867210641426 522.15803895746251 0 0 0 0 7.0740902314143028 -3.3921947003982922 0 -3.3921947003982922 4.1471676541760889 0 0 0 0 1438.7211550243214 859.61995402351533 0 859.61995402351533 131.92537411337364 0 0 0 0 1147.6138259233703 822.57872648953833 0 822.57872648953833 493.65023418821067 0 0 0 0 1919.096808431219 958.39911752861553 0 958.39911752861553 100.81726299048063 0 0 0 0 1496.0987660692808 724.07752058916503 0 724.07752058916503 3.3646084770757625 0 0 0 0 1470.2730006569655 704.88841917196714 0 704.88841917196714 1.5862047326577837 0 0 0 0 1321.7174458318459 549.86205160783982 0 549.86205160783982 -42.213503863691585 0 0 0 0 1291.4379661228522 555.30665580221603 0 555.30665580221603 -26.073393358642505 0 0 0 0 1278.2356646770641 722.68902134564746 0 722.68902134564746 133.92804705747685 0 0 0 0 1476.7656309059239 130.91043137578518 0 130.91043137578518 -76.14529386903348 0 0 0 0 960.93530022590858 -76.455586561432455 0 -76.455586561432455 -109.648771227618 0 0 0 0 2122.4732437344064 406.48180505093859 0 406.48180505093859 -180.10376345726672 0 0 0 0 1333.2371044672836 275.91330128314843 0 275.91330128314843 -138.87598163895365 0 0 0 0 1358.749246085059 242.14520490743476 0 242.14520490743476 -193.7751171891293 0 0 0 0 1599.5701539793936 461.36243743560675 0 461.36243743560675 -163.07992109480631 0 0 0 0 1154.3225098847106 318.23080883096719 0 318.23080883096719 -130.04389800958995 0 0 0 0 916.27503723461268 81.288181255089938 0 81.288181255089938 -175.48531858090547 0 0 0 0 1207.2526966867663 268.04670828750017 0 268.04670828750017 -174.50615292271988 0 0 0 0 824.71252094463489 168.69081416893852 0 168.69081416893852 -155.24508573161597 0 0 0 0 805.3041253422125 98.213564730982071 0 98.213564730982071 -142.34358379774739 0 0 0 0 565.47130102992378 -108.25393094286892 0 -108.25393094286892 -142.06073830159428 0 0 0 0 434.05487587710013 29.517617162409806 0 29.517617162409806 -147.1624422025202 0 0 0 0 -117.25647075624875 -61.735455537712483 0 -61.735455537712483 -126.11212887826412 0 0 0 0 49.667695784068201 -242.43322738975883 0 -242.43322738975883 -109.42236599583475 0 0 0 0 207.11582560341776 -16.598384752346675 0 -16.598384752346675 -85.827029362810151 0 0 0 0 -64.706026451571233 118.21244461402216 0 118.21244461402216 -75.965190325936533 0 0 0 0 457.58755520551495 -214.18083105149827 0 -214.18083105149827 -61.583825755265877 0 0 0 0 3.9959679753810633 -355.7326341141266 0 -355.7326341141266 -237.53081622256303 0 0 0 0 111.37407122540571 -174.56859378079446 0 -174.56859378079446 363.31986833944848 0 0 0 0 392.41699922902626 71.44618912874239 0 71.44618912874239 41.857339054049646 0 0 0 0 -246.01841183709985 -136.81162723144314 0 -136.81162723144314 160.42186650542544 0 0 0 0 -80.511743313865736 -227.18332745879752 0 -227.18332745879752 -89.027571709641961 0 0 0 0 48.350058733187325 -50.38688024873386 0 -50.38688024873386 -248.56095057463983 0 0 0 0 22.583207378535008 -122.08534213081714 0 -122.08534213081714 -248.48602895030317 0 0 0 0 1.7210073002897843 -71.235569508885163 0 -71.235569508885163 -176.02649176137515 0 0 0 0 -15.466969081477146 -53.413201162266887 0 -53.413201162266887 -138.70510510305485 0 0 0 0 5.5103677277711149 0.0040855413396343465 0 0.0040855413396343465 -3.4064438766671108 0 0 0 0 3.1765553392752821 0.69134033463495825 0 0.69134033463495825 -0.50756078444195651 0 0 0 0 62.259004697905766 -3.8975508546452602 0 -3.8975508546452602 -101.38257269624046 0 0 0 0 -492.98619711688661 -265.20396698099677 0 -265.20396698099677 20.85320986594138 0 0 0 0 4.7040182995333453 15.287479614051563 0 15.287479614051563 88.394147493041601 0 0 0 0 2.3144265057053417 -11.092409947358874 0 -11.092409947358874 -5.2007753615807815 0 0 0 0 8.3942704951344354 -9.1461035790124647 0 -9.1461035790124647 4.4785930076938429 0 0 0 0 42.109065023902076 -16.111568072620571 0 -16.111568072620571 20.516694019032911 0 0 0 0 18.942519408342676 -9.9337063773968417 0 -9.9337063773968417 5.2264111154439838 0 0 0 0 56.502182426374929 37.496453215009751 0 37.496453215009751 64.403687032730886 0 0 0 0 141.50202174535661 82.038833326193071 0 82.038833326193071 84.374216700713305 0 0 0 0 152.32395227147936 48.78460821902172 0 48.78460821902172 26.808303668540816 0 0 0 0 107.59168976940418 50.768504536014234 0 50.768504536014234 -146.26150978658598 0 0 0 0 219.60926991514134 76.366311750422483 0 76.366311750422483 79.348151591796977 0 0 0 0 17.130393485809982 -11.910118996997586 0 -11.910118996997586 7.6632404685539885 0 0 0 0 221.77786912122247 72.125723851159364 0 72.125723851159364 23.011254667689514 0 0 0 0 229.18249856589637 13.198290138577022 0 13.198290138577022 37.584356231946003 0 0 0 0 213.73244777015134 46.955825940244722 0 46.955825940244722 3.3885073610840664 0 0 0 0 261.87032979021023 62.705571467741265 0 62.705571467741265 51.938235257711767 0 0 0 0 277.73611014268681 -20.436914924348912 0 -20.436914924348912 135.70567064803663 0 0 0 0 187.60225783414353 -57.989090693892649 0 -57.989090693892649 -14.518988851909256 0 0 0 0 242.6444662108479 73.511929567128846 0 73.511929567128846 -20.568939841193242 0 0 0 0 194.97535718665313 54.802811556383745 0 54.802811556383745 221.17176327166408 0 0 0 0 6.3596326291180532 -3.4651826588125019 0 -3.4651826588125019 2.5801941259725902 0 0 0 0 1.859019269601081 0.17252793194330707 0 0.17252793194330707 0.17031728648505218 0 0 0 0 -4.3501391206809785 -183.95172952849566 0 -183.95172952849566 130.99588588257166 0 0 0 0 452.7449561299436 665.10761335177449 0 665.10761335177449 279.39048064342387 0 0 0 0 19.726527753226037 -16.934051081485563 0 -16.934051081485563 34.799711774150637 0 0 0 0 1072.3150276476663 463.74605960297367 0 463.74605960297367 -1444.8854760278332 0 0 0 0 2.9183904390830815 0.089676942921940395 0 0.089676942921940395 -3.7036561918641073 0 0 0 0 2.6199248731973057 34.551977738773758 0 34.551977738773758 117.56678639460029 0 0 0 0 83.341139367956202 -273.63236983697425 0 -273.63236983697425 184.49366924221226 0 0 0 0 33.597595433042443 -179.72282647468614 0 -179.72282647468614 107.63188704911681 0 0 0 0 248.82289642203614 76.230941782905575 0 76.230941782905575 1873.5369637000704 0 0 0 0 500.06144907295948 -118.18428630358864 0 -118.18428630358864 -15.418188735014155 0 0 0 0 8.6841049452050356 -131.52956177719489 0 -131.52956177719489 -142.91209446104551 0 0 0 0 182.42466180508927 1.0304517315610155 0 1.0304517315610155 283.88678595743272 0 0 0 0 -97.12309070644551 -112.85758342770941 0 -112.85758342770941 97.186113419301137 0 0 0 0 -122.53247563148034 -29.277078008977298 0 -29.277078008977298 41.102998873399201 0 0 0 0 5.0670865459906054 -196.26754501374535 0 -196.26754501374535 115.25583221234729 0 0 0 0 -27.835348921347759 -86.975493516347569 0 -86.975493516347569 72.222350658156074 0 0 0 0 -54.361802703759167 -151.79110476377355 0 -151.79110476377355 123.7392757541204 0 0 0 0 26.135993974101439 -190.40275033554155 0 -190.40275033554155 93.095527275309905 0 0 0 0 12.675092478537408 -142.47079302330712 0 -142.47079302330712 43.819187193519838 0 0 0 0 -38.519705397680809 -63.587259647624364 0 -63.587259647624364 21.367651133086156 0 0 0 0 24.894030207691685 -139.15002070843343 0 -139.15002070843343 119.4439771072648 0 0 0 0 45.693538534847903 -123.90257625212439 0 -123.90257625212439 122.27838284210657 0 0 0 0 -69.854979531337449 -132.6383327800238 0 -132.6383327800238 130.36707830498881 0 0 0 0 12.642493855099019 -188.03458715518809 0 -188.03458715518809 124.1852177114597 0 0 0 0 133.31240080885982 -199.15397495077173 0 -199.15397495077173 115.23913130052597 0 0 0 0 362.02973756290157 -311.57265962250767 0 -311.57265962250767 45.615551688812502 0 0 0 0 0.57913417794960864 1.078003305700193 0 1.078003305700193 0.12469227213630152 0 0 0 0 459.2219407498269 -183.23342073134177 0 -183.23342073134177 16.767604660793495 0 0 0 0 170.7476720821287 -189.90313514536524 0 -189.90313514536524 -31.775113376590525 0 0 0 0 146.41944144910667 -93.180101565347286 0 -93.180101565347286 15.529082722280691 0 0 0 0 197.64212166241487 -244.97877161286192 0 -244.97877161286192 -312.80771007858129 0 0 0 0 76.419900137803779 -111.85161760617689 0 -111.85161760617689 133.86417020529825 0 0 0 0 350.60535309392435 114.31449743111114 0 114.31449743111114 -706.55328073480814 0 0 0 0 132.06388172741899 14.186475705844096 0 14.186475705844096 1.3845665636031992 0 0 0 0 4.7469889309249993 92.08194403531229 0 92.08194403531229 194.40895054095597 0 0 0 0 471.90464049604634 566.99704196524954 0 566.99704196524954 -176.73655302369207 0 0 0 0 89.90052754363991 12.137818084897331 0 12.137818084897331 1.5493290500514749 0 0 0 0 81.426559640956043 176.54137425708197 0 176.54137425708197 271.95532661104517 0 0 0 0 26.557496301385981 63.214724876612308 0 63.214724876612308 232.44809553712139 0 0 0 0 2727.8215031793588 -449.49910455998258 0 -449.49910455998258 -527.12130506946914 0 0 0 0 2905.4818078974113 -778.19320737254657 0 -778.19320737254657 -627.61271514901625 0 0 0 0 3182.3881528157171 -1755.2356404924867 0 -1755.2356404924867 342.04820129900429 0 0 0 0 3458.0948900648473 -71.339904458256115 0 -71.339904458256115 550.13801823705285 0 0 0 0 3502.1824179382056 -829.59237913322124 0 -829.59237913322124 -356.01434759894153 0 0 0 0 3498.1098443258625 -853.97129330490941 0 -853.97129330490941 1356.0787868727884 0 0 0 0 3657.6662134228645 -1418.675156945761 0 -1418.675156945761 329.94384017795642 0 0 0 0 14.853346333753834 -11.570358034058863 0 -11.570358034058863 12.140851206875748 0 0 0 0 3684.5193122744986 286.0519025047725 0 286.0519025047725 -163.51496094298813 0 0 0 0 372.55017690309614 -1128.4050707411848 0 -1128.4050707411848 1284.1598195219958 0 0 0 0 586.67027037303933 -351.58020484950595 0 -351.58020484950595 245.0613114012931 0 0 0 0 -16.794966295288759 -528.47688227326216 0 -528.47688227326216 1039.2600997266932 0 0 0 0 62.590507392727432 289.33603331755546 0 289.33603331755546 57.566848058122559 0 0 0 0 67.730716553406182 -30.406857486373713 0 -30.406857486373713 74.700107478687642 0 0 0 0 82.497100342516205 14.058218709119046 0 14.058218709119046 -268.97467560092218 0 0 0 0 322.41949553053564 -345.12507300996174 0 -345.12507300996174 456.4827384453348 0 0 0 0 -1.8958688649875595 0.92533417392027673 0 0.92533417392027673 -9.937352135634292 0 0 0 0 -496.84620869559376 -333.28403039414457 0 -333.28403039414457 -324.6860799590545 0 0 0 0 1308.7187693707747 -826.84536633786593 0 -826.84536633786593 -2.7802387698980056 0 0 0 0 1309.5163152685127 -721.8504029389369 0 -721.8504029389369 -788.46240464186837 0 0 0 0 1449.8688317123706 -977.54479642999809 0 -977.54479642999809 -373.33067798969432 0 0 0 0 1956.5703446829357 -1510.7209131087309 0 -1510.7209131087309 -219.5406154408663 0 0 0 0 646.64755377645633 -1420.9707034932917 0 -1420.9707034932917 -503.7880969760235 0 0 0 0 -153.74308267566266 -582.4443665188071 0 -582.4443665188071 -301.01066258284663 0 0 0 0 480.85428429314197 -879.30773920718923 0 -879.30773920718923 -174.4903600205389 0 0 0 0 -155.85419929126874 -291.97560791020351 0 -291.97560791020351 80.845359407798696 0 0 0 0 144.13525230520099 204.67425191872366 0 204.67425191872366 15.306907801008606 0 0 0 0 205.46791050945831 -257.61675707588682 0 -257.61675707588682 -327.71595002489147 0 0 0 0 -266.15540133236937 -717.09985875916414 0 -717.09985875916414 -1182.9440932786561 0 0 0 0 34.383846843411447 -214.46163009036059 0 -214.46163009036059 -651.97214247821648 0 0 0 0 -487.18184962821397 2.7100539536525048 0 2.7100539536525048 -422.75441244289516 0 0 0 0 -43.801945350925962 -763.93045126761297 0 -763.93045126761297 -1097.0171393313749 0 0 0 0 -500.8198407393138 -998.59003251580896 0 -998.59003251580896 -646.24487100683973 0 0 0 0 584.32180176148904 -183.70125421558546 0 -183.70125421558546 -645.92717159995675 0 0 0 0 -0.53225425066508558 -3.2166000679518163 0 -3.2166000679518163 -8.222315315086826 0 0 0 0 -1584.8621944188556 -806.27447458762697 0 -806.27447458762697 -266.35907280807078 0 0 0 0 -40.574734708952747 209.41062036814731 0 209.41062036814731 126.7095117787419 0 0 0 0 -1.5855700415101945 -7.3174101812490306 0 -7.3174101812490306 -22.158310703070104 0 0 0 0 151.83221137876535 -130.8552715054293 0 -130.8552715054293 127.80904405651854 0 0 0 0 -353.58876811388814 -224.57065863483803 0 -224.57065863483803 -89.947421954786478 0 0 0 0 261.20955691418305 -45.689411102894056 0 -45.689411102894056 14.402293930056203 0 0 0 0 -58.233817375166836 -345.06564300269906 0 -345.06564300269906 -161.13565766788452 0 0 0 0 -342.71119968590938 -192.46559853725876 0 -192.46559853725876 -155.32772705002299 0 0 0 0 -427.10750641323466 -399.86325194851361 0 -399.86325194851361 -164.68940808628213 0 0 0 0 -6.6217998572938086 -463.11206743709818 0 -463.11206743709818 -439.08319461315477 0 0 0 0 -797.64920336372597 -257.96686451961978 0 -257.96686451961978 -160.35916029337181 0 0 0 0 -473.14348650855936 -800.27137519833445 0 -800.27137519833445 -627.03480526808835 0 0 0 0 -7.6346943020071194 -433.79548177138486 0 -433.79548177138486 -245.50105182647985 0 0 0 0 402.84130527154775 -380.84336636601017 0 -380.84336636601017 -549.98717041063173 0 0 0 0 224.23094137268708 -436.58366629389138 0 -436.58366629389138 -346.04828880242167 0 0 0 0 268.79528787647723 -335.35461929325925 0 -335.35461929325925 -337.17536238696994 0 0 0 0 476.82654517457559 -467.32934283552504 0 -467.32934283552504 -354.06236528890031 0 0 0 0 430.37256498700663 -184.66376565055612 0 -184.66376565055612 -160.66478060519353 0 0 0 0 685.01220470435919 -379.54933196675211 0 -379.54933196675211 -28.681879685730109 0 0 0 0 51.199264784585466 -326.31751876920936 0 -326.31751876920936 -179.11914130509922 0 0 0 0 395.44907630720263 50.486641592263823 0 50.486641592263823 -85.932624211726534 0 0 0 0 358.26392874511657 150.71232284826328 0 150.71232284826328 -272.85193141615673 0 0 0 0 406.75475940904653 251.29841510712015 0 251.29841510712015 465.52014993869972 0 0 0 0 559.35820638228233 305.94869722087356 0 305.94869722087356 241.92257828718334 0 0 0 0 574.93801376080955 488.81505457442478 0 488.81505457442478 354.99336102571317 0 0 0 0 188.59903972924076 94.30087457493255 0 94.30087457493255 195.81030347031583 0 0 0 0 622.27332560059585 277.89764145690413 0 277.89764145690413 156.62618793953095 0 0 0 0 506.9033381515128 346.43189892197364 0 346.43189892197364 315.78697449202679 0 0 0 0 1020.2987637070237 617.68812814265902 0 617.68812814265902 223.13601754490858 0 0 0 0 1218.1609171279561 660.75196670004652 0 660.75196670004652 226.13715636091831 0 0 0 0 761.79162171433768 254.05028196649181 0 254.05028196649181 295.98708715868895 0 0 0 0 794.4895990197474 497.62872918230096 0 497.62872918230096 385.92694320786381 0 0 0 0 7.2709056472671136 -2.6744235177429587 0 -2.6744235177429587 1.7879240859589989 0 0 0 0 1205.5239683559048 478.54483542923072 0 478.54483542923072 306.64846481858342 0 0 0 0 4.4486302131484265 -0.88607656266390933 0 -0.88607656266390933 0.5866107690204343 0 0 0 0 2087.3817119316809 538.05847674719621 0 538.05847674719621 295.39136243844104 0 0 0 0 1367.0993133279844 -105.44004045937345 0 -105.44004045937345 292.92285871863055 0 0 0 0 1840.8356839035769 -162.05646301105139 0 -162.05646301105139 299.6664807103507 0 0 0 0 1358.8007887994863 -171.78577041844306 0 -171.78577041844306 161.04267012374225 0 0 0 0 924.35985744200298 -88.414091060865644 0 -88.414091060865644 150.38243428449113 0 0 0 0 1214.1297653181191 -501.91287017517141 0 -501.91287017517141 27.139537929276685 0 0 0 0 567.26252220932292 290.5670892963289 0 290.5670892963289 300.74647515105511 0 0 0 0 729.48754838543573 -239.13983908227661 0 -239.13983908227661 93.257162245744212 0 0 0 0 588.1112013003858 -432.78885720455378 0 -432.78885720455378 57.158079390627563 0 0 0 0 781.43344740206885 -255.21884485472202 0 -255.21884485472202 81.362017684800321 0 0 0 0 974.34507208618743 -876.88614996854244 0 -876.88614996854244 -81.005582876111134 0 0 0 0 706.92821770450973 -762.66559336078296 0 -762.66559336078296 -128.02955368823314 0 0 0 0 999.40081541054496 -1171.3641834843809 0 -1171.3641834843809 -206.93749854375369 0 0 0 0 1577.9786513572544 -1052.9289547138847 0 -1052.9289547138847 -281.07317595343102 0 0 0 0 1408.6928381310354 -695.52082260260261 0 -695.52082260260261 -147.67658523184721 0 0 0 0 1065.2793593432252 -836.39883620678938 0 -836.39883620678938 -173.52651367469923 0 0 0 0 1124.164489055951 -550.52631626395191 0 -550.52631626395191 56.071169775927842 0 0 0 0 1704.1626226435928 -545.912293895733 0 -545.912293895733 35.01349778339295 0 0 0 0 1315.6877173059111 -590.77136988068378 0 -590.77136988068378 287.78402297099433 0 0 0 0 1316.1637279925872 -782.58116094726972 0 -782.58116094726972 -102.07065017351988 0 0 0 0 1335.1437492941041 23.37927367976576 0 23.37927367976576 -144.23988345950374 0 0 0 0 1409.0614082081811 -550.23784327075123 0 -550.23784327075123 -97.335618936921378 0 0 0 0 15.247721991814473 5.1359339314903991 0 5.1359339314903991 -3.9100606104351527 0 0 0 0 1431.5326813006322 -484.1257393876333 0 -484.1257393876333 -96.592144109154901 0 0 0 0 3498.5777801061631 -1364.8239884389509 0 -1364.8239884389509 267.85914412165357 0 0 0 0 1146.1449417556796 650.74229450191399 0 650.74229450191399 -916.94111198205201 0 0 0 0 10.531559598237337 2.0972765304374477 0 2.0972765304374477 -2.4978467110651694 0 0 0 0 1214.0242004984721 -659.76126046942159 0 -659.76126046942159 -245.26962211629319 0 0 0 0 1682.7773694168818 -709.97517033829797 0 -709.97517033829797 -402.9300896363219 0 0 0 0 2460.5697173247536 -864.41695093179305 0 -864.41695093179305 -642.29062722520871 0 0 0 0 3492.6267877469845 -57.546383078897179 0 -57.546383078897179 -780.58817430641739 0 0 0 0 2448.3426886431553 -481.38195611750496 0 -481.38195611750496 -530.75847158140994 0 0 0 0 2848.4599012779545 -1055.7499216527631 0 -1055.7499216527631 250.73867983452433 0 0 0 0 3111.3824536644242 -1221.7932852223062 0 -1221.7932852223062 297.55264988996498 0 0 0 0 26.41530274013212 -90.217694103450611 0 -90.217694103450611 52.56425690427659 0 0 0 0 7.2241481077107892 -22.829055364481263 0 -22.829055364481263 54.874604221236041 0 0 0 0 25.247045330692117 315.90985122705109 0 315.90985122705109 -443.5350282603585 0 0 0 0 117.93154432386291 -26.106604624477768 0 -26.106604624477768 -33.806470189931815 0 0 0 0 -10.896179873739584 -101.69978565823121 0 -101.69978565823121 47.431558538456102 0 0 0 0 43.212063586749132 12.172332143107109 0 12.172332143107109 -8.0226343048979061 0 0 0 0 3497.7313711983643 -1629.7999913824412 0 -1629.7999913824412 477.88740192505838 0 0 0 0 3002.8304821595575 -2097.192558997453 0 -2097.192558997453 1253.1326121174309 0 0 0 0 2644.820809625242 -1260.5953512865042 0 -1260.5953512865042 630.98361591730361 0 0 0 0 4.221545742267427 -8.3281299082192568 0 -8.3281299082192568 7.1609677947218477 0 0 0 0 8.2403269762159894 -3.3754454255921758 0 -3.3754454255921758 1.7628567629444098 0 0 0 0 3486.3298776242264 -7.6193548522684971 0 -7.6193548522684971 7.7961598280445061 0 0 0 0 -672.42981829709606 904.33172969893496 0 904.33172969893496 -263.40638942094085 0 0 0 0 11.935328318084014 2.4764761016039429 0 2.4764761016039429 0.47703045751159123 0 0 0 0 1124.7766286300175 1060.1060724226832 0 1060.1060724226832 -416.01588800622631 0 0 0 0 3492.6844745689623 176.91910672385305 0 176.91910672385305 -829.76775315816485 0 0 0 0 976.96798150183508 -146.17092610780773 0 -146.17092610780773 -430.93548500945406 0 0 0 0 242.14417139957732 -254.33015838060959 0 -254.33015838060959 -24.050921487852463 0 0 0 0 120.76028729086829 -37.362058422709225 0 -37.362058422709225 -340.36443659567436 0 0 0 0 414.68774425050651 65.813031475912055 0 65.813031475912055 -501.12397469381432 0 0 0 0 582.41986034600359 -249.16969365906363 0 -249.16969365906363 -273.39965581155769 0 0 0 0 1306.6385104455767 289.94375448264498 0 289.94375448264498 -544.96150557932174 0 0 0 0 128.47152624998353 475.8204296363225 0 475.8204296363225 -523.62321368890048 0 0 0 0 7.3818095846475131 2.0699207303445419 0 2.0699207303445419 -1.6712881779572246 0 0 0 0 2497.226148863625 -1010.6723927657358 0 -1010.6723927657358 405.23805812945864 0 0 0 0 1855.6570344080665 -184.90968130808835 0 -184.90968130808835 119.47505889982153 0 0 0 0 1889.6038135747986 -472.68352485462651 0 -472.68352485462651 -349.17377867490779 0 0 0 0 2017.5790125885578 -220.81303490953178 0 -220.81303490953178 125.16799260528171 0 0 0 0 1954.137052067701 -95.346033990107003 0 -95.346033990107003 -518.50946900787721 0 0 0 0 2218.4858921250998 -394.143859255096 0 -394.143859255096 -448.42932290409362 0 0 0 0 513.75300199245976 104.21303317395223 0 104.21303317395223 -191.77136343824893 0 0 0 0 509.48373549600001 -345.72833668693363 0 -345.72833668693363 -136.32694581645228 0 0 0 0 1114.1507213506775 -68.758528583379757 0 -68.758528583379757 -347.66899030596562 0 0 0 0 1201.0865610559304 -434.89303201875134 0 -434.89303201875134 -78.744044933471741 0 0 0 0 565.33960769950136 6.2409762506704283 0 6.2409762506704283 -179.317269086143 0 0 0 0 131.90716455279471 121.60534233239434 0 121.60534233239434 -104.16232280317604 0 0 0 0 1195.1352167236691 -120.83363135366676 0 -120.83363135366676 -248.19554633521432 0 0 0 0 45.649616359198063 14.411191740666679 0 14.411191740666679 -11.171578507353983 0 0 0 0 64.155809329953627 -710.32074051875816 0 -710.32074051875816 475.7509208583524 0 0 0 0 13.85973162404127 0.077393750501478564 0 0.077393750501478564 -1.3478098401555467 0 0 0 0 3441.5726314869826 -1087.3765107594018 0 -1087.3765107594018 -67.173961994916453 0 0 0 0 1466.6337961692843 -868.31103240572247 0 -868.31103240572247 738.58252697080525 0 0 0 0 3672.7304010330045 393.74694673882618 0 393.74694673882618 -181.63122453241806 0 0 0 0 2922.3421709057584 -143.39591098677829 0 -143.39591098677829 -489.08239520385314 0 0 0 0 2652.5438702953325 2.2096533682070003 0 2.2096533682070003 -302.24114049344718 0 0 0 0 1642.5427955333016 -787.15229972295947 0 -787.15229972295947 -30.292754023716498 0 0 0 0 2930.7720708161214 388.94618032909409 0 388.94618032909409 -188.76790478399607 0 0 0 0 2840.3361971304585 302.86581019340315 0 302.86581019340315 -16.038922952575149 0 0 0 0 2915.3986909552696 470.48583218327121 0 470.48583218327121 259.64726849927956 0 0 0 0 2625.7154123133078 828.56626536262877 0 828.56626536262877 242.36536929408499 0 0 0 0 1872.2494890761554 528.89958794192307 0 528.89958794192307 125.14570914676051 0 0 0 0 2389.3044563867061 360.12593696537442 0 360.12593696537442 -47.270085458312224 0 0 0 0 2276.1330309083751 141.71886309245679 0 141.71886309245679 -231.29859979178849 0 0 0 0 2475.7090707336711 12.301572293755527 0 12.301572293755527 -259.49967228955779 0 0 0 0 2004.9075925318393 -128.34788557016145 0 -128.34788557016145 -217.47625876085388 0 0 0 0 2050.1282692580535 8.8558883719131529 0 8.8558883719131529 180.72356922968618 0 0 0 0 1752.4369077532501 -58.166546925474279 0 -58.166546925474279 198.97498412670859 0 0 0 0 1829.2896028386785 284.38067661831974 0 284.38067661831974 -57.352053107132633 0 0 0 0 1810.8832065528222 309.38861113130713 0 309.38861113130713 124.04282867410689 0 0 0 0 774.52683533470554 252.02794353297207 0 252.02794353297207 125.95942863009157 0 0 0 0 1285.1940186399252 588.44076354801007 0 588.44076354801007 78.392403171457545 0 0 0 0 1260.6596890944711 536.43639438073865 0 536.43639438073865 209.09058741472711 0 0 0 0 1879.5160551323024 602.38146784844514 0 602.38146784844514 177.99265215034609 0 0 0 0 1235.7517450824453 592.86442802527631 0 592.86442802527631 450.60399751950365 0 0 0 0 1916.504574741035 746.97471671487597 0 746.97471671487597 381.38071393357529 0 0 0 0 1455.319353430139 522.60763851653337 0 522.60763851653337 593.16873202132797 0 0 0 0 1978.6360471320495 423.94021465272107 0 423.94021465272107 453.00572964312084 0 0 0 0 1539.0597224097419 775.33759666686444 0 775.33759666686444 454.90815168203659 0 0 0 0 1032.8398866865973 805.88574316408824 0 805.88574316408824 651.5142713223911 0 0 0 0 43.136805391540094 -41.078625090616555 0 -41.078625090616555 37.405572824372598 0 0 0 0 975.71116345916562 372.54464479565002 0 372.54464479565002 545.96933826544864 0 0 0 0 -544.43452735794949 -926.6629378290163 0 -926.6629378290163 -310.75848461526948 0 0 0 0 -434.23156675054702 -371.02862914769685 0 -371.02862914769685 468.44752977690723 0 0 0 0 -428.4764238282994 -154.1036126895242 0 -154.1036126895242 -109.18220035072591 0 0 0 0 2647.6019817834476 815.33153255112734 0 815.33153255112734 522.14376440733304 0 0 0 0 2571.0985740650758 1006.0427603388393 0 1006.0427603388393 380.59930829779728 0 0 0 0 16.37093712649332 -14.501217957288373 0 -14.501217957288373 15.715290301568475 0 0 0 0 2066.7603447221099 1136.1403397006484 0 1136.1403397006484 438.90679015125852 0 0 0 0 2474.5616719106633 576.05929757837112 0 576.05929757837112 282.80617944030382 0 0 0 0 3169.5528561604624 380.96749801829355 0 380.96749801829355 286.67618814173289 0 0 0 0 3282.3099399303228 685.8845374598111 0 685.8845374598111 297.67105313329353 0 0 0 0 2512.2225376655651 816.9347655141305 0 816.9347655141305 721.14719443460308 0 0 0 0 3476.034259550675 353.18883780731596 0 353.18883780731596 284.91382659116243 0 0 0 0 3210.0417053797319 647.91746036194661 0 647.91746036194661 506.29962765066222 0 0 0 0 3168.3900966652182 415.96581504231887 0 415.96581504231887 -49.547001913117128 0 0 0 0 2917.9295804658941 589.22999490393431 0 589.22999490393431 188.59720704149095 0 0 0 0 3872.0083649572016 -184.95794636355467 0 -184.95794636355467 406.98247983937114 0 0 0 0 2083.9724415432593 635.77234221387994 0 635.77234221387994 686.87773058993616 0 0 0 0 1973.8602398814878 574.969765027216 0 574.969765027216 736.42885597069062 0 0 0 0 2783.9430452820889 562.68716994111662 0 562.68716994111662 440.60608934150821 0 0 0 0 5149.0131277878208 776.56808849083973 0 776.56808849083973 298.85861036295751 0 0 0 0 2782.9911774248512 560.04729873606971 0 560.04729873606971 1674.5718553868412 0 0 0 0 342.45201668641994 590.45231444452634 0 590.45231444452634 1047.6159773176923 0 0 0 0 15.98348336232965 11.754333844566014 0 11.754333844566014 3.6269794224184597 0 0 0 0 4205.5872165676265 -1648.238643524224 0 -1648.238643524224 747.03226286969084 0 0 0 0 10.808056576017051 5.490456441858182 0 5.490456441858182 -16.113302583040721 0 0 0 0 374.01848549552051 -201.21811135663307 0 -201.21811135663307 144.16737693475272 0 0 0 0 297.11030374197253 -5.3289917673403409 0 -5.3289917673403409 -130.26713942712712 0 0 0 0 296.35945551708255 -343.795993790225 0 -343.795993790225 360.38743563485758 0 0 0 0 3516.6121988504565 983.06095935582346 0 983.06095935582346 -209.60629156177259 0 0 0 0 2920.8302770197047 510.40403251347442 0 510.40403251347442 9.7122664529697431 0 0 0 0 2258.4080143090064 972.54960085502398 0 972.54960085502398 307.81724775071552 0 0 0 0 1347.4319390052679 758.42606558783666 0 758.42606558783666 234.53676459082601 0 0 0 0 2.3745507724882424 -1.1232343601715451 0 -1.1232343601715451 2.4099483509275923 0 0 0 0 1603.4389748941348 -265.44741840894301 0 -265.44741840894301 0.039423394216669294 0 0 0 0 2461.535224820796 243.83932695647172 0 243.83932695647172 -198.78169536830495 0 0 0 0 2504.45083827706 312.85792095783012 0 312.85792095783012 -220.42107890801779 0 0 0 0 4.9066063352520244 -0.78982532273399642 0 -0.78982532273399642 7.45367064001878 0 0 0 0 3499.4534548711831 -273.86588059865409 0 -273.86588059865409 -563.96727465899266 0 0 0 0 2756.6643559850536 -274.65096566081587 0 -274.65096566081587 -499.10455217921321 0 0 0 0 2242.5411808585322 -931.1328479858762 0 -931.1328479858762 147.39558134510841 0 0 0 0 1551.3534021924506 82.924864758509045 0 82.924864758509045 -154.71973398712669 0 0 0 0 0.32834851922026331 -1.860437844756083 0 -1.860437844756083 1.5661506119755639 0 0 0 0 115.57531220173041 -71.547137195793539 0 -71.547137195793539 32.885476228051942 0 0 0 0 2762.7201673095151 -900.29836945855254 0 -900.29836945855254 145.14827450989046 0 0 0 0 117.5115316536303 -11.578002428122424 0 -11.578002428122424 42.964093775957927 0 0 0 0 153.85210811712477 -113.8416943185031 0 -113.8416943185031 290.41339153583112 0 0 0 0 3499.6488149738116 -851.58498627058657 0 -851.58498627058657 -223.92143601888142 0 0 0 0 99.810224365279282 52.79162188961709 0 52.79162188961709 -69.598538877307647 0 0 0 0 96.072494768557021 1.4630079908211187 0 1.4630079908211187 -14.356417843793887 0 0 0 0 132.73590781474832 -25.627507878960387 0 -25.627507878960387 -79.406419084883964 0 0 0 0 185.99624484257765 33.032561049714786 0 33.032561049714786 -116.30038345706998 0 0 0 0 74.101972618163927 -31.718434642114062 0 -31.718434642114062 6.370166617563882 0 0 0 0 121.50226281799223 -59.489190695385332 0 -59.489190695385332 73.654078705137181 0 0 0 0 80.889605758566361 -21.530379614362637 0 -21.530379614362637 -5.13082068087202 0 0 0 0 228.73932323280496 21.180189266206071 0 21.180189266206071 -231.32857472722026 0 0 0 0 20.275665591292579 -3.5225481539885841 0 -3.5225481539885841 -10.947161431537481 0 0 0 0 234.14913053942837 -71.223109158745501 0 -71.223109158745501 -273.78201932020602 0 0 0 0 268.75381088414179 -10.633925550650019 0 -10.633925550650019 -475.24625358618505 0 0 0 0 571.40444144143839 -12.976468233029664 0 -12.976468233029664 -628.91135015800683 0 0 0 0 -22.177771481891796 -209.79130109754078 0 -209.79130109754078 -258.51783637454719 0 0 0 0 116.08430235488959 32.243287894951209 0 32.243287894951209 -117.12015695904483 0 0 0 0 103.80000102189479 13.243186690517177 0 13.243186690517177 -125.78532050994363 0 0 0 0 67.929775775222879 22.524265946942251 0 22.524265946942251 -81.386065811217122 0 0 0 0 57.203901995689193 20.477117685107473 0 20.477117685107473 -59.04504079756839 0 0 0 0 22.144033331790588 10.562329502015841 0 10.562329502015841 -68.676456260266932 0 0 0 0 5.7994662878296683 -6.0126213194640723 0 -6.0126213194640723 -12.294215665687544 0 0 0 0 114.17700774511121 -42.629802260675746 0 -42.629802260675746 -96.371485667982597 0 0 0 0 52.618972612286598 -57.200125361521259 0 -57.200125361521259 -10.531059988895322 0 0 0 0 127.67383731128552 -103.41683175941262 0 -103.41683175941262 27.173613955707992 0 0 0 0 27.605093719853372 -34.638844653394763 0 -34.638844653394763 -27.667319885581232 0 0 0 0 98.796904605274563 -1.829883899716215 0 -1.829883899716215 -25.397748966915685 0 0 0 0 87.2880136281874 32.664908484658554 0 32.664908484658554 92.793497640315763 0 0 0 0 168.79432365800312 7.4329829952248474 0 7.4329829952248474 -145.89291488527988 0 0 0 0 243.27016252195608 -49.51822823881048 0 -49.51822823881048 -107.7740620313125 0 0 0 0 152.79316544237372 -10.41925249153428 0 -10.41925249153428 -30.400870701811073 0 0 0 0 237.99644607373011 -51.782812242430168 0 -51.782812242430168 -10.72728816693234 0 0 0 0 70.969332373484576 -6.319266080366674 0 -6.319266080366674 -13.682877748529791 0 0 0 0 87.447944538516822 4.2109314085524261 0 4.2109314085524261 -9.2591421019351401 0 0 0 0 9.8139858544374299 -6.6563090568741679 0 -6.6563090568741679 -10.872376004804639 0 0 0 0 18.698092915564331 5.5522949787749525 0 5.5522949787749525 -14.370345871753958 0 0 0 0 121.00125799907119 0.38563664469256764 0 0.38563664469256764 3.4461150002407521 0 0 0 0 61.178270624892512 -8.0734665806943422 0 -8.0734665806943422 -20.261063487395695 0 0 0 0 0.59779565215811203 -8.0636727409163171 0 -8.0636727409163171 -4.80083942127452 0 0 0 0 132.6284795210322 -134.40233578833204 0 -134.40233578833204 63.956379805825236 0 0 0 0 199.96572249041492 72.742973415769484 0 72.742973415769484 5.862293274898434 0 0 0 0 114.26648498135364 5.0206416057419005 0 5.0206416057419005 -9.2788077593595517 0 0 0 0 72.470583928557971 -2.6381331274820923 0 -2.6381331274820923 -8.7007331577765044 0 0 0 0 2.7210844877168987 7.1077563780967452 0 7.1077563780967452 -6.2465961919175044 0 0 0 0 55.55538559105662 -14.231697565404943 0 -14.231697565404943 9.5261609579147262 0 0 0 0 3.646394634246235 -8.6904519310017108 0 -8.6904519310017108 -7.6153888069903601 0 0 0 0 188.13919268928657 13.654835010093848 0 13.654835010093848 -33.889368956269209 0 0 0 0 190.74093814293883 0.096431670126094104 0 0.096431670126094104 -27.847804187999373 0 0 0 0 200.92829714524123 5.4221698405385723 0 5.4221698405385723 -31.596045712727118 0 0 0 0 194.13486105425363 3.3127480952703081 0 3.3127480952703081 -28.312089925653709 0 0 0 0 152.81199963432664 16.834640009719351 0 16.834640009719351 -17.421898747293199 0 0 0 0 209.67037612034164 35.059699320210143 0 35.059699320210143 -11.604923104699992 0 0 0 0 9.3694966146971996 0.5413813882609908 0 0.5413813882609908 7.590484210184834 0 0 0 0 92.501066149219696 28.949465843460985 0 28.949465843460985 15.767604755074444 0 0 0 0 150.69033413862508 40.972233537311979 0 40.972233537311979 17.997979752018182 0 0 0 0 63.850793502842862 -1.2126679325874647 0 -1.2126679325874647 18.60393448189825 0 0 0 0 93.507203062297776 14.982800683378628 0 14.982800683378628 13.037919048279377 0 0 0 0 42.763533897594549 -14.32105366800505 0 -14.32105366800505 -3.1120530473362731 0 0 0 0 150.08986188695781 13.112117318125001 0 13.112117318125001 -11.328917396943325 0 0 0 0 135.9607405771203 9.6973049446182813 0 9.6973049446182813 -11.652836235067014 0 0 0 0 110.38186917539861 -15.753953403768037 0 -15.753953403768037 -2.7814732933939013 0 0 0 0 70.539965962638234 20.533274477626037 0 20.533274477626037 15.347481925470674 0 0 0 0 31.852434824765957 -6.0429155718161489 0 -6.0429155718161489 -7.5181294274487378 0 0 0 0 102.96430798074516 -12.896643438295541 0 -12.896643438295541 -2.3530702678672242 0 0 0 0 47.962732602436517 -36.536654179720813 0 -36.536654179720813 11.434872922553041 0 0 0 0 61.702876392606413 -2.7254476060074921 0 -2.7254476060074921 7.3874044482904537 0 0 0 0 -49.675157122256564 119.28887851044529 0 119.28887851044529 24.731082849671225 0 0 0 0 77.814398885573155 -8.5965639321466654 0 -8.5965639321466654 2.2541873950212903 0 0 0 0 31.307704972265451 -18.93491523449428 0 -18.93491523449428 4.3489830746469007 0 0 0 0 -58.609964405972278 -95.007463069594309 0 -95.007463069594309 39.927400692163587 0 0 0 0 1.8071047093471861 -224.78337808682534 0 -224.78337808682534 -181.76974652640746 0 0 0 0 -1.9402723731830065 -5.2848034048947135 0 -5.2848034048947135 1.9111221061174115 0 0 0 0 -26.684033180185907 -23.334358597556459 0 -23.334358597556459 -35.97363978655946 0 0 0 0 -50.389570148606253 -58.92004442646693 0 -58.92004442646693 -39.925634832911101 0 0 0 0 551.16637928503769 -2.3626831762472875 0 -2.3626831762472875 -7.4563409792453967 0 0 0 0 545.73193605561028 30.055342608957517 0 30.055342608957517 -199.08643030737039 0 0 0 0 1.2898901738365964 -0.81951183877398748 0 -0.81951183877398748 0.31076680394149525 0 0 0 0 695.58787605807083 106.45094945580746 0 106.45094945580746 72.154088465977111 0 0 0 0 880.9151303981489 42.719871489591014 0 42.719871489591014 -227.49382152004637 0 0 0 0 851.10830219818308 184.92828021640941 0 184.92828021640941 -69.478042640845501 0 0 0 0 973.30000788744655 210.15663112722456 0 210.15663112722456 -76.243753840468855 0 0 0 0 681.54939420085839 213.9620184875991 0 213.9620184875991 64.213291812978241 0 0 0 0 734.99640983768768 202.84146936494784 0 202.84146936494784 50.007611303537828 0 0 0 0 824.50224427946705 379.60473000945626 0 379.60473000945626 104.72898601950862 0 0 0 0 596.3021620645959 254.00068326962332 0 254.00068326962332 115.91238782362848 0 0 0 0 315.0171952134624 270.346053143083 0 270.346053143083 -70.196532348251679 0 0 0 0 19.475184608986211 -32.601307384695581 0 -32.601307384695581 5.3462409635869665 0 0 0 0 56.352889388549414 -29.983550998863414 0 -29.983550998863414 6.7644071434379693 0 0 0 0 264.45906197176373 -287.26195365684458 0 -287.26195365684458 64.524152263290262 0 0 0 0 457.43225275164878 88.843896128475109 0 88.843896128475109 101.896154010087 0 0 0 0 1239.6760927293162 675.33006726617793 0 675.33006726617793 77.314497664403348 0 0 0 0 1174.5378725358896 604.94605744789101 0 604.94605744789101 132.32828764554102 0 0 0 0 1209.0204965488847 539.28825487058793 0 539.28825487058793 9.0818376852309939 0 0 0 0 1080.8883145919826 432.45679252474031 0 432.45679252474031 -33.078951988240341 0 0 0 0 1018.2770927213555 436.83517998737369 0 436.83517998737369 43.973707006271525 0 0 0 0 963.77499354685006 492.61565185175925 0 492.61565185175925 176.76152784955866 0 0 0 0 905.78912678868073 337.17317881018658 0 337.17317881018658 29.383833676003775 0 0 0 0 987.39102340111822 601.87138603012352 0 601.87138603012352 347.73147916324285 0 0 0 0 720.47927691486439 459.46217139199717 0 459.46217139199717 350.86603253309522 0 0 0 0 930.25774197194551 397.30476661215505 0 397.30476661215505 99.627853349750922 0 0 0 0 596.15070777068104 261.10082710117717 0 261.10082710117717 302.01917072485031 0 0 0 0 74.298856386229829 -67.165362913342975 0 -67.165362913342975 56.382760476562495 0 0 0 0 1244.3117681740055 558.78277502681487 0 558.78277502681487 256.45445061139526 0 0 0 0 84.582448165148378 -75.972482885956708 0 -75.972482885956708 58.200176077299297 0 0 0 0 520.78438063607246 100.75610305081602 0 100.75610305081602 143.74960144780135 0 0 0 0 123.75061337210536 -98.615088605771234 0 -98.615088605771234 -114.71427789502559 0 0 0 0 123.04864536192736 -94.594185107324392 0 -94.594185107324392 -137.2518479043938 0 0 0 0 525.97868764934537 108.1798150405815 0 108.1798150405815 90.759677538452038 0 0 0 0 521.60153305759013 240.73312833673319 0 240.73312833673319 200.99415152631857 0 0 0 0 113.34159486431054 -145.77334726417394 0 -145.77334726417394 -119.53645266231933 0 0 0 0 170.07774801795495 -165.58671572778803 0 -165.58671572778803 -264.24556065587603 0 0 0 0 235.02856961746875 -81.480815674060068 0 -81.480815674060068 -155.33579960586667 0 0 0 0 223.72691695639514 -169.03598620574576 0 -169.03598620574576 -67.138618803226564 0 0 0 0 157.6632144896812 -115.16852973218374 0 -115.16852973218374 -147.51917370954106 0 0 0 0 237.55632552086263 -151.3749369329189 0 -151.3749369329189 -272.98224054558523 0 0 0 0 -72.239288856952044 -381.95893011439739 0 -381.95893011439739 -305.63642711141983 0 0 0 0 184.68148668647314 -224.04857544648212 0 -224.04857544648212 -392.75813683201159 0 0 0 0 137.14536983453218 -90.381001971092701 0 -90.381001971092701 -266.11863982076102 0 0 0 0 236.85419054584054 -170.83704077734092 0 -170.83704077734092 -212.60305904566485 0 0 0 0 306.0267194431126 31.191175982337882 0 31.191175982337882 -71.373612761590266 0 0 0 0 273.66657319913747 41.309587991662056 0 41.309587991662056 6.7973666461948596 0 0 0 0 234.83470582107839 -97.216628441283319 0 -97.216628441283319 -183.90837464479046 0 0 0 0 673.82182415810712 324.12058081187337 0 324.12058081187337 439.47948289412147 0 0 0 0 753.6892100061923 598.90795511921328 0 598.90795511921328 536.27041437178241 0 0 0 0 -45.975989351786666 -174.52878538056484 0 -174.52878538056484 -118.3353836518454 0 0 0 0 62.366246883871085 -57.547850190174245 0 -57.547850190174245 48.887283216920707 0 0 0 0 -119.0081857976943 -662.02531208112623 0 -662.02531208112623 -601.23597244741904 0 0 0 0 44.996074367358233 -126.83176979991367 0 -126.83176979991367 -154.34581533547407 0 0 0 0 -615.84155475212538 -659.15386745335991 0 -659.15386745335991 298.46333551826865 0 0 0 0 775.79626203012958 207.54902614711125 0 207.54902614711125 112.48636445016382 0 0 0 0 648.45226460153731 -652.48714033351291 0 -652.48714033351291 96.159989172352653 0 0 0 0 -23.688421901043512 -577.08305343161373 0 -577.08305343161373 1168.1352342784019 0 0 0 0 -219.75366207826107 -136.32878111051468 0 -136.32878111051468 232.94319411702236 0 0 0 0 320.57347134496922 -22.566483108762441 0 -22.566483108762441 -14.827865340945209 0 0 0 0 301.26148437754546 94.291260026458531 0 94.291260026458531 198.98929164279616 0 0 0 0 307.35511149682225 -238.97731356098939 0 -238.97731356098939 -229.14121356190481 0 0 0 0 443.6587488625446 29.380421065137853 0 29.380421065137853 -96.607642720715376 0 0 0 0 217.03126446599708 36.595141335442349 0 36.595141335442349 1196.2744126323096 0 0 0 0 221.8169290726587 -22.212799205824638 0 -22.212799205824638 396.01096174323538 0 0 0 0 271.2981997355746 -80.408688493839691 0 -80.408688493839691 216.85975269392111 0 0 0 0 200.26228572041691 -124.81808710734003 0 -124.81808710734003 392.42899659638715 0 0 0 0 206.08263633214233 -167.30125287167823 0 -167.30125287167823 215.81882213439167 0 0 0 0 333.35497087888325 -161.90057271538444 0 -161.90057271538444 78.67890429943327 0 0 0 0 316.39608499972564 -158.09276627158397 0 -158.09276627158397 137.55269067396159 0 0 0 0 368.09523495500616 -149.2535778483898 0 -149.2535778483898 -150.10250723849822 0 0 0 0 333.90891218261095 -67.905107191996649 0 -67.905107191996649 -121.04156927829536 0 0 0 0 275.83489220592037 1.6825944055940454 0 1.6825944055940454 -92.698672791688296 0 0 0 0 333.86102441313778 -10.688911897466824 0 -10.688911897466824 27.097583905893771 0 0 0 0 333.31919115207666 25.719018057974608 0 25.719018057974608 -69.861003567260923 0 0 0 0 400.9862687997088 12.791146034245003 0 12.791146034245003 -196.68025649545962 0 0 0 0 408.6495681601009 49.409227794285471 0 49.409227794285471 -62.531000321101601 0 0 0 0 615.26796118183847 192.04433540787977 0 192.04433540787977 -96.952824024188885 0 0 0 0 7.228848246420938 -0.30285890804778859 0 -0.30285890804778859 0.21723015595481332 0 0 0 0 232.86268184423898 569.55140720931195 0 569.55140720931195 587.69860625166984 0 0 0 0 278.83481710749038 -109.01605931285758 0 -109.01605931285758 -189.2511894192794 0 0 0 0 191.29670281501512 169.28197466858455 0 169.28197466858455 132.76174416666981 0 0 0 0 840.89376430791526 628.4209490997182 0 628.4209490997182 -439.4648025150309 0 0 0 0 -128.5349541867181 -514.34868962191103 0 -514.34868962191103 248.06412720392836 0 0 0 0 245.68730089952805 -371.18525847163983 0 -371.18525847163983 -536.03565437120415 0 0 0 0 130.53606300955289 -108.97249724436915 0 -108.97249724436915 -99.542372691566925 0 0 0 0 202.9184810496663 169.8156224369377 0 169.8156224369377 488.47898016983163 0 0 0 0 58.168248382229756 -27.736766247053779 0 -27.736766247053779 -7.6797342073926567 0 0 0 0 4.2848227809372474 -4.8983597399719656 0 -4.8983597399719656 36.647483380551421 0 0 0 0 21.290706141452958 0.79620145210004267 0 0.79620145210004267 -9.6562953033004533 0 0 0 0 94.667819980759305 74.408316007094982 0 74.408316007094982 3.4313018501343322 0 0 0 0 138.60677367592507 54.699725200422108 0 54.699725200422108 -115.91785157254981 0 0 0 0 -80.599338863428784 74.961261716034642 0 74.961261716034642 -69.675210166466059 0 0 0 0 24.415910659192377 141.63739914360713 0 141.63739914360713 -154.15051644853156 0 0 0 0 86.345585609120462 -2.9930830744488048 0 -2.9930830744488048 -260.76148802921421 0 0 0 0 9.7748927336142515 -75.103379333814928 0 -75.103379333814928 -95.226260915300372 0 0 0 0 7.219631190204268 -0.83639493167303414 0 -0.83639493167303414 -4.1634393975372177 0 0 0 0 21.412267003199304 148.14786158804873 0 148.14786158804873 -242.72998005255613 0 0 0 0 -30.905593883053371 -62.949754117096745 0 -62.949754117096745 -35.782121527299751 0 0 0 0 253.5524434955878 -90.471434307227355 0 -90.471434307227355 -361.10207731485025 0 0 0 0 300.28434703588664 22.905720505067166 0 22.905720505067166 -153.88597151490467 0 0 0 0 240.54199945675646 -169.52106199810078 0 -169.52106199810078 90.566608167228878 0 0 0 0 -20.247411052878306 89.367080928747328 0 89.367080928747328 -66.604953904865397 0 0 0 0 -11.498068686209081 170.27255514877106 0 170.27255514877106 -146.9943834339465 0 0 0 0 -21.87161212360661 105.99202337947281 0 105.99202337947281 -176.01898088414782 0 0 0 0 -25.096216523717885 113.42065380286203 0 113.42065380286203 -149.29375271157187 0 0 0 0 5.7325802989435033 75.050090554412236 0 75.050090554412236 -174.44265531966238 0 0 0 0 -10.413396767573431 78.67629962054707 0 78.67629962054707 -131.50814865072243 0 0 0 0 10.207943016876015 34.021743519887423 0 34.021743519887423 -137.11508188417793 0 0 0 0 21.295215315374662 42.80398056647573 0 42.80398056647573 -110.95073522766688 0 0 0 0 39.998346382380987 45.170995636603948 0 45.170995636603948 -114.34967665591648 0 0 0 0 46.788468904334877 96.493598337687217 0 96.493598337687217 -147.66088660768503 0 0 0 0 46.97592995179275 -19.479751950185801 0 -19.479751950185801 -86.838878876254967 0 0 0 0 102.103668689404 11.254702546908447 0 11.254702546908447 -72.08120193607283 0 0 0 0 4.2379148005384195 60.200025798868865 0 60.200025798868865 -122.08691894609365 0 0 0 0 39.041106423672318 -2.4894329752005433 0 -2.4894329752005433 -61.105572317648694 0 0 0 0 17.504914732893667 48.275553436662449 0 48.275553436662449 -111.13755312413195 0 0 0 0 36.49032209240977 56.554135321393915 0 56.554135321393915 -181.62582679589013 0 0 0 0 57.610724627993477 -8.4770254860377463 0 -8.4770254860377463 -66.773065314081578 0 0 0 0 72.546491939963744 -3.594853546410377 0 -3.594853546410377 -77.019796292184765 0 0 0 0 47.198551283450797 -4.7107477295076023 0 -4.7107477295076023 -31.410000425987164 0 0 0 0 98.496092365381628 -42.822318508132412 0 -42.822318508132412 -40.902221410338825 0 0 0 0 62.503803304833127 -21.902747590587751 0 -21.902747590587751 -13.91018010521293 0 0 0 0 58.191845977406942 8.755450990406727 0 8.755450990406727 -36.74957238743589 0 0 0 0 96.069780860018 -49.675271515867735 0 -49.675271515867735 30.285469466471113 0 0 0 0 129.29063133909949 -45.154095689780661 0 -45.154095689780661 -7.0453202564503954 0 0 0 0 120.57753952132134 -78.252862892246185 0 -78.252862892246185 8.9641631660815619 0 0 0 0 103.93119798105545 -42.03476359726028 0 -42.03476359726028 -32.62089856005332 0 0 0 0 77.133789536383119 -47.826987649947114 0 -47.826987649947114 -0.68848435489780968 0 0 0 0 69.530936516039219 -45.811514426075519 0 -45.811514426075519 3.1154322060319828 0 0 0 0 89.630130839786943 -27.31279309222964 0 -27.31279309222964 -39.310093531388702 0 0 0 0 58.169813203213153 -40.805636006961549 0 -40.805636006961549 -120.4149251300444 0 0 0 0 78.334612542494582 -29.232771383320294 0 -29.232771383320294 -5.2850535711774818 0 0 0 0 69.332282232596839 -37.311536504772057 0 -37.311536504772057 -121.5934685200793 0 0 0 0 84.148317258112002 -27.537058174115373 0 -27.537058174115373 24.544837964585895 0 0 0 0 7.6202732805791573 9.9448232736647668 0 9.9448232736647668 -9.1519418396768533 0 0 0 0 46.626368198239106 -11.358017624687449 0 -11.358017624687449 -106.26557014113371 0 0 0 0 42.543088981147548 0.99209829274906269 0 0.99209829274906269 -131.17607292924185 0 0 0 0 6.8743009754939521 -2.9636631978138306 0 -2.9636631978138306 0.019393635904811135 0 0 0 0 92.059031444634456 -38.239036799082896 0 -38.239036799082896 -73.927428381251787 0 0 0 0 37.608504810044906 13.719967979161993 0 13.719967979161993 -76.002228840894531 0 0 0 0 68.066456563276006 -7.2515459376018043 0 -7.2515459376018043 -41.078479706315193 0 0 0 0 73.9147917861319 -27.215801001136242 0 -27.215801001136242 -65.833804384959876 0 0 0 0 77.7199831757423 -63.996682357017107 0 -63.996682357017107 -154.20295273531693 0 0 0 0 67.800907652593608 -33.179704854043429 0 -33.179704854043429 4.1021945265421378 0 0 0 0 52.689933900423057 -36.978347019832654 0 -36.978347019832654 33.945425002966658 0 0 0 0 146.13426017473103 9.0564003334928884 0 9.0564003334928884 -160.55907731750344 0 0 0 0 91.757485541983556 22.723811687721081 0 22.723811687721081 -6.2177853902708193 0 0 0 0 59.433588802875306 -91.3151119682434 0 -91.3151119682434 -30.545626304490611 0 0 0 0 61.141454360456237 -2.4069187802657552 0 -2.4069187802657552 -26.815053605820822 0 0 0 0 166.00800418539484 22.211577073829858 0 22.211577073829858 -74.263795524945635 0 0 0 0 83.311771512147004 -19.673891653029045 0 -19.673891653029045 -91.598055927240694 0 0 0 0 138.97548938492196 -2.1004368506355604 0 -2.1004368506355604 -95.762615896093848 0 0 0 0 65.450570736817099 -36.893569140178897 0 -36.893569140178897 -107.97011504277248 0 0 0 0 21.707214219612013 2.2898511853853969 0 2.2898511853853969 -0.58733209423665667 0 0 0 0 49.288290854144947 -8.7286731035633238 0 -8.7286731035633238 -70.468382740837114 0 0 0 0 52.136116537716767 -26.870172948030728 0 -26.870172948030728 -83.225311841830944 0 0 0 0 47.796705972592378 -30.620479698466397 0 -30.620479698466397 -77.62219902907259 0 0 0 0 59.730562806579371 -50.784365974009745 0 -50.784365974009745 -88.082437688871096 0 0 0 0 51.383215322711521 -26.195715184585083 0 -26.195715184585083 -102.60287218570522 0 0 0 0 48.536909592649664 -31.112294477758553 0 -31.112294477758553 -97.847368389897611 0 0 0 0 53.056584300011536 -20.310981134650206 0 -20.310981134650206 -102.82250486105272 0 0 0 0 43.636940570124352 -19.772288226324349 0 -19.772288226324349 -98.450959842171869 0 0 0 0 59.883300065747335 -26.796185072754042 0 -26.796185072754042 -113.4832530304609 0 0 0 0 40.484105311325266 -5.0314559094663878 0 -5.0314559094663878 -117.38927987970146 0 0 0 0 43.278774462877209 -20.228498204437528 0 -20.228498204437528 -97.861901691855564 0 0 0 0 49.753664760420513 -12.343055313431137 0 -12.343055313431137 -102.90848158785855 0 0 0 0 43.484946930391516 -23.856752868431158 0 -23.856752868431158 -90.649684800088494 0 0 0 0 50.916060925431367 -17.754835403462494 0 -17.754835403462494 -109.99743960833848 0 0 0 0 87.859491347555377 -2.4824576588005129 0 -2.4824576588005129 -49.087090328285285 0 0 0 0 51.978790952693707 -2.9151277051581088 0 -2.9151277051581088 0.27652350291448502 0 0 0 0 70.70461017144271 -44.20734996242453 0 -44.20734996242453 14.276578748278098 0 0 0 0 57.743733091940612 53.444612353612982 0 53.444612353612982 91.608610179521747 0 0 0 0 19.095485706104228 -54.046212128711318 0 -54.046212128711318 235.79508134836496 0 0 0 0 28.370436454624723 -37.103721745733168 0 -37.103721745733168 67.020340101349262 0 0 0 0 38.386751952859413 -26.782156985507982 0 -26.782156985507982 73.375648276550237 0 0 0 0 45.155100470876278 7.2383341177048806 0 7.2383341177048806 10.217377313962288 0 0 0 0 92.781040101886902 -46.828094451489335 0 -46.828094451489335 57.954816577856548 0 0 0 0 98.010835075645446 -5.9753640666159527 0 -5.9753640666159527 -5.9973768833320094 0 0 0 0 66.980126047678738 -3.0314028982549752 0 -3.0314028982549752 -3.1266137338193554 0 0 0 0 90.176236440061984 2.8961045418477624 0 2.8961045418477624 -33.696651451390608 0 0 0 0 79.838098526641261 -4.8804621200031306 0 -4.8804621200031306 -3.8386149783144674 0 0 0 0 638.81328861772818 -136.07071963330486 0 -136.07071963330486 44.122425005097881 0 0 0 0 559.52619492683334 -393.60282911147306 0 -393.60282911147306 326.00615325315528 0 0 0 0 605.12264972117919 -163.59020600477754 0 -163.59020600477754 264.31779378037703 0 0 0 0 762.4949041407117 -320.13834702149319 0 -320.13834702149319 189.89014827073856 0 0 0 0 646.52885027322827 -440.99391947660115 0 -440.99391947660115 300.57834050549968 0 0 0 0 766.82827284219547 -275.25855089337495 0 -275.25855089337495 80.408703693377674 0 0 0 0 462.4567462350642 -155.32165985838321 0 -155.32165985838321 126.29448459282253 0 0 0 0 589.9457781608271 -150.7847419220698 0 -150.7847419220698 26.791569949606924 0 0 0 0 601.63768970240926 -224.3837560866672 0 -224.3837560866672 150.34635927224258 0 0 0 0 453.19898855938845 -196.53748458855182 0 -196.53748458855182 77.22039415769828 0 0 0 0 602.04080818506372 -117.85632772679119 0 -117.85632772679119 42.368180206292962 0 0 0 0 461.65587002533903 -256.22407976380197 0 -256.22407976380197 182.62927228813203 0 0 0 0 628.58009767519616 -191.78708292042356 0 -191.78708292042356 114.02458653637562 0 0 0 0 241.97019306992479 -267.64056349773409 0 -267.64056349773409 278.44531504284441 0 0 0 0 404.07531179433317 -206.63540915032806 0 -206.63540915032806 195.0791254439421 0 0 0 0 142.28275429429777 -203.72073838118365 0 -203.72073838118365 341.43323288799456 0 0 0 0 1.508910169727244 0.40323927674090321 0 0.40323927674090321 0.10987495433696282 0 0 0 0 44.16070014617253 -14.881598487050496 0 -14.881598487050496 -16.461987929647876 0 0 0 0 35.842835381445234 -0.82681292757958236 0 -0.82681292757958236 0.70831878038601725 0 0 0 0 54.348725639042186 -0.18255999267807965 0 -0.18255999267807965 -121.34881092299588 0 0 0 0 7.0444012093664767 -0.74791066474554491 0 -0.74791066474554491 0.53459088589686576 0 0 0 0 134.28196822700193 -132.29884013110473 0 -132.29884013110473 269.17795089073957 0 0 0 0 305.62071130691947 -428.26982170724091 0 -428.26982170724091 579.64110752692977 0 0 0 0 2.2423108372904395 2.131755850753672 0 2.131755850753672 2.1492674369666922 0 0 0 0 17.223311994336903 6.5510217032532658 0 6.5510217032532658 2.7258416498994169 0 0 0 0 36.482062499093416 85.947235090964654 0 85.947235090964654 -193.65757572446091 0 0 0 0 71.125859406142126 -38.082286297968835 0 -38.082286297968835 -102.82324152984097 0 0 0 0 80.447140517070238 -13.665986073179624 0 -13.665986073179624 -165.98293223541395 0 0 0 0 43.419550152266936 9.5829079617003075 0 9.5829079617003075 -130.05316567561567 0 0 0 0 46.560601766059222 -31.145506544380993 0 -31.145506544380993 -81.035270628468197 0 0 0 0 23.218133520797437 -12.578162350766206 0 -12.578162350766206 -93.444341354410597 0 0 0 0 233.48675879151142 79.955432483445861 0 79.955432483445861 -208.39365819769733 0 0 0 0 37.473040205892175 29.17567385097459 0 29.17567385097459 -165.85682257982421 0 0 0 0 188.10056099156282 -94.308167763164619 0 -94.308167763164619 -105.72457176957897 0 0 0 0 -116.34531010154296 169.98374605300228 0 169.98374605300228 -146.69829663530697 0 0 0 0 31.391889794313101 19.354202940487127 0 19.354202940487127 -252.58176326290985 0 0 0 0 486.4946702052348 -400.8153413590303 0 -400.8153413590303 350.89184405156743 0 0 0 0 1127.1160870794201 -797.02943677571761 0 -797.02943677571761 395.07146791009689 0 0 0 0 556.48239376817673 -453.95739873798806 0 -453.95739873798806 322.19460101987465 0 0 0 0 5.7784341463579061 2.6466069758358857 0 2.6466069758358857 1.0262352105252832 0 0 0 0 -33.166727954480393 271.03120960181309 0 271.03120960181309 -280.54043031795254 0 0 0 0 1178.8356878789302 -170.11506747612123 0 -170.11506747612123 79.097897971334532 0 0 0 0 975.16831418478523 -206.54594123670449 0 -206.54594123670449 -89.097188743788251 0 0 0 0 383.78060196395472 -57.622169549464644 0 -57.622169549464644 -100.46420429163959 0 0 0 0 678.0342381048813 284.35888835209789 0 284.35888835209789 -306.03808276055054 0 0 0 0 -102.58265093583259 -131.79737814632517 0 -131.79737814632517 53.468854609588789 0 0 0 0 0.060692222563104359 -0.91060790133448855 0 -0.91060790133448855 -3.265215409923973 0 0 0 0 328.5110374052424 90.817647944957869 0 90.817647944957869 -4.6253929785443404 0 0 0 0 466.34330701328508 47.767509410483015 0 47.767509410483015 -44.732663863993736 0 0 0 0 221.17208238574221 -8.3064339797734874 0 -8.3064339797734874 -25.881006496753628 0 0 0 0 2.3119617353876531 -0.43248291674639683 0 -0.43248291674639683 -0.076291769854984232 0 0 0 0 35.297976327795254 52.770741624381685 0 52.770741624381685 -39.492413537586643 0 0 0 0 43.741092621285645 -89.151979571692095 0 -89.151979571692095 12.51678641060073 0 0 0 0 186.79434197537375 143.76303200475741 0 143.76303200475741 49.921225387804554 0 0 0 0 31.022589940168341 56.479289846703644 0 56.479289846703644 180.08605254822783 0 0 0 0 215.38382989297543 -162.19922253125048 0 -162.19922253125048 29.020186288577179 0 0 0 0 -15.239312357502286 -3.1859480150678223 0 -3.1859480150678223 -40.830491361959048 0 0 0 0 103.83789260931962 -20.712164355454433 0 -20.712164355454433 -75.008748452599434 0 0 0 0 120.94326727532891 34.805346093668533 0 34.805346093668533 -75.647818707540864 0 0 0 0 31.294474449639438 37.687069925232322 0 37.687069925232322 -20.169562878207898 0 0 0 0 161.30999759233964 -44.631434899829401 0 -44.631434899829401 -37.586982302243996 0 0 0 0 158.78967721117988 -47.437642374355164 0 -47.437642374355164 -1.3181212274976133 0 0 0 0 126.19411804867559 -11.74199832045997 0 -11.74199832045997 -6.1692532478027715 0 0 0 0 58.11034511816807 24.831522418023553 0 24.831522418023553 -33.527006715378455 0 0 0 0 46.014614970637467 -22.191709842208638 0 -22.191709842208638 -56.927171606944739 0 0 0 0 60.311887757263321 15.49716619795845 0 15.49716619795845 -13.708687923188336 0 0 0 0 59.492793456260642 23.388045251892891 0 23.388045251892891 -77.707599687269635 0 0 0 0 35.262245766705746 5.6787654470335838 0 5.6787654470335838 -12.049199140074052 0 0 0 0 27.830104108768356 20.151885341533109 0 20.151885341533109 -21.808211965422831 0 0 0 0 7.440273200112749 30.330046691159019 0 30.330046691159019 -18.131290693396174 0 0 0 0 55.10956229943551 23.758924580820263 0 23.758924580820263 -24.212085418565078 0 0 0 0 -46.08043549563331 45.544918361252599 0 45.544918361252599 -41.525562032602465 0 0 0 0 177.92214316431637 16.442764331182843 0 16.442764331182843 -17.243293526216803 0 0 0 0 165.37131093159587 -12.098273497429091 0 -12.098273497429091 -30.633178782511095 0 0 0 0 152.91020229746937 -12.523101773085727 0 -12.523101773085727 -8.9084132777375089 0 0 0 0 154.57070576958358 -8.2375994526883005 0 -8.2375994526883005 -24.362473039344877 0 0 0 0 172.94104286542733 -7.2113726231498276 0 -7.2113726231498276 -68.364363639917428 0 0 0 0 111.93242311899303 -37.659790734795934 0 -37.659790734795934 -39.843623160488278 0 0 0 0 0.47737046076143796 -0.82631164262100931 0 -0.82631164262100931 -0.96366163828290774 0 0 0 0 215.36639309046086 -0.97190338911696017 0 -0.97190338911696017 -2.8888555639832703 0 0 0 0 216.92055508277008 1.4724732225110415 0 1.4724732225110415 -9.0276539112028331 0 0 0 0 7.419189934255245 0.36065940064001989 0 0.36065940064001989 -9.208748433496222 0 0 0 0 222.37557169008733 3.0534673629784947 0 3.0534673629784947 -22.686831766621708 0 0 0 0 -8.1849573467806405 4.3756320800973523 0 4.3756320800973523 -1.2653153140095972 0 0 0 0 211.14650814265497 10.663384971379855 0 10.663384971379855 -8.9971462946491485 0 0 0 0 0.52017317512934302 -0.97485408393303263 0 -0.97485408393303263 -2.587935601445337 0 0 0 0 229.51287220453136 11.788905357484246 0 11.788905357484246 -12.802390175811752 0 0 0 0 212.72027713372927 6.9105767118030599 0 6.9105767118030599 -54.813035992535816 0 0 0 0 -98.066589695012681 -86.130117872006139 0 -86.130117872006139 85.757251722328022 0 0 0 0 416.44218673174964 -217.34266729100403 0 -217.34266729100403 109.61281727113769 0 0 0 0 495.87805130236438 -176.38325791500833 0 -176.38325791500833 0.736874056336287 0 0 0 0 1.8237580231092663 -2.2711771351773162 0 -2.2711771351773162 1.3306979520835629 0 0 0 0 874.47082347550213 24.732755502754515 0 24.732755502754515 -13.514946773057217 0 0 0 0 469.34680124580245 -48.25815290842985 0 -48.25815290842985 80.802816724255365 0 0 0 0 591.35143261681765 -251.25837214229435 0 -251.25837214229435 225.67562642332393 0 0 0 0 357.91441762651039 -96.992792805360182 0 -96.992792805360182 231.85130232478446 0 0 0 0 306.02004907600895 23.36065202276626 0 23.36065202276626 200.97439228617463 0 0 0 0 311.86772627607661 -124.45022345705745 0 -124.45022345705745 215.56067675009618 0 0 0 0 359.40876956522879 -51.606857632112806 0 -51.606857632112806 179.78608292752304 0 0 0 0 68.88183210158968 -161.90728786220365 0 -161.90728786220365 139.07043617819915 0 0 0 0 160.06235198360355 83.605988961940909 0 83.605988961940909 156.60433292639598 0 0 0 0 220.48022971350292 -102.02443926271258 0 -102.02443926271258 -120.52278410604004 0 0 0 0 188.82187927612813 -73.696640443213823 0 -73.696640443213823 -73.309377906389983 0 0 0 0 339.6518836090454 -268.51680359243994 0 -268.51680359243994 -51.926287863924472 0 0 0 0 491.24955257557485 -301.94308040876768 0 -301.94308040876768 -18.684096555057387 0 0 0 0 617.4850539789586 -298.52652972644853 0 -298.52652972644853 -19.798718832626008 0 0 0 0 585.36409329900971 -223.52952674523624 0 -223.52952674523624 -82.142253636241989 0 0 0 0 350.95849572655447 -125.47660677355464 0 -125.47660677355464 -17.504897795562503 0 0 0 0 396.81766317316533 -211.24146230939087 0 -211.24146230939087 1.1280848105590024 0 0 0 0 -15.851391762883623 -21.596295402081978 0 -21.596295402081978 -24.455478935154588 0 0 0 0 36.394585778216424 25.566769804398973 0 25.566769804398973 27.517091719651944 0 0 0 0 45.894939690349929 22.423949502116102 0 22.423949502116102 1.738689530305237 0 0 0 0 5.7448203781721965 7.7614095664795961 0 7.7614095664795961 12.403810489550024 0 0 0 0 57.702881735840492 8.8836033534780654 0 8.8836033534780654 5.5781893383609713 0 0 0 0 -32.907741823808692 13.911667553656429 0 13.911667553656429 24.671187808603008 0 0 0 0 9.6704507230460877 3.4518718436365816 0 3.4518718436365816 -4.1411848812222161 0 0 0 0 11.275166826683867 8.3755278016023418 0 8.3755278016023418 4.1638390943096617 0 0 0 0 20.890288628565031 -1.9171501306955179 0 -1.9171501306955179 -3.7583675980640692 0 0 0 0 9.701747120925905 0.65908949353921109 0 0.65908949353921109 -0.90224951649684648 0 0 0 0 22.023253130456229 14.145715239186057 0 14.145715239186057 2.786839634614978 0 0 0 0 4.139308571966609 5.934932380925277 0 5.934932380925277 8.5790414601627205 0 0 0 0 182.01137076260966 18.476631059227429 0 18.476631059227429 8.0651125356476427 0 0 0 0 160.24196182472406 -69.271002751130254 0 -69.271002751130254 91.303589401024055 0 0 0 0 301.08053438721981 -46.824087976611054 0 -46.824087976611054 45.452888695898537 0 0 0 0 20.611388994631852 -68.352807460237045 0 -68.352807460237045 30.494226279332679 0 0 0 0 31.229602805045943 85.412465412424581 0 85.412465412424581 240.99577042727151 0 0 0 0 2.0090032510020386 2.1646121881994489 0 2.1646121881994489 2.9753186996573859 0 0 0 0 604.62250119142027 161.27923501212109 0 161.27923501212109 128.27514314188934 0 0 0 0 709.48536283729663 -126.75673541531751 0 -126.75673541531751 34.983091880257689 0 0 0 0 457.20586100143555 16.335336976273425 0 16.335336976273425 73.635735740471716 0 0 0 0 380.72242659020139 -128.85776282874895 0 -128.85776282874895 22.327307221235969 0 0 0 0 256.96256617116978 -133.32498978510318 0 -133.32498978510318 64.70511634112404 0 0 0 0 384.69155581973882 39.490957104247627 0 39.490957104247627 128.24819995776039 0 0 0 0 387.28919988066536 50.018837602579652 0 50.018837602579652 89.160609393739833 0 0 0 0 291.2996222700649 4.2707273517487767 0 4.2707273517487767 180.50102504132104 0 0 0 0 273.27673397379317 150.3006107498868 0 150.3006107498868 383.56028561237622 0 0 0 0 317.51184917160936 66.947536802573609 0 66.947536802573609 -43.735955008864948 0 0 0 0 210.0818549575024 142.40924804462441 0 142.40924804462441 35.447843038687438 0 0 0 0 331.2763390402888 415.7522352588021 0 415.7522352588021 -78.171989908411433 0 0 0 0 338.66814460111345 146.32117599126354 0 146.32117599126354 -29.698428219963944 0 0 0 0 647.20752872719822 -8.0548725715547675 0 -8.0548725715547675 86.345562231254235 0 0 0 0 497.54023700063135 375.11477130043949 0 375.11477130043949 31.454140530342698 0 0 0 0 60.796425064250798 77.760509012952241 0 77.760509012952241 79.613534845805134 0 0 0 0 119.2263270674448 263.60794163493824 0 263.60794163493824 299.00944914833627 0 0 0 0 148.79216529188125 124.51712941959897 0 124.51712941959897 72.723582808756703 0 0 0 0 469.7662719479431 327.02888835005433 0 327.02888835005433 -24.176875464701652 0 0 0 0 583.59496350382324 575.31686800641364 0 575.31686800641364 -17.95219388435271 0 0 0 0 1180.7199439173892 224.84254261776846 0 224.84254261776846 -329.57611985668581 0 0 0 0 373.74709380274089 -2.0578171586712131 0 -2.0578171586712131 -345.73262056021781 0 0 0 0 -59.457208834694029 17.11884489615943 0 17.11884489615943 0.015613830219137981 0 0 0 0 0.2533354342522216 26.847493244885754 0 26.847493244885754 -6.0129286889575724 0 0 0 0 -13.249201029233973 29.663040456793283 0 29.663040456793283 12.372475709030368 0 0 0 0 2.4804649852558214 16.038088816453183 0 16.038088816453183 9.6359778563364671 0 0 0 0 0.69240899078664597 6.3127150362388242 0 6.3127150362388242 13.735546587658217 0 0 0 0 -13.206916254881435 146.08773713358789 0 146.08773713358789 -8.1618903532348668 0 0 0 0 -105.1018116161431 3.020673353093116 0 3.020673353093116 -68.629518026546506 0 0 0 0 1.7525101148857667 5.3439036344596005 0 5.3439036344596005 10.619312871842482 0 0 0 0 -130.89168850989154 76.352687330925704 0 76.352687330925704 -1.4046088930940073 0 0 0 0 -11.854644001781708 45.85016015949725 0 45.85016015949725 -34.639913968112978 0 0 0 0 -1.4666013062833372 75.596076201040319 0 75.596076201040319 -40.163105976713268 0 0 0 0 -35.349389545383019 95.121349057675076 0 95.121349057675076 -75.794814398893266 0 0 0 0 -4.5225460616875353 456.46355424440094 0 456.46355424440094 -29.615912532301991 0 0 0 0 1251.4674508511707 -226.87946913166991 0 -226.87946913166991 -85.926544883227507 0 0 0 0 1043.9200904047921 342.05963287715645 0 342.05963287715645 517.27549717625061 0 0 0 0 1068.7003990257726 -400.96488442476482 0 -400.96488442476482 162.73245511940422 0 0 0 0 3.796455550717436 4.21550383004538 0 4.21550383004538 1.0450330335180995 0 0 0 0 908.96024857556404 -153.96205212284769 0 -153.96205212284769 -48.782206989776114 0 0 0 0 -3.6887350517193127 2.0215003074349793 0 2.0215003074349793 -0.4541149053938156 0 0 0 0 1291.3842339143848 -103.61779555100316 0 -103.61779555100316 -240.37394277943849 0 0 0 0 910.69225954613103 -149.36275932289823 0 -149.36275932289823 -39.92754960043726 0 0 0 0 -8.4692714043994783 -147.96135463211817 0 -147.96135463211817 131.72662092868677 0 0 0 0 25.316624060945287 3.0977187134842552 0 3.0977187134842552 -273.61844078301056 0 0 0 0 -159.80375697981162 47.605086080199897 0 47.605086080199897 -73.908106688565567 0 0 0 0 133.31333954421279 182.22051439228517 0 182.22051439228517 -12.760795794911019 0 0 0 0 54.800869399692147 -45.009101635696538 0 -45.009101635696538 -75.960276516228987 0 0 0 0 51.517921613636645 -17.266676764462318 0 -17.266676764462318 -118.4900501127936 0 0 0 0 9.7246157930198294 12.539909706139406 0 12.539909706139406 10.082592201158391 0 0 0 0 55.834409263461566 -21.131501657391027 0 -21.131501657391027 -181.93395667115783 0 0 0 0 -10.928387007996207 152.5199404947698 0 152.5199404947698 -285.73302605451602 0 0 0 0 -0.84929648362231092 -3.9227789918045346 0 -3.9227789918045346 -91.945877861289773 0 0 0 0 -85.688486762737739 77.944801958725975 0 77.944801958725975 -107.71844802256692 0 0 0 0 11.865905723438956 -11.669597693399981 0 -11.669597693399981 -10.78142031918885 0 0 0 0 2.5929355625885364 -2.5318868023439336 0 -2.5318868023439336 -119.45458167379775 0 0 0 0 -26.02794971343792 220.42478939072322 0 220.42478939072322 41.777978517238807 0 0 0 0 23.176195361934873 10.458587247716267 0 10.458587247716267 -22.06889213737243 0 0 0 0 144.12769722627183 -132.70299380463541 0 -132.70299380463541 -175.27628695136991 0 0 0 0 114.23976338552711 -211.37927416013508 0 -211.37927416013508 -77.293462147526043 0 0 0 0 88.815231012466683 -42.595575307825598 0 -42.595575307825598 11.936141894334785 0 0 0 0 -4.6263865606306354 17.495837234199314 0 17.495837234199314 233.67355688795442 0 0 0 0 31.08800815223367 65.025069543559766 0 65.025069543559766 33.118235043179084 0 0 0 0 815.99263839594096 254.84836271395147 0 254.84836271395147 114.13486690159925 0 0 0 0 0.8503006487814373 0.96150863342349524 0 0.96150863342349524 3.9704458033295751 0 0 0 0 248.36081541120075 -129.53090334142871 0 -129.53090334142871 -116.97606334074501 0 0 0 0 423.87225489823686 -56.374733172280685 0 -56.374733172280685 -118.93227161949653 0 0 0 0 90.045174891598435 60.990951448218766 0 60.990951448218766 -15.562771209171046 0 0 0 0 470.5267502484644 161.46114465642188 0 161.46114465642188 -14.25076576561878 0 0 0 0 274.97805140773016 290.51639508731705 0 290.51639508731705 100.84224710310173 0 0 0 0 127.07061691973286 208.64904077848041 0 208.64904077848041 75.517967203223179 0 0 0 0 -384.48888569491783 152.54334127736379 0 152.54334127736379 131.82349083519148 0 0 0 0 -62.382867376167269 302.57343831054459 0 302.57343831054459 123.33561028763768 0 0 0 0 78.250488268909976 81.440030442090688 0 81.440030442090688 -0.69175574170549226 0 0 0 0 207.19998929561461 11.92170551354593 0 11.92170551354593 81.171244751052058 0 0 0 0 369.75798258662689 -187.7458045570869 0 -187.7458045570869 78.490137811575948 0 0 0 0 503.12095676676654 -111.4748132617342 0 -111.4748132617342 133.26568959896358 0 0 0 0 701.05962114815884 -310.32447416492278 0 -310.32447416492278 182.87002937301003 0 0 0 0 441.30895085556858 -70.487762644699558 0 -70.487762644699558 213.30225394427589 0 0 0 0 625.63557666034217 -281.99270614532367 0 -281.99270614532367 119.02933200680309 0 0 0 0 394.36239655736244 -233.26265994024027 0 -233.26265994024027 200.13150704085479 0 0 0 0 668.80209995225778 -107.93050330497681 0 -107.93050330497681 359.198322286451 0 0 0 0 630.26791033038899 -361.5954784288682 0 -361.5954784288682 279.34725727552677 0 0 0 0 136.64845667991358 -47.516576355278374 0 -47.516576355278374 155.98682922071066 0 0 0 0 393.13171279774815 -256.71119055474674 0 -256.71119055474674 15.730948976075297 0 0 0 0 -0.39041150249398804 -1.1893561325521009 0 -1.1893561325521009 -2.283227855596154 0 0 0 0 -58.52037950993963 -61.35463258012669 0 -61.35463258012669 68.958704531950957 0 0 0 0 92.613128322371381 -114.89201562664789 0 -114.89201562664789 -34.19578582190843 0 0 0 0 57.635337445960431 -144.91559234320493 0 -144.91559234320493 -59.826158284544135 0 0 0 0 16.726701328844229 -2.9556852608760664 0 -2.9556852608760664 -18.193163086751156 0 0 0 0 111.45992542514978 28.177966745092817 0 28.177966745092817 -85.345436526849426 0 0 0 0 -155.9745391801498 27.836524710869298 0 27.836524710869298 116.95398211769634 0 0 0 0 -1.1356243000009316 -2.5771563705005143 0 -2.5771563705005143 -7.5374265028174294 0 0 0 0 151.25146762938243 -47.237675291722184 0 -47.237675291722184 -55.907925431915601 0 0 0 0 191.32486000715016 -67.15989239758801 0 -67.15989239758801 -77.020945198293703 0 0 0 0 -18.09123192453535 5.2166597280961469 0 5.2166597280961469 34.428340247741744 0 0 0 0 -22.472361442838519 171.85548541779804 0 171.85548541779804 -105.40593452485109 0 0 0 0 -1.9566415345389032 107.45557913118455 0 107.45557913118455 -99.350935062982899 0 0 0 0 14.31373659599975 14.832977171828878 0 14.832977171828878 13.112574909506215 0 0 0 0 15.066683982262475 108.37525543656511 0 108.37525543656511 -139.52244685253029 0 0 0 0 0.16514825895683316 202.56333205993781 0 202.56333205993781 -81.866999411284269 0 0 0 0 -4.2072794114665157 39.15477518643138 0 39.15477518643138 -32.243878502227744 0 0 0 0 5.870737561621354 31.564496501499889 0 31.564496501499889 -138.7308903051935 0 0 0 0 -20.004570623137624 53.923171055786725 0 53.923171055786725 -162.43384186578521 0 0 0 0 83.416176281371435 19.374223992292169 0 19.374223992292169 -41.085983839426014 0 0 0 0 146.63261504190569 86.501119145185498 0 86.501119145185498 -131.63985755147951 0 0 0 0 16.98827859444993 17.042108157228657 0 17.042108157228657 11.989865977621982 0 0 0 0 4.2904877345828298 -1.3536005293549689 0 -1.3536005293549689 -15.707959503076848 0 0 0 0 92.662786802395203 35.927421559281584 0 35.927421559281584 -82.386337061820086 0 0 0 0 -40.884881455702271 173.67427354610288 0 173.67427354610288 -123.2363698228919 0 0 0 0 121.91340692759013 -85.842323372598827 0 -85.842323372598827 33.807624012523831 0 0 0 0 -79.361149485483111 114.78419947423413 0 114.78419947423413 27.432224179573268 0 0 0 0 149.14238226547786 -91.944521643076939 0 -91.944521643076939 -58.039824968282119 0 0 0 0 436.68704912100111 -194.80537702036355 0 -194.80537702036355 68.81640161253722 0 0 0 0 440.07467073492353 -185.2591680709088 0 -185.2591680709088 71.548970936829846 0 0 0 0 320.14025322693124 6.4338234659524574 0 6.4338234659524574 -12.118754619249202 0 0 0 0 427.22153773871287 -86.512711898728327 0 -86.512711898728327 -39.446618077525116 0 0 0 0 157.10930019632178 -137.27340492298293 0 -137.27340492298293 108.96531154191348 0 0 0 0 375.74140578373499 -204.78422370373221 0 -204.78422370373221 25.352518784503559 0 0 0 0 -20.289976866924462 52.639655128456177 0 52.639655128456177 135.6995469607341 0 0 0 0 4.9570296175751771 2.4489627911158554 0 2.4489627911158554 1.6838485543487174 0 0 0 0 -87.072789743092471 220.93250320875285 0 220.93250320875285 118.08467146830685 0 0 0 0 -12.765610296039199 105.17288393058818 0 105.17288393058818 -155.36066986503693 0 0 0 0 -105.84557005438 276.36656171697393 0 276.36656171697393 -6.0381498579131403 0 0 0 0 -171.63456113310986 178.06048250232834 0 178.06048250232834 -113.17833456809097 0 0 0 0 99.365575177459348 33.432564822633836 0 33.432564822633836 -28.661513542270956 0 0 0 0 -155.2363963406624 295.5864608063423 0 295.5864608063423 -173.76267946677945 0 0 0 0 4.8583462221350775 1.7942926836806627 0 1.7942926836806627 -3.0435725119253858 0 0 0 0 12.610584724841154 8.2135679886263429 0 8.2135679886263429 2.038056389596024 0 0 0 0 45.890694299821917 10.500963111343708 0 10.500963111343708 -58.067022196760718 0 0 0 0 120.954407114471 73.291359408934227 0 73.291359408934227 -68.879245866296003 0 0 0 0 -3.5068781903685249 163.26846342843018 0 163.26846342843018 -26.855722658439845 0 0 0 0 81.604615398915612 31.779552995487791 0 31.779552995487791 -35.112125367919845 0 0 0 0 -120.03520246070366 104.92557515317958 0 104.92557515317958 -102.67399670450911 0 0 0 0 177.52436760387354 118.19070936157459 0 118.19070936157459 179.09322853460617 0 0 0 0 308.92854102480487 -0.077523307924820983 0 -0.077523307924820983 -152.04780008236776 0 0 0 0 3.7428482945251744 -38.189428499427777 0 -38.189428499427777 45.83903529777308 0 0 0 0 184.69570408240361 -130.69822511032908 0 -130.69822511032908 144.9009578968089 0 0 0 0 129.65316951167188 2.1806317327773286 0 2.1806317327773286 28.71502787364625 0 0 0 0 18.311201309697935 -54.957283231564361 0 -54.957283231564361 46.346694908479549 0 0 0 0 119.56739141739672 -54.619200263301536 0 -54.619200263301536 -93.682628161822777 0 0 0 0 139.30756846084114 -103.03429719929181 0 -103.03429719929181 63.319365705253631 0 0 0 0 125.99931261777965 -7.7293847825011426 0 -7.7293847825011426 55.881051701515389 0 0 0 0 187.30332950466254 -4.3796582706609115 0 -4.3796582706609115 -9.6066034421424504 0 0 0 0 194.5038859870001 -77.263605235441219 0 -77.263605235441219 41.176636021531522 0 0 0 0 207.45509796057195 -108.47841223624164 0 -108.47841223624164 80.751642342025661 0 0 0 0 220.3016322897638 -129.05083292783888 0 -129.05083292783888 41.934387430700554 0 0 0 0 206.56794767696738 -138.61804327862797 0 -138.61804327862797 126.3712476101673 0 0 0 0 214.66700312860485 -130.99544156934508 0 -130.99544156934508 53.299150273996929 0 0 0 0 218.93490357163682 -95.529685348803923 0 -95.529685348803923 -50.54354886910005 0 0 0 0 193.83156785846222 -83.588453929700336 0 -83.588453929700336 -10.351024958168637 0 0 0 0 180.21305501105599 -41.450665720256893 0 -41.450665720256893 -99.310125131787572 0 0 0 0 63.17668033958762 -30.75904882219038 0 -30.75904882219038 -31.46414855555031 0 0 0 0 117.60821349106845 -63.159392845111142 0 -63.159392845111142 -74.63375402187512 0 0 0 0 33.731896391310329 68.446597050781065 0 68.446597050781065 -134.01816768092431 0 0 0 0 15.940269212488758 -19.282789476607846 0 -19.282789476607846 -34.347074689643804 0 0 0 0 137.95491786788807 -22.513085363458572 0 -22.513085363458572 -177.80539267360109 0 0 0 0 138.00868466236798 26.04516148815047 0 26.04516148815047 -6.7928417275384447 0 0 0 0 157.12112981852988 -47.062296882092596 0 -47.062296882092596 -45.8537134172675 0 0 0 0 49.570975259433908 148.09371201097565 0 148.09371201097565 -42.867321182415253 0 0 0 0 -4.3331355799544156 14.40289318226896 0 14.40289318226896 -9.064690285705014 0 0 0 0 -15.505650752369547 -71.586654058018212 0 -71.586654058018212 6.0184683056013455 0 0 0 0 -46.510774267866509 -107.06201133321974 0 -107.06201133321974 208.88621639685152 0 0 0 0 10.425742915856162 -9.5219624737877897 0 -9.5219624737877897 1.6812886075054614 0 0 0 0 -12.158435812816606 -153.61791153613103 0 -153.61791153613103 267.27398414441086 0 0 0 0 150.36323961629228 146.30435645854953 0 146.30435645854953 90.484662152192868 0 0 0 0 49.056877909390721 -15.057358730928442 0 -15.057358730928442 3.7666909094039731 0 0 0 0 147.17372242391866 171.75309346947688 0 171.75309346947688 107.86400321154269 0 0 0 0 -12.230391915292103 -2.5918991985137296 0 -2.5918991985137296 124.19632654817542 0 0 0 0 -2.1134566849832481 -141.66327662818276 0 -141.66327662818276 -17.496761913059345 0 0 0 0 64.833554371922261 -32.450717560036693 0 -32.450717560036693 14.428471943770283 0 0 0 0 7.9884201646585211 -4.5954268927930499 0 -4.5954268927930499 0.60936312273807358 0 0 0 0 40.725244105240563 -132.91837510947335 0 -132.91837510947335 -130.5853451598631 0 0 0 0 2.2108347314076582 -49.875144243230324 0 -49.875144243230324 195.88256977368655 0 0 0 0 246.58720267872559 -43.749576478810923 0 -43.749576478810923 -140.85934819233353 0 0 0 0 83.432082061182882 -197.29752396171807 0 -197.29752396171807 423.32258762923448 0 0 0 0 382.32320524275565 -242.42486220433966 0 -242.42486220433966 94.005726600288654 0 0 0 0 410.22909060643724 79.663714503964911 0 79.663714503964911 -97.157677412300472 0 0 0 0 372.64485437983967 -61.341549178799596 0 -61.341549178799596 52.647697976837662 0 0 0 0 3.035108307993454 -3.4626798509253121 0 -3.4626798509253121 0.55147970223519049 0 0 0 0 353.67758378305734 40.687160967568616 0 40.687160967568616 -240.04346240684868 0 0 0 0 215.95873964958173 -150.88311634356745 0 -150.88311634356745 331.22463126889124 0 0 0 0 211.24244441794508 -108.66187981822304 0 -108.66187981822304 76.357397282609782 0 0 0 0 400.29586710804142 -203.86659130931366 0 -203.86659130931366 103.54609676357813 0 0 0 0 164.02156759841091 139.14932877699221 0 139.14932877699221 112.14183396732369 0 0 0 0 181.41991750690022 -325.61387287996598 0 -325.61387287996598 115.26994658304466 0 0 0 0 -110.40788529861675 -248.39607257280659 0 -248.39607257280659 294.20724235315993 0 0 0 0 -96.956835671117005 -109.86674481895875 0 -109.86674481895875 204.94362627665794 0 0 0 0 0.0020088145383283518 -2.077079286764004 0 -2.077079286764004 5.2716358286165974 0 0 0 0 421.13116818753042 -20.898154967101163 0 -20.898154967101163 16.217653938450894 0 0 0 0 -300.76605861603639 -179.12367942435128 0 -179.12367942435128 151.00037948646423 0 0 0 0 -78.679407922514656 -159.32895412429207 0 -159.32895412429207 146.04610231643107 0 0 0 0 -82.025971946819482 -161.08122480875909 0 -161.08122480875909 -154.24024459392103 0 0 0 0 -105.33240852622112 -183.20168260538594 0 -183.20168260538594 258.04938798711191 0 0 0 0 -178.0281853822089 -172.86377596445482 0 -172.86377596445482 261.40992408553575 0 0 0 0 -122.09812246725778 -134.5889180886561 0 -134.5889180886561 344.55333978825297 0 0 0 0 5.7916418496153028 -6.0582694059621645 0 -6.0582694059621645 10.648739670254361 0 0 0 0 -1.3009229036251782 -4.1904191879211794 0 -4.1904191879211794 18.536647934790381 0 0 0 0 5.8438529763952829 5.2732287760500185 0 5.2732287760500185 10.195764653657534 0 0 0 0 43.409764331479892 53.560063732113854 0 53.560063732113854 22.1899488180361 0 0 0 0 31.132035080126201 -5.7625539257898595 0 -5.7625539257898595 -3.7819234459749111 0 0 0 0 15.25566184829222 0.97767478032528743 0 0.97767478032528743 -6.8043885182596568 0 0 0 0 25.334683948036311 -5.9577689267764526 0 -5.9577689267764526 4.5434410500583304 0 0 0 0 1.3464306148495098 -0.3914372095544465 0 -0.3914372095544465 3.3631744850898619 0 0 0 0 33.488100537045739 -23.511630410327371 0 -23.511630410327371 -134.60133950768113 0 0 0 0 -2.4289634970018597 0.21547035707175155 0 0.21547035707175155 48.219550919928224 0 0 0 0 230.59054953401937 54.14428685043822 0 54.14428685043822 -4.478647744951104 0 0 0 0 -0.42742479214746254 -0.95659772219164552 0 -0.95659772219164552 1.2196600199856764 0 0 0 0 154.85820477637026 108.91029677224333 0 108.91029677224333 79.873401477372454 0 0 0 0 41.443636040901765 13.592622481608714 0 13.592622481608714 23.047507298914752 0 0 0 0 100.76112184568774 -17.751776036192041 0 -17.751776036192041 -10.984135878539746 0 0 0 0 123.46742114378139 -61.514955523457502 0 -61.514955523457502 -49.900796671825447 0 0 0 0 135.81821998235682 -39.440776776191797 0 -39.440776776191797 72.992891740442246 0 0 0 0 157.63494263055327 -68.986513778672816 0 -68.986513778672816 28.451573460048621 0 0 0 0 309.80648082886546 -71.846684617911933 0 -71.846684617911933 75.889015972069501 0 0 0 0 210.91590613813605 -129.89926008305656 0 -129.89926008305656 74.994135777876636 0 0 0 0 246.25930990128836 -168.95951543717138 0 -168.95951543717138 98.411929571885594 0 0 0 0 224.79094141491078 -217.91429015735412 0 -217.91429015735412 89.729545097748996 0 0 0 0 125.50731323665241 -162.84291529781149 0 -162.84291529781149 100.82939138471556 0 0 0 0 175.40229767577875 -250.19127260434448 0 -250.19127260434448 109.35874312828855 0 0 0 0 189.18931171762961 -202.23652590776646 0 -202.23652590776646 105.48381580037858 0 0 0 0 161.38771979810917 -142.47297814948809 0 -142.47297814948809 95.024909546791605 0 0 0 0 80.016073907216196 -92.186376396169635 0 -92.186376396169635 66.215294459691449 0 0 0 0 47.315832773554575 -205.09372627888945 0 -205.09372627888945 147.55871214136459 0 0 0 0 27.715081800677581 -83.498093554788284 0 -83.498093554788284 82.345546376879611 0 0 0 0 -75.174785326016718 20.32117823967701 0 20.32117823967701 4.1691477784593189 0 0 0 0 -149.01608624569781 -165.72387283541548 0 -165.72387283541548 175.76667352361073 0 0 0 0 132.15188622462301 -329.03413001066724 0 -329.03413001066724 227.24281441401217 0 0 0 0 51.748667027291958 -155.18855886446545 0 -155.18855886446545 99.795338219570112 0 0 0 0 26.261011067492291 -7.5593693434904878 0 -7.5593693434904878 -5.1880631948656628 0 0 0 0 2.5628104135564627 1.8478533406772399 0 1.8478533406772399 0.21599595212137546 0 0 0 0 13.977772320278746 -136.0511518173343 0 -136.0511518173343 309.11714136993305 0 0 0 0 8.3585386307895533 -66.920375350088534 0 -66.920375350088534 -242.61186393375829 0 0 0 0 3.6609745110132508 -2.2204988320038055 0 -2.2204988320038055 -2.4850615876271833 0 0 0 0 67.179095079147373 8.3791055263768612 0 8.3791055263768612 -109.07817704452646 0 0 0 0 30.989124779785925 -7.672443007181414 0 -7.672443007181414 -7.4803415847940187 0 0 0 0 23.385810802455126 0.078633921094819925 0 0.078633921094819925 4.2313973387861097 0 0 0 0 27.496080194734446 -3.8231143629251214 0 -3.8231143629251214 0.72646891930838242 0 0 0 0 0.95256189758583787 -59.697014411450141 0 -59.697014411450141 -129.14864951387835 0 0 0 0 106.34856339602266 -82.175545350298762 0 -82.175545350298762 -129.55901222091981 0 0 0 0 56.587184349802556 -96.569573395106318 0 -96.569573395106318 -51.78759370119235 0 0 0 0 65.150991405440436 12.95093227441231 0 12.95093227441231 -75.034164318853755 0 0 0 0 8.8772311941138469 53.824798012387191 0 53.824798012387191 -6.7627656441801491 0 0 0 0 40.372311872859427 -2.6758292991044073 0 -2.6758292991044073 -5.3005043513719556 0 0 0 0 32.679054708161857 2.7863953990685104 0 2.7863953990685104 -6.6498941394083886 0 0 0 0 36.93602179800601 -6.8177067547286079 0 -6.8177067547286079 -1.989627054193305 0 0 0 0 13.377202430862397 6.7383696978020566 0 6.7383696978020566 -2.9265555799172649 0 0 0 0 31.698626709956443 5.9926564023987794 0 5.9926564023987794 0.27895303405512095 0 0 0 0 40.062230526255007 1.9513683752985571 0 1.9513683752985571 -10.435308550681839 0 0 0 0 25.212634069189633 3.2304321936229954 0 3.2304321936229954 -7.2158200907042165 0 0 0 0 297.18919779474527 -288.9047705864391 0 -288.9047705864391 -27.51729774994601 0 0 0 0 227.0306993125705 -264.7541504726712 0 -264.7541504726712 101.63510571011284 0 0 0 0 233.71742682895274 -270.89488836678265 0 -270.89488836678265 77.7353795130457 0 0 0 0 187.80887684079062 -177.22276511904647 0 -177.22276511904647 -145.3339965161822 0 0 0 0 261.45280072353489 -158.97144629427066 0 -158.97144629427066 -153.19331082974691 0 0 0 0 14.891730523100705 -17.720733567164189 0 -17.720733567164189 -152.66973182367428 0 0 0 0 203.98062983927957 -52.396163137792882 0 -52.396163137792882 -238.70546078778671 0 0 0 0 227.32265924624517 -89.694272662961794 0 -89.694272662961794 -129.64374804205863 0 0 0 0 210.65109764602266 -154.06277392171074 0 -154.06277392171074 -76.038123381224068 0 0 0 0 255.09594392537838 -161.27354590864525 0 -161.27354590864525 -94.849312674614339 0 0 0 0 239.59142913034339 -213.65143276509173 0 -213.65143276509173 33.484551444011231 0 0 0 0 211.79596191007477 -140.00817977658505 0 -140.00817977658505 5.4999298632119462 0 0 0 0 241.361343696939 -195.50388700428266 0 -195.50388700428266 63.693266551202214 0 0 0 0 254.81331696324924 -169.64788260614705 0 -169.64788260614705 -25.079748028341783 0 0 0 0 237.02907962439349 -204.14788624537323 0 -204.14788624537323 104.85757709336485 0 0 0 0 236.59719382605181 -196.53470447709219 0 -196.53470447709219 77.595614119334641 0 0 0 0 255.37157521191693 -175.84337789631309 0 -175.84337789631309 12.732532704292225 0 0 0 0 265.57363749817887 -229.23326900384473 0 -229.23326900384473 90.824556569203651 0 0 0 0 269.06533115118509 -206.02214869853924 0 -206.02214869853924 60.947016261969111 0 0 0 0 264.14993756146578 -224.40634091028596 0 -224.40634091028596 97.728840601200318 0 0 0 0 233.91504154608992 -204.57413845287306 0 -204.57413845287306 262.05700215937486 0 0 0 0 351.87370510643814 -278.63603330595947 0 -278.63603330595947 100.86962609595867 0 0 0 0 343.64643435063772 -162.76875932543385 0 -162.76875932543385 137.69422995506147 0 0 0 0 230.7493540852156 -225.15640019976513 0 -225.15640019976513 90.164713744616165 0 0 0 0 255.234597524337 -229.03445515160092 0 -229.03445515160092 25.677651852751751 0 0 0 0 231.5215756255202 -231.64534976803498 0 -231.64534976803498 144.68210364858669 0 0 0 0 269.89930786216246 -194.12816966451521 0 -194.12816966451521 61.698711414263016 0 0 0 0 232.79437263592263 -219.21281635093237 0 -219.21281635093237 155.1953385847205 0 0 0 0 216.53666600932775 -268.28267025945024 0 -268.28267025945024 166.82874160264146 0 0 0 0 153.56299408165796 -287.95779913707224 0 -287.95779913707224 216.69004640299386 0 0 0 0 203.3240745740186 -253.82655563851404 0 -253.82655563851404 176.7390630637633 0 0 0 0 171.6159981625824 -256.41203435876764 0 -256.41203435876764 270.87110777673297 0 0 0 0 204.40338756678102 -247.31915053431572 0 -247.31915053431572 213.26220379950792 0 0 0 0 226.91015544884431 -246.94739337626288 0 -246.94739337626288 213.19292661131112 0 0 0 0 195.71838513249531 -216.7837034501174 0 -216.7837034501174 294.72470164279753 0 0 0 0 20.127419303403428 2.4419138194494892 0 2.4419138194494892 -0.56540380591577577 0 0 0 0 206.05281675880542 -54.267061375685216 0 -54.267061375685216 74.902589194185794 0 0 0 0 388.99389090144541 -157.96386303515646 0 -157.96386303515646 21.967115546058494 0 0 0 0 207.01011513391131 -266.83810065907824 0 -266.83810065907824 229.85892192750634 0 0 0 0 238.20189941124409 -248.00347822939602 0 -248.00347822939602 198.15266898118261 0 0 0 0 232.66228993685218 -235.94400468493541 0 -235.94400468493541 230.29533105170412 0 0 0 0 -4.1055990259919781 -308.5662200801753 0 -308.5662200801753 358.09507129445046 0 0 0 0 245.37273954367265 -209.73166276942993 0 -209.73166276942993 231.90684826055843 0 0 0 0 7.1892869442493463 5.4181526561465247 0 5.4181526561465247 -3.8752323951925502 0 0 0 0 246.37725422007497 -223.84173674669 0 -223.84173674669 205.71640458059949 0 0 0 0 42.357665027171606 10.073811372608816 0 10.073811372608816 2.4105456215368122 0 0 0 0 28.384123192083678 -0.54263230260628603 0 -0.54263230260628603 -3.4283781931437636 0 0 0 0 228.31012058172928 -215.31397605033033 0 -215.31397605033033 276.60730421222257 0 0 0 0 42.610196796013497 8.0446764932777288 0 8.0446764932777288 -2.0543173418816423 0 0 0 0 33.994080857473108 12.971035487276865 0 12.971035487276865 2.4595383951538152 0 0 0 0 115.24734695612278 -242.93597332184919 0 -242.93597332184919 307.92382763969835 0 0 0 0 85.833121623742045 -291.90607668136386 0 -291.90607668136386 311.23984659751341 0 0 0 0 104.6127797971385 -367.27334657460165 0 -367.27334657460165 546.71518288508196 0 0 0 0 224.10212150507141 -355.08352420684832 0 -355.08352420684832 129.08751599122979 0 0 0 0 170.8281488222492 -327.72545359264416 0 -327.72545359264416 306.6712506941858 0 0 0 0 480.64195689172629 -374.53924246202973 0 -374.53924246202973 -52.964219054966179 0 0 0 0 231.57643207241927 -384.14186421262536 0 -384.14186421262536 232.73828615608363 0 0 0 0 182.09142830845667 -425.48637970142033 0 -425.48637970142033 245.90212422160175 0 0 0 0 -7.7446983851550613 -36.798855703779566 0 -36.798855703779566 979.8319056783314 0 0 0 0 338.03478632605038 -735.09360042902233 0 -735.09360042902233 841.01819572837894 0 0 0 0 363.77220216041314 130.56241018225319 0 130.56241018225319 219.08891311822492 0 0 0 0 1260.6280100326294 -683.50368887164541 0 -683.50368887164541 554.06120353597385 0 0 0 0 589.59023622500172 478.53822090763543 0 478.53822090763543 545.08814232853729 0 0 0 0 286.09797753004386 -150.83338955728073 0 -150.83338955728073 -337.87542493037495 0 0 0 0 980.76855511718168 -458.97661544386813 0 -458.97661544386813 -73.206388178639827 0 0 0 0 286.49208950642787 -55.674550829047064 0 -55.674550829047064 -201.47733766174042 0 0 0 0 174.84006082529959 -121.25538097798062 0 -121.25538097798062 -229.35035232939754 0 0 0 0 195.69761318196686 53.836932070099976 0 53.836932070099976 -424.56696211418375 0 0 0 0 -153.86526330611377 569.04322939418932 0 569.04322939418932 -613.48664663530303 0 0 0 0 4.7817408584880354 -3.3450020049855738 0 -3.3450020049855738 -13.325368149128124 0 0 0 0 544.67492387092352 -443.03061902162881 0 -443.03061902162881 133.21038899170071 0 0 0 0 423.55029117215054 -187.13201037342128 0 -187.13201037342128 -182.21983128240026 0 0 0 0 208.2422845783949 -106.88292356360034 0 -106.88292356360034 230.45414879546593 0 0 0 0 -99.71496507019765 262.87957635592193 0 262.87957635592193 -343.33436573012841 0 0 0 0 1.1558676116866593 -8.4477156490674403 0 -8.4477156490674403 -22.597538907436046 0 0 0 0 330.43419820853705 -425.9718636696781 0 -425.9718636696781 67.042036777559588 0 0 0 0 217.71895461854729 197.78123802264116 0 197.78123802264116 -284.90487095938624 0 0 0 0 258.76835041032791 -14.62920372944734 0 -14.62920372944734 -311.43217306099814 0 0 0 0 352.04429529367553 -154.38269549860888 0 -154.38269549860888 -276.47786154966616 0 0 0 0 175.81424346123822 97.780426581941811 0 97.780426581941811 -54.574308002349426 0 0 0 0 346.54978610374383 -101.65077934504268 0 -101.65077934504268 219.0750598423997 0 0 0 0 357.73309691888426 -191.90467450763992 0 -191.90467450763992 56.567426118576833 0 0 0 0 416.16324445013197 149.42521426638839 0 149.42521426638839 -79.366536686003201 0 0 0 0 983.82872870993015 -494.6233983310301 0 -494.6233983310301 222.81571260593665 0 0 0 0 571.13014318076421 172.86891341588881 0 172.86891341588881 164.70749703812839 0 0 0 0 0.61999879444888961 -0.30596851219798538 0 -0.30596851219798538 -2.3199949808345099 0 0 0 0 -695.50732645685639 699.39147491153267 0 699.39147491153267 80.027795891600363 0 0 0 0 -521.5992277887708 1207.2537380559679 0 1207.2537380559679 -462.53666946352905 0 0 0 0 -352.19825928424689 127.90595235039973 0 127.90595235039973 417.00237465265718 0 0 0 0 502.92971172117541 473.7335275243272 0 473.7335275243272 -818.99971404772441 0 0 0 0 49.465627872539557 -22.255196433456547 0 -22.255196433456547 11.144474242865922 0 0 0 0 339.29836863532546 244.54291578113975 0 244.54291578113975 143.28863652501445 0 0 0 0 101.58768958435394 -121.10626204944492 0 -121.10626204944492 -326.20989519262139 0 0 0 0 17.594097109846189 -103.34996932253671 0 -103.34996932253671 -180.56687314745886 0 0 0 0 41.081160199275473 20.424300249119369 0 20.424300249119369 -34.838172274075077 0 0 0 0 -2.6548398495771437 2.2483152234332664 0 2.2483152234332664 -5.3287094799256352 0 0 0 0 17.368684727942913 -1.7231116692920949 0 -1.7231116692920949 -24.849640531987298 0 0 0 0 41.047816792477533 22.326830970622439 0 22.326830970622439 191.00171373926253 0 0 0 0 75.078791521667853 -42.606512269011311 0 -42.606512269011311 14.833460189800984 0 0 0 0 149.87466084668995 -90.025352481901791 0 -90.025352481901791 -108.84680617447793 0 0 0 0 150.95920816680882 -24.046526906426152 0 -24.046526906426152 91.939918629218198 0 0 0 0 149.65724695697281 -26.567493518084348 0 -26.567493518084348 175.95315537149781 0 0 0 0 -121.28413586426905 290.3500151548219 0 290.3500151548219 721.06735655342345 0 0 0 0 -167.19999190350791 -173.45593732039242 0 -173.45593732039242 -401.25718171143353 0 0 0 0 -1243.806017957013 -589.6403161931928 0 -589.6403161931928 324.79288088279463 0 0 0 0 -870.50980996430735 -592.72506263017476 0 -592.72506263017476 -478.42291013821341 0 0 0 0 -472.74931394927989 -32.609021102656698 0 -32.609021102656698 -65.023304029239171 0 0 0 0 -257.28123817205778 -326.04647915339456 0 -326.04647915339456 286.58227685421843 0 0 0 0 681.83984229873749 16.273567965577286 0 16.273567965577286 20.090927942691451 0 0 0 0 1056.7509198009284 -606.0973750762671 0 -606.0973750762671 -151.23309997027536 0 0 0 0 88.587681777906255 -296.81246607411532 0 -296.81246607411532 -133.91214607769348 0 0 0 0 403.97148635194753 -469.85661823525447 0 -469.85661823525447 -187.00211630440333 0 0 0 0 100.52966946759716 -482.22430349669253 0 -482.22430349669253 -435.30685645830727 0 0 0 0 33.902173794823405 -61.696268989432788 0 -61.696268989432788 9.6890512068741952 0 0 0 0 -112.59073572509806 -380.80618832119308 0 -380.80618832119308 -485.50097877309599 0 0 0 0 -621.94588740593463 -381.82977213623803 0 -381.82977213623803 21.307959719160863 0 0 0 0 -265.84426810551668 -434.33653632241999 0 -434.33653632241999 -58.937886911640589 0 0 0 0 -293.74809464186546 -408.96133781543904 0 -408.96133781543904 -42.966429907938164 0 0 0 0 -116.67459280941694 -629.20467485500535 0 -629.20467485500535 -431.40906203503255 0 0 0 0 -529.84933454701968 -692.84983504470756 0 -692.84983504470756 -203.84554585820479 0 0 0 0 -719.15798052580794 -762.23072332282391 0 -762.23072332282391 -222.71500652115606 0 0 0 0 -656.76462039290345 -311.64849207077123 0 -311.64849207077123 -118.98633080803666 0 0 0 0 -1722.8520261852536 143.21405651534587 0 143.21405651534587 262.52386851557822 0 0 0 0 -15.883908764177875 -11.077017749326586 0 -11.077017749326586 9.5156644183671517 0 0 0 0 90.559582978617982 -378.84730838741689 0 -378.84730838741689 -1064.7158663347764 0 0 0 0 411.19682456097507 -142.14362928317132 0 -142.14362928317132 -1828.1148616672763 0 0 0 0 733.31597397592122 825.15791600467401 0 825.15791600467401 -2239.3290504643064 0 0 0 0 674.31519930798822 1566.3811206335859 0 1566.3811206335859 -1641.2687545128283 0 0 0 0 369.88643649811274 1530.1206098706061 0 1530.1206098706061 -762.03402456542426 0 0 0 0 3.9874414893711219 -215.05542613251191 0 -215.05542613251191 -83.288761783392374 0 0 0 0 -326.84526483205264 -225.19351714064851 0 -225.19351714064851 -82.312636579791615 0 0 0 0 -619.28157555461621 -340.16880227484717 0 -340.16880227484717 19.199395101627488 0 0 0 0 -14.216188914802842 -343.6821062634001 0 -343.6821062634001 -133.10985403526729 0 0 0 0 -23.781911090220092 -296.79627090803774 0 -296.79627090803774 -174.32924320861594 0 0 0 0 -9.4071604083874263 -277.54683525138125 0 -277.54683525138125 -182.15338686565065 0 0 0 0 211.91700695238251 -392.53184826153529 0 -392.53184826153529 -164.54335328858815 0 0 0 0 194.87005152853089 98.588244118939656 0 98.588244118939656 -81.605993965714276 0 0 0 0 146.53460499127686 68.179849338403301 0 68.179849338403301 188.34360495164506 0 0 0 0 145.72792443694198 78.659866964129151 0 78.659866964129151 68.315576919145769 0 0 0 0 143.03211440102314 -7.3355219585953364 0 -7.3355219585953364 -87.910448952958632 0 0 0 0 -84.462326204957208 -124.88911296110655 0 -124.88911296110655 199.4372583459988 0 0 0 0 33.304179448430659 -52.627407135115391 0 -52.627407135115391 120.7883836531314 0 0 0 0 139.2421917848842 5.2246464316694983 0 5.2246464316694983 -47.691770191238447 0 0 0 0 -92.822114930138923 -255.50904716449577 0 -255.50904716449577 80.87876165841044 0 0 0 0 -17.277627081624814 -213.2534544385021 0 -213.2534544385021 -122.42689220158263 0 0 0 0 82.096551398339216 -273.01098677113896 0 -273.01098677113896 -395.69561250425886 0 0 0 0 111.13601063287933 -115.40840469312116 0 -115.40840469312116 -241.96741797951472 0 0 0 0 301.0296005038399 -45.795237140791869 0 -45.795237140791869 -761.8487351036847 0 0 0 0 298.83798084828595 51.423611987313961 0 51.423611987313961 -437.05933572063896 0 0 0 0 193.04920037709235 76.584059938711107 0 76.584059938711107 -342.19791024826782 0 0 0 0 110.71378415803702 -121.7796627382553 0 -121.7796627382553 -171.09815018637892 0 0 0 0 234.23385401320411 310.05272504954064 0 310.05272504954064 -239.08517537167063 0 0 0 0 -50.336857703296118 681.22266036641759 0 681.22266036641759 387.42392519087525 0 0 0 0 415.62010782473953 373.87954618217736 0 373.87954618217736 -461.00414368758061 0 0 0 0 106.39407395050512 259.47696503091811 0 259.47696503091811 -244.0420478497357 0 0 0 0 387.69250400957299 54.837988543933477 0 54.837988543933477 -685.20465726634757 0 0 0 0 455.77326670133334 339.25641590313444 0 339.25641590313444 -1077.9886224896418 0 0 0 0 433.43134771917539 551.98609030675198 0 551.98609030675198 -709.2300438412658 0 0 0 0 4.1761810788520961 160.83545021903774 0 160.83545021903774 -232.92089231282216 0 0 0 0 158.62962113731555 184.34571934605219 0 184.34571934605219 -253.39365322774756 0 0 0 0 214.17126013585948 196.89294533005841 0 196.89294533005841 -255.77624043875403 0 0 0 0 182.31167948180519 33.146247857634535 0 33.146247857634535 -134.32419564778866 0 0 0 0 110.30542211052671 -16.915941551519154 0 -16.915941551519154 -478.42099592726345 0 0 0 0 581.4568784959738 -221.63850061458294 0 -221.63850061458294 308.9906310881413 0 0 0 0 -541.54287255404051 -708.26831131739857 0 -708.26831131739857 1620.8856936639813 0 0 0 0 30.55906423167167 1.1756867222789502 0 1.1756867222789502 0.82026019986867915 0 0 0 0 49.116126312784218 -90.788325819909062 0 -90.788325819909062 -35.659389844116504 0 0 0 0 72.756515551205666 -89.392099152077208 0 -89.392099152077208 -37.34618533011087 0 0 0 0 80.255376877695653 -57.709953608733088 0 -57.709953608733088 -318.00392338983011 0 0 0 0 -30.746613715655258 -177.95496932507308 0 -177.95496932507308 -96.005416515321485 0 0 0 0 48.944686490345006 -4.9623784051908233 0 -4.9623784051908233 -1.1756102586429003 0 0 0 0 -118.57409967119384 73.884568516690138 0 73.884568516690138 -104.95476776017586 0 0 0 0 230.7987455233233 -182.1554134527205 0 -182.1554134527205 -404.5752687846998 0 0 0 0 168.71630972421553 9.3631069968080016 0 9.3631069968080016 -4.4175954202450551 0 0 0 0 139.40912893803034 -152.40525415307729 0 -152.40525415307729 -351.65072263372281 0 0 0 0 238.86925231230271 -222.35034803735607 0 -222.35034803735607 -334.15662994583181 0 0 0 0 132.43962402301258 -258.97819410762395 0 -258.97819410762395 -182.28921897630426 0 0 0 0 49.176022207248025 -168.46003925806963 0 -168.46003925806963 -280.30868463386741 0 0 0 0 -256.45384258150807 -422.20771325240344 0 -422.20771325240344 3354.2008716883174 0 0 0 0 37.759813255193876 -175.48675625314854 0 -175.48675625314854 -185.9723514455427 0 0 0 0 72.1756283134293 -12.736261630792429 0 -12.736261630792429 -0.73307828372236727 0 0 0 0 53.399869707887746 -48.723805945672524 0 -48.723805945672524 -1.739871246482295 0 0 0 0 1242.4294325949777 -808.46742874743177 0 -808.46742874743177 -1007.2770882593109 0 0 0 0 105.77800636300162 -70.951503701543515 0 -70.951503701543515 -102.65491583445663 0 0 0 0 68.383413047857175 -92.749414558000126 0 -92.749414558000126 35.107567375973304 0 0 0 0 103.1356559699052 -81.881855723755507 0 -81.881855723755507 -27.261542155238232 0 0 0 0 43.562694892509938 1.1382651708688449 0 1.1382651708688449 -2.5719590022590175 0 0 0 0 100.75997798659955 -39.943964759061146 0 -39.943964759061146 -25.715765922678202 0 0 0 0 326.61582089695639 96.39031924185656 0 96.39031924185656 -37.099700483227934 0 0 0 0 167.19217097227374 -94.809332896313663 0 -94.809332896313663 158.10641300238331 0 0 0 0 38.299716746059858 39.857899504882425 0 39.857899504882425 19.621063046713061 0 0 0 0 218.07181425096496 -179.87420291415356 0 -179.87420291415356 100.94241227748932 0 0 0 0 374.85032241299632 -200.46786286563292 0 -200.46786286563292 75.464565655838214 0 0 0 0 219.93704353508656 -142.52670939011409 0 -142.52670939011409 85.252019046392434 0 0 0 0 307.81172371061621 -73.936985042554284 0 -73.936985042554284 -1.8033428777143854 0 0 0 0 150.45061497513416 -100.58951035990975 0 -100.58951035990975 56.928724023090524 0 0 0 0 231.59064132969797 -118.1810701018635 0 -118.1810701018635 61.163243290539413 0 0 0 0 395.01134843003092 -98.684545106266796 0 -98.684545106266796 42.928179498614554 0 0 0 0 253.57493861776311 -97.879374726942387 0 -97.879374726942387 71.261712588640194 0 0 0 0 113.1588395628205 -125.18551301533478 0 -125.18551301533478 112.45707436192697 0 0 0 0 258.8119318362078 -125.13922242169866 0 -125.13922242169866 39.993163847160758 0 0 0 0 236.27578041412744 -141.70077619494464 0 -141.70077619494464 43.282092699932491 0 0 0 0 77.608409315562312 -117.6549055723039 0 -117.6549055723039 103.42263487355854 0 0 0 0 80.668381421415688 -112.14358720226915 0 -112.14358720226915 19.76316585972927 0 0 0 0 102.21398945736109 -68.658522425444289 0 -68.658522425444289 7.3476665622920336 0 0 0 0 57.374442662574438 -104.00685058410221 0 -104.00685058410221 77.377655380913666 0 0 0 0 67.383874025005753 -63.937828325867841 0 -63.937828325867841 46.659290270627025 0 0 0 0 57.809669771633708 -86.528947615370328 0 -86.528947615370328 128.40363673719514 0 0 0 0 123.459251550099 -101.30187559305949 0 -101.30187559305949 57.086610660214873 0 0 0 0 120.0945723128566 -25.330230451273398 0 -25.330230451273398 10.944671783623789 0 0 0 0 203.14715851962137 -22.000055925805555 0 -22.000055925805555 -4.1255413497833615 0 0 0 0 120.65424696549962 -78.53170909973386 0 -78.53170909973386 52.008857648563719 0 0 0 0 71.119748152454122 -150.30347222947262 0 -150.30347222947262 30.842059270839229 0 0 0 0 111.65348098533059 -5.0631620468761298 0 -5.0631620468761298 -11.353590750908552 0 0 0 0 87.00062260730374 -92.38575446842799 0 -92.38575446842799 -81.909974151571987 0 0 0 0 14.281240570204318 -118.60970822402453 0 -118.60970822402453 74.343462041063162 0 0 0 0 47.452414424817107 -133.63494961723234 0 -133.63494961723234 0.90444975913493408 0 0 0 0 50.970210531846533 -113.69383466903597 0 -113.69383466903597 64.925228122545406 0 0 0 0 42.777910743494431 -129.3373108527295 0 -129.3373108527295 159.69231320302515 0 0 0 0 40.883094068864011 -125.05588801429903 0 -125.05588801429903 86.983728742613621 0 0 0 0 126.9584995336445 -145.62443517442634 0 -145.62443517442634 159.05549670381592 0 0 0 0 111.43781903065064 -102.13204171661806 0 -102.13204171661806 159.99615040880269 0 0 0 0 189.83775118326685 -47.68554132957162 0 -47.68554132957162 150.04814139881415 0 0 0 0 179.53210225409566 -105.19229122421069 0 -105.19229122421069 333.22667113851719 0 0 0 0 297.02149797861966 -133.35973724561694 0 -133.35973724561694 111.06981471466133 0 0 0 0 274.81059557348999 -75.598183424910189 0 -75.598183424910189 16.606655246260516 0 0 0 0 282.47933015772014 -102.49520493322834 0 -102.49520493322834 100.82739761820687 0 0 0 0 565.84365881162375 -124.68014927032254 0 -124.68014927032254 -97.824759479166687 0 0 0 0 288.78425931179663 -238.5825498795142 0 -238.5825498795142 119.83807860560717 0 0 0 0 512.26320394056529 -421.4970882908824 0 -421.4970882908824 -39.045943690739819 0 0 0 0 464.50256800740135 -134.2126871600974 0 -134.2126871600974 -88.809833888243787 0 0 0 0 454.72479475028365 -274.09385569933011 0 -274.09385569933011 40.860654070395412 0 0 0 0 443.39121943856935 -139.43424101327292 0 -139.43424101327292 144.98890360183532 0 0 0 0 338.16104402320707 -203.5899303643331 0 -203.5899303643331 195.1716309315016 0 0 0 0 472.02775318023123 -157.09487772529542 0 -157.09487772529542 107.38502004485525 0 0 0 0 548.73923516708601 -67.276271163545431 0 -67.276271163545431 82.832622532978576 0 0 0 0 683.37419118380967 -153.14007468163049 0 -153.14007468163049 11.774956690726981 0 0 0 0 606.87480803606013 34.696425607434662 0 34.696425607434662 133.89341626317275 0 0 0 0 614.7528603831397 -146.3890860774971 0 -146.3890860774971 -25.124648312431873 0 0 0 0 622.17151365269638 -91.292360350350464 0 -91.292360350350464 66.883555891070387 0 0 0 0 46.61925525040715 -218.97371230560293 0 -218.97371230560293 291.26207411941465 0 0 0 0 402.08437071430126 -45.274487076487162 0 -45.274487076487162 331.51513607077447 0 0 0 0 509.36112500475792 127.98025060854889 0 127.98025060854889 -981.0941999778056 0 0 0 0 311.74257243204465 -551.53242974350746 0 -551.53242974350746 88.542333656388109 0 0 0 0 -32.873745769074958 -360.81763394663676 0 -360.81763394663676 103.93726431138657 0 0 0 0 447.44626186827645 374.25800275297809 0 374.25800275297809 -480.76565574200845 0 0 0 0 275.85366132784111 -70.641638983786834 0 -70.641638983786834 -261.67512922992296 0 0 0 0 7.8795544912200057 -138.7229496815994 0 -138.7229496815994 155.59174580609033 0 0 0 0 132.64654159859282 15.360392412947178 0 15.360392412947178 1.0661265879499005 0 0 0 0 322.8250255946914 90.614243411791449 0 90.614243411791449 -623.23133503838744 0 0 0 0 49.772212018227947 128.63260529115945 0 128.63260529115945 -166.23164774175711 0 0 0 0 -10.690311786034727 -143.06921278792834 0 -143.06921278792834 -234.78471604764036 0 0 0 0 355.67386922316018 -387.4857580854748 0 -387.4857580854748 485.21262630562933 0 0 0 0 -5.0922001750659547 251.18550255219498 0 251.18550255219498 -373.55134143871999 0 0 0 0 92.55130205460577 8.0392692285561331 0 8.0392692285561331 -0.55123018446496719 0 0 0 0 270.69474590960453 203.24778346843641 0 203.24778346843641 -718.41361660864141 0 0 0 0 17.931463929373379 -5.7105089248043344 0 -5.7105089248043344 -0.23057929651676329 0 0 0 0 210.40543177855943 -2008.0691244593863 0 -2008.0691244593863 1524.7827737828725 0 0 0 0 397.48916759923668 186.707451541669 0 186.707451541669 -519.19484113374983 0 0 0 0 168.9347830605293 -52.697505847866069 0 -52.697505847866069 -53.343010207428506 0 0 0 0 771.76452623383011 -42.848625079550629 0 -42.848625079550629 -384.91830853328884 0 0 0 0 276.33561067452683 131.38206724178417 0 131.38206724178417 -225.09064618837783 0 0 0 0 858.0269663810268 -707.96770063200825 0 -707.96770063200825 27.4935976609313 0 0 0 0 998.86562995739223 -221.70677832799947 0 -221.70677832799947 -350.68669646103467 0 0 0 0 181.10307116638796 683.76799512477555 0 683.76799512477555 29.076665465985116 0 0 0 0 -303.90715247003754 837.26636507755006 0 837.26636507755006 2700.6207301003114 0 0 0 0 
</DataArray>
<DataArray type="Float64" Name="cross_section_updated" format="ascii">
0.011314053411789225 1 1 1 1 1 1 1 1 0.011226267528860669 1 1 1 0.010818993040275816 1 1 1 1 1 1 1 1 1 1 1 1 1 1 1 0.01122270615117351 1 1 0.013400280461681235 1 1 1 0.013556052798727361 1 1 1 0.011466802392702632 1 1 1 1 1 1 1 1 0.0097221433633526352 1 1 1 1 1 1 0.015571490615350712 1 1 1 1 1 1 1 1 1 0.011656021204209537 1 1 0.010057199150089412 1 1 1 0.010744166573982935 1 0.01100154114817381 1 0.011817932141060705 0.014700007865108704 1 1 1 1 1 1 1 1 1 0.011423401685160841 1 0.010901562596901821 1 1 0.010892719434111691 1 1 1 1 1 1 1 1 1 1 1 1 1 1 1 0.009966606493355068 1 1 1 1 0.011812914010203717 1 1 0.010000398367149379 0.011319006310736858 1 1 0.0099995110279223129 1 1 1 0.010334239493211089 0.011261693970248546 0.010003577500941902 1 0.010938381042707781 1 1 1 1 1 1 1 1 1 0.010108513761409621 0.010376136995290143 1 1 1 1 1 1 0.0099967594155431685 1 1 1 1 1 0.013352742349142315 0.0099146415849203275 1 1 0.01190599711049236 1 1 0.012027439298353253 0.0087490092397712327 1 0.010020750134086627 0.009906587430678725 1 1 1 1 1 1 1 1 1 1 1 1 0.011373965797305388 1 1 0.010947012738495266 1 1 1 1 1 1 1 1 1 1 1 1 1 1 1 1 1 1 1 1 0.010815662898894091 1 1 1 1 1 1 1 1 1 1 1 1 1 1 1 0.015907219122349742 1 1 0.016377312248883037 1 1 1 1 0.015595406346271596 0.015753323604051322 1 1 1 1 1 1 1 1 1 1 1 1 1 1 1 0.010087012935907483 1 1 1 0.010646018933714023 1 1 1 1 1 1 1 1 0.016841666073767098 0.009381617711625774 1 1 1 1 1 1 1 1 1 0.012048697536378258 1 1 1 1 1 0.010232132657537404 1 0.0099874584048474085 1 1 1 1 1 0.010593519873778575 0.0087573077152622719 1 1 1 0.013485041388099323 1 0.0096557869890916727 1 1 1 0.010554446807867084 1 0.015410777097275792 1 1 0.010419410188602192 1 1 1 0.010937964195198418 1 1 1 1 1 0.01329928545684443 0.01171711206843516 1 1 0.011820028363830171 1 0.012373472021466074 0.012076636561185721 1 1 0.010246317239835198 1 0.013853054490380698 1 1 1 1 0.010244763181945135 1 0.014155193486210395 1 1 0.013872373537151416 0.01583328313945415 0.012735096365212898 1 0.013292986028739457 1 0.013069653934374892 0.013527644954450255 1 1 1 1 1 1 1 1 1 0.010030053187894359 1 1 1 1 1 1 1 1 1 1 1 1 1 1 1 1 1 1 1 1 1 1 1 1 0.014871070629740158 1 0.010290028454726695 1 1 1 1 1 0.015508190125930896 1 0.0094225706359053786 1 1 0.01617104874030547 1 1 1 1 0.0096144104471294085 1 0.01518819816600496 1 1 1 1 1 1 1 1 1 1 1 1 1 0.0096984970465951673 1 1 0.014943848335544442 1 1 1 1 1 1 1 1 1 1 1 1 1 1 1 1 1 0.012156541681847016 1 1 1 1 1 1 1 1 1 1 0.010337281951027998 1 1 1 0.010212292482824658 0.015787134851439316 1 1 1 1 1 1 1 1 1 1 1 1 1 1 1 1 1 1 1 1 1 1 1 0.011977922042021647 1 1 0.010966258387607161 1 1 0.012926313846290657 1 0.0091676800081109122 1 1 1 0.0098251394549863248 1 0.013830906786910306 0.0094649490495178554 1 1 1 1 1 1 1 1 1 1 0.0097193786035193186 1 1 1 1 1 1 1 1 1 1 1 1 1 1 1 1 1 1 1 1 1 1 1 1 1 1 1 1 1 1 1 1 0.01009254504118821 1 1 1 1 0.010132954007219447 1 1 1 1 1 1 1 0.0093127310630092362 1 1 1 1 1 1 1 1 1 0.010255300573346901 1 0.0090215220649448053 0.0095884321951343783 1 1 0.0096088808210957732 1 0.010817123213666797 1 1 1 1 1 1 1 1 0.010101306704929477 1 1 1 1 1 0.011162741430496791 1 1 1 1 1 1 0.0094809538433577537 1 1 1 1 1 1 1 1 0.0096796467436729237 1 0.01064400737283475 1 1 1 1 1 0.010838261396573894 1 0.0098906643737175469 1 1 1 1 1 1 0.010732914690875355 1 1 1 1 1 1 1 1 1 1 0.0093089339712782351 0.011714448793618531 1 1 1 1 0.011440376470311202 1 1 1 1 1 1 1 1 1 1 1 1 0.013684675734640444 1 1 0.0099064051154713999 1 1 1 1 1 1 1 1 1 1 0.010811183182749724 0.012313861829929636 1 1 1 1 1 1 1 1 1 1 0.010029014313729072 1 0.0094515070818670614 1 1 1 1 1 1 1 1 1 1 1 1 1 1 1 1 1 1 1 1 1 1 1 1 1 1 1 1 1 1 1 1 1 1 1 1 1 1 1 0.01032170201868509 1 1 1 0.011760957080588589 1 0.011127944302543432 1 0.0099441073675243501 1 1 0.01319210909949595 1 0.013823673462683926 1 0.0099197726396233459 1 1 0.010942716898609458 1 1 1 1 1 1 1 1 0.009751679400563245 1 1 0.010953503929270079 1 1 1 1 0.01399701128570365 1 1 1 1 1 1 1 1 1 1 0.008907777393443601 1 0.010245235113726638 1 0.01387976500335201 1 0.0090646372530844271 1 0.010236404781633811 1 1 1 0.009998729451609999 1 0.01257887485083356 1 1 1 1 1 1 1 1 1 1 1 1 0.012162088390008539 1 1 0.0099967127568251005 0.0098833510310416782 1 1 1 0.0092295502535377251 1 1 0.012790041038648923 1 1 0.0092681487975445065 1 1 1 0.0098465830248455066 1 1 1 1 1 0.01067358421470046 1 1 0.012620262328448085 0.013608853286710276 1 1 1 0.012024615295341455 0.014731563609077153 0.0094531281155298859 1 1 0.010076557441809238 1 1 0.01007967871431732 1 1 1 1 1 1 0.010029927309265493 1 1 0.0096246907838157102 1 1 0.0092743471850497451 1 1 1 1 1 1 1 1 0.009929484955776835 1 1 1 1 1 0.0091435847532319609 0.0097939637551692511 0.010163529378616002 1 1 1 1 1 1 1 1 1 1 1 0.0090031216199346134 1 1 1 1 0.010349299528190119 1 1 1 1 1 1 1 0.0129722318646543 1 1 1 0.011023817822093985 1 0.012721573096476332 1 0.013363055682509773 1 0.015568010221128394 1 1 1 1 1 1 1 1 1 1 0.012365411015922022 1 1 1 1 1 1 1 1 0.010421163413061015 1 1 0.010518659221753648 1 1 1 1 0.010701242272442731 1 1 1 1 1 1 0.011459992956592517 1 0.011893400941752898 1 1 1 1 1 1 0.011760738148952187 0.010560786205921746 1 1 1 1 0.010038798309399339 1 0.010182508450488391 1 1 1 0.019461431108706947 1 1 1 1 1 1 1 0.0093216860001866762 0.016685748980209865 1 1 0.011827404750061294 1 0.013213205676150759 0.010212675506419987 0.011838436128057052 1 1 1 1 1 1 1 0.0099140387875878023 1 1 1 1 1 1 1 1 1 1 1 1 1 0.013118490745420795 1 1 1 1 1 1 1 1 1 1 0.010622329652159288 1 1 0.0092539320846436665 1 1 1 1 1 0.011592634291679815 1 1 1 1 1 1 1 1 0.0075677665104568756 1 0.0054696037179705779 1 1 0.013618299411825362 1 1 0.0086294135545429279 1 1 1 1 0.013214647029709177 1 1 1 1 1 0.014794661148495468 1 1 1 1 1 1 1 1 1 0.00734333429249518 1 1 0.0099850724819168148 0.016015438332631058 1 1 1 1 0.0078962694390837911 1 0.009705917598152411 1 1 0.0086611194761056116 0.016391844996334635 1 0.0084592810545867873 1 0.015635492632111451 1 1 1 1 1 0.013557945487573112 1 1 1 0.013698563822801929 1 1 1 0.013149848517043003 1 1 1 1 1 1 1 1 1 1 0.010188568210455206 1 1 1 1 1 1 1 1 1 1 1 1 1 1 1 1 1 1 0.012520946182355556 1 1 0.011771988517369358 1 1 1 1 0.010678780829228626 1 1 1 1 1 1 1 1 1 1 1 1 1 1 1 1 1 1 1 1 1 1 1 1 1 1 1 1 1 1 1 1 1 1 1 1 1 1 1 1 1 1 1 1 1 1 1 1 1 1 1 1 1 1 1 1 1 1 0.010224188251264837 1 1 1 1 1 1 1 1 1 1 1 1 1 1 1 1 1 1 1 0.010489565335701858 1 1 1 1 0.010265377084437017 1 1 1 1 1 1 1 1 1 1 1 1 1 1 1 1 1 1 0.010163058549051824 1 1 1 1 0.0099562114417091237 1 1 1 1 1 0.010024957599769811 0.011755159840167458 1 1 1 1 1 1 1 1 1 1 1 1 1 1 1 1 1 1 0.011038457157782892 1 1 1 0.012880456637039619 1 0.010791772998082337 1 1 1 1 1 1 1 1 1 0.013026978784198182 1 1 1 1 0.0099985155345579564 0.010838784470152248 1 1 1 1 1 1 1 1 1 1 1 1 1 1 1 1 1 1 1 0.011930874482087388 1 1 1 1 1 1 1 1 1 1 1 1 1 0.010375736696392558 1 1 1 1 1 1 1 1 1 1 1 1 1 1 1 1 1 1 1 1 1 1 0.01110880910820829 1 1 1 1 1 1 1 0.011728970481648915 1 1 1 0.011525856453740983 1 1 1 1 1 1 1 1 1 1 1 1 1 1 1 1 1 1 1 1 1 1 1 1 0.010504263234916253 1 0.010107289499130558 1 1 1 1 0.01082222499669552 1 0.011134448079609517 1 1 1 1 1 1 1 0.010963730696379511 1 1 1 1 0.011135045566080337 1 1 1 1 1 1 1 1 1 1 1 0.012459140584901902 1 1 1 1 1 1 0.0094103334027690281 1 0.011735678140038508 1 1 1 1 1 0.0087842031911025773 1 1 0.014516127428289522 1 1 0.010016368154934917 1 1 1 1 1 1 1 1 1 1 1 1 1 1 1 1 1 1 1 1 1 1 1 1 1 1 1 0.0090265451475686955 1 1 1 0.0099961087350810812 1 0.0098958451174289766 1 1 0.0099981462412588873 0.013051239054653118 1 1 1 0.010193698522593282 1 1 1 1 0.010535756026885505 1 0.010425021837893829 1 1 0.011285262541031495 1 1 1 1 1 0.012797433904906093 1 1 1 1 1 0.00978148183349784 1 1 1 1 1 1 1 1 1 1 1 1 1 1 1 1 1 1 1 1 1 1 1 1 1 1 1 1 1 1 1 1 1 1 1 1 1 1 1 1 1 1 1 0.010130958856628142 0.0099942005235355534 1 1 1 1 1 1 1 1 1 1 1 1 1 1 1 1 1 1 1 1 1 1 1 1 1 1 1 1 0.010743594354710201 1 1 1 1 0.010660206465411824 1 1 1 1 0.0097445825487366515 1 1 1 1 1 1 1 0.0091063135547902116 1 0.011021425377081878 1 1 1 1 1 0.0096668589142775083 1 1 1 1 1 1 1 1 1 1 0.010480380492573171 1 1 1 1 1 1 1 1 1 1 1 1 1 1 1 1 1 1 1 1 1 1 1 1 1 0.012446363222955829 1 1 1 1 0.0099060420800451601 1 0.011743244117257915 1 1 0.0088095691622184849 1 0.011704683412425731 1 1 1 1 1 1 0.011557111348528895 1 1 1 0.011197409713381486 1 1 1 1 1 1 1 1 1 1 1 1 1 1 1 1 1 0.0090872447196939637 1 0.010689760815424573 1 1 1 1 1 0.0095041512023565783 1 0.0098321481956839991 1 1 1 1 1 1 1 1 0.0098872251616706763 1 1 1 1 1 1 1 1 1 1 1 1 1 1 1 1 1 1 1 1 1 1 1 0.0097046474481443587 1 0.010273698448300762 1 1 1 1 1 1 1 1 1 1 1 1 0.010750483662408954 1 1 1 1 1 1 1 1 1 1 1 1 1 1 1 1 1 1 1 1 1 1 1 1 1 1 1 0.010940648612257776 1 1 1 0.0099875752446205272 1 0.010580872072397581 0.01277676987971429 1 1 1 1 1 0.0098972694901816316 1 1 1 1 1 1 1 1 1 1 1 1 1 1 1 1 1 1 1 1 1 1 1 1 0.011857545323373983 1 1 0.010940856519323985 1 1 1 1 1 1 1 1 0.010797475879457775 0.0093691770982649684 1 1 1 1 1 1 1 1 1 1 0.010178873012923228 1 1 0.01101458626220608 0.011280499798265519 1 0.010659966464956375 1 1 1 1 1 0.010784780698132263 1 0.011792741116078691 0.010571648014744589 0.0099909878278471431 1 1 1 1 1 1 0.01108791857767923 1 1 1 1 1 1 1 1 1 0.010249660060908208 1 0.014200892835973608 1 1 0.010655011988406399 1 1 1 1 1 1 1 1 1 1 1 1 1 1 1 1 1 1 1 1 1 1 1 1 1 1 0.010653521307932559 0.0098560303496535891 1 1 1 1 1 1 1 1 1 1 1 1 1 1 1 1 1 1 1 1 1 1 1 1 1 1 1 1 1 1 1 1 1 1 1 1 1 1 1 1 1 1 1 1 1 1 1 1 1 1 1 1 1 1 1 1 0.012544081445809555 1 1 1 1 1 1 1 1 1 0.012925215066242224 0.010163089726221122 1 1 1 0.010241097005046702 1 1 1 1 1 1 1 1 1 1 1 1 1 1 1 1 1 1 1 1 1 1 1 1 1 1 1 1 1 1 0.010799473470965161 1 1 1 1 1 1 1 0.013166907399316571 1 1 1 1 1 1 1 0.010118808045009772 1 1 0.01934879541766471 1 1 1 1 1 1 1 1 1 0.01011543142882961 1 1 0.013161236207165923 1.3877787807814457e-17 1 1 1 0.014539799148910713 1 1 1 1 1 1 1 1 1 1 1 0.016376582567222651 1 1 1 1 0.010000423000847363 1 0.015119431541412771 1 1 0.017648649360302433 1 1 0.018945761912824381 0.0063457900317602433 1 1 1 1 1 1 1 1 1 1 0.0083298360325402155 0.012911863278238336 1 1 1 1 1 1 0.0098852229180122955 1 1 1 1 1 1 0.017822952805905363 1 0.01868573486937572 1 1 1 1 1 0.010001926528332761 0.010006103078748524 1 1 1 1 1 1 1 1 1 1 1 1 1 1 1 1 1 1 1 0.0081828053290887142 0.014977905053262094 1 1 0.011935868118287517 1 1 1 1 1 1 1 1 1 1 1 0.011397785722935413 1 1 1 1 1 1 1 1 1 1 1 1 1 1 1 1 1 1 1 1 1 1 1 1 1 1 1 1 0.011113260908535788 1 1 1 1 0.010249832178893548 0.021412297044222581 1 1 1 1 1 1 1 0.0088698165426150406 1 0.030725298446867992 1 1 1 1 1 1 1 1 1 1 1 1 1 1 1 1 1 1 1 1 0.011369678820722866 0.012358318257297069 1 0.01025055456258888 1 1 1 1 1 0.010748460821207992 1 1 1 1 1 1 1 1 1 1 1 1 1 1 1 1 1 0.011087822707495552 1 1 1 1 1 1 1 1 1 1 1 0.011752034591718349 1 1 1 1 1 1 1 1 1 1 0.0096189772059424895 1 1 1 1 1 1 1 1 1 0.010508955542655088 1 1 1 1 0.011448172099905188 1 1 1 0.0090081881514091112 1 1 1 1 0.0087324315203367846 1 1 1 1 1 1 1 1 1 0.0086839991477994198 1 1 1 1 0.010009475835906169 1 1 1 1 1 1 1 1 0.0099764673177906663 1 0.0097574544082036103 0.0097124343023807218 1 0.010296286148769204 0.010291972067902177 1 1 1 0.014130825780577725 1 1 1 0.0099963763508817034 1 0.010201194795293859 1 1 1 1 1 0.01032791423646026 1 1 1 0.0097445148976221738 1 1 1 1 1 1 0.0094910098656795071 0.013844235873309933 1 1 1 1 1 1 1 1 1 1 1 0.0099890094608416392 1 0.010082680081575139 0.010278957516569463 1 1 1 1 1 0.015585136211141134 0.01447042529421412 1 1 0.012630198388344649 1 1 1 1 0.012230771993136557 1 1 1 1 1 0.011813543043270506 1 1 1 1 0.010439561334929714 0.013094519736364225 1 1 0.01152612572183077 1 0.0098944654130329671 0.010092536312526226 1 1 1 1 1 1 1 1 1 1 1 1 1 1 1 1 1 1 1 1 1 0.0097895008693980358 1 1 0.010591481569189515 1 0.010235812310246681 1 1 1 0.011044744241081931 1 1 1 1 1 1 0.012043162509508218 0.010985275933018426 1 1 1 1 1 1 0.014033592211723536 1 1 0.012645121100613423 1 1 1 1 1 1 0.010509885575401959 1 1 1 0.01061546332552153 1 1 1 1 1 1 0.010725861550285239 1 1 1 1 1 1 1 1 1 1 1 1 1 0.01143611422146453 1 0.0099656858199113785 1 1 1 1 1 1 1 1 1 0.010435537205432477 1 1 1 0.013962307337552216 1 1 1 1 1 1 1 1 1 1 0.011511083366900396 1 1 1 1 1 1 1 1 1 1 1 1 1 1 1 1 1 1 1 1 1 1 1 1 1 0.010635874350625097 1 1 1 0.011327080455393476 1 1 0.0114863429097368 1 1 1 1 1 0.01083659187352167 1 1 1 0.010436529833143254 1 1 1 1 1 1 1 0.010730997603688723 1 1 1 1 1 1 1 1 1 1 1 1 1 1 1 1 1 0.010060585614028479 1 0.010647280134533576 1 1 1 1 1 1 1 1 1 0.01405341535990285 1 0.014553278273259931 1 0.0096017765368146442 1 0.015802820811269679 0.01133993235349409 1 1 1 1 0.0095122321943888182 1 1 1 1 0.010134181575169461 1 1 1 1 1 0.012017294064973864 1 0.0082497617322214861 1 1 0.0096717314254288478 1 1 1 1 1 1 1 1 1 1 1 1 1 1 1 1 1 0.011628362646440907 1 1 1 1 1 1 0.01069368990327184 1 1 1 1 1 0.011742794341669738 1 1 1 1 1 1 1 0.011194175674676905 1 1 0.010406708303071317 1 1 1 1 1 1 0.02266546258832966 1 1 1 0.023110629922951341 1 1 1 1 1 1 1 1 1 1 1 1 1 1 1 1 1 0.01066682569684003 1 1 1 1 1 0.023158353121284218 0.010064784961398728 1 1 1 1 1 0.015121680649485658 1 0.016032620067913606 1 0.011643234036980683 1 0.020382236610631019 0.0081972114353768034 1 1 1 0.01003773020322319 0.0099973698615375434 1 1 1 1 1 1 1 1 1 1 1 1 1 1 1 1 1 1 1 1 1 1 1 1 1 1 1 1 1 1 1 1 1 1 1 1 1 1 0.01031301068938012 1 1 1 1 1 1 1 0.0099565618278323123 1 0.014563503208843323 1 1 1 1 1 1 0.010316427851488523 1 1 1 0.0099619971954997069 1 1 1 0.015010019791850022 0.011229468984769835 1 0.013633302927568017 1 1 1 1 1 1 0.0091521775473725215 1 1 0.011076156406070943 1 1 1 1 1 1 1 1 1 1 1 1 0.014140443768059922 0.0099903385819493686 0.011741553568609578 1 1 1 0.010357929780253041 1 1 1 1 1 1 1 1 1 1 1 1 1 1 1 1 1 1 1 1 1 1 0.012348220016568644 1 1 1 1 0.013418797091417932 1 1 1 1 1 1 1 0.020533119110138925 1 1 1 1 1 0.010002007458616473 1 1 1 1 1 0.02170161292131581 1 1 1 1 1 1 1 1 1 0.010220692457385043 1 1 1 1 0.010103984346500564 1 1 1 1 1 1 1 1 1 1 0.0099150179545763606 1 1 0.010116848677939702 1 1 1 1 1 1 1 1 1 1 1 1 1 1 1 1 1 1 1 1 0.010225294274151604 1 1 1 1 0.010502366668205063 1 1 1 1 1 1 1 1 0.010867095060089364 1 1 1 1 1 0.011724747450250685 1 1 0.010857652390161315 1 1 1 1 1 1 1 1 1 1 1 1 0.011737000407920913 1 1 1 1 1 1 1 1 1 1 1 1 1 1 1 1 1 1 1 1 1 1 1 1 1 1 1 1 0.010277472664424307 1 1 1 1 1 1 1 1 1 1 1 1 1 1 0.010151324056856858 1 1 1 1 1 1 1 1 1 1 1 1 1 1 1 1 1 1 1 0.010346828161600916 1 1 1 1 1 1 1 0.010195733529908125 1 1 1 1 1 1 1 1 1 1 1 1 1 1 1 1 1 1 1 1 1 1 1 1 0.010121245995134148 1 1 1 1 1 0.010208894365329263 1 1 1 1 1 1 1 1 1 1 0.010397826911405332 1 1 0.0099838811255562043 1 0.0099707255241069277 1 1 1 1 1 1 1 0.011063414847077541 1 0.010640057151728166 1 0.010390384820339701 1 1 1 1 1 1 1 1 1 1 1 1 1 1 1 1 1 1 1 1 1 1 1 1 1 1 1 1 1 1 1 1 1 1 1 1 0.0095002144388586542 1 1 1 1 1 1 1 1 1 1 1 1 1 1 1 1 1 1 1 1 1 1 1 1 1 1 1 1 1 1 1 0.010210114667649463 1 1 1 1 1 1 0.0099777777613909019 0.0099235534803655684 1 1 1 1 1 1 1 1 1 1 1 1 1 0.01000794735178743 1 1 1 1 1 1 1 1 1 1 0.015893347196188814 0.0079444873523823109 1 0.024202045893020135 1 1 1 0.011365782873805953 1 0.017210716661394815 0.010395491461213753 1 0.019914715385077702 1 1 1 1 1 1 1 0.015696416276041285 0.016362830136928963 1 1 1 1 0.010091445836182052 1 1 1 1 0.017062971121858804 1 0.0084260112656204585 1 0.017800252043860359 0.015297714994531603 1 0.010709833870855317 1 1 1 1 1 0.010007382894562412 1 0.013022386107117531 0.014417979383695517 0.013593211881809593 0.015079597575977629 1 1 1 1 1 0.021526565684699229 1 1 0.016072404535201396 0.013883775971343663 1 1 1 0.024206208767362881 1 1 0.0098748742773732967 1 1 1 1 0.026758891274835057 1 1 0.0099043525602536334 1 1 0.010795407389205102 1 1 1 1 1 1 1 1 1 1 1 1 1 1 0.0085744854798040782 1 0.01357554298476011 1 1 1 1 1 0.010420079014338498 1 1 0.011229562629693872 1 1 1 1 1 0.025419644134847277 1 1 1 1 1 1 1 1 1 1 0.011049576798124058 1 1 1 1 1 1 1 1 1 1 1 0.0091352058168975188 1 1 1 1 1 1 0.022730871552926975 1 1 1 1 1 1 1 1 1 1 1 1 1 1 0.018939341034418019 1 1 1 0.0097612943475216887 1 1 1 1 1 1 1 0.01546969350701629 1 0.011897557630944777 1 1 1 1 1 1 1 1 1 1 1 1 1 1 1 1 1 1 1 1 1 1 1 1 1 1 1 1 1 1 1 1 1 1 1 1 0.013852525483371569 1 0.011743868491887348 1 1 0.014304163020636682 1 0.0096543968423830756 1 1 1 1 1 1 0.013002541883456321 1 1 0.010088307424889649 0.012153889996882959 1 1 1 1 1 1 0.010791150098215102 1 1 1 1 1 1 1 0.010375328374866606 1 1 1 1 1 1 1 1 1 1 1 1 1 1 1 1 1 1 1 0.014552531333603796 1 1 1 0.0078650022227811766 1 0.0099970688743849703 1 0.009381191087541367 1 1 1 1 0.014796489253678997 1 1 1 1 1 1 0.011922206964284331 1 1 1 1 1 1 0.011595447786009461 1 1 0.01251690338491903 1 1 1 1 1 1 0.010926952378547461 1 1 1 1 1 1 1 1 1 0.010009567611946135 1 0.010345127646951138 1 1 1 1 1 0.010161800617293779 0.015451960465359967 1 1 1 0.010473440792153191 0.0096678353270329542 1 1 1 1 1 1 0.015837007657772295 1 1 0.0099828034167159883 0.0085470366209410044 1 1 0.015896566556865332 1 1 0.0094252853397974699 1 1 1 1 0.0095042790296571041 1 1 1 1 1 1 0.0096769542523401746 1 1 1 1 1 1 1 1 1 1 0.010070381189283417 1 1 1 0.010160857688161988 0.010352669666695846 1 1 1 1 1 1 1 1 1 0.010487224931948057 1 1 1 1 1 1 1 1 1 1 1 0.01042085896619778 0.011849966294999605 1 1 1 1 0.011976141980173247 1 1 1 1 0.010229511794308734 1 1 1 1 0.010047120295853224 1 1 1 0.010084335085205978 1 1 1 1 0.0099489727292771633 1 1 1 1 1 0.0096247299420633686 1 1 1 1 0.010345139215289813 1 1 1 1 1 1 1 1 1 1 1 1 1 1 1 1 1 1 1 1 1 1 1 1 1 1 1 1 1 1 1 1 0.010363862585404386 1 1 1 1 0.010851087517352444 1 1 1 1 1 1 0.010570732512078754 1 1 1 0.010200276072044288 1 0.010961117332418453 1 1 1 1 1 1 1 1 1 1 1 1 1 1 1 1 1 1 1 1 1 1 1 0.010656299594600918 1 0.010350701094533066 1 1 1 0.010515713167717301 1 1 1 1 1 1 1 1 1 1 1 1 1 0.018235467952874253 1 1 0.016820303096704244 1 1 0.012555077025913368 0.014815579267645665 1 0.010996354279489206 1 1 1 1 1 1 1 1 1 1 1 1 1 1 1 1 1 0.011421558124147552 1 1 1 1 1 0.012359166563960338 1 1 1 1 1 1 1 0.011412301367098022 1 1 1 1 1 1 1 0.011119438926499629 1 1 1 1 1 1 1 1 1 1 1 1 1 1 1 0.010284601755210933 1 1 1 0.010098064056038573 1 1 1 1 1 1 1 1 1 1 1 0.0093620403073416542 1 1 1 1 1 1 0.0092663752066158966 1 1 0.01004329994420828 1 0.010007056358357051 1 1 1 0.012567090665850794 1 1 1 1 1 1 1 1 1 1 1 0.012421839525030169 1 1 1 1 1 0.010341957463229964 1 1 1 0.01067935500268785 1 1 1 0.010279316977833271 1 1 1 1 1 0.013230817205501885 1 0.013734245636772644 1 1 1 1 1 1 1 1 0.0094359804081761509 1 0.0095845690615853317 1 1 0.012229019938776656 1 0.014091809169434354 1 0.010047669520356593 1 1 1 1 1 1 1 1 1 1 0.0099277174345796197 1 0.01527936198343084 1 1 1 1 0.0094272767397653116 1 1 1 0.0087661271899664699 0.0095917337574785017 1 1 1 0.011541670052053365 1 0.0089963360895663792 0.011978900960126299 1 1 0.0097690714270414168 0.013248192748826385 1 0.013233865489323449 0.0096142941915625876 1 1 0.010180249142299497 0.011113454738318963 1 1 0.011073108549524945 1 1 0.010566867738105447 1 0.010240137085586897 1 1 0.010379181275756282 1 1 0.010394472257322497 1 0.0098797015155845311 1 1 1 0.011967549570432726 1 0.011092823633948081 1 1 0.0098695919587829823 0.0099745758373334485 1 1 1 0.0098486248822402846 0.010093407327977394 1 0.010082754714385305 1 1 1 1 1 1 1 1 0.010260392267276276 1 1 0.012864661750875042 0.0092651085704037097 1 0.0095999901447241295 1 0.010016167078477826 0.010382912033461946 1 1 1 0.0094974929370222408 1 1 0.0095915943957266235 1 1 1 1 1 1 0.010004079041462461 0.0092541365334431712 1 1 1 1 1 1 1 0.013787408499388969 0.011588517684038794 1 1 1 1 0.013044132820979073 1 1 1 0.010683058512415047 1 1 0.009935274546208836 1 1 1 1 1 0.007030743514795405 1 1 0.0090505749114099445 1 1 1 0.015177484531839359 0.010553259392277716 1 1 0.010030117194586925 1 1 1 0.016274827587393792 1 1 1 0.0063621550528076311 0.013088173441152394 1 1 0.010635729158037475 1 1 1 1 0.010016891621024811 0.010128609693060845 1 1 0.01075750083827889 0.010404683158602072 1 0.010630533280671151 0.014523545257132507 1 1 1 1 1 1 0.012939553450674513 1 1 1 1 1 1 1 1 1 1 0.0097548291079056493 0.01003023619346648 1 1 1 1 1 1 1 0.0099507985763838021 1 1 1 1 1 1 1 1 1 0.011021924769457455 1 1 0.010494551836254529 1 1 0.022337883555052909 1 1 1 1 1 1 1 1 1 1 1 1 1 1 1 1 1 1 0.01435539692193127 0.012676313196229937 1 1 1 1 0.011622115910568949 1 1 0.010821217495996616 1 1 1 1 1 1 1 1 1 0.027876649531139896 1 1 0.011008243953882196 1 1 1 1 1 1 1 1 1 1 1 0.012908865735690125 1 0.014360911051968031 1 1 1 1 1 1 1 1 1 1 0.010139351486126871 1 1 1 1 1 1 1 1 1 1 1 1 1 1 1 1 1 1 1 1 1 1 1 1 1 1 1 1 1 1 1 1 1 1 1 1 1 1 1 0.030649969214072908 1 1 1 1 1 1 1 1 1 0.030432453679319921 1 1 0.028945509706801108 1 1 1 1 1 1 1 1 1 1 1 1 1 1 1 1 0.026715984800487331 1 0.0098400672861467635 1 1 0.01822373163976207 1 1 1 0.010073001285850348 0.010342546876925634 1 0.01949746948029582 0.010366431676044376 1 0.017133660499033199 1 1 0.009356728942075827 1 1 0.011275566984685566 1 1 1 1 1 1 1 1 1 1 1 1 1 1 1 1 1 1 1 1 1 0.010365999431472811 1 1 1 1 1 1 1 1 1 1 1 1 1 1 1 1 1 1 1 0.010323003379990396 1 1 1 1 1 0.010456451479503456 1 1 1 1 1 1 1 1 1 1 1 1 1 1 1 1 1 1 1 1 1 1 1 1 0.011234988311889786 1 1 1 1 1 1 0.010394189869552829 1 1 1 1 1 1 1 1 1 1 1 1 1 1 1 0.0099683938500056066 1 1 1 0.011146100192079766 0.0099135321456162891 1 1 1 0.011029151452028395 1 1 1 1 1 1 1 1 0.011010183771320799 1 1 1 1 0.010429561221695536 1 1 1 1 1 1 1 1 1 1 1 1 1 0.010051597944917881 1 1 1 1 1 1 1 1 1 1 1 1 1 1 1 1 1 1 1 1 1 1 1 1 1 1 1 0.0093896634500599228 1 1 1 1 1 1 1 1 1 1 1 1 1 1 1 0.0089610731953461108 0.012482059780124854 1 1 1 0.010872743264530454 1 1 1 1 1 1 1 1 1 1 1 1 1 1 1 1 1 1 1 1 1 1 1 1 1 1 1 1 1 1 0.0096812018454141401 1 1 1 1 1 1 1 1 1 1 1 1 1 1 1 1 1 1 1 1 1 1 1 1 1 0.011857901101583898 1 1 1 1 1 1 1 0.014047799716297949 1 1 1 0.014381562211247274 1 1 0.0087779234268015992 1 1 1 1 1 1 1 1 0.0095908213376659623 0.0081442678853009924 1 1 1 1 1 0.011051515142950689 1 1 1 1 1 1 1 1 1 1 1 1 1 1 1 1 1 1 1 0.012576860109505159 1 0.011887188401388304 1 0.013640739704024277 1 1 1 0.012366271073409849 1 0.010610930656679823 1 1 1 1 1 1 1 1 1 1 1 1 0.012957981064455785 1 1 1 1 0.0099922335819405544 1 1 0.012617295828269988 1 0.0099640324479857122 1 1 0.010782828592400351 1 1 1 0.01027076799197627 1 1 1 1 1 1 1 1 1 0.0087960884449351275 1 1 1 1 0.0093818050779552169 1 1 1 1 0.0098503998710852518 1 1 1 1 1 1 0.010881530967563828 1 0.021426344396638226 1 0.0097438454849919885 1 1 1 0.0093527014050802729 1 1 1 1 1 1 0.025246606753116633 0.028452372446007103 1 1 1 1 1 0.0098167302331341223 1 1 1 1 1 1 1 1 1 1 1 1 1 1 1 1 1 1 1 0.016387131518104739 1 1 1 1 1 1 1 1 1 0.011434558315765673 1 0.0099867354311407083 1 0.0099855057637273596 1 1 1 1 1 1 1 1 1 1 1 1 0.0082914644046180527 1 1 0.016562903856183038 1 1 1 1 1 1 1 1 1 0.01141070025922288 1 0.012870000258546902 1 1 1 1 1 1 0.010560264546241233 1 1 1 1 1 1 1 1 1 1 1 1 1 1 1 1 1 1 1 1 1 1 1 1 1 1 1 1 1 1 1 1 1 1 1 1 1 1 1 1 1 0.013787431091319897 1 1 0.0099677378776597634 1 0.011568354380746527 1 1 1 0.01036653949011874 0.010004740721020774 1 1 0.010144839721275178 1 1 1 1 1 1 1 1 1 1 1 1 0.0098064454989758472 1 1 1 1 1 1 1 1 1 1 1 1 0.010055342856680173 1 1 1 1 1 1 1 1 1 1 1 1 1 1 1 0.010957522799947141 1 1 1 1 1 0.011102376731705632 1 1 1 1 1 1 1 1 1 0.010229200020716912 1 1 1 1 0.010552203400707304 1 1 1 1 1 1 1 1 1 1 1 0.012196262258418199 1 0.010043780528515761 1 0.010001077121946131 1 1 1 0.0079938326704994279 1 1 1 1 1 1 1 1 1 1 1 1 1 1 1 1 1 1 1 1 0.010510853363231315 1 1 1 1 1 1 1 1 1 1 1 1 1 1 1 1 1 1 0.01003457464579037 1 1 1 1 1 0.014904696680962205 1 1 1 1 1 1 1 1 0.011123418573614392 1 1 0.013178103711271299 1 1 1 1 1 1 1 0.010264564737325149 1 1 1 1 1 1 1 1 1 0.011394914391387199 1 1 1 1 1 1 1 1 1 1 1 1 1 1 1 1 1 1 1 1 1 1 1 1 0.009933215457471084 1 0.0095396153067332321 1 1 0.011633127196664097 1 1 1 1 1 1 1 1 0.010006536724470622 1 1 1 1 1 1 0.009945591574635532 1 1 1 1 1 1 1 1 1 1 1 1 0.010566741875381456 1 1 1 1 1 1 1 1 1 1 1 1 1 1 0.010302177138056303 1 1 1 0.0091451329176143546 1 1 1 1 0.0098667116592666554 1 1 1 1 1 1 1 1 1 1 1 1 1 1 1 1 1 1 1 1 1 1 1 1 1 1 0.011263612056183127 1 1 0.010121764495200988 1 1 1 1 1 1 1 1 1 0.010380901129530709 1 1 0.010045270500070126 1 1 0.011023672245886327 1 1 1 1 1 1 1 1 1 1 1 1 1 1 1 1 1 1 1 1 1 1 1 1 1 1 1 1 1 1 1 1 1 1 1 1 1 1 1 1 1 1 1 1 1 1 1 1 1 1 1 1 1 1 1 1 1 1 1 1 1 1 1 0.010173295133757176 1 1 1 1 1 1 0.0084017756275463311 1 1 1 1 1 1 1 1 1 1 1 0.0070047495886722154 0.010458769646246526 1 1 0.0088834296298641348 1 0.01158475203990747 1 1 0.010804340977500158 1 1 0.017479977819939277 1 1 1 1 1 1 1 1 0.010632552910262058 1 1 1 1 1 1 1 1 1 0.0098705326648393325 1 1 1 1 0.010554904561389305 1 1 1 1 1 1 1 1 1 1 1 1 1 1 1 0.0096217779924546009 1 1 1 1 0.0070230136978621568 1 0.010137267584889401 1 1 1 0.010082634655104721 1 1 0.0097787793924829711 1 1 1 1 1 1 1 1 1 1 1 0.017059033541205838 1 1 0.0090876816191203282 1 1 1 0.01352044284118829 1 1 0.01072579265902773 0.013400846865769492 1 1 0.016428062740596269 1 1 1 1 1 1 1 1 0.011641297302657561 1 1 1 1 0.013042898542394783 1 0.014341160532872932 1 0.015974111565126708 1 1 1 1 0.016794906739363215 1 1 1 0.0096900904348026402 1 1 1 1 1 1 1 1 1 1 1 1 1 1 1 1 1 1 0.010535212575258525 1 1 1 1 1 1 1 1 1 1 1 1 1 1 1 1 1 1 1 1 1 1 1 1 1 1 1 1 1 1 1 1 1 1 1 1 1 1 1 1 0.013673286921138226 1 1 1 1 1 0.015754230192353131 1 1 1 1 1 1 1 1 1 1 1 1 1 0.0099609513751190339 1 1 0.0098510819195478938 1 1 1 0.011240000407856086 1 0.011736007860117761 1 1 1 1 0.010301834319194457 1 1 1 1 1 1 1 1 1 0.012103486108435266 1 1 0.010060836503514145 0.012531443773012681 1 0.01034663813225198 1 1 1 1 1 1 1 1 1 1 1 1 1 1 1 1 1 1 1 1 1 1 1 0.0092906885250479306 1 1 1 0.0098825686228494365 1 1 1 1 1 1 1 0.010060557418502961 1 1 1 1 1 1 1 1 1 1 1 1 1 1 1 1 1 1 1 1 1 1 1 0.0099274999538943448 1 1 1 1 1 0.0096915549653089628 1 0.010771314602467497 0.010762135795437892 1 1 1 0.010829323889432779 1 1 0.010283571277243282 1 1 1 1 1 1 1 1 1 1 1 0.01016715193124648 1 1 1 0.011700986367875962 1 0.010623959043565917 1 1 1 1 1 0.0093982728514546386 1 0.0094324890076810386 1 0.01228284475591283 1 1 1 1 1 1 1 1 0.016260305426888735 0.010180299069381005 0.019508939114658893 1 1 0.0099814036323630576 1 1 1 1 1 1 1 1 1 1 1 1 1 1 1 1 1 1 1 1 1 1 1 1 1 1 1 1 1 1 1 1 1 1 1 1 1 0.021858677849602645 1 1 1 1 1 1 1 0.021899119128383406 1 1 0.010005593239769513 1 1 1 1 1 1 1 1 1 1 1 1 1 1 1 1 1 1 1 1 1 1 1 0.022412027833997459 1 1 1 1 1 1 1 1 1 1 0.0088506670377368271 1 1 1 1 0.0075372946835182463 1 1 1 1 0.024005115449149038 1 0.0099742202093638585 0.00826838099724303 1 1 1 1 0.0095059888793248334 1 1 0.025798425764958409 1 1 0.010994256642477367 0.022908886911174795 1 1 1 1 1 1 1 0.011033115532893803 1 1 1 1 1 1 1 1 1 1 1 1 1 0.010224408410848984 1 1 1 1 1 1 1 0.010991425946993826 0.010578296874840914 1 0.012145156081528023 1 0.0091930723512085744 1 1 1 0.010610065037994911 1 1 1 1 1 0.010500664649382813 1 1 0.010213832260064538 1 1 1 1 1 1 1 0.0096645072084268271 1 1 1 1 1 1 1 1 0.010128130900177931 1 1 1 0.010738806513332012 1 1 1 1 1 0.010107424119931034 0.01186906114330781 1 1 0.010291218386365895 1 1 1 1 1 1 1 1 1 1 1 1 1 1 0.010063959077906769 1 1 0.0091990432861521042 1 0.010733604621077931 1 1 1 1 0.010229489447367924 1 1 1 1 1 0.012422696179687324 1 1 0.0099670100220003166 0.012662679798809917 1 1 1 1 0.0099103796611824304 1 1 1 1 1 1 1 1 0.012267673684597257 1 0.01073462063845081 1 1 1 1 1 1 1 1 0.0124850692210507 1 1 1 1 0.010086036962195353 1 1 1 1 1 1 1 1 1 1 1 1 1 1 1 1 1 1 1 1 1 1 1 1 1 1 1 1 1 1 1 1 1 0.010408158387513853 1 1 1 1 1 1 1 0.011131453324362078 1 1 1 1 1 1 1 1 1 1 1 1 0.010176404686776917 1 1 1 1 0.011042941850124575 1 1 1 1 1 1 1 1 1 1 1 1 1 0.010000038282269922 1 1 0.010046090465971876 1 1 1 1 0.010045243488262127 1 1 1 1 1 1 1 1 1 1 1 0.010202641806791354 1 0.010298262250690591 1 1 0.010057339185488262 1 1 1 1 0.013172905463822821 1 1 1 1 1 1 1 1 1 1 1 1 1 1 1 1 1 1 1 1 1 1 1 1 1 1 1 1 0.011072360276415748 1 1 1 1 0.017174548865415109 1 1 1 1 1 1 1 1 1 0.011351626062429301 1 1 1 0.0098160432923305539 1 1 1 1 1 1 0.015582476472888761 1 0.0091520500951241014 1 0.0096156304760574417 1 1 1 1 1 1 1 1 1 1 1 1 1 1 1 1 1 1 1 1 1 1 1 1 1 1 1 1 1 1 1 1 1 1 1 0.010051972763537994 1 0.013988101243511004 1 1 1 1 1 1 1 1 0.011323695882300755 1 1 1 1 1 1 1 1 1 1 1 1 0.0095831900152951906 1 1 1 1 1 1 1 1 1 1 1 1 1 0.0098840641393601464 1 1 0.012330052793728669 1 1 1 1 0.010218481364574128 1 1 1 1 0.013069167025710933 1 1 1 1 1 0.013702697780200758 0.010152181810464032 1 0.014608542649768071 1 1 0.008124949774008185 1 1 1 1 0.0099919104982179874 1 0.012939746698169562 1 1 1 1 1 1 1 1 0.010188435720410246 1 1 1 1 0.011742809546715249 1 1 1 1 1 1 1 1 1 1 1 1 1 1 1 1 1 1 1 1 1 1 0.012097895426289609 1 1 1 1 1 1 1 1 1 1 1 1 1 1 1 1 1 1 1 1 1 0.013840704973004861 1 1 1 1 1 1 1 0.0095769815370589616 1 0.0098438513710075344 1 1 1 1 1 1 1 1 1 1 1 1 1 1 1 1 1 1 1 1 1 1 1 1 1 1 0.0097714892466365527 1 1 1 1 1 0.009218989517964132 1 0.010213089347840314 1 1 1 1 0.00892781708981699 0.011524957880957198 0.011844120573004095 1 0.0094237996139323061 1 1 1 0.013133463447384185 1 1 1 1 0.0098688462463308434 1 0.010797317964878967 1 1 1 1 0.01000179829954348 1 1 1 0.009731634276216837 0.010622686925579886 0.012867588023348878 1 0.013001892227998382 1 0.012619412412181959 1 1 0.010031218768179528 1 1 1 1 1 1 1 1 1 1 0.012190545299666181 1 0.012140158397408944 1 0.011214406302969887 1 1 1 1 0.013402181349720991 1 1 1 1 0.0098725070856846963 1 1 1 1 1 1 1 1 1 1 0.013573457589689602 1 0.00993016189260763 1 1 0.012333293786531642 1 1 0.014213824291545734 1 1 1 1 1 0.01172792070803063 1 1 1 1 1 1 1 1 1 1 1 1 0.0099787111333481445 1 1 1 0.011001810149318838 1 1 1 1 1 0.010341115917252272 1 1 1 1 1 1 1 1 1 1 1 1 1 1 1 1 1 1 1 1 1 0.010069477512398617 1 1 1 1 0.016099892612638486 1 1 1 0.012505947654753912 1 0.010312725371864074 1 1 0.012710192728233625 1 0.010008189651172436 1 1 1 1 1 1 0.01009139377724615 1 1 1 1 0.015490258599343077 1 0.016316581352929932 1 1 1 1 1 1 1 0.010033492764632876 1 1 1 1 1 1 1 0.014885159625768208 1 1 1 1 1 1 1 1 1 1 1 1 1 1 1 1 1 0.010119529726828225 1 1 1 0.010415886601794249 1 1 1 1 1 1 1 1 1 1 1 1 1 1 0.011058892708033702 1 1 1 1 1 1 1 1 1 1 1 1 1 1 1 1 1 1 1 1 1 1 1 1 1 1 1 0.015573318290554061 1 0.015017163183508816 1 1 1 0.010518384702039757 1 1 1 0.0093388161747052032 1 1 0.0099121690484655703 0.015228385880662811 1 1 1 1 1 1 1 1 0.014147355224444689 1 1 0.014704628996916502 1 1 1 1 0.010000229080183163 1 0.010016167682728172 1 1 1 0.010188551804984508 1 1 1 1 1 1 1 1 1 1 0.009926475859703774 1 1 0.018768513877702321 1 1 0.0099692325854022247 1 1 1 1 1 1 1 0.010521836350147628 1 1 0.0090303088604469471 0.0073169429920808271 1 1 1 0.010021840608075696 1 1 1 1 1 1 0.011505969890159114 1 1 1 1 0.011346207285999345 1 1 1 0.010353400895925343 1 1 1 1 0.010836289723491368 1 1 0.013775708692726868 1 1 1 1 1 1 1 1 1 1 1 0.013698933504315476 1 1 1 1 0.01112081943982929 1 0.01166195431258831 1 0.013881546933313456 1 0.010768991640239983 1 1 1 1 1 1 1 1 1 1 1 0.010255410915783369 0.012147116742082317 1 1 1 1 1 1 0.0099291845788025638 1 1 0.015260584459453891 1 1 1 1 1 1 0.014520609380463772 1 1 1 0.014659648444803067 1 0.016084207046184462 1 1 1 0.01073781037016024 1 1 1 1 1 1 0.010500632538201953 1 1 1 1 1 1 0.010384369009301318 1 0.010022168920698547 1 1 1 0.010583358237933715 1 1 1 1 0.013706434224020521 1 1 1 1 1 1 1 0.010003657893533559 1 0.010950858676292131 1 0.011408340669375648 1 1 1 0.011122317318417193 0.011059679245014577 1 1 0.013624147576049309 1 1 1 1 1 0.012635463927838365 1 0.010232969388614805 0.012873335678817363 0.010775574503898905 0.011213883690260659 1 1 1 1 1 0.01335641831950494 0.014756891215564664 1 1 0.01001446396374648 1 1 1 0.010761830968128983 1 1 1 1 1 1 1 1 1 0.014644157660007628 1 1 1 0.009986546448292305 1 1 1 1 1 1 1 0.0096708709594285625 1 0.01093811400512415 1 1 1 1 0.014640614416827789 1 0.0099356799021660773 1 1 1 1 0.009908336127847004 1 1 1 1 1 1 1 1 1 0.0099508940333280834 1 1 1 1 1 1 1 1 1 1 1 1 1 1 1 1 1 1 1 1 1 0.012588938647094244 1 1 1 1 0.011069858458561533 1 1 1 1 1 0.0097334487599108309 1 0.0099978467097819965 1 1 1 1 1 1 1 1 1 1 1 0.010002750543658271 1 0.0094071268226862039 1 0.010160167508312598 0.011926451251412264 1 0.010214992105345343 1 0.0075041682505358337 1 1 1 0.010004180844432409 1 1 1 0.010346421397319724 1 1 1 1 0.0089846966935857673 1 0.013540359046419505 1 1 1 1 1 1 1 1 0.0096330446828596129 1 1 1 1 1 1 1 1 0.011564319367344729 1 1 1 1 1 1 1 1 1 0.011472385756037659 1 1 0.014707909544299454 1 1 1 0.013566046060055004 1 1 1 1 1 1 1 1 1 1 1 1 0.0096028062444307519 1 1 1 1 0.011350586133283193 1 1 1 1 1 1 0.01074799096360562 1 1 1 1 0.0099991730881261957 1 0.0099710811741789487 1 1 1 1 1 1 1 0.0098774715808545716 1 1 1 0.010030188527198556 0.010003066495497922 1 1 1 1 0.0094563787330880639 1 0.010007273118080348 1 1 0.013572795917976142 1 1 1 1 1 1 1 1 1 1 1 1 1 1 1 1 1 1 1 1 1 1 1 1 1 1 1 1 1 1 1 1 1 1 1 0.01347220410728078 1 1 1 0.01177899758608995 1 1 1 1 1 1 1 1 1 1 1 1 1 0.010026179005077216 1 0.010534365651129821 1 1 1 1 1 1 1 1 1 1 1 1 1 0.020882545983287065 1 1 0.019909881208503531 1 1 1 1 1 0.017633503962436278 1 1 1 1 1 1 1 1 1 1 1 1 1 1 1 1 1 1 1 0.015243685038494728 0.010493067249879745 1 1 0.010180021813587261 1 1 0.0078670075432065601 1 1 1 1 1 1 1 0.015576140062678599 1 1 1 1 0.017813622278388921 1 1 1 1 1 1 1 1 1 1 1 1 1 1 0.010826994150949667 1 1 0.012299740190784168 1 1 1 1 1 1 1 0.011606474878518657 0.010511020030693475 1 1 1 1 1 1 1 1 1 1 1 1 1 1 1 1 0.010587113430905988 1 1 1 1 0.010175815435623603 1 1 0.0066749647431377079 1 1 0.022137187392706974 1 1 1 1 1 1 1 1 1 1 1 1 0.022123769276475289 1 1 1 1 0.021341443369410511 1 1 1 1 1 1 1 1 1 0.01087922092935489 0.016185263517879127 0.010419379986779194 1 1 1 0.011351203049839723 1 1 0.012443532278197347 0.016971415114749804 1 0.02035506318648489 1 1 1 0.011427461326098199 1 1 1 1 1 1 1 1 1 1 1 1 1 1 1 1 1 1 1 1 1 1 1 1 1 1 1 1 1 1 1 1 1 1 1 1 1 1 1 1 1 1 1 1 1 1 1 1 0.010205332416882457 1 0.011641289267507742 1 1 1 1 1 1 1 1 1 0.0092422935317569201 1 1 1 1 1 1 0.011355062262201244 1 1 1 1 1 0.010553574801347188 1 1 1 1 1 1 1 1 1 1 1 1 1 1 1 0.010234166827928591 1 1 1 1 1 1 1 0.0098215821390249987 1 1 1 1 1 0.0094668890282030189 0.010196869801452848 1 1 1 1 0.010441158467366053 1 1 1 1 1 1 1 1 1 1 1 1 1 1 1 1 1 1 1 1 1 0.0099224634352918402 1 1 1 1 1 1 0.010229042567877203 1 1 1 0.0098221850670049578 1 1 1 1 1 1 1 1 1 1 1 1 1 1 1 1 1 1 0.0097367290778870349 1 0.010468806297930421 1 1 1 1 1 0.010102572845649712 0.0099028125794429836 1 1 1 0.011201480949858816 1 1 1 1 1 1 0.011201695855562285 1 1 1 1 1 0.0099830116951386393 1 0.010524571875314625 1 1 0.010448972043910973 1 1 1 1 0.010368744572318849 1 1 1 1 0.010811298878516166 1 1 1 1 0.01000065152409051 1 1 1 1 1 1 1 1 1 1 1 1 1 0.010024165802389413 1 1 1 1 1 1 1 1 1 1 1 1 1 1 1 1 0.01125326939279804 1 1 1 1 0.011701579765174287 1 1 1 1 0.0095294722416269205 1 1 1 1 1 1 1 1 1 1 0.0097160935732726363 1 1 1 1 0.010072668113967384 1 1 1 1 1 1 1 1 1 1 1 1 1 1 1 0.0099007838374669949 1 1 1 0.010455222564855584 1 1 1 1 1 1 1 1 1 1 1 1 1 1 0.010095492922757729 1 1 1 1 1 1 1 1 1 1 1 0.011544284978141695 1 1 0.010608232252208839 1 1 1 1 1 1 0.010128507001514459 0.012069643646241614 1 1 1 1 0.01186276528084626 1 0.010857462835052685 1 1 1 0.010302403692955828 1 1 0.010226440256180786 1 1 1 1 1 1 1 1 1 1 1 1 1 1 1 1 0.010128253217321852 1 1 1 1 1 1 1 1 0.010269498964434961 0.0094907838891224242 1 1 1 0.020512790153812716 0.010212432763710647 1 0.014991753678877347 1 0.013880746012053259 1 1 1 1 0.011690663815579601 1 1 1 1 1 1 1 1 1 1 1 1 1 0.0099762419984646151 1 0.014886115845944839 1 1 1 1 1 1 1 1 0.0084478887782004509 0.0099988416901896117 1 1 0.017201489932589457 0.01139797326959837 0.016474033082797768 1 1 1 1 1 1 0.010005896964616345 1 1 0.01415418404212929 1 1 0.01324058796263085 0.016373090298220712 0.014664919559408315 0.015720980795282707 1 1 1 1 1 1 1 1 1 1 1 1 1 0.011195233380829263 1 1 0.0096276463336455141 1 0.010485029296560379 1 1 1 1 1 1 1 0.010031357925578847 0.0095582069123741516 1 1 0.010032766798217933 1 1 0.017229705298105448 1 1 1 1 0.016028295639999971 0.015125718600281619 0.017222410155750181 0.014346406601515229 1 1 1 1 1 1 1 1 1 1 1 1 1 1 0.011933530247370351 1 1 0.011590371341509307 1 1 1 1 0.0099503140584066927 1 1 1 0.010232295628545024 1 1 0.011420074856972481 1 1 0.0099929091212049032 1 1 0.0084652611790257196 0.0094048847492746047 1 0.012029691608874097 1 1 1 1 1 1 0.011340207089680657 1 1 1 1 0.0096255281924362782 1 1 1 1 1 0.010159728652180351 1 1 0.0099985711022859067 1 0.010879256216376381 0.0089654090827514122 1 1 1 0.011550261803982598 1 1 1 1 1 0.010062116642518893 1 1 1 0.010684420258603508 1 1 1 0.0099631025433720675 1 1 1 1 1 1 1 0.017034951328116603 1 1 1 1 1 0.014760508595617774 1 1 1 1 1 1 1 0.010932714575297747 1 0.010436098545510027 0.012767130127997683 1 1 0.010181352273013375 1 1 1 1 1 1 0.011601622616639115 1 1 1 1 1 1 0.014785832660470422 1 1 1 1 1 1 0.010570278814789679 1 0.013314690740947372 1 0.012015666147333839 1 1 0.010077921563818931 1 1 1 1 0.0102667928677819 0.009946759053924923 0.012460285891006295 0.010995267771680693 1 1 1 1 1 1 1 1 0.016015291411191124 1 1 1 0.010004056853250544 1 0.015052018403319574 1 1 1 1 1 1 1 1 1 1 1 1 1 1 1 1 0.010237072791625576 1 0.01883207981318568 1 1 1 1 1 1 1 1 0.010010205295175316 1 1 1 1 1 0.010660854875479152 1 1 0.012531292825179802 1 1 1 1 1 1 0.010303998678416439 0.013269612363606444 1 1 0.025265109196501552 1 1 1 1 1 1 1 1 1 1 1 0.010751192861511358 0.010663909482384297 1 1 1 1 0.0099826907747075956 1 1 1 1 1 1 1 1 0.025171363717090528 1 1 1 1 0.010445937246922318 1 1 1 1 1 1 0.011150126104604849 1 0.024814723108680284 1 0.0087108939373682671 1 1 1 1 1 1 1 1 1 1 1 1 1 1 1 1 1 1 0.0092082067855049164 1 1 1 1 1 1 1 1 1 1 1 1 1 1 1 1 1 0.009974138702274744 0.010227715562055911 1 1 1 1 1 1 1 1 1 1 1 1 1 1 1 1 1 1 1 1 1 1 1 1 1 1 1 1 1 1 1 1 1 1 1 1 1 1 1 1 1 1 1 1 1 0.010193678858111148 1 0.010437967524024375 1 1 1 1 1 1 1 0.0099953167747552866 1 1 1 0.0098788552704740882 1 0.015064746573456099 0.010004761030885372 0.012883560413458598 1 0.014959598021878545 0.010156624633842834 1 1 0.010018662943230677 0.0091385592070565395 0.019250798225586147 1 1 1 1 1 0.01007867410233911 1 0.0091664163015290467 0.0095949687236176646 1 1 1 1 1 1 1 0.0098847083147829955 1 1 0.011297311907375932 1 1 0.012600343440043307 0.010834750583854002 1 1 1 1 1 1 0.011889885939483183 1 1 0.012333960763367624 0.011506905377958917 1 1 0.010174099557219422 1 1 1 0.010033177018589518 1 1 1 1 0.011025178156342227 1 1 1 0.010853200023240526 1 1 0.010560535244309759 1 1 1 1 1 1 1 1 1 1 1 1 1 1 1 1 1 1 1 0.010774326273863573 0.010013488761385922 1 1 1 0.010466908521721271 1 1 1 1 0.010296771734159138 1 1 1 1 1 0.010251330738112029 0.0099983213088061067 1 1 1 1 1 1 1 1 1 0.010081178240400172 1 1 1 1 1 1 1 1 1 1 1 1 1 1 1 1 1 1 1 1 1 1 1 1 1 1 1 0.010009843341385582 1 0.0094451046437704685 0.010307596250567552 1 1 1 1 1 1 1 1 1 1 1 1 1 1 1 1 1 1 1 1 1 1 1 1 1 1 1 0.0097026917666456613 1 1 0.0099233068878652325 1 1 0.0099294852843431272 1 1 0.010356180226785736 1 0.0099981042131303214 1 1 1 1 1 1 1 0.01017584341011589 1 1 1 1 1 1 1 1 1 1 1 1 0.010027940009066361 1 0.010019109244319381 1 0.010000266848737758 1 1 1 1 1 0.010300909459132077 1 1 1 1 0.010000672604968109 1 1 0.010005918198093213 1 1 1 1 1 1 1 1 0.0099998799824205578 1 1 1 1 1 1 0.010018264762434344 1 1 1 1 0.010005946438494969 1 1 1 0.01000465757215716 1 1 1 1 1 1 1 1 1 1 1 1 1 1 1 1 1 1 0.01000991130653532 1 0.010012309461175664 1 1 1 0.010007053204302986 1 1 1 1 1 1 1 1 1 1 1 1 1 1 1 1 1 1 1 0.013382338862225189 1 1 1 0.01016427248789533 1 1 1 0.010338372045114744 1 1 1 1 1 1 1 1 1 1 1 1 1 1 1 0.011477205146146743 1 1 1 1 0.010980989212791729 1 1 0.012463883003627503 1 1 1 1 1 1 0.010068061368084441 1 0.010810220041882604 1 0.0099972576641225719 0.013543111746637077 0.0099770243764638628 1 1 1 0.0099556349660485446 0.0097692395065966751 1 1 1 1 1 1 1 0.010212930114249534 1 1 1 0.0098295441583098227 1 0.0099996342601091689 1 1 1 1 1 1 1 1 1 0.0099663583688623016 1 1 1 1 1 1 1 1 0.010021168326062873 1 1 1 1 0.010012623356544681 1 1 1 1 1 1 1 1 1 1 1 1 1 1 1 1 1 1 1 1 1 0.010533297060062077 0.010016349315616339 1 1 1 1 1 1 1 1 0.010343707333553994 1 1 1 1 1 1 1 1 1 1 0.01077318478510389 1 1 1 1 1 1 0.01049197063987909 1 1 1 1 1 0.011389642842786811 1 0.009805223033315864 1 1 0.010318810623431984 0.010659340013489484 1 1 1 1 1 1 1 1 1 1 1 1 1 1 1 1 1 1 1 1 1 1 1 1 1 1 1 1 1 1 1 1 1 1 1 1 1 1 1 1 1 1 1 1 1 1 1 1 0.013364951100946994 0.0098248461607861465 1 1 0.010362258599730485 1 1 1 1 1 0.014615069380647813 0.010007723093815125 1 1 0.0099983675541225822 0.013897247280947184 1 1 1 1 1 1 1 1 1 1 0.014565740186537175 1 1 1 1 1 1 1 1 1 1 1 1 1 1 1 0.011176797058270953 1 1 1 1 1 1 1 1 1 1 1 1 1 0.012764970840636436 1 0.0094160009017419978 0.01161004343287864 0.014442298919528362 1 1 1 1 1 1 1 1 0.011271295206635912 0.010266700078764679 1 1 1 1 0.010077574810512056 1 1 1 1 1 1 1 1 0.010588454756332313 1 1 1 1 1 1 1 1 1 1 1 1 1 1 1 1 1 0.010527657107011481 1 1 1 1 1 1 0.010144994035373559 1 1 0.010211414233283712 1 1 1 1 1 1 1 1 1 1 1 1 1 1 1 1 1 1 0.0098072606956242647 1 1 1 0.012421711615090862 1 1 0.00945306907946423 1 0.015758913229208301 0.012175649650520355 1 1 0.014824247276824552 1 1 1 0.019941275526519676 1 1 0.0084586671050652339 1 0.0097088828953447309 0.0090475953455240645 1 1 1 1 0.0096125762242941851 1 1 1 1 1 1 0.012604397468747326 1 0.010764488078434227 1 1 1 0.013674530483783658 1 1 1 1 0.01213723158552988 1 0.012087016531720599 0.0093055286452728928 1 1 1 1 1 0.0099823598398417028 1 0.0088357423076084064 1 0.012532968282250716 1 0.012181075412519376 0.012466316950831072 1 1 1 1 1 1 1 0.012798998012760979 1 0.011263270105789983 1 1 0.015792039211720687 1 1 0.01411821026469719 1 1 1 1 1 1 1 1 1 1 1 1 1 1 1 1 1 1 1 1 1 1 1 1 1 1 1 1 1 1 1 0.011979250447399961 1 1 1 1 1 1 1 1 1 1 1 1 1 1 1 1 1 1 1 1 1 1 1 0.010163512756392623 1 1 1 1 1 0.010868981619746971 0.010012568823453477 1 1 1 1 1 1 1 1 1 1 1 1 1 1 1 1 1 1 1 1 1 0.017552810688479886 1 1 1 1 1 1 1 1 1 1 1 1 1 0.010164006944477088 1 0.011511389977565336 1 1 1 0.014624043710504905 1 1 1 1 1 1 1 1 0.01044336763939952 1 0.01000076962891955 1 1 1 1 1 0.0087215425612061255 1 1 1 1 1 1 1 1 1 1 1 0.015668478366873281 1 1 1 1 1 1 1 1 1 1 1 0.014957503370641261 1 1 1 1 1 1 1 1 0.012012088180462364 1 1 1 1 1 1 1 1 1 1 1 1 1 1 1 1 1 1 1 1 1 1 1 1 1 1 0.011232890865430306 1 1 0.013410628883844226 1 1 1 1 1 1 1 1 1 1 1 1 1 1 1 1 1 1 1 1 1 1 1 1 1 1 1 1 0.010508515862583806 1 0.0085106903612026524 1 0.011137166052511976 1 1 1 1 1 0.013609640312381042 1 1 1 1 0.010359765724311954 1 1 1 0.014968143687806537 1 1 1 1 1 1 1 1 1 1 1 1 1 1 1 1 1 1 0.011999215649257992 0.011778900802510064 0.0099584400578294069 1 1 1 1 1 1 1 1 1 1 1 1 1 0.011282185030044509 1 1 1 1 1 1 1 1 1 1 1 1 0.0099035675695158479 1 1 0.012940269911591529 1 1 1 1 1 1 1 1 1 1 1 1 1 1 1 1 1 1 1 1 1 0.01217773801841391 0.011338726299423939 1 1 1 1 1 1 1 1 1 1 1 1 1 1 0.011000084224195274 1 1 0.012543187503688588 1 1 1 1 0.0097025917780575108 1 1 1 1 1 1 0.0099533028683666622 1 1 1 1 1 1 1 1 1 1 1 1 1 1 1 1 1 1 0.011845436455992094 1 1 1 1 1 0.012446452096432515 1 1 1 1 1 1 1 1 1 1 1 1 1 1 1 1 1 1 1 1 1 1 1 1 1 1 1 1 0.012336042373310313 1 0.013263720492356895 1 1 1 1 0.0099517378003055566 0.010011522468093089 1 1 1 1 1 1 1 1 1 1 1 1 1 1 1 1 1 1 1 1 1 1 1 1 1 1 1 1 1 1 1 1 1 1 1 0.010911599429415395 1 1 1 1 0.012657241333563954 1 1 1 1 1 1 1 1 1 1 1 0.011243845640694777 1 1 1 1 1 1 1 1 1 1 1 1 1 1 1 1 1 0.014585773550726076 0.011107945282410311 1 0.012015979084698316 1 1 1 1 1 1 1 1 1 1 0.012742956360010129 1 1 1 1 1 1 1 1 1 1 1 1 1 1 1 1 1 0.010602583391829136 1 1 1 1 0.013095265548452393 1 1 1 1 1 1 1 1 1 1 1 1 1 1 1 1 1 1 1 1 1 1 1 1 1 1 1 1 1 1 1 1 1 1 1 1 1 1 1 1 1 1 1 1 1 1 1 1 1 1 1 1 1 1 1 1 1 1 1 1 1 1 1 1 1 1 1 1 1 1 1 1 1 1 1 1 1 1 1 1 1 0.011524708600685794 1 1 1 1 1 1 1 0.010544004363763584 1 1 0.011100462798029717 1 1 1 1 1 1 1 1 1 1 1 1 0.013075919577702325 1 0.011556748686254323 1 0.010310870710254985 1 1 1 1 1 1 1 1 0.01045258250823387 1 1 1 1 1 1 1 1 1 0.010557301673554897 1 1 1 1 1 1 1 1 1 1 1 1 1 1 1 1 1 1 1 1 1 0.010395253219505324 1 1 1 1 1 1 1 1 1 1 1 1 0.016218340471745196 1 1 1 1 1 0.017188930958069202 1 1 0.0086415787004530537 1 1 1 1 0.0097761827281469486 0.010018844907170407 1 1 0.0097325200706891626 1 1 1 1 1 1 1 0.010253919919337863 0.011704177870551544 1 1 1 1 1 1 1 1 1 1 1 1 0.010748199009880593 1 1 1 1 0.011374647879742695 1 1 1 1 1 1 1 1 0.010627175966842388 1 1 1 1 0.013395100929664462 1 1 1 1 0.0081175198442648717 1 1 1 1 1 1 1 0.0095481668154895737 1 1 1 1 1 0.0098566332224009328 1 1 1 0.0094629454803812699 1 1 1 1 1 0.0090695692683323906 1 1 1 1 1 1 1 1 1 1 1 1 1 1 0.0088719064956232479 1 1 0.0087855166979524234 1 1 1 1 1 1 1 1 1 1 1 1 1 1 1 1 1 1 1 1 1 0.010142801744176541 1 1 0.024147574066250243 1 1 0.010002940317689009 1 1 1 1 1 1 1 1 1 1 1 1 1 1 1 1 1 1 1 1 1 1 1 1 1 1 1 1 1 1 0.0066989294745128988 1 1 1 1 0.010000886031821187 1 1 0.016284468557873841 1 0.010110516319570472 1 1 1 1 0.018362747527347262 1 0.015665037759872678 1 1 0.014345912159644323 1 0.012805634365835658 1 0.0086668284722777166 0.008445923061089728 1 1 0.017817218678531747 1 0.017798535557466688 1 0.010255702576833262 1 1 0.0089143093736064761 1 1 1 1 1 1 0.0082669752489340324 1 0.011625360947188929 1 1 0.013477076313261045 0.013302368105458498 1 1 0.0093004552772539776 1 0.015679714584709514 1 1 0.013442897182063308 1 1 0.010083265705399566 1 1 0.013263375954286236 0.013169616113429952 0.0066487998377380321 1 0.01616957158136114 1 1 1 1 1 1 1 1 0.011245038598243518 1 1 1 1 1 1 1 0.01191554582282265 1 1 1 1 1 1 1 1 1 1 1 1 1 1 0.011460254470852554 1 1 1 1 1 1 1 1 1 1 1 1 1 1 1 1 1 1 1 0.011767512553933147 1 1 1 1 1 1 1 1 1 1 1 1 1 1 1 1 1 1 1 1 1 1 1 1 1 1 1 1 1 1 1 0.01913992260246003 1 1 1 0.016402586237234094 1 0.0052473533932052199 0.012414387206573507 1 0.011119717772675848 1 1 1 0.02315440485044698 1 1 1 1 0.010318652130233676 0.021931398144238438 0.0099309624381345787 1 1 1 1 1 1 1 1 1 1 1 1 1 1 1 1 1 0.011521157538324854 1 1 1 1 1 1 1 1 1 0.013796427125117619 1 1 1 0.012636041379473054 1 1 1 1 1 1 1 1 1 1 1 1 0.014870080645551073 1 1 0.012234039266078016 1 1 1 1 1 1 1 1 1 1 1 1 1 1 1 1 1 1 1 1 1 1 0.01079621563393123 1 1 1 1 1 1 1 1 1 1 1 1 1 1 1 1 1 1 0.013412533515797475 1 1 1 1 1 1 1 0.010501442908490786 1 1 1 1 0.010858610803670978 1 1 1 1 1 1 1 1 1 1 1 1 1 1 1 1 1 1 1 1 1 1 1 1 1 1 1 1 1 1 1 1 1 1 1 0.0096658586603987681 0.010036171321173114 1 1 1 1 0.011572175267262719 1 0.01208142978419087 1 1 1 1 1 0.012519910425059576 1 1 1 1 1 1 1 1 0.010836148177111184 0.010015426164490629 1 1 1 1 0.0096327048269871478 1 1 1 1 1 1 1 1 1 1 1 1 1 1 1 1 1 1 1 1 1 0.010024644850655701 1 1 1 1 1 1 0.023348758002451744 1 1 0.019126745302373273 1 1 1 1 1 1 1 1 1 0.012509906045449179 1 1 1 1 1 1 1 1 0.009008787764291544 1 1 1 1 1 1 1 1 1 1 1 1 1 1 1 1 1 0.0091757491708732517 1 1 0.0077795783067540003 1 1 1 1 1 1 1 1 1 1 1 1 1 1 1 1 1 1 1 1 1 1 1 1 1 1 1 1 1 0.010651774462079849 1 0.010294606566899648 1 1 1 1 1 1 1 1 1 1 1 1 1 1 1 1 1 1 1 1 1 1 0.010915424515653943 1 1 1 0.010501071922273253 1 1 1 1 1 1 1 1 1 1 1 1 0.013448533393000988 1 1 1 0.010070198492344685 0.010231518804804329 1 1 0.01040244485158336 1 1 1 1 1 1 1 1 1 0.010415011307242129 1 1 1 1 1 1 1 1 1 1 1 1 1 0.013686580473528253 1 0.0099502187062484038 1 1 1 1 1 1 1 1 1 1 1 1 1 1 1 1 1 1 1 1 1 1 1 1 1 1 1 1 1 0.018038605837164684 1 1 1 1 1 1 0.013031178855222331 1 1 1 1 1 1 1 1 1 1 1 1 1 1 1 1 0.012253147009688867 1 0.0082883137034386704 1 1 1 1 1 1 1 0.010293416024567558 1 1 1 0.0107675294842423 1 1 1 1 0.010003394333958566 1 1 1 1 1 1 0.018735723925566439 1 1 1 1 0.016136460478553834 1 0.0089885631247366374 1 1 1 1 1 1 1 1 0.0030132089916827566 0.010085889184053032 1 1 1 0.0082100539869720268 0.018704281211435889 1 1 1 1 1 1 1 0.0091171692200144802 0.0086352788662346011 1 0.016163778565124576 0.010114699875889241 1 1 1 1 0.0094574857428810812 1 0.0094792004402697149 1 1 1 1 1 1 0.010751097865430692 1 1 1 1 0.0099676156393068444 1 1 1 1 0.0093805907284748441 1 1 1 1 1 0.013440442635710453 1 1 0.010435567388133386 1 1 1 1 0.010173456040781386 1 1 1 1 1 1 1 1 1 0.0099939389198075053 0.015726376560836267 1 1 1 1 1 1 1 1 1 1 1 1 1 0.023025757520317273 1 0.024433873429502893 1 1 1 1 1 1 1 1 1 1 1 1 1 1 1 1 1 1 1 1 1 0.021139536735753771 1 1 1 1 1 1 1 1 1 1 1 1 1 1 1 1 1 1 1 1 1 1 1 1 1 1 0.010724170789890682 1 1 1 1 1 1 1 1 0.016069419805229242 1 0.012114137601704072 1 1 1 1 1 1 0.0096239187203599769 1 1 1 1 1 1 1 1 1 1 1 1 1 1 1 1 1 1 1 1 1 1 1 1 1 1 0.011215066733895943 1 1 1 1 1 1 1 1 0.018096353405793159 1 1 0.010662014094690453 1 1 0.0099996121645289683 1 1 1 1 1 0.01708577962252639 1 1 1 1 1 1 1 1 1 0.009973795161357147 1 1 1 1 1 1 1 1 1 1 1 1 1 1 1 0.015211821429103115 1 1 1 1 1 1 1 1 0.016710569025883946 1 1 1 1 1 1 1 1 1 1 1 1 1 1 1 1 1 1 0.010129588325470817 1 0.013585805394452361 1 0.010344902343857784 1 1 0.010209531395850168 0.011737015084250029 1 1 1 1 1 1 1 1 1 1 1 1 1 1 0.01063219649952522 1 1 1 1 1 1 0.0097549364841672207 1 1 1 0.010234816214276448 1 1 1 1 1 1 1 1 1 1 1 1 0.012986143880356498 1 1 1 1 0.009555183970614705 0.012268559051648026 0.0069317121313523826 1 1 1 1 1 1 1 0.009908397429075011 1 1 0.0092065733100612952 1 0.010012603894749651 1 0.0097469378977665024 1 1 1 1 1 0.010271004790014766 1 1 1 1 1 1 1 1 1 1 1 1 1 1 1 1 1 1 1 1 0.011380230297540818 1 1 1 0.01058002066975551 1 0.010370971397954844 0.012634899943210862 0.011233870959340017 1 1 1 1 1 0.010466629454717985 1 1 1 1 1 1 1 1 1 1 1 1 1 1 1 1 1 1 1 1 1 1 1 1 1 1 0.011480513799003396 1 1 0.011154410441899597 1 1 1 1 1 1 1 1 0.010647608653612143 1 0.0099159515042292271 1 1 1 1 1 1 1 1 0.012138131840855118 1 1 1 1 0.0087790548965523425 1 1 0.010005920727575926 1 1 0.020482157429956228 1 1 1 0.010412327228459401 1 1 1 1 1 1 1 1 1 1 1 1 1 1 1 1 1 1 1 1 0.0097218663785456592 1 1 1 1 1 1 0.0091572788974599809 1 1 1 1 1 0.012760641307591176 1 1 1 1 1 0.01341650523213265 1 0.013115689159071155 0.0085195453113043104 1 1 1 1 1 1 1 1 1 1 1 1 0.010621368685935922 1 1 1 1 0.016216103435809461 1 0.0098594266723979647 0.011694894643668918 1 1 1 0.014898075923725065 1 1 1 1 1 1 1 1 1 1 1 1 1 1 1 1 1 1 1 1 1 1 0.0069077292767298747 1 0.02425132998196973 1 1 0.010079768011976985 1 1 0.011168355309298912 1 1 0.014929491246655678 1 1 1 0.017947059834248266 0.01085806975860611 1 1 1 1 1 1 1 0.010349576663278249 1 1 1 1 1 1 1 1 0.010544297185574172 1 1 1 1 1 1 1 0.011473605677025338 1 1 1 0.011359696797670418 1 0.010350173703829851 0.01020634091909757 1 1 1 0.010066783845236599 1 1 1 1 1 1 1 1 1 1 1 1 1 1 1 1 1 1 1 1 1 1 0.010120301034149291 1 1 0.0099775387708226759 1 1 1 0.012707522690221391 1 1 1 1 1 1 1 0.013708672314171173 0.0098721911550247229 1 1 0.011613572560743728 1 1 1 1 1 1 1 1 1 1 1 1 1 1 1 1 1 1 1 1 1 1 1 1 1 1 1 1 1 1 1 1 1 1 1 0.011614232985537888 1 1 1 1 1 1 1 0.010017769992294508 1 1 0.012168458742247297 1 1 0.013640519639761992 1 1 1 1 1 1 1 1 1 1 1 1 1 1 1 1 1 1 1 0.0091487530776308487 1 1 1 1 0.0079677186901899386 1 1 1 1 1 1 1 1 1 1 0.0098697400846174642 1 1 1 1 0.015938949419465796 1 1 1 1 0.0093771236510190089 0.0078438835046005188 1 0.019708633675001423 1 1 1 1 1 1 1 1 1 1 1 1 1 1 0.014011626102764536 1 1 1 1 1 1 1 1 1 0.0099255381827580494 1 1 1 1 1 1 1 1 1 1 1 1 1 1 1 1 1 1 1 1 1 1 1 1 1 1 1 1 1 1 1 1 1 1 1 1 1 1 1 1 1 0.012994946808552628 1 1 1 1 0.014783867716671117 1 1 0.02691047085227774 1 1 1 1 1 1 0.016969055367977277 0.012440398903192115 1 1 1 1 0.0099601175525231341 1 1 1 1 1 1 1 1 1 1 1 1 1 1 1 1 1 1 1 1 1 1 1 1 1 1 1 1 1 1 1 1 1 1 1 1 1 1 1 1 1 1 1 1 1 1 1 1 1 1 1 1 1 1 1 1 1 1 1 1 1 0.023368510900825801 1 1 1 1 1 0.019224569970719425 1 0.011690941217728637 1 1 1 1 1 1 1 1 1 
</DataArray>
</CellData>
</Piece>
</UnstructuredGrid>
</VTKFile>
